422083
502
-951 -949 -943 -941 -931 -922 -918 -911 -906 -903 -899 -890 -881 -875 -868 -867 -859 -851 -845 -841 -831 -824 -823 -814 -812 -806 -805 -798 -795 -792 -784 -781 -775 -771 -761 -756 -751 -748 -747 -746 -743 -733 -723 -717 -707 -700 -696 -695 -693 -683 -678 -669 -665 -657 -651 -649 -647 -646 -637 -630 -625 -623 -617 -608 -606 -598 -597 -590 -589 -581 -577 -568 -559 -554 -545 -538 -530 -529 -520 -519 -510 -503 -501 -496 -488 -484 -482 -474 -468 -458 -457 -456 -446 -442 -440 -439 -432 -428 -419 -415 -412 -407 -402 -396 -395 -390 -383 -376 -372 -370 -366 -364 -361 -355 -345 -344 -337 -334 -327 -317 -313 -304 -301 -299 -298 -296 -290 -283 -282 -273 -265 -260 -255 -246 -244 -235 -228 -223 -216 -209 -205 -196 -186 -178 -168 -162 -158 -149 -143 -142 -141 -135 -126 -120 -116 -114 -112 -103 -100 -90 -84 -81 -71 -65 -62 -57 -51 -47 -46 -43 -40 -30 -20 -12 -4 6 9 14 22 23 28 29 34 36 46 53 60 64 70 76 82 91 92 97 100 102 107 108 117 126 136 141 143 152 153 155 163 166 167 171 176 184 192 194 204 207 215 221 228 229 233 241 244 247 249 254 256 259 264 274 276 277 286 295 301 303 313 322 324 327 334 344 350 351 352 353 356 359 365 368 376 385 390 399 400 409 414 424 431 439 445 455 459 460 466 472 482 484 485 489 499 509 515 524 529 539 543 549 556 565 570 577 585 586 593 595 597 600 610 619 625 633 642 650 654 659 661 668 670 678 680 685 693 700 708 709 717 727 732 741 751 757 758 766 773 774 782 790 794 799 805 812 816 826 836 838 843 844 850 854 855 861 863 864 871 876 884 892 893 898 904 913 917 918 923 931 937 947 950 952 960 964 971 974 977 983 990 995 1005 1014 1023 1032 1039 1045 1049 1052 1060 1068 1072 1081 1085 1088 1098 1107 1116 1118 1120 1127 1132 1141 1148 1156 1157 1159 1163 1166 1173 1174 1176 1181 1184 1187 1196 1200 1205 1206 1216 1219 1222 1223 1228 1235 1245 1255 1258 1264 1271 1281 1287 1291 1294 1299 1309 1319 1324 1334 1342 1349 1353 1354 1360 1369 1371 1374 1375 1378 1388 1390 1393 1395 1398 1399 1404 1412 1416 1418 1425 1435 1439 1447 1453 1463 1471 1475 1485 1491 1494 1499 1505 1515 1517 1524 1531 1535 1536 1538 1541 1548 1552 1556 1564 1573 1581 1584 1590 1593 1601 1611 1618 1628 1638 1644 1645 1653 1660 1668 1676 1680 1689 1698 1705 1714 1723 1725 1730 1737 1743 1750 1754 1761 1762 1766 1767 1769 1778 1784 1785 1792 1797 1798 1799 1804
