240572
334
240562 240569 240578 240583 240589 240593 240598 240604 240607 240614 240623 240624 240630 240634 240643 240652 240655 240662 240665 240675 240678 240679 240684 240691 240692 240698 240699 240707 240711 240718 240719 240723 240724 240729 240733 240735 240744 240754 240763 240773 240780 240787 240797 240802 240807 240817 240822 240825 240826 240836 240840 240848 240856 240864 240868 240873 240875 240876 240878 240880 240887 240892 240902 240905 240908 240914 240923 240931 240940 240942 240947 240954 240959 240969 240976 240978 240982 240984 240991 240994 241000 241008 241015 241025 241028 241029 241036 241040 241048 241057 241063 241070 241074 241081 241085 241088 241097 241098 241104 241105 241109 241115 241122 241123 241131 241136 241138 241141 241145 241149 241155 241162 241167 241173 241175 241177 241179 241180 241190 241194 241204 241208 241218 241223 241232 241242 241243 241249 241255 241259 241261 241262 241264 241268 241269 241270 241272 241275 241276 241283 241293 241302 241312 241313 241318 241326 241336 241342 241346 241355 241362 241371 241379 241385 241387 241392 241400 241408 241417 241425 241431 241441 241448 241458 241461 241464 241474 241482 241492 241493 241501 241509 241519 241527 241529 241534 241538 241548 241558 241559 241563 241569 241572 241576 241585 241590 241598 241599 241608 241612 241622 241627 241631 241636 241642 241651 241653 241660 241666 241674 241678 241684 241691 241701 241711 241720 241729 241731 241738 241747 241750 241758 241763 241766 241767 241774 241777 241778 241787 241794 241795 241803 241808 241811 241814 241817 241819 241823 241824 241829 241831 241837 241842 241852 241853 241858 241860 241870 241878 241881 241890 241896 241904 241907 241914 241923 241929 241936 241942 241943 241948 241950 241956 241960 241964 241968 241975 241976 241984 241992 241996 241997 242003 242011 242019 242020 242024 242027 242034 242040 242043 242048 242054 242057 242064 242067 242072 242076 242085 242086 242087 242088 242092 242097 242098 242106 242113 242120 242128 242129 242134 242139 242142 242148 242150 242154 242161 242167 242173 242176 242179 242187 242192 242201 242209 242217 242219 242226 242230 242239 242248 242252 242257 242263 242267 242275 242277 242285 242290 242293 242296 242298 242306 242313 242315 242318 242328 242332 242335 242339 242342 242351 242361 242362
