44921
121
44911 44917 44920 44923 44929 44934 44938 44944 44950 44960 44967 44971 44972 44981 44983 44992 44995 45005 45007 45010 45011 45013 45022 45024 45026 45035 45036 45042 45051 45057 45060 45066 45075 45076 45086 45093 45094 45096 45106 45115 45123 45130 45136 45144 45148 45158 45165 45170 45171 45174 45178 45186 45189 45194 45195 45203 45207 45208 45216 45218 45219 45221 45226 45228 45231 45234 45241 45247 45257 45265 45274 45280 45288 45297 45303 45305 45313 45320 45330 45336 45337 45343 45350 45357 45364 45369 45375 45380 45387 45395 45405 45408 45413 45418 45419 45424 45425 45433 45443 45446 45447 45456 45464 45469 45470 45475 45485 45492 45498 45507 45514 45515 45525 45534 45539 45543 45544 45552 45557 45562 45565
