57
29 361458
896 908742
1830 545021
2171 670672
2622 61358
3356 773991
4234 50843
5139 406109
5335 428559
5921 636997
6741 390155
6979 986897
7188 781824
7355 657521
7513 719342
8078 790905
8377 858860
8624 689774
8689 261879
9390 912273
9867 252688
10499 112845
10973 787343
11791 554671
12281 973774
12940 699410
13677 319457
13844 903828
14619 676331
15443 611542
16272 484874
17267 631082
17342 844133
18130 909890
18428 736794
19284 353068
19665 235441
19909 919448
20772 793653
20935 201610
21862 678469
22497 811767
22575 783340
22619 294745
23393 18389
24245 226762
24703 715700
25561 293207
26127 533046
27104 422332
27884 157934
28817 870720
29189 75179
29293 199855
29744 547291
30192 492833
30238 902595
52905173
