276
612 128634
1581 442003
2031 995932
2774 850334
3147 765322
3908 85493
4097 587093
5013 251189
5306 318076
5931 583054
6749 284677
6978 88258
7680 466036
8668 198882
8756 535323
9242 544548
9314 891411
9814 73898
9938 581983
10184 650080
10271 310793
10982 914237
11668 233078
12437 990738
12718 188399
13521 705179
14345 41399
14892 62913
15503 768301
16039 738335
16224 121524
17044 246814
17324 480820
18039 438904
18714 518744
18924 282993
19338 191725
20084 994973
20618 549920
20654 691968
20929 168725
21159 385133
21585 892559
22439 10190
22844 11811
23133 759976
23417 618969
23472 130981
24297 747169
24587 711193
25457 486230
26184 704718
26865 695087
26966 362525
27773 463973
27818 35735
28600 373304
28910 865738
29036 358176
29659 657302
30263 672115
30971 854497
31045 403320
31319 817403
31962 546083
32790 722572
33570 449588
34235 636487
34632 389328
34670 789970
34949 201630
35417 947749
35951 90793
36643 851330
37422 354636
37450 107653
37872 718039
38546 195903
39260 610200
39413 575547
40261 971519
40771 429761
41034 133753
41097 892610
41890 607418
42724 535603
43070 755368
43211 667251
43800 457063
44348 171706
44413 498035
45145 384305
45216 928830
46086 320126
46655 177349
46735 88977
47465 561393
48040 41063
48701 458793
48731 183685
48830 384587
48917 850398
49298 94972
49557 216577
50518 88681
50782 436324
51550 370150
51968 745041
52667 706036
52835 764572
53590 262592
54403 148835
54425 446298
55265 970242
55505 796676
55705 920359
56355 528394
57040 294564
58028 17833
58592 206336
58672 537198
59116 194962
59202 765438
59999 346554
60975 336675
61092 2185
61653 414982
62035 812379
62288 305175
62631 700843
63250 11987
63397 669741
63739 778377
63781 449826
64439 72903
65313 203771
65625 106251
66067 550970
66824 129172
67720 688640
68431 692158
68512 523819
69466 295900
69873 325486
70302 700731
70918 432491
71067 768554
71491 741681
71625 319527
71697 153745
72182 28825
72602 560603
73111 505036
73395 851639
74392 622046
74805 967194
74910 901486
75456 271855
76360 378401
77342 877950
77570 722109
77781 180730
78726 49904
79194 548600
79571 757957
79827 768154
79934 172882
80687 242547
81374 688880
81707 853565
82513 486619
83306 267580
83501 697594
83822 684949
84268 991343
84710 377876
85334 761503
85508 504053
86505 815532
86996 71779
87897 74453
88369 734264
89363 176470
89620 122065
90152 971901
90720 366918
91193 905156
91829 930452
92799 813933
92937 4782
93534 946000
94348 432981
94822 324831
95699 40375
95907 700404
96040 290056
96281 981440
96547 543683
96725 296569
96896 344982
97407 538753
97752 65000
97926 926366
98610 70356
98966 788876
99315 484158
99596 678619
99705 756465
99706 899875
100458 446182
101324 198938
101495 47781
101805 813953
102399 52103
103203 122687
103912 974212
104457 392180
104836 560046
105097 960458
105563 495663
106231 830956
106400 914496
106819 914857
107480 850604
107835 382948
108421 593103
108778 471199
109327 31833
110242 611569
111122 959985
112044 751060
112976 845097
113241 985164
114035 76063
114870 28901
115200 434581
115453 416772
115924 738463
116068 165735
116902 171557
117036 345694
117147 379747
117220 834691
117450 496502
117955 316249
118777 473664
119432 161751
119748 294727
120660 418193
121559 645729
121748 230167
121954 795510
122066 86113
122657 765109
123232 758051
124198 689343
124343 434531
125164 117691
125989 656881
126743 728536
127103 347695
127364 929060
127626 989324
128024 941278
128749 801641
129287 901945
129946 763960
130410 944002
131394 243552
131992 881511
132332 770744
132726 48981
133365 425283
133422 273490
134345 391201
135173 525009
876059700
