377
356 288345
1239 258554
1322 126028
2055 998712
2322 112316
2759 911033
2889 777160
3279 989520
3940 509511
4879 797656
5589 2983
6330 865960
6955 513506
7524 633373
8258 772838
8628 893176
9197 840214
9899 274435
10305 890214
10388 332452
11350 667966
11611 192154
11731 744493
11966 812161
12284 317797
13077 577544
13841 228482
14796 59626
15373 211316
16047 844991
16789 438710
16937 533532
17870 769170
17967 797144
18010 384302
18535 35465
18949 613227
19127 90771
19230 587962
19342 305091
20160 478809
20793 819798
21091 758935
21330 294462
21507 585858
22448 447486
22591 551540
22616 164230
22811 199945
23582 378861
24329 170503
24453 661304
24465 740803
24675 523976
25635 256592
26173 725960
26382 416366
27234 958338
28018 157326
28916 640021
29025 745387
29609 914097
29927 218611
30143 964802
30446 374154
30985 588059
31360 624736
32357 450056
32994 264711
33337 67357
33771 689237
33971 69785
34086 64849
34977 58482
35808 879636
36089 770452
37015 462975
37709 732679
37891 396120
38001 179105
38134 653437
38712 95772
38766 145458
39619 325130
40225 297187
40426 904599
41038 616395
42020 616026
42949 537198
43840 204085
44537 927333
45339 147068
45974 274448
46235 780495
46399 680739
46510 882409
47471 247230
48099 705184
48490 616748
48599 175399
48985 622513
49383 127646
49496 106123
50361 919908
50720 441281
51494 374455
51727 937900
52404 263376
52763 618101
53621 913972
54507 160588
55158 325984
55943 869482
56893 104558
57210 40552
58053 600130
58119 105181
58612 951097
59344 303946
59682 978090
59988 797165
60910 791034
61214 785467
61732 456513
62221 415383
62597 960829
62709 980043
63494 781912
63787 657408
63850 597749
64738 389726
65584 556445
65774 757395
65815 781528
66395 219693
67236 382698
67253 159360
67297 926134
68094 850454
68664 254604
69034 147412
69330 255767
70220 418977
71200 976076
71747 116312
72733 721078
73650 672655
74425 659443
75199 529801
75460 700287
75499 903826
76283 959194
76663 465818
76927 249628
77275 327803
77456 76600
77708 371470
77948 590147
78562 746877
78710 859590
78817 606710
79083 942032
79813 574500
80581 141348
81207 76383
81929 441138
82242 103346
83017 991181
83068 163098
83394 79890
83912 726963
84587 262365
85532 349318
86477 598882
86926 375977
87822 165412
87844 137329
87880 244793
88089 812390
88653 53847
88750 371829
89466 926881
90157 957768
90528 743993
90579 199675
90799 611730
90898 758597
91612 969908
91965 947454
92020 782330
92193 648303
93158 449218
93535 197554
94343 52398
95243 912490
95712 30830
96327 949291
96594 305369
97020 460787
97957 700949
98198 383441
99071 342030
99609 47151
99638 752362
100113 122582
100241 17485
100373 717984
100778 710319
101021 690778
101581 238232
102315 470032
102454 403434
103175 143447
103379 154674
104085 564685
104907 550703
105241 202894
105978 217052
106291 386653
106477 383564
106745 584503
107718 677236
107868 533958
108862 490735
109110 325761
110034 36347
110157 743621
110304 148767
110508 840552
110651 25662
111488 667970
112068 934882
112421 747990
112620 209697
113040 464798
113273 294835
113991 334983
114102 512998
114780 248876
115445 119990
116316 343000
116524 831262
117323 319900
117862 118943
118764 705731
118807 244997
118966 769021
119815 410986
120288 932043
121019 540522
121722 661535
122549 619526
122828 842442
122890 550035
123063 745055
123371 407163
123407 719600
124033 875317
124270 369449
125076 985883
125932 275975
126690 100099
127529 555736
128093 632767
128608 483742
129045 769131
129068 180551
129183 825126
130014 84091
130198 465639
131131 995758
131272 937198
131735 138541
132286 920408
132590 109164
132605 846866
132662 259336
132988 6482
133120 250248
133970 2120
134369 561048
135204 846607
135211 919464
135267 288825
135589 492765
135881 24864
136311 592885
136587 660084
136912 19492
137352 724759
137744 750863
137975 566359
138819 752204
139345 52145
140171 538447
140743 458855
140992 655132
141199 249572
141843 439151
142149 611610
142514 380646
142557 20797
143522 196134
143905 650411
144795 312937
145151 655972
145403 947426
146163 483941
146283 214253
146605 650449
147059 656315
148034 20870
148694 38364
148779 480906
148816 865816
148868 426365
148884 656306
149184 527476
149272 687585
150197 627942
150363 537506
150411 649155
150889 953275
151879 67179
151931 607094
152095 935353
152637 750129
153459 384448
154064 557509
154327 508613
155136 743119
155687 277957
155738 173736
156225 342916
156452 58278
156916 654250
157011 136491
157321 355931
158058 538587
158144 463013
159006 660822
160000 269989
160285 971800
160842 267468
160986 424858
161095 865679
161606 315031
161850 584282
162568 135772
163301 422201
163351 197559
163693 210611
163725 507536
163929 342784
164288 485212
164444 241925
165429 233133
166191 727085
166705 957037
166842 764574
167652 853801
168502 559757
169303 113376
169314 546448
169677 588344
170510 287508
170709 810367
171652 454238
172588 568732
173170 163476
173778 170954
174731 944020
175731 484638
176023 133930
176537 71302
176647 848987
177222 119406
949267448
