911
973 94594
1236 282836
2193 644861
2599 58981
2972 701871
3267 920747
3818 418737
4759 260994
5143 237798
5175 328620
5782 241695
6561 509308
7105 927002
7637 132100
8273 178109
8363 260681
8975 282769
9954 382531
10171 891460
10316 584257
10461 484672
11409 902093
12027 446716
12932 376699
13298 467608
13524 649460
13812 634760
14576 472661
15368 743651
15723 738354
15944 167857
16654 183164
16828 522832
17705 815325
18646 674226
18865 213214
19188 812568
19519 107298
20354 89602
21331 521838
21806 267317
22348 220655
23075 802317
23671 154229
23747 874962
23968 521038
24553 316364
24620 474980
24750 6902
25225 187555
25926 789673
26086 550658
26520 906175
27300 998399
27784 118678
28059 785437
28260 54470
28518 205908
29079 180623
29379 20746
29822 395848
30048 497845
30544 794980
31046 844380
31992 401260
32891 807309
33444 773193
34184 194249
34915 546335
35409 844542
35613 480919
35624 792027
36600 487483
37099 57216
37435 479626
38134 531553
38906 879804
39294 576426
40118 190605
40728 506583
40986 960397
41945 335857
42802 497462
42910 435531
43830 326550
44582 382917
45542 889525
46476 698583
46829 773237
46930 359841
47447 379789
48316 903488
48869 980784
49502 903530
49928 652281
50740 702893
51000 856951
51490 116453
51926 936456
52338 801897
52435 597345
52749 66269
52771 463554
53155 606102
53680 824123
54251 553395
54301 89679
55182 307496
55976 125384
56099 488102
56385 774191
57148 958235
57363 437621
57921 406486
58816 140206
59761 693772
60046 6522
60424 231637
60936 33827
61356 454367
62228 883092
62906 761478
63894 120341
64423 270950
65004 786260
65836 674513
66704 990235
66934 980217
67147 28711
67687 421364
67873 739798
67945 144793
68669 629871
69236 427616
69676 146257
70449 819466
70844 143285
71378 759396
71807 778552
72506 517563
72996 786190
73950 387598
74057 669318
74106 783250
74172 528893
75137 651587
75340 608276
75452 642131
75695 665487
75915 808930
76866 555793
77219 922290
77477 705360
78022 345517
78656 381787
79590 929606
80024 937112
80729 568715
80763 761656
81460 170522
81526 96310
82037 340370
82941 383198
83625 594673
84154 571896
84466 841357
84568 871682
85475 853224
86396 57439
87283 496021
88207 256167
88608 928307
88977 751259
89812 976471
90240 425733
90634 421446
91116 574324
91134 168130
91539 45091
92275 307569
92822 947936
93555 256543
94264 490192
95066 425726
95180 176587
96162 142938
96503 104194
96524 619
96945 774944
97120 41184
98087 19565
99010 277392
99235 624177
100216 847071
100304 525891
101295 5968
101320 143389
102087 186611
102774 938920
103396 654197
104164 229489
104537 801253
105438 684190
105650 165813
106522 678227
106691 490359
107329 713821
107583 803306
108001 446420
108189 134922
108431 470612
108709 205784
109302 590157
110068 258811
110950 576136
111868 999124
112757 508055
113662 997067
113806 796080
114506 934410
115156 473126
115524 365025
116092 682817
116229 695235
116841 58440
117067 149201
117716 82880
118585 57080
118683 411117
119393 412478
120159 727836
120608 519591
120794 543146
121649 897760
121669 556132
122558 776102
122631 953872
122774 551666
122780 747034
123713 691337
124364 67983
125111 987070
125140 597582
125380 918457
126237 201180
127009 782839
127078 144643
127436 841328
127574 188681
128344 175484
128730 168891
129367 599181
129670 357854
129866 688286
130598 849798
131257 290510
131482 317745
132269 770414
132569 180271
133015 586954
133026 994051
133352 330874
133925 710619
134762 969447
134815 953384
135096 910265
135325 504310
136293 274171
136372 868035
136629 294959
137131 51334
137711 31317
138337 826890
138811 602800
139119 230701
139646 994694
139942 726474
140802 820852
141749 988175
142059 80681
142698 560526
143100 690588
143566 879423
143778 65363
144577 794160
145231 308918
145261 290171
146129 735165
146908 436936
147219 796723
148158 675641
148495 135345
149266 727764
150200 711307
150965 170521
151233 485463
151325 828084
151661 58196
151921 37586
152800 785105
153018 632347
153461 962080
154161 531608
154982 643119
155404 622796
156006 226591
156156 84693
156359 800345
157206 973598
157494 127598
157907 748999
158023 72986
158612 321878
159610 923708
159703 11338
159763 238691
160533 540134
160625 172713
161443 337096
162212 995530
162709 963202
163284 873269
163909 512937
164390 287880
164531 652379
164983 620579
165533 684578
166054 676816
166273 222536
167150 906930
167396 30286
167901 369344
168358 142996
168867 305113
169562 898920
170475 753694
171446 67889
171767 403282
172646 501950
173245 776325
173988 952441
174107 594014
174809 384900
175285 481374
175570 513218
176168 942621
176890 941199
177840 312503
178090 77829
178948 684647
179697 5306
180416 928974
181149 838771
181546 57733
181816 330338
181833 361862
182647 163484
183492 834586
183956 388637
184560 571725
184830 464728
185590 963067
185607 913533
186345 977989
186396 68488
186465 896606
187463 110788
187840 146195
188551 640784
189274 940496
189652 305296
190589 302645
190775 19708
190879 762514
190903 685161
191535 616884
192064 59386
192485 371478
192503 407259
193375 303846
193746 988597
194591 822608
195164 734129
195543 79649
195886 79066
196387 494694
196473 396677
197421 584587
197936 121793
198244 380891
199004 368522
199144 551094
199686 822804
199766 365978
199835 508586
200271 391892
200598 178302
200702 179712
201077 841217
201243 775900
201819 870421
201985 472386
202956 313042
203005 172454
203606 254413
204441 481767
204971 73461
205554 28048
205619 643861
206138 667806
206194 392945
206913 443541
206937 48426
207650 316994
208446 891874
209092 303406
209881 677076
209894 189628
210878 710396
211698 963256
212265 114185
212622 531584
213505 543309
214037 625710
214713 59595
214933 489155
215588 299345
215665 484447
216241 243111
216727 707744
217489 284424
218184 419546
218895 625814
219137 262552
219494 208566
219814 302615
219952 560672
220155 202116
220186 630450
220369 511308
220534 873261
220795 834585
220961 479508
221784 596320
222511 3117
223375 960700
224207 317056
224335 826569
224610 515872
225498 717878
226490 442462
226727 599278
227125 351856
227277 581866
227302 909197
227397 735843
227795 252017
228754 610555
229482 537375
229519 460402
230106 26653
230188 918193
230253 149766
230974 843650
231356 194326
231696 463650
232659 134676
233344 341977
233700 478906
234610 692055
235260 550489
236098 749505
236581 144737
237128 190749
237136 101992
238098 507990
238657 243243
239347 681509
239755 82160
240287 36152
240567 608325
241490 936932
242035 330749
242981 52996
243815 527689
244733 467279
245614 973895
246117 213732
246956 602012
247739 929017
248344 79642
249161 122026
249697 99357
250274 994722
251129 729400
251164 874919
251866 153727
252282 31025
252847 212262
252859 414753
253558 928599
254507 880626
255430 306389
256341 431682
257051 808316
257762 786511
258222 471756
258489 19978
259307 983744
260075 560974
260587 167873
260920 803283
261386 879319
261941 127896
262921 748284
262947 828167
263868 476528
264731 308321
265325 871914
265443 965987
265902 795672
266038 920989
266878 457041
267259 845442
268085 227188
268799 980492
269550 85021
270080 6965
270435 647436
270892 287801
271535 340461
272081 34065
272180 628338
272228 335808
272647 633528
272917 655326
272991 376193
273653 174529
274107 874722
274798 479133
275636 100703
276244 62726
276356 751886
276857 460988
277513 699829
277845 339976
278437 45561
278468 193353
279300 291680
280036 852704
280230 899584
280248 263424
280574 557084
281326 499399
282013 499513
282653 282972
283637 252109
283894 728518
284182 466704
284675 404886
284985 401017
285106 319904
285761 833380
285875 679145
286385 782992
287035 295873
287572 278139
288477 87003
289254 76984
290088 639487
290789 380914
290976 205931
290987 180798
291945 372943
292721 330020
293323 915994
294295 657708
294689 319025
295040 164946
295602 539728
296562 167456
297259 515160
297671 96183
298551 684870
299192 775332
299610 37200
299701 200523
300047 526741
301030 770833
301962 444690
301963 394001
302341 821821
302734 461251
303333 625965
303984 245970
304837 457527
305219 852567
305763 932401
306762 511532
307721 219463
308243 89156
308871 801688
309845 740108
310101 396789
310380 958856
311289 702737
311428 876354
311501 924060
311807 813653
312492 649184
313386 569376
314113 63764
314331 663171
314791 174848
315717 972716
316463 332239
317403 641329
318359 755839
318948 972806
319088 344973
320002 605644
320190 833773
320405 234659
321074 760163
321721 2676
322476 473873
323208 412773
324127 904056
324201 528856
324371 886256
324785 176913
325323 651374
325953 281463
326751 249134
327551 631197
328332 928348
328762 967492
329486 745193
329857 535031
330359 38189
330760 638530
331293 783624
331622 662717
332032 120528
332073 71163
332764 616110
332794 345744
333317 737805
333886 622700
334618 143459
335090 291989
335952 992913
336465 668044
337424 697079
337893 901982
338245 798313
338713 235018
338895 540945
339848 101385
340539 615181
340855 812054
341298 289148
341534 104291
342036 901564
342656 19911
342911 2850
342922 143
343625 21451
344121 687217
345007 376052
345988 690437
346654 332273
347153 671016
347877 783933
348505 919990
349318 168833
349455 706840
349688 109078
349930 651343
350567 139338
350680 91688
350731 50477
351548 950447
351934 529649
352909 22200
353588 947616
354147 521888
354814 304113
354858 973455
355021 806927
355123 864805
355876 241637
356256 316712
357101 676713
357870 965360
357873 178308
358137 617646
358562 388353
358602 640856
359136 910333
359934 393406
360502 457858
361147 434
361567 596803
362465 130318
363185 701564
363975 325456
364838 763637
365350 573497
365703 86408
366113 696859
366668 248455
367368 990964
367396 688531
368082 400578
368898 214438
369711 531366
369721 373682
370420 231170
371335 722405
372289 641037
372696 413896
373492 971921
374282 830628
375116 440656
375844 635313
375871 6462
376048 658717
376594 281775
377457 375451
378334 351401
379300 678138
379837 653255
379951 772177
380021 193362
380639 217752
380770 82593
381674 479999
381937 911420
382204 546053
382975 201294
383807 203628
384610 594292
384684 649290
385622 927938
385866 264879
386848 429984
387155 655978
387856 850679
388533 949590
388570 749522
388615 62778
389584 498792
389636 957418
390440 898683
390900 631736
391717 141900
392487 804275
392624 445580
393496 10411
394014 876119
394528 97604
394788 446059
395333 823066
396233 19276
396902 668865
397800 761835
397989 815968
398349 281303
398366 313150
399035 120848
399765 274290
400748 188069
401589 81843
402582 3500
403425 737925
403430 781618
404354 405529
404942 857750
405553 389219
405895 89286
406079 64464
406678 762145
406998 608886
407700 118189
407718 806598
408394 927567
408544 508424
408609 870491
409052 297993
409473 6111
410052 686797
410207 54421
410589 213918
411422 874476
412003 690810
412319 828395
412768 125794
413739 8596
413777 295321
414281 672829
415242 403431
416158 175696
416345 659087
416473 377188
417116 398045
417304 529204
417803 304747
418399 975903
418827 596234
419793 975516
420369 226612
420687 855099
421499 653218
422203 207646
422980 941710
423659 273463
423957 518801
424284 539546
424759 665410
424793 532768
425460 315798
425923 91182
426787 626547
427729 642732
428195 286025
428479 553235
428960 729094
428965 145236
429640 405876
429724 863152
430482 552152
431324 952721
431883 502866
432381 150543
432495 823360
433002 517231
433125 660207
433268 619045
433688 354926
434573 510366
434801 730197
435535 89829
435654 787050
436499 429825
437281 80412
438064 47088
438497 719646
438547 4952
439295 637026
440182 826939
440201 418955
441069 360284
441435 947130
441601 844508
442231 125400
442567 790641
443346 261329
443828 461400
444709 917526
445407 84216
446063 299769
446182 853599
446564 754759
447043 243682
447370 16880
448220 29199
448663 193508
449601 553829
449785 883284
450300 710159
451108 489864
451667 722980
452358 333045
452889 470345
453233 476560
453274 408004
453634 894346
454573 942643
455492 663588
455960 594157
456465 530736
456942 654557
457210 208360
457814 909895
458679 884854
459121 432991
460015 393229
460366 934175
460644 460068
461276 882374
461298 405536
461309 899491
462261 205186
462564 54028
462983 369300
463743 64271
463970 8072
464260 188453
465022 337894
465039 841267
465877 152074
466087 892008
466579 551756
466955 691065
467395 293192
467466 67548
467513 311962
467735 83189
467842 216493
468535 485020
63751743
