271
659 915497
1198 57409
1768 939610
2607 48010
2760 937059
3695 522875
4570 55225
5564 170730
5765 865942
6557 419636
6921 941422
7154 194578
7616 97558
8248 916179
8621 799147
8823 889213
9523 947418
10492 616162
10644 518402
10889 504568
11003 20526
11803 504442
12049 86632
12412 782657
12852 387417
13200 781865
13309 156268
13466 822008
13774 69652
14577 910511
15050 996379
15235 490070
16118 200368
16310 100529
16914 223216
17526 328522
17599 278716
18493 328602
18926 714530
19196 475130
20097 927820
20388 207024
21045 20784
21669 639376
22297 456188
22765 290645
23342 979642
23619 475657
24599 953786
25101 611150
25464 966157
26102 200663
26546 954617
27459 486930
28258 720356
28357 728224
29096 652777
29258 214796
29647 418181
30446 544219
31385 357592
31959 155872
32063 673312
32292 33471
32384 241367
32411 119608
32863 956721
33513 742246
34188 129985
34785 400102
34951 212693
35641 301166
36087 806287
36649 4133
36718 335070
36886 455291
36942 521235
37215 676605
37960 81936
38298 45049
38933 135105
39458 739831
40185 527051
40474 933909
40677 937677
41158 421106
41587 236383
42171 77832
43009 261835
43359 256197
43758 386046
44230 598714
45219 588348
45787 592162
46424 321567
47081 429773
47428 908381
48190 961110
48614 236257
48847 168417
49019 506164
49621 367566
50199 373450
50938 372399
51937 372370
52272 77274
52766 953066
53489 506555
54485 123092
55439 735752
56273 679486
57109 117950
57264 710161
57364 66171
58088 437879
58324 964955
58899 984772
59084 828527
59425 631715
59525 929727
60183 712309
60847 577835
61442 441998
62230 191110
62619 880399
62822 590002
63486 104579
64090 916632
64953 815046
65930 557161
66319 490930
67312 515972
67610 329573
67843 26312
67845 653259
68602 111548
69414 655894
69799 715937
70160 648823
70189 174107
70919 133141
71097 341215
71838 805292
72399 266447
73388 138650
73487 416606
74086 705185
74630 508539
75543 453806
75599 664278
76357 833044
76995 338556
77614 216898
78276 912020
79239 127922
80124 39719
80162 181109
81008 400413
81674 984428
82015 230566
82142 42637
82518 649511
83139 505737
83649 463959
84435 614774
85223 374728
85608 25163
86488 404106
87251 918095
88224 543386
88419 676764
88855 452069
89037 495564
89854 249884
90055 868775
90697 595436
91105 812177
91763 25176
92502 937338
93127 218216
93395 170554
93465 792794
94035 541456
94935 754439
95908 431545
96359 372854
96885 682929
97573 849773
98367 899578
98771 803294
98811 625006
99555 236299
100536 825122
100924 45588
101504 679649
102202 115511
102571 884367
103131 255042
103838 429386
104596 653890
104656 128332
105509 589638
106374 990566
107259 450918
107382 613469
107820 452219
108776 806802
108842 174992
109232 514624
109745 76469
110692 541849
110702 317243
111271 277503
111885 133664
112435 852843
112738 271085
112849 9508
113123 566145
113844 20272
114037 918407
114681 503316
114718 956758
115142 341229
116067 935361
116245 853357
116642 782000
117591 622867
118182 36121
118905 871469
119221 418732
119611 757500
120364 814038
121043 191066
121316 966254
121541 237070
122420 846093
123357 95919
123756 173083
124020 721428
124116 399775
124940 794627
125616 269572
125816 840114
126576 715206
126788 158385
127613 548459
128008 935905
128849 79702
129610 618858
130179 533337
130421 110946
131056 756842
131346 239413
131539 467111
132205 442838
133158 524682
133660 126776
134299 901281
135251 562580
135930 442972
136899 172128
137721 600605
138546 130405
138931 254901
139063 323258
139748 949370
140634 97989
141544 973651
142206 717858
143184 923049
143345 203440
883007081
