699
74 290144
877 555244
1028 462320
1136 977255
1524 382640
1968 102465
2900 973390
3529 21779
4478 541031
4638 928188
5623 861692
5629 942344
5983 304199
6527 311098
7453 113996
7595 595648
7995 364586
8122 336147
8634 733551
9486 640662
10034 125807
10320 980713
11031 899606
11713 301766
12273 582836
13195 787625
14020 473178
14230 102224
14508 191859
14607 291995
15050 235697
15207 157678
15495 412475
15521 824328
16036 21220
16630 200026
17044 324780
17288 992574
17802 931171
18351 133492
19163 64293
19757 416567
20724 289381
21459 630583
21778 562580
22100 462240
22893 758922
23494 801458
24052 382385
24211 398374
24960 144957
25892 372175
26346 105342
26497 807025
27066 756284
27715 351864
27915 590467
28432 704342
29082 66665
29861 819304
30408 244547
30827 792500
31324 627558
32179 544428
32312 130566
32420 243573
33328 392763
33726 87296
34396 17624
34743 237068
35670 815165
36379 61295
36594 462858
37316 388961
38231 504035
38694 123941
39312 397166
40255 513917
40473 201875
40579 196783
41405 978864
41951 959955
42048 715232
42187 615917
42351 424311
42502 685956
43230 490263
44063 579404
44797 369516
44861 77313
45642 769080
45994 741253
46293 479888
46665 615247
46843 174536
47683 746979
48121 117657
48317 46962
48560 426296
49532 915021
49568 691790
49576 317107
49744 247014
50485 910787
50744 834037
50978 690233
51959 293496
52876 26123
53479 548461
53805 335090
54294 305906
54496 894960
55057 787214
55772 307591
56136 142154
56993 295534
57613 310643
58438 823590
58528 603889
58861 390741
59066 676420
59328 694134
59589 974754
59686 274465
59856 99748
60271 487489
61220 884541
61354 406024
61989 919395
62661 233044
63587 506575
63928 229451
64165 284135
64923 726936
65845 825943
66837 378368
67409 382940
68315 956770
68625 54493
69395 966786
69483 776200
70429 763706
70659 140299
71254 83859
71444 295724
72319 844269
73211 245043
73944 718311
74349 25259
74448 996771
74889 999838
75007 164364
75585 283794
76360 177349
76752 567297
77263 479998
78111 256048
78579 502468
78639 276493
78912 768763
79109 58421
79394 97984
79576 332648
80066 33122
80994 46834
81368 698691
81940 107372
82069 458197
82952 923722
83444 513189
83739 690414
84498 438617
84843 625747
85365 415323
85763 935134
86167 283499
86256 700667
86370 917492
87370 784810
87800 423239
88437 13515
89032 966082
89114 959558
89517 379423
89907 110435
90572 518692
91474 793720
91854 275270
92008 171218
92466 333536
93070 366312
93839 189361
94173 620452
95032 688144
95879 685828
96198 211635
96215 736944
96593 12440
96626 625641
97194 236499
97205 641153
97220 158343
97580 947055
97831 97172
98573 517698
98987 136188
99679 181356
100488 735229
101152 890243
101623 778171
101962 126475
102794 117244
103726 147528
103917 955038
104550 107455
105164 419705
106085 661749
106276 726695
106528 709269
106969 752578
107192 331836
107642 679506
108066 28601
109046 747756
109312 837266
109704 192047
109817 169250
109843 312896
110441 773731
110546 716186
110860 48423
111747 473236
112223 838090
112983 656124
113467 921988
114226 725678
114966 685699
115028 18710
115078 865791
115595 233001
116204 147574
116644 541843
117280 424652
117862 819642
118464 937204
119452 383117
120122 960536
120166 734611
120700 813885
120797 864869
120900 454347
121754 691555
122525 357531
123154 191841
123564 133531
124564 678111
124813 770344
125311 619507
125765 419546
125819 496256
126711 807842
127548 794717
128374 207476
129314 986595
129809 4060
130633 571737
130789 242630
131096 479867
131109 823543
131431 487612
131874 720219
132075 783813
132917 327436
133025 510298
133777 959547
134666 155263
135095 874119
136084 475586
136475 563527
136829 176294
137339 129283
137462 44319
138040 204285
138652 21930
139466 810062
139710 337233
140399 255073
140620 621486
141595 427257
142421 147620
143349 747080
143352 149333
143357 428307
144087 263241
144110 445248
144546 776190
144872 410373
145507 598368
146190 830989
146979 660652
147951 152105
148288 813485
148644 332322
149113 549564
150106 260777
150459 299090
151276 62569
152013 64424
152351 136972
153033 487872
153709 398512
154397 671582
154897 460643
155743 494118
156139 309928
156881 462777
157327 998937
158069 320423
158956 800104
159530 285259
159763 477405
160264 463138
160710 562738
161545 946928
162387 222691
162787 150219
163276 166874
163554 641394
164519 938217
164863 902478
165168 891959
166128 525273
166149 706321
167085 609379
167614 55635
167903 183107
168245 569554
168788 569817
169332 935021
169392 894287
170099 595294
170947 481515
171796 953704
171853 82945
172510 540946
172772 845810
173083 510862
173583 566580
174031 200823
174086 729251
174488 529021
175290 128658
176200 213910
176355 545833
176727 792535
177246 521858
177959 290590
178902 532105
179397 652901
180105 158141
180683 513432
180909 90576
181332 702560
181825 15245
182414 330916
183130 730808
183922 840691
184223 541561
185059 862939
185298 451684
186187 572811
187032 766520
187272 686817
187378 8488
187439 132754
188393 641918
188974 91401
189157 131196
189301 820017
190024 352339
190221 816326
191060 793231
191524 169270
192149 454642
192366 543109
192666 310062
193497 563004
193645 66256
193997 966827
194377 615981
195249 529392
195790 704347
196322 384537
196810 794448
197244 567097
197439 793113
197878 254771
198446 196243
198557 927394
198767 736627
199275 22875
199796 816425
200440 280667
201155 119529
201378 751356
202082 297291
203027 797976
203877 670317
203883 564829
204215 118742
204683 140276
205065 49690
205246 683983
205557 659928
205635 905438
206560 366799
206708 472350
206972 527639
207573 802044
208371 725227
208478 765138
208620 165593
209239 875746
209839 878502
210650 742162
211038 229070
211277 481019
212189 333135
212576 641070
213455 776328
214196 122577
214990 754380
215219 887504
215327 390784
215757 864127
216054 715176
216221 700313
217015 52510
217140 635398
217202 32308
218115 222087
218279 414192
218496 757531
219052 355342
219948 138531
219984 90951
220682 316043
221096 359159
221189 802424
221776 484370
222179 74757
222883 964980
223241 312160
224207 233586
224355 807330
224900 887995
224913 924886
225466 179759
225873 496149
226041 149426
226717 544059
227371 127466
227420 819779
227666 812061
228455 653293
228871 492089
229322 801825
230161 508434
230361 965429
230941 657456
231760 978030
232524 648017
232986 526387
233736 984270
234712 563580
235029 721160
235614 26253
236068 785973
236807 17694
237579 715698
238553 123810
239104 409242
239705 509424
239939 983664
240206 828768
240565 714318
240678 582423
241667 927968
241881 477085
242376 683753
242720 223512
243026 690501
243906 918203
244483 208766
245333 933204
245782 589508
245783 780648
245867 103093
246523 712723
247341 812640
247509 258866
248154 456780
248320 771511
249113 240012
249430 758363
249661 228127
249868 510943
250124 890007
250602 8973
251213 946909
251761 759621
252606 608059
253223 833689
254024 868128
254718 927677
255230 465073
255817 531513
256102 440046
256111 164659
256814 982611
257502 491131
257569 325723
257973 657899
258273 813211
259087 54201
259636 136566
260145 179345
260941 315200
261373 121552
261650 888393
261860 163435
262503 600109
263426 157122
264129 111918
264678 317858
265104 629165
265218 211027
265979 109148
266383 950527
267054 835003
267296 812474
267461 240999
267643 980505
268183 652139
268781 819943
269189 782331
269589 511176
270453 411569
270770 934084
271467 95743
272234 316876
272657 394825
273380 267282
274009 879037
274798 23518
275200 184452
275641 228965
275915 14589
276518 323107
276544 63608
277339 435710
277498 516081
278363 421869
278823 913244
279220 909369
279614 71927
280316 328860
280739 580072
281469 653392
281689 148152
281794 422111
282136 245010
282705 361757
283218 230626
283976 284870
284046 518901
284840 443864
285406 372193
285706 506818
285855 259702
286736 550170
287084 451030
287595 490401
287612 128292
288434 717724
289086 39901
289416 95923
289627 994204
290003 467654
290557 951777
290710 325514
290896 113105
291858 967112
292456 420910
292467 370056
292811 629924
293069 154009
293090 306529
293145 900756
293910 459250
294223 855736
294856 542818
294957 150762
295949 812673
296546 693887
296910 450971
296995 662510
297607 759684
298092 861982
298451 741992
299177 259964
299966 57048
300605 175175
300692 440654
301465 705038
302284 866771
302663 99744
302755 993762
302799 749622
303414 984794
304034 643034
304406 921366
304573 705188
304632 850722
304917 36317
305620 757212
305877 280688
306353 374320
306967 80656
307299 381566
308152 358366
308900 291159
309480 41173
310202 248322
310817 289788
311251 697294
311399 697400
311566 606506
312487 400930
313064 835954
313290 782785
313382 588124
313455 121656
313916 305876
314539 162332
315338 62299
315933 833699
316264 956001
317264 90524
317864 404016
318222 593774
318826 429982
319312 91693
320102 973281
320473 396353
320566 179473
321117 364414
321701 10384
322429 799004
323185 266880
323238 599274
323390 714549
324105 742675
324877 776373
325632 370264
326406 389562
327346 439770
328000 272093
328440 297031
329287 954093
329288 349634
329959 2337
330374 856186
331347 621626
331589 122847
332409 344871
333029 252374
333101 967091
333739 391016
334669 74443
334906 419715
335257 767904
336207 200725
336227 889054
336461 3056
337093 793800
337842 922572
337918 651372
338748 177500
339148 782213
339835 878671
340280 880475
340981 413571
341213 545525
341280 690476
341728 878988
341881 332559
342562 488187
343227 73479
73
