699
642 109819
1309 496890
2068 851249
2681 343691
3046 845521
3742 569864
4495 963423
4847 64897
5403 447159
5675 73183
6265 762016
6504 719728
6709 185480
7432 68106
8067 585436
8944 139383
9256 624237
9903 914228
10424 987052
10751 485460
10891 555298
10997 953408
11366 560713
12167 252081
12815 692509
13722 648980
14442 129552
14807 399433
15542 936226
15942 120835
16778 772882
17668 749569
18086 564094
19003 972285
19952 42123
20224 763621
20962 851349
21543 71200
21667 97289
22505 645113
22794 91743
23692 843072
24322 367605
24873 966311
25281 500787
25425 498948
25833 648396
26484 724304
27011 846609
27290 697473
27333 418676
27433 748271
28399 763868
28889 459931
29875 262743
30287 238575
30920 126736
31054 879204
31205 990016
31448 889963
32436 497199
32683 428161
32934 578370
33403 463957
34010 618342
34129 875774
34188 145633
34428 767822
34914 445306
35272 8072
35555 544478
35663 193317
36384 26903
36700 67359
37022 499493
37177 248438
37255 307984
37795 518999
38377 327850
38704 994181
39068 868246
39899 940157
40200 481884
40496 757505
41230 943777
41653 50443
41834 698729
42308 952522
42952 788752
43950 118442
44614 926257
45008 327830
46000 674233
46675 319584
47314 749458
47509 466023
47999 24115
48426 445662
48493 845607
49166 959497
50041 313183
50496 16857
51303 803516
51911 453222
52895 546474
53654 822072
54221 637828
54493 442942
55123 485202
56067 406946
56794 233577
57743 45858
58659 26197
59063 855910
59146 716534
59340 471307
59426 127658
59949 668572
60313 55176
60795 13981
61283 79662
61846 169544
62720 45763
63700 696481
63858 15246
64191 34081
65168 175148
65983 208559
65991 47627
66269 230538
67178 76721
67495 609967
67528 858609
68428 567792
68635 410488
69095 645479
69301 438070
69842 197573
70727 806300
71447 799212
71741 122602
72071 123607
72812 190090
73052 175980
73150 536709
73717 725225
74143 829842
75017 6040
75987 225342
76090 757887
76884 552990
77459 28811
77779 308996
78691 797063
79137 595288
79809 220148
80608 858144
81322 754833
81351 49930
82218 986665
83045 242230
83940 978631
84215 933166
84353 619866
84864 620086
85330 639468
85606 691549
86150 770029
87039 616878
87359 265026
87875 61948
88611 678384
88940 775132
89062 823865
89994 775072
90911 15917
90977 408051
91394 324273
91480 804281
91594 34099
92125 262780
93125 897424
94050 545571
94885 909393
95259 315161
95620 623063
95973 363502
96236 162260
96395 202675
96569 917481
96696 683993
97546 248602
98534 593246
99410 807117
99947 259266
100716 417849
101061 9235
101116 160170
101569 161304
102289 971075
102392 622365
102440 439112
102719 915544
103168 801239
104162 943888
104208 497989
105079 959738
105106 187179
105843 176543
106433 981880
107211 576076
107351 978419
107783 725326
108523 284641
108680 10926
108921 661865
109007 86025
109356 158965
109729 159405
110683 864030
111583 950197
111986 519521
112585 387148
112738 725399
112952 440374
113374 10074
113997 822468
114102 51605
114264 826939
114991 443437
115407 19885
115428 557290
116182 999490
116462 295549
117196 807792
117384 121580
118263 404965
119049 976200
119586 162219
119684 220501
120071 859358
120506 61399
121195 399536
121418 8540
121761 30141
122273 42331
122876 947048
122887 294025
123239 508143
123967 106029
124948 42580
125556 943389
126159 269418
127008 650618
127432 100254
128218 375363
128599 221196
129044 692166
129690 931218
130133 231696
130991 545130
131336 966847
131618 105610
132120 341252
132130 275001
132623 821005
133298 369289
133823 401881
134512 990906
135280 331122
135814 750807
136630 874086
137288 553223
138147 794795
138596 348532
139288 431653
139674 3827
140218 635032
140940 12872
141872 550178
142817 173413
142995 950477
143555 541349
143883 31127
144816 575870
144915 269434
145672 52042
146010 770402
146631 364077
147240 745984
147883 26774
148537 434306
148802 135379
149653 274556
150386 187375
150436 754522
151055 202749
151997 141493
152261 431690
153216 621275
153367 677081
153493 206209
154368 532420
154640 621613
154903 482382
155418 473340
156003 381697
156719 617761
157668 1880
158635 943564
158807 982398
159373 758247
160367 316297
161298 282918
162113 674480
162783 249524
163287 213492
163741 659253
164065 916421
164098 50843
164352 938344
164557 860744
164841 509588
165238 608285
166231 192720
166367 30512
166847 746949
167569 326770
168434 822758
168965 159995
169288 489272
170023 503767
171022 107643
171841 743970
172069 88752
172237 614386
172763 245582
173182 866405
173813 582322
174439 460661
174859 387391
175364 381872
176268 630782
176275 899271
176906 301594
177446 392398
178245 40927
179077 484734
179363 74234
180031 199912
180139 100113
180894 158123
181485 577276
182194 793765
182910 210698
183847 980840
184527 543390
184751 963874
185288 946960
185446 661229
186019 241008
186362 43820
186875 279559
187556 832343
188465 228850
188994 954108
189099 498632
189523 831520
189685 868508
189827 453650
189918 224983
189991 304019
190189 866532
191187 717695
192047 641654
192372 602721
192954 58261
193841 892994
194458 53960
194689 165523
194998 854266
195922 84844
196353 38358
196670 772851
196870 44197
197470 802833
198238 161053
198900 997664
199808 569129
200037 572962
200509 586473
200893 567154
201813 2605
202021 39811
202960 14639
203389 354013
204331 639496
204732 424602
204972 807744
205903 460443
206105 612879
206419 657295
206972 354488
207315 777973
207384 123014
208337 631120
209159 622523
209744 409723
210540 142281
210806 986054
210817 529684
211809 26052
212262 253026
212925 309964
213021 16020
213542 698617
214088 881299
214216 920161
214856 308050
214877 152248
215367 930184
216028 722162
216141 854997
216813 85684
217700 758363
218412 202314
219243 5637
220024 881575
220481 706578
221045 259063
221219 109931
221834 200054
222719 420813
223616 293343
223981 27009
224042 235681
224786 407038
225437 528969
226402 789808
226885 259530
227539 226838
228470 734048
228577 790992
229322 405530
229455 696235
230309 98441
231262 727133
231438 422133
231922 961473
232050 346274
232193 757002
232335 142267
233041 138372
233908 51572
234627 571500
234957 749658
235546 432387
235929 668670
236039 409756
236456 891984
236947 364874
237288 743345
237601 961383
238276 415430
239198 147738
239644 505643
240231 252378
241013 636943
241984 264553
242488 353520
243485 21600
243768 740211
244737 864556
245485 51249
245538 228328
246295 39693
246362 631411
247064 45268
247127 19165
247964 189906
248169 456171
248321 353286
248920 649867
249591 987293
250517 934196
250879 724744
251697 95855
251864 89191
251949 206186
252056 653640
252586 490454
252875 895286
253213 74627
254128 890119
254483 720973
255440 120569
255783 625298
256573 273481
257357 489491
258022 828064
258288 534365
258300 802559
259299 80101
259970 31722
260389 867119
260552 827828
261451 86254
262058 940014
262559 357102
263296 767479
263458 6289
263488 331613
264016 94402
264337 361928
265141 897460
265858 436466
266834 692463
267099 2044
267890 469997
267968 341166
268406 922749
268967 228582
269813 2673
270557 496543
270907 35725
271375 352363
272049 314622
272956 602289
273788 163665
274460 650873
275433 752988
276433 576425
276994 696472
277793 764478
277985 973382
278012 717227
278153 900943
278380 430833
278835 229354
279633 571286
280617 919450
281005 721423
281128 847451
281176 205590
281707 763694
282452 847429
282640 945249
282659 954475
283019 836071
283166 15143
283292 11516
284112 46776
284776 260285
284877 350332
285383 790942
285612 138470
286573 153235
286578 379767
286615 321630
286999 402566
287246 108858
287964 996565
288758 422622
288791 547556
289066 204082
289094 273301
289167 210127
290035 255260
290689 750577
291466 553706
291487 583293
291561 272315
292288 182255
292470 171433
293075 435719
293547 861777
293586 691949
294111 750408
294615 152526
294925 395943
295835 499028
296005 869205
296307 930592
296320 641162
297271 937799
298090 107214
298217 331428
298430 281445
298486 799885
299137 539374
299324 150973
299989 342684
300558 323218
300931 295249
301784 344024
301922 537354
302138 64643
302871 486944
303478 680756
304305 832954
304644 537495
305429 279146
305797 523915
305922 795910
305975 690986
306698 212216
307328 8150
308078 720837
308674 804306
309061 41590
309341 555035
309974 958263
310455 305790
310490 796978
310978 816762
311556 942742
312433 74908
312818 248421
313579 37425
313675 704407
313741 294733
314073 801980
314441 868095
314635 565105
315329 182974
315934 777293
316472 27168
316970 481986
317887 495117
318848 146750
319628 923031
320091 25031
320932 951777
321262 157700
321744 60163
321865 137412
322144 386205
322367 639756
322659 864189
322686 663054
323098 938211
323771 864297
324264 886640
324319 2773
324874 432087
325076 39948
325176 493161
326002 496537
326870 81815
327409 322317
328033 398349
328719 996089
328888 25563
329105 539517
329194 286927
329368 638616
330186 133129
330803 324367
331563 814452
332096 577349
333080 61807
333723 173130
334395 592841
334818 110665
335463 364167
335900 566537
336207 929989
337039 461428
337234 662341
337235 662497
337839 67800
337989 556570
338121 890215
339009 529817
339283 694266
339527 437866
340177 708276
340531 937148
341094 864198
341896 705723
342407 975787
342741 749813
343677 418586
344372 506207
344432 337404
344690 61164
344815 473032
345735 936370
346443 899287
346580 260839
347539 231458
348169 606533
348782 206975
349016 706089
349163 675657
350118 900078
350163 533359
351146 413507
351165 705048
641
