520
434 914174
1363 234760
1390 585288
1660 31510
2252 316542
2323 453807
3237 742317
4221 328981
5016 785583
5979 942369
6071 899447
6859 935909
7493 324811
7512 252438
8197 522874
8285 591155
8934 702267
9774 355488
10077 73659
11070 127907
11477 566544
11741 575553
12391 452340
12464 662361
13173 516898
13184 447186
13378 972740
13553 622751
14317 306627
15003 115308
15669 452987
16353 549826
16770 666603
17330 456975
18135 788906
18621 183388
18830 643271
19573 940659
19689 662734
19942 7131
20771 550641
20862 100801
20976 472950
21626 590420
22151 34561
23056 527616
24054 26790
24328 684018
24591 239526
25572 381915
26267 463207
26840 135303
27247 546997
27387 803075
27895 595619
28323 172958
29137 397368
30108 537589
30963 264456
31528 830517
32279 447980
32571 954633
32680 67931
32998 402309
33767 629043
33824 454736
34389 878681
34679 738782
35169 126641
36022 486295
36337 400969
36732 726702
37619 512048
38399 27022
39062 243228
39551 845692
40481 410
40536 818728
41188 507836
42133 311518
43084 103733
43994 942023
44374 375056
44979 523772
45695 620361
45815 113515
46257 69653
46408 811369
46990 282631
47142 75309
48106 545009
48705 684218
49164 938662
49964 477717
50212 87293
50305 607109
51153 829210
51154 928492
52112 355315
52472 416939
53412 642212
54207 466980
54348 601456
55100 323908
55199 237305
55696 375654
56484 665507
57034 48997
57483 263509
57816 641757
58810 776866
59748 872571
59778 55881
59921 617541
60776 850736
60840 206492
61484 165702
62051 751097
62503 999617
62594 584583
63400 896872
63631 523490
63721 268535
64411 441244
64839 840958
65430 551099
65976 266949
66244 932676
67095 396125
67160 237779
67957 105833
68014 803488
68566 893078
68964 295023
69655 915004
70104 619679
70188 374766
70546 809153
70892 979265
71549 853553
72040 933300
72247 299770
72870 398567
73028 587241
73048 953819
74004 117881
74650 88759
74833 192531
75368 137517
75640 200301
76389 131988
77075 797307
77232 256959
77589 10504
78588 65040
78668 673366
79038 616058
79267 878605
79449 664085
79873 453127
80764 369935
81750 922769
81954 679464
82612 387037
83135 832446
84081 226533
85018 66235
85566 294613
86213 141566
86749 173884
87150 474098
88127 243882
88566 696618
89305 507479
90215 499112
90356 220695
90748 656780
91248 62226
91938 206855
92031 275093
92302 736066
92623 396958
93022 208877
93339 188182
94289 977248
95177 352685
95966 719937
96642 643933
96848 619712
97608 769959
98049 701499
98200 666367
98462 343572
99262 66739
99403 975777
100377 121453
101154 502356
101377 148539
102090 32059
102722 841001
103311 410011
104126 671307
104893 723148
104965 457136
105373 931218
106214 800745
106317 914256
106380 570669
106553 104897
106805 649710
107630 137067
107767 850035
107850 224679
107890 888053
108372 440889
108464 234219
109359 383155
109499 505728
110110 241457
110670 9743
111089 467116
112045 227730
112848 92961
113394 241845
113943 678548
114485 305299
115010 39962
115128 455453
115803 248145
116577 497240
117498 442333
117691 339584
118174 694213
118911 133844
119835 441495
120556 417223
121478 490202
121490 561357
122167 571940
122486 192381
122653 665559
123176 92911
123598 986499
124183 74630
124638 416158
125120 548067
125847 592833
126742 229222
127390 529431
127579 822435
127672 694648
128485 341750
129225 711372
129881 421977
130318 807393
130828 582440
131634 967380
132099 253994
132513 342194
133190 487038
133964 778170
134137 309305
134579 329338
134706 301748
135541 338448
136069 769162
136912 864347
137269 662408
138181 911730
138795 5736
138952 841861
139577 472119
140158 205789
141049 776449
141719 549433
142024 226543
142122 646851
142274 135400
142795 270196
143681 410045
143727 316035
144664 660060
144765 604439
145563 485424
146458 127489
146949 240572
147205 574085
148149 9002
148546 720652
149510 844406
149761 759944
150352 122177
150526 281289
151458 310157
151481 702763
151722 993089
151795 94083
152012 399211
152574 392308
153243 186779
153311 209091
153872 98018
154564 475561
155036 101368
156014 733730
156907 572078
157466 15964
157889 834455
158572 669120
159523 286341
160224 433225
160515 374375
160813 88964
161633 346893
161725 706780
161933 873136
162481 214703
162567 302348
163310 511503
164210 235294
164337 17841
165011 155375
165078 734312
165579 347602
166111 814753
166801 344283
167151 997320
167415 129745
167977 135275
168257 389288
168313 740074
168319 605119
169308 526521
169943 213969
170752 539636
170853 41660
171664 742081
171785 340114
172388 837866
172631 221261
172771 527297
173402 815490
174362 151458
174559 196472
175508 324449
175662 349121
176249 847421
177162 938202
178062 314084
178921 973973
179090 878532
179640 476894
180387 915791
180478 471890
181202 444291
182138 460968
182243 35974
182505 798700
182884 334982
183780 406903
183876 154819
183932 261674
184073 296693
184913 540590
185259 6099
185634 582944
185882 435004
186584 858892
187236 17218
187595 157629
188064 991898
188212 457751
188923 294056
189532 873702
190409 888634
190525 921879
190760 161412
190802 566016
191238 561345
191930 587277
192657 706356
192855 16493
193254 594047
193275 975924
194086 374302
194664 626675
194805 617519
195440 359394
196327 124405
196803 422769
197508 735877
197943 290955
198413 910123
198902 673312
199030 200122
199466 137612
199731 977356
200650 420773
201276 866315
201877 461043
202130 416821
202529 512966
203311 630920
203605 121698
204256 843452
205165 666132
205814 266808
206184 436067
206451 328641
206510 466821
207322 297281
208283 996334
208923 432100
208977 209895
209372 367222
209737 68685
210191 229072
210656 501520
211421 473482
211864 31596
212754 605742
212814 673638
212888 268596
213264 675173
214184 52051
214427 958902
215408 337907
215948 186149
215969 781805
216865 11621
217317 381077
217799 323455
218437 165281
218440 928078
218661 897372
218825 459527
219564 734804
220340 848557
220831 288548
221726 425709
222376 237699
223179 179421
223638 675194
224564 650894
225222 176024
225918 976720
226658 439192
226698 353976
227371 981022
228304 322416
228499 950382
228741 125662
229313 987114
229743 289419
230142 403368
230811 100087
230835 427550
230842 545621
231329 905572
231429 760183
232413 684759
232693 869120
232889 570624
233734 852057
234710 372028
235577 583610
236271 143258
237165 440038
237984 656293
238606 631673
239088 883044
239349 865388
240168 601647
241103 23017
241890 495949
242277 183007
242670 537494
243462 368450
243613 442651
244510 93369
244716 978019
245260 217283
246139 342722
247042 317237
247490 402318
247492 571701
248200 424779
248668 14884
249421 801166
249910 53747
249977 589026
250829 901639
251575 142887
252060 456874
253059 671255
253359 142436
253910 364063
254630 87763
255484 772588
256248 521586
256449 117420
256980 814031
257752 886809
258683 638747
258749 181302
259559 826333
260130 677368
260878 772675
261501 35450
261665 930708
261677 908929
262526 980391
262916 554910
262944 709256
263929 805550
264441 810580
264907 230727
264958 529062
265685 499534
266248 343364
433
