590
988 338856
1882 912708
2018 544526
2091 90196
2669 646699
3623 229307
4075 564794
5037 69543
5450 116527
5940 684010
6261 634141
7173 548303
7429 889227
8042 725000
8859 751794
9725 175014
9996 322891
10512 715554
11371 874064
11802 950940
12366 258914
13142 207456
14131 578868
15093 128769
15604 484018
16312 591139
16805 563233
17175 176268
17449 826829
17668 108972
18275 652547
18720 815677
19220 608376
19530 237703
19886 956001
20730 930025
20814 544106
21558 925733
22210 246071
22428 541865
22577 794674
23063 990352
23920 964867
24573 421508
24634 127367
25411 484819
25641 543547
25772 581805
26154 66250
26397 349074
27155 193926
27939 133619
28136 384307
28798 36539
29556 542727
29577 519188
30488 922558
31015 569746
31749 182566
32349 697917
33220 498709
34203 663052
34540 871490
35157 632188
35697 948477
35991 572320
36382 811178
36683 257113
37220 81462
37764 102434
38117 126259
38230 232234
38359 386354
38367 579700
38675 598828
39094 930958
39966 309976
40340 163860
41145 769957
41537 146821
41853 152597
42382 396275
42440 857972
42975 541966
43757 169167
44087 482427
44962 946448
45630 248709
45711 240375
46364 978116
46952 545285
47910 237282
48027 46211
48699 261810
49311 720470
49405 948172
49635 439531
50152 122963
50589 711628
51222 347901
51654 638251
52530 638302
53191 235757
53488 521029
54119 343387
54605 445050
55435 897444
55781 435861
56109 57662
56532 305839
56824 158784
57306 409474
57538 142311
57849 888370
57859 763103
58382 481300
58783 823548
59726 994446
60660 907427
60767 455898
61279 322433
62155 314718
63103 841296
63209 194797
63930 45752
64636 436312
64693 273802
65027 376085
65189 427622
65272 242805
66008 195284
66782 7889
67020 750350
67079 66912
67795 880592
68748 690102
69179 631750
70154 866570
70390 474204
71166 677802
71863 356624
72515 118794
73433 157552
73928 640821
74270 12388
74392 975565
75266 256203
75858 162725
75952 664650
76643 908712
77279 452767
78108 223314
78446 554932
79066 326072
79816 665607
80218 753979
80590 328997
80981 672943
81590 282038
82137 335594
82843 643865
82923 524398
83465 886552
83542 479773
84098 569299
84780 662585
85386 845035
85828 32266
86143 971087
86980 968808
87632 668257
88326 135189
89096 731168
89466 820669
90264 203256
91082 528234
91935 515003
92884 177885
93436 39124
93781 776794
94482 245987
94869 815936
95385 329759
95996 320071
96185 575269
96401 744828
96927 553921
97553 803977
97555 322204
97687 562830
98404 870031
98639 647381
99494 987546
99986 642832
100793 407969
101473 629897
101954 576178
102830 581713
103150 724912
104133 385142
105123 279597
106105 248917
106557 883038
107555 720996
107576 337604
108007 559677
108536 197723
109223 817426
110061 379957
110857 136362
110874 570525
111296 500798
111629 1419
111782 916443
112501 844063
113320 15312
113420 988367
113603 800645
113606 269290
113859 118881
114620 156568
115557 279677
115722 156853
116116 571939
117094 244984
117146 72086
117392 889454
118088 405259
118606 848916
119171 490540
119207 158549
119806 593714
120393 172864
120819 342553
121783 899156
122053 808627
122804 845258
122835 228404
123610 999517
123891 218502
124360 258815
124978 847257
125284 217278
126188 106175
127144 961691
127707 364652
128486 248704
129283 132817
129446 976201
129490 780798
129602 299884
130548 498149
131237 932246
131977 654097
132416 530594
132791 103720
132829 937702
132897 529729
133736 332457
134538 826976
135478 586391
136132 331725
136872 456272
137593 40330
138519 120636
138522 837054
138848 336364
139264 815312
139685 688326
140169 535199
140803 826561
140896 415500
141066 276029
141545 758551
142034 603484
142975 840235
143151 47116
143262 411395
143412 573346
143563 189746
143909 160664
144334 498727
145209 623279
145390 162820
145671 69297
146486 564944
146837 151937
147613 802532
148289 442752
148957 923642
149236 302873
150169 916552
150934 586683
151513 445834
151657 771004
152168 125605
152270 928337
153096 238317
153613 692401
154411 836453
154500 184402
154591 710703
155340 570227
155606 853928
156145 859967
157128 652753
157237 720555
157411 753171
158136 714906
158762 576910
159224 51783
160184 962235
160202 812105
160527 574647
161343 896750
161724 810424
162173 394211
162289 847856
162477 861698
162979 630530
163589 173683
163897 656101
163947 836792
164766 941821
165635 672349
166402 428233
166712 839707
167364 738718
168163 288593
169096 807452
169176 342089
169891 805748
170420 931975
170884 112143
171664 2458
172107 455121
172240 435893
172697 878916
172959 422319
173741 774442
174570 331770
175151 223079
176063 466958
176358 639663
176512 478261
176975 684438
177454 768481
177572 16088
177604 195286
177731 692577
177831 771187
178361 77359
178793 535148
179264 690765
179877 430571
180865 354579
181330 663907
181369 955770
181814 767817
181955 424553
182948 55755
183838 474019
184179 61392
185056 325455
185612 945421
186401 430721
186434 836950
186951 142518
187072 18903
187589 313113
188290 134840
188725 463300
189600 961948
190365 835353
190889 330051
191332 929242
191490 482651
191815 827336
192156 674122
192584 31189
193067 337970
193118 953068
193934 968381
194391 199253
194768 849936
195690 430402
196308 832524
196962 688815
197041 994196
197648 812637
198214 7754
198313 902141
198645 204013
199063 255519
199445 646068
199660 100665
200303 887735
201018 56575
201603 359916
202406 83304
202855 740139
202877 715293
203428 2637
203571 793124
204464 865788
205319 497123
205958 74090
206956 321403
207182 928574
208163 920493
208605 918523
208880 124671
209078 458228
209261 996727
210081 134827
210550 826157
211210 744912
212157 204765
213012 584374
213334 217005
214008 522416
214103 919525
214178 296216
214312 643850
215153 79550
215317 194690
216070 176779
216732 537786
217490 467588
218239 948613
219034 647049
219230 833243
219274 324111
220195 398582
220760 267206
221039 316705
221078 555855
221910 747197
222827 360688
222865 400986
222889 644934
223013 996277
223660 291734
224489 844792
225064 348994
225136 741485
225241 437361
225721 901109
226098 465944
226902 634802
227599 658347
228286 817470
229134 892928
229407 676208
229701 520964
230504 929875
231316 977457
231978 63586
232970 333741
233117 408
233250 661591
233697 781267
233731 551923
234162 213248
234550 585026
234621 398428
234776 679052
235601 904136
236539 187279
237409 237577
237943 41624
238780 225673
239596 235907
239943 883508
240062 898390
240325 650944
241019 804480
241402 197135
242168 504625
242324 4030
243087 285060
243350 954003
244104 114010
244979 388932
245033 95545
245071 153408
245336 866221
245618 377682
246327 131020
246670 440980
247210 703161
247371 575096
247981 980914
248700 277450
249394 709821
249482 507391
250244 477769
250771 791313
251160 332755
251678 657628
252329 660810
253301 523275
254154 284223
255145 624597
256074 740996
256773 51418
256809 540572
257700 232429
258402 5913
259216 680020
260162 817526
260672 24196
260776 30821
261317 812456
261702 260795
262427 321935
262818 240002
263695 500300
264578 922081
265037 489872
265529 699153
265551 38840
266278 157955
267004 546399
267099 178225
267197 91181
267975 935726
268867 57367
269345 6756
270259 202175
271168 814740
271510 464325
272222 297176
273021 423248
273658 866162
274046 428577
274227 892619
275065 38353
275714 690705
275735 651751
276302 832842
277289 139682
277459 902157
278450 93240
279083 987587
279366 187742
279816 836414
280560 713043
280595 273774
280957 41660
281803 369065
282086 569796
282665 788921
283494 83371
283756 508843
283945 66811
284067 129359
284750 76093
285085 845887
285967 306025
286466 439251
287117 900950
287670 836523
288119 45408
288154 172016
288992 235222
289031 915663
289989 393532
290825 926301
291013 312290
291734 478788
292312 696709
293296 438841
293880 688584
294301 859551
294983 329347
295129 111979
295347 247882
295913 548926
296485 391800
297076 940552
297942 106883
298297 554732
298655 949331
299564 999127
299745 23030
300021 405384
300691 783441
300809 33477
301793 39391
987
