512
747 301025
1401 365454
1742 396230
2194 893917
3104 840541
3214 280411
4065 946525
4805 219333
4883 251033
5121 529270
5516 180804
6064 414405
6196 309584
6753 45159
7539 342712
7889 668276
8136 77772
8249 164852
8516 568331
9341 312832
10049 326795
10254 799977
10279 705797
10295 234340
10797 806386
11216 945449
11612 488085
11761 734733
12442 507421
13260 605061
14216 26746
15088 214461
15824 484835
16113 908931
16774 667959
17233 444607
17852 722604
17869 742999
17930 601154
18846 81146
19078 227032
19162 440884
19504 249815
19836 89199
20467 94609
21326 280194
21408 530734
21673 80112
21807 997216
21854 712509
22172 649314
22276 337492
22696 181428
23045 835487
23658 845305
24166 528655
25019 824483
25610 726784
26461 250943
26812 911970
27693 48042
28517 255906
29233 983245
29286 712992
29589 499543
29617 339769
29950 534701
30785 116167
31681 231510
32602 830302
33016 539305
33497 915534
33761 477216
34725 143618
34850 139130
35199 168616
35388 18273
36214 489616
36536 126740
37166 444910
37331 996238
37483 919459
37534 718123
38066 882806
38197 858232
38927 484700
39002 135397
39944 386468
39966 207494
40290 549203
40528 943657
41156 405558
41580 457965
41806 318858
42079 364285
42409 682503
42512 656124
43010 260485
43300 162011
43539 673408
43641 633941
44272 941805
44934 801601
45541 852426
46449 189176
47141 321959
47761 300535
48234 854940
49158 46703
49546 342371
50087 783985
50343 318006
51196 140728
51713 88297
51998 89331
52888 694139
53433 327654
54207 553006
55193 333459
55205 512404
55969 504863
56601 599331
56664 773671
57232 505961
58042 700168
58873 756293
59622 435845
60206 918132
60360 341603
61132 787048
61167 682850
61735 623979
61887 131112
62081 352468
62796 164175
63035 146557
63395 257889
63465 930033
64160 185768
64821 164510
65580 409571
65917 500110
66502 570423
66624 869902
67174 681287
67588 224716
67710 253371
68408 906650
68960 576255
69851 653397
70075 834231
70225 831233
70828 774984
71398 393050
71667 334909
71830 448105
72026 300334
72866 303208
73621 515462
74369 470749
75162 495879
75624 418772
76230 438792
76878 153239
77296 299452
77502 957550
77661 996385
77920 242893
78344 291242
78617 162695
79068 584232
80050 987388
80481 365086
80785 362311
81326 884388
81448 255926
81657 227446
81901 7311
82830 713164
83423 680613
83855 633823
83890 367997
84034 51092
84505 977200
84958 309190
85353 768740
86120 193650
86958 324866
87366 806865
88117 620471
88797 538890
89039 874253
89615 996541
90311 102439
90440 331880
90848 39386
91165 569481
91772 12093
92182 387079
92807 904765
93410 663239
93994 668892
94963 698239
95287 201265
95518 358285
96153 777255
97006 645316
97705 182934
98572 128087
98917 31414
99775 222049
100613 933409
101460 546230
101548 338256
102367 840426
102617 576864
103518 439571
103765 443353
104597 456291
104805 819782
104905 844200
104992 873409
105540 95876
106148 754510
106734 701604
107424 509545
108188 107647
108336 582725
109119 947415
109191 60860
109816 237586
110563 98719
111121 95172
112013 3459
112650 861899
113265 253863
114092 270438
114601 43126
115156 665462
115881 542298
115956 494411
116078 820437
116343 783713
116609 931679
116966 555667
117472 950067
118332 824770
118802 36325
119178 89248
119318 812598
119664 317445
120237 307331
120459 653287
120871 206240
121197 694497
122075 616941
122172 692300
122648 61902
123244 171395
123912 539107
124818 510710
125688 46809
126391 757751
126449 295682
127015 978867
127278 792911
128230 355784
129145 541115
129973 649551
130033 662576
130176 169525
130777 605336
131250 86012
131296 21946
132034 864206
132154 722328
132679 666686
133473 180291
133858 504345
134751 686024
134950 255632
135474 536159
136052 356196
136291 254719
136919 605301
137001 9038
137914 755843
138534 190754
138589 71880
139434 690993
139803 663201
140056 311867
140354 315644
141297 551578
141946 460428
142093 733039
142136 104077
142526 913178
143043 102172
143904 700602
144448 380625
145256 482887
146242 761018
146962 303898
147585 328109
147654 175258
148341 266129
149198 786198
149400 335726
149404 105921
149750 424645
150537 471304
150879 947447
151106 218387
151553 631880
152234 393918
152450 987624
153228 790151
153451 99525
153650 998200
154018 274387
154269 492717
155093 546418
155644 253501
156291 114993
156452 887201
157025 258700
157760 954464
158355 909304
159053 5041
160050 493214
160539 617812
160611 737180
161364 204434
161395 811461
161751 432154
162267 752217
163228 853707
164202 492411
165189 876291
165376 321598
166036 891116
166578 719970
167240 208446
167851 500017
167965 929640
168677 265425
169059 177704
169444 387877
170328 94752
171232 220462
171572 104619
172181 937187
172509 559925
173296 613923
174230 652024
175060 567765
175159 554360
175438 441822
175878 698889
175968 775390
176032 172666
176531 933438
176802 83379
176895 49124
177440 30667
178213 411629
178292 988082
178980 162843
179075 186650
179172 115930
179813 702084
179818 200920
180802 286980
181335 452400
181930 640971
181976 648540
182613 739818
183568 739665
184494 223673
185001 394715
185260 259722
185797 926635
186046 333026
186361 919763
186542 565898
186543 108398
187351 326377
187507 671762
187583 793835
188012 110172
188932 18633
188975 674161
189168 436800
189792 178538
190765 674875
190924 863032
191625 906861
192508 557282
192990 142800
193372 916332
194009 435703
194259 745812
194968 852954
195435 685053
196041 265969
196795 450221
197320 76558
197905 674112
198046 341335
198943 977576
199384 365464
199536 145530
200469 399096
200921 312051
201644 457207
202261 826928
203039 138423
203441 906508
203732 865451
204463 747782
204893 311342
205675 647094
206248 203456
206585 554280
206902 46341
206989 549720
207290 79413
207579 648232
207726 428017
207851 56273
208583 268079
209377 273968
210051 810754
210065 420709
210878 885051
211771 752417
212435 615205
212752 81693
212873 360316
212992 994079
213009 641947
213240 756811
213350 100389
213597 996533
214325 235123
214910 680846
215787 205907
215814 937777
216239 536888
216520 974974
216744 168104
217123 364945
217886 347810
218748 303827
219392 895029
219460 597036
220195 988565
221047 105807
221386 730686
221449 342308
222380 530254
223201 642254
223626 953002
224471 945491
225464 290977
226271 273607
226521 382299
226695 530973
226897 244600
227736 676259
227820 360560
227898 394188
227962 991988
228387 318567
229313 947838
229674 131626
230408 642084
230930 406352
231495 714103
231965 316937
232288 708412
232682 445264
233580 544995
234253 524358
234376 716533
235144 5120
235526 101026
235674 512418
235744 417202
236394 123825
237119 872474
237522 268442
238283 552219
238916 911179
239874 681720
240095 188733
241035 133311
241201 677162
241457 110510
242052 243632
242198 147416
242534 267029
243076 835544
243653 273927
244052 935506
244413 22840
244981 784030
245699 160433
246629 936369
246852 884604
247343 289079
746
