5333
792 49546
1608 418367
2361 446962
2731 821271
3143 911478
3898 503176
3936 168252
4272 926119
5036 454915
5165 436153
5634 56488
6619 904452
6896 821885
7854 207654
8459 39762
9063 271520
9179 566377
10024 294821
10760 433856
10918 788281
11024 524879
11091 303198
11877 222684
12812 177053
13725 591768
14115 788072
14208 610435
14827 849434
15635 329225
16234 443324
16969 368602
17505 151918
17954 318998
18748 746855
19319 932101
19357 297753
20034 922677
20089 684716
20993 111199
21907 29128
22280 705109
22630 742872
23063 243507
23425 752840
24104 451284
24519 188735
24610 748485
24829 401393
25643 871845
25702 101147
26427 539558
26807 774162
27567 70341
27935 571083
28603 62371
29486 449355
30016 950360
30106 890317
30836 921090
31588 762900
32207 36395
32245 989299
32339 765530
33175 579646
33331 700001
33866 447963
34569 896919
34679 972368
34715 645623
35272 370877
35710 34774
35845 455326
36791 593909
37264 762710
38051 657841
38897 485031
39775 840627
40185 136907
41179 402565
42017 427954
42208 228117
42750 766794
43013 31450
43269 68010
44065 915427
44176 842947
44514 53775
45409 96621
46068 285028
47025 673681
47474 177505
48239 303670
48394 666161
49235 917351
49345 906882
49557 855621
50209 701224
50847 522935
50902 809019
51336 365722
51607 775048
52294 86328
52379 920975
52690 306684
53560 496063
54378 359071
55274 112737
55421 937735
55440 748780
56413 945271
56940 623805
57265 364651
57423 424317
57621 620256
58179 103738
58683 483112
58710 710325
58918 333399
59223 408130
59227 762788
59388 959850
60027 209214
60171 803731
60889 915188
61295 467459
61740 668479
62385 52236
62598 896430
63413 52813
64333 409453
64943 512698
65027 925214
65095 384010
65241 376529
65268 766189
65758 507739
65917 268418
66673 317264
66744 172649
67607 176612
68478 237830
68734 61898
69049 438772
69199 413341
70197 94646
70392 725628
71185 810058
71451 683631
71924 277437
72467 441505
72779 879467
73556 795339
74369 902220
75294 668224
75954 721718
76548 428270
77257 871472
77360 869976
78003 260089
78563 245498
79049 293226
79613 368251
80329 838618
80589 464249
81413 374931
81810 733175
82541 956506
83358 648829
83953 392343
84798 155994
84806 110952
85074 781778
85298 566667
85986 817857
86114 181467
86233 418193
86412 736684
86904 732341
86964 926396
87023 948640
87930 500900
88613 145911
89175 396919
90054 778170
90917 155478
91146 312050
91457 50745
91479 535910
91748 306088
92067 779198
92936 856570
93768 708065
93817 728430
94513 628952
94927 741791
95165 923112
95797 159876
96341 326349
96644 638067
96878 742064
96895 347869
97085 345778
97185 989565
97654 175708
97928 589608
98442 211088
98576 150511
99162 103711
99307 520991
99843 737326
100330 924257
100838 674548
101395 509585
102328 963787
103103 769400
103653 722930
103732 447508
103769 356575
104062 786764
104330 573210
105157 559959
105805 351103
105830 119839
105916 400457
106828 624307
107548 318429
108516 312226
108796 530555
109565 574769
109952 77816
109958 189152
110281 75362
110956 932609
111476 178806
112331 495251
113079 457876
113453 927520
113901 579725
114088 550693
114751 614264
115552 570036
115975 329435
116117 702075
116542 606959
116783 260747
117644 486625
118390 574494
118575 378990
119045 822848
119586 281729
120365 207755
121363 222143
121767 899917
122226 339818
122497 953168
123334 469854
123855 850211
124664 239310
124773 589015
125694 781617
125849 810617
126641 848966
127033 333753
127408 414892
128155 159395
128555 297085
128709 936273
129306 429834
129704 958083
130416 673215
131365 731431
131754 726739
132593 736123
132811 268457
133594 117667
134549 734001
135371 380757
135716 236378
136577 524792
136590 444793
137085 581287
137484 688058
137760 360330
137987 979816
138024 309596
138567 551534
138980 916420
139188 334906
139676 307765
139879 506962
140573 965123
141486 345004
142042 433938
142118 258742
142876 238161
142959 517874
143955 847989
144933 232734
145849 973240
146167 895297
146528 55546
147113 646427
147988 748771
148067 563614
148346 687427
148760 789945
149589 795910
150057 309082
150417 479992
150545 446166
151471 6944
152392 283358
152811 508308
153122 855657
153410 407340
153965 831464
154718 576529
155501 680513
155948 238322
156163 663543
156638 545881
156853 250016
156946 519897
157487 505485
157645 317024
158536 126876
158622 750301
159371 584527
159798 323373
160487 200553
160700 276469
160949 154835
161289 580177
161684 704894
161772 50434
162522 313013
163462 601931
164157 27113
164668 461375
165054 752696
165337 481964
165579 173277
165594 601727
166256 521816
167090 36950
167947 638990
168584 791497
169013 505279
169698 47864
170445 656045
171060 412717
171195 233859
172137 728503
172340 439077
173113 615496
174002 870890
174532 191797
175149 827180
175341 107641
176147 678743
177124 148311
177604 739488
178524 13914
179028 79947
179498 101064
180365 335692
181231 43466
181455 203457
181946 195559
182139 506849
182430 172598
182816 619630
183250 605724
183669 617006
184380 697438
184719 260795
185157 464575
185158 147514
186024 613959
186034 527848
186545 704397
187293 111800
188214 819580
188905 578641
189334 301102
189765 460040
190110 577132
191071 358856
191773 685209
192699 872278
192798 353764
193441 392032
193776 738351
193831 55895
194728 989156
195633 219929
195716 225535
196076 303868
196731 334122
197618 650978
198219 2469
198850 187247
199254 923263
199977 302126
200319 735046
200952 946749
201044 320991
201855 758935
202314 104412
202381 208332
203197 433202
203733 971822
203999 753978
204161 859883
204374 439896
205371 125015
206182 716101
206232 889418
206451 735886
207084 109754
207929 821961
208916 248842
209585 868744
210137 927740
210208 798227
210425 833708
210602 736653
210624 92638
211492 812280
211909 553202
212627 395416
213162 632980
214109 615535
214129 604684
214687 158145
215674 100772
216155 494374
216611 68237
217282 695845
217866 930751
217991 677492
218232 46884
218909 881557
219831 86020
219907 438161
220377 439222
221091 155944
221980 39914
222171 579479
222890 582636
223678 229128
224606 505673
225461 536636
226218 301076
226351 539841
227328 343191
228051 948129
228401 8966
228657 920291
229482 863023
230111 944593
230821 545317
231032 614012
231697 262643
232181 882889
232641 928748
232801 673910
233340 500083
233837 194364
233933 124564
234192 705985
235089 954641
235410 723109
235931 301398
236083 634154
236822 610760
237717 762539
238317 833303
238546 54511
238793 958740
239071 629520
239611 123532
240293 962859
240319 632596
240681 894110
241039 482206
241893 336776
242184 767121
243137 896794
243725 950024
244700 55742
245395 160235
245457 364096
246057 390725
246575 698057
246910 662257
247245 757094
247281 890540
247837 830387
248007 182371
248212 862613
248220 150877
248408 487105
248729 784031
249520 548434
249943 704376
250084 848922
250167 415124
250580 54
251113 280482
252004 914215
252068 743709
252888 293289
253500 276578
253746 632942
254511 95913
254860 720911
255283 897848
255916 721054
256172 340336
256734 901538
256970 268552
257743 508670
258667 978562
259614 84574
260063 239851
260674 147368
261444 904172
261680 265410
262287 549427
262840 66787
263407 597003
263511 671025
264386 186225
265290 708401
266270 280043
267053 124591
267060 413105
267163 600764
267913 123099
267939 977587
268560 143679
269161 128890
269853 57421
270011 895541
270352 387943
270703 962410
271168 354230
271852 800887
272730 393304
273423 760222
274179 890174
274251 919279
274751 315533
275172 182003
275792 505502
276372 272362
276911 881781
277361 92183
277488 474036
277682 544589
278435 407948
278445 417097
278745 262836
279684 464219
280426 36979
280432 839196
281310 431891
281356 993472
281766 309882
282316 405691
282985 369777
283080 246134
283454 811694
283489 68518
284301 912645
284977 217786
285647 733041
286278 991547
286490 492155
287193 228705
287636 322141
287695 178690
287961 744434
288778 739787
288833 696820
288974 693834
289267 122290
289953 477930
290188 468047
291050 513075
291733 141162
292377 788235
293120 826200
293426 614187
293963 399171
294388 401018
294963 634913
295753 157819
296187 412778
296702 39776
297432 56786
298432 542097
298869 557008
299379 628380
299539 509072
300366 162665
301078 823610
301196 80487
301339 484926
302189 398111
302765 823843
303587 597975
304572 204381
305256 518030
305660 865620
306309 917295
306788 831272
307060 210909
307757 742416
308538 426473
308817 214655
309766 938201
310403 978
311090 90282
311799 897504
312224 257210
312277 905331
313254 286946
313473 869071
313844 103284
314193 115982
314894 537608
315555 933644
316044 38543
316565 928175
317196 53549
317506 736938
318341 455197
318372 24543
319076 41944
319275 640265
319650 397326
320335 180123
320772 419563
321294 252761
322164 797799
322606 147363
323195 653138
323457 237675
323566 208906
323734 789117
324681 479458
325503 790882
325619 305228
326140 147505
326276 820637
326891 475848
327089 917513
327600 332817
327679 886244
327907 882204
328891 921448
329011 353224
329939 72205
330546 889092
331279 666630
331306 954426
332259 474980
332843 705611
333454 46763
334370 827668
334719 204889
335147 336347
335915 912711
336629 910003
337125 72182
337379 575957
338052 556670
338397 231927
338830 837618
339650 138732
339733 120108
340574 235582
341202 592027
341869 782555
342645 465232
343400 805631
344191 727819
344267 252477
344602 242485
345056 793289
345326 463052
345431 14886
345709 80570
346465 411360
346618 103013
347528 826586
347835 803210
348580 760592
348887 877558
349556 580057
350334 850005
350999 267468
351137 12844
351765 265262
352523 751299
353445 405325
353964 254596
354856 770912
355411 758723
355881 447323
356107 218910
356511 551427
357106 15511
357134 77814
357281 486353
357869 272873
358727 402641
359645 913036
360362 139346
360433 531419
361368 200373
362351 10725
362484 613204
363081 285225
363848 169933
364301 252635
364958 354233
365185 72344
365546 492176
365682 417338
366153 251962
366654 167630
366943 485381
367270 956050
367704 139375
368699 883758
368962 415987
369059 792592
369928 578106
370346 765302
370517 624586
371060 70495
371975 280868
372648 561770
373623 627630
373964 629038
374744 61182
375051 830335
375092 309513
375274 345392
375349 837992
376235 617554
376583 826840
376782 812133
377580 348215
378334 118507
379103 50963
379631 494186
380599 537254
381233 605615
381849 476900
382391 419095
382890 219409
383720 248258
384313 565091
384418 947799
385201 550988
385854 241710
386395 787210
387079 291515
387522 87530
387996 458806
388655 80826
388683 444740
388961 335103
388975 520179
389334 740512
389481 598338
389923 850367
390736 52564
391551 55359
392104 665412
392202 606500
392549 380491
392706 933368
392785 298421
393259 559657
394240 939647
394824 113628
394830 991823
395669 755786
395822 844364
396808 799449
397750 535809
398113 567890
398120 335496
398256 542410
398287 956955
398818 60546
399687 232495
399851 486808
400542 654749
401045 507580
401498 237210
401915 803186
402566 667899
402689 278543
403599 190268
404398 835530
404580 992528
405307 5160
405427 370246
406108 93397
407024 786062
407352 989018
408276 324105
408420 364285
409169 450775
409957 155390
410618 849040
411197 807336
411705 558003
412614 621358
412672 281730
413024 982778
413265 696946
413942 565220
414696 148154
414945 146279
415387 968174
416138 79816
416183 47138
416273 824876
416670 573381
417481 585670
418419 540723
418926 639737
419573 228559
420069 259523
420968 947832
421953 45560
422042 471796
422397 56285
422843 953942
422927 401647
423102 337145
423645 992153
423752 655618
424403 961218
425124 838539
425466 633153
425897 138782
426847 912180
427258 271714
427307 160685
427706 941099
428514 693920
428840 850952
429498 62638
430013 188480
430269 516707
430298 288038
430407 131211
430797 621941
431028 565268
431788 299171
432550 62491
433470 21074
434163 664731
434186 976790
434750 187030
435728 53690
436443 917120
437266 733488
437652 582599
438212 486151
438399 343388
439226 693327
439810 826870
439930 752398
440179 974764
440313 560464
440444 488630
440491 973673
440705 514109
441006 288387
441067 846360
441478 934614
441499 571933
442402 357566
443355 767928
443821 324981
444349 776300
444576 451175
445267 890963
446138 591365
446965 443839
447501 380555
448168 595609
448468 777802
449108 387309
449358 439572
450013 308451
450394 303970
450592 960166
450817 820649
450903 80439
451754 144135
452060 295299
452223 868049
452527 588287
453461 258669
454342 328225
455012 322781
455921 319630
456282 172966
456794 894279
457280 938240
457306 568096
458115 899552
458141 685133
459076 706583
459783 13064
460346 282071
460476 965960
461335 547241
462261 315187
463156 270448
463602 157201
463983 530788
464024 69303
464693 648486
465533 178571
465821 224206
466235 913526
466241 274564
466512 481160
467428 221578
467569 229753
468469 407923
469226 559966
469649 658993
470356 671393
470594 793099
471295 838899
471733 30574
472150 223815
473120 405402
473595 221314
474082 544784
474587 770294
475022 238422
475030 484715
475964 191628
476746 734685
477329 327506
478189 791537
478643 890955
478808 59256
479468 196986
480431 731057
480590 19615
480857 741976
481046 216814
481589 810513
481696 251887
482257 190323
482287 287271
483028 820894
483802 237950
484735 462807
484810 288026
485643 613034
485991 412462
486893 139625
487730 555745
488534 136367
489092 280996
489694 20587
490685 916634
490988 20322
491561 926329
492046 797810
492860 81438
493443 185846
494316 855823
495027 277291
495948 116035
496503 691668
496787 214010
497720 956858
498054 841796
498681 224114
499517 559167
499892 183719
500380 271832
500597 651661
500996 710549
501494 505666
501856 36337
502604 172473
502807 766735
502864 52135
503709 655842
503823 909204
503897 860315
504392 724107
505274 659376
505738 414686
506614 381835
507394 876714
507853 310997
507925 416789
508567 638085
509311 637360
509656 268658
509716 641400
510093 813273
510949 386027
511573 305365
512456 516321
513124 872909
513262 679670
513658 887477
513952 637525
514564 15506
514989 599746
515816 978275
515895 219929
516674 658995
516914 29635
517069 687152
517186 833186
517510 357610
518321 877199
518450 559436
518801 229405
519311 934784
519404 22457
520330 745561
521246 812988
522043 483471
522756 144814
523467 835868
524335 479096
525269 189971
525892 117940
526504 183332
527380 491149
527705 829980
527933 260204
527994 153582
528558 604433
528560 787641
529366 86570
529697 377942
530564 132248
531193 17525
531590 207807
532119 299918
532753 117074
532911 498267
533567 503814
534170 208954
534988 337527
535330 951033
535711 561903
536028 416518
536616 592423
537591 13873
537990 878720
538430 846683
539215 971969
540193 588130
541047 35824
541167 56298
541168 380290
541211 957184
541559 898658
542329 856573
542789 697496
543552 517114
543801 802490
544595 274834
545376 715747
546299 671121
547058 150573
547719 79245
548469 949869
549258 960415
549328 534099
549338 614321
550090 242595
550131 895793
550291 617204
551014 260731
551288 251932
551442 987913
552358 786462
552802 628876
553579 197246
554108 888830
554702 140076
555320 6066
556144 756984
556526 34126
557416 403550
558018 646000
558141 299885
558523 434653
558640 495525
558813 502508
559631 610694
560205 913036
560649 727491
561492 219330
561601 81219
562032 246377
562642 123343
563599 27346
564440 820364
565127 899676
565494 968641
565661 91814
565957 438967
566673 755647
567662 724204
568404 259784
568853 433269
569818 87536
570482 326982
570683 906033
571444 403050
571775 285403
572223 994935
572624 901003
573218 935906
573450 661627
573702 769668
574673 431888
574760 112340
575227 258067
575244 486586
576156 122308
576885 552081
577747 457274
578100 765849
578820 651678
579119 369056
579460 287349
580403 347146
580805 276725
581630 77681
582100 383049
582600 220169
582844 571702
583151 376346
583918 648704
584577 628162
585512 339234
585589 109164
585664 312470
586044 825781
586163 519666
586534 863179
586741 599455
586845 738513
587060 517348
587929 800664
588241 265360
588678 74939
589462 442913
590027 679735
590540 472044
590906 993950
591645 546406
592048 374670
592909 628841
593600 169809
594210 851752
594269 154134
594955 795408
595781 163475
596473 549005
597209 492940
597327 117645
598061 191319
598685 996298
599608 800750
599834 986893
600457 993792
600532 722298
601178 405801
601798 837643
601929 441148
602645 651784
603376 869414
603648 557358
604271 349818
604321 681136
604900 760433
605042 786723
605209 866017
605637 89173
605736 689715
606297 657353
606336 369854
607207 904358
607632 158909
608118 797926
608425 166921
608602 455039
608855 551628
609484 706793
610298 269085
610409 736497
611227 236165
611658 1993
611822 168361
612659 868123
613030 87733
613159 9365
613665 638317
614417 193147
614915 237149
615588 93711
615990 666064
616455 709444
616737 783642
617446 418826
618043 537862
618784 261570
619634 649620
619979 488511
620446 351024
621280 812555
621811 633337
622111 630036
622684 194115
622912 627578
623190 479138
623891 415515
624258 230369
624514 439032
625498 826548
625866 302360
626608 567174
627235 901622
627414 871764
627469 394453
628373 11769
628677 93708
628943 137479
629707 999802
630435 537948
630847 195802
631210 883214
631303 755358
631822 464963
632673 489217
633271 177216
633871 165814
634611 203759
634645 369847
634749 723429
635415 38767
635906 647896
636509 287106
637396 536458
638172 496553
638477 614843
639378 693792
639781 98730
640279 90443
640516 51050
640737 151026
641716 159903
642018 300681
642954 390553
643615 432947
644092 950079
644405 115152
644638 720380
645023 964136
645712 659825
646307 993985
647198 585258
647253 298305
647524 705333
648510 485345
649417 369062
650310 985356
650706 507276
651509 777808
652106 29895
652246 684384
652600 761754
653582 107967
653988 204491
654210 978455
654969 591208
655728 243941
656710 335085
657215 343305
657401 205043
657433 239552
657545 50466
658322 652238
659092 437547
659367 895915
660364 390087
660741 633230
661705 876902
662476 218887
662868 519380
663013 11889
663567 465626
664124 693436
664512 841173
664862 693369
664922 981060
665139 444445
665345 647022
665521 672801
665614 886114
666186 578405
667135 401327
667558 418598
667845 360059
667923 93595
668891 618225
669085 354223
669560 739742
670537 410677
671457 482857
671700 325634
672530 99584
673309 478900
673973 659996
674711 91973
675552 275302
675996 65286
676938 354180
677658 644892
678107 335796
678696 537586
678785 160355
679469 903337
680095 600812
680439 3979
681108 757114
681286 623425
681379 963506
681457 667162
681556 328276
682424 575021
683288 417218
684120 714848
685026 596391
685805 919089
686686 671532
687585 986234
687696 650801
687886 868666
688208 540845
688705 434544
689641 575784
690036 915037
690796 921043
691548 27305
692540 727531
692991 813215
693406 959992
694312 437807
694495 299288
694870 922558
695504 417221
696193 532657
697058 929601
697561 409081
697703 203984
698044 565313
698681 790515
699132 818284
699933 322482
700871 968561
701103 557746
701611 250509
701979 994838
702324 677784
702618 343487
703096 568969
703408 114052
703828 102452
704535 6528
704880 788896
705774 172610
706600 858209
707020 462105
707865 943041
708820 53831
709529 564478
709678 825695
710436 853072
710899 583436
711023 172045
711459 278158
711702 625808
712503 311443
713079 668413
713289 517572
714184 958315
714606 788775
715415 832121
716204 693613
716669 239926
716893 289730
717735 480512
718521 779704
718987 368768
719586 164747
719695 479580
720389 319914
721115 547652
721144 8007
722071 688009
723015 513845
723298 611596
723680 826382
724481 804542
725073 995353
725361 237502
726253 454185
726573 824185
726992 927421
727873 840332
728118 785016
728222 245631
729114 106527
729726 96068
730461 97826
731298 67584
731656 961450
731935 445920
732279 774878
733181 645757
733542 435146
733758 210291
734116 702680
734489 339187
734894 704168
735048 466736
735131 843886
735721 798921
736663 486350
737366 833373
737665 496891
738663 306803
738951 418662
739138 773875
739330 322564
740000 583124
740020 223324
740560 62495
741558 735625
741676 435633
741890 529853
742563 2079
743211 928507
743990 10682
744582 553367
745539 120953
745591 194532
745830 905238
746729 905618
746752 105470
746807 272032
747238 936464
748066 559215
748244 458102
749026 88308
749420 417423
750320 738108
750459 734279
750794 640494
751242 240747
751658 468803
751977 399105
752244 175997
752613 356010
753376 535472
753587 265773
753651 366258
754619 305256
754848 838927
754875 31757
754999 994351
755230 256282
755965 679313
756217 244475
756409 269360
757408 772396
757844 239755
758578 702161
759568 947647
760261 161088
760705 841290
760980 253877
761649 837427
762140 272393
762159 443984
762966 865660
763499 917105
764082 642039
764816 545133
765209 935346
765432 90600
765615 33487
766313 364678
766605 340587
766902 444023
767703 879075
768460 304551
768472 145653
768562 592878
768654 47959
768784 903176
768789 626780
768919 891071
769390 170443
770204 199231
770231 867010
771016 381081
771756 74421
772037 470289
772659 253882
773296 80552
774196 737851
775165 850123
776160 830313
776989 906187
777314 494381
778015 476684
778086 743282
778231 497020
778810 630833
779028 181403
779581 713856
780321 881754
780882 677797
781875 617806
782387 568249
783146 891881
784085 55218
784806 343618
785066 153140
785575 892982
786094 729989
786316 586443
787176 42039
787728 172642
788267 545617
788747 680555
789467 521999
790402 356312
791308 408430
792206 677865
793073 533097
793412 690566
793677 71831
794661 840814
795444 103138
795792 507465
796641 544532
796642 322746
797140 63701
797277 792010
797511 486345
797969 641689
798357 913230
799312 310642
799958 815529
800893 318232
800967 343432
801692 569465
802203 191569
802224 929191
803204 845540
803587 50469
804113 876725
805093 642541
805618 247971
805922 136049
806830 185072
807789 898603
808294 75172
808380 828607
809315 191414
810097 695930
810779 65043
811167 844571
811377 420236
811386 712074
812162 559177
812321 792084
812994 626688
813870 337426
814580 214398
814610 408824
815268 888465
815880 859576
816033 195579
816789 624899
816898 25866
817225 589584
817349 707157
818076 679881
818566 167808
819083 752017
819829 628058
820346 861139
820794 747056
821043 666002
821631 112900
821899 656089
822638 238027
823024 540606
823414 160785
824308 955774
825121 457678
826041 841781
826533 290727
826607 384705
826903 921930
827168 396300
827343 403603
828051 877308
828190 673091
828360 143076
828452 505821
829390 864094
829791 250860
830169 817661
830229 563481
830751 800395
831710 844838
832373 503257
832743 112991
833026 70306
833637 3070
834140 795061
834688 375605
835541 778522
835629 49653
836486 233262
836602 784226
837501 647242
838147 592859
838885 823447
839723 93288
839814 661381
840582 297688
840743 395153
841650 496469
842434 69572
842920 391239
843683 235234
843745 523125
844346 870173
845291 615078
845899 789727
846789 175177
846838 241050
847424 760517
847662 319705
848659 754399
849162 693991
849977 94772
850590 776786
851154 677026
851284 877816
851552 370689
852063 589504
852162 227585
852829 252495
853193 445468
853541 645879
853608 459483
854235 84849
855189 425918
856099 970451
856197 191032
856444 467228
856489 281519
857041 407495
857454 421532
857809 471791
858433 735228
858890 896042
859447 4420
860233 694629
860262 24168
860524 78441
860898 398921
861275 689621
861820 640170
862235 25672
863015 150953
863176 933886
863851 934137
863948 807873
864162 686167
864296 471386
864445 51835
864470 736566
865225 52650
865321 759053
865469 61152
865624 800151
865650 729317
866061 424806
866642 821111
867326 223604
867470 739263
867966 113343
868641 505999
869164 932415
869666 991196
870375 39722
870725 434200
871571 637699
872007 813271
872157 637854
873085 754906
873432 214831
873909 171600
874871 656123
875722 697376
876472 137837
876893 903244
877537 206666
878388 966931
878545 490169
878581 533692
879460 380417
880346 531027
881244 225143
882101 884579
882772 256377
883750 520245
884382 469852
885036 783662
885973 764006
886879 656048
887026 52762
887202 45078
887758 577015
888496 261258
889262 619386
890247 995082
891136 684358
891417 791526
892311 762741
892699 524281
892820 909820
893195 161982
893725 989840
894595 671954
895075 609376
895202 725800
895436 667826
895735 784361
895754 499355
896451 13756
897098 127504
897389 327796
897930 349964
898075 689430
898954 676078
898956 989146
899542 873507
899751 74438
900498 456468
900998 353422
901353 397927
901927 372936
902187 418922
902292 835744
902688 411194
902698 117429
903230 117231
904073 669355
904415 365099
905334 590331
906197 398382
906929 781821
907186 130479
907567 948902
908363 622954
908735 933157
909405 843823
909568 554126
909600 469022
910094 931625
910670 582220
911077 19528
911277 620851
911576 120202
912076 39188
912253 869945
912607 845616
913034 200019
913869 680561
914055 902058
914358 737457
914647 199906
915336 590412
915753 58294
915892 707977
916678 190380
916787 152360
917549 693367
918394 403172
918945 811135
919332 377313
920046 110794
920395 440288
921288 498273
921787 826439
922498 976600
922529 672528
923168 987597
923860 604713
924695 956261
924999 424272
925629 391858
926499 72344
927077 591533
927476 647891
927618 818214
928540 939569
929085 110798
929097 686112
929498 202271
929815 76881
930132 694372
930175 318105
930745 857291
931647 128810
932177 536884
932653 276853
932927 444316
933470 943972
933519 306578
933991 128789
934336 918928
934522 702017
935229 19913
935625 541709
935948 174448
936323 636004
937159 91370
937937 390744
938152 761184
938964 80469
939939 765999
940594 505048
940801 800777
941765 944360
942550 114896
943123 678789
943263 142497
943537 62623
943561 611629
943663 787243
943832 567360
944261 635594
944315 791941
945176 718245
946076 459624
946592 62631
947268 170590
947316 535354
947664 499846
948614 792334
949407 552900
949747 919521
950520 669214
951470 486265
951829 35067
951858 198765
952257 17682
952417 237316
953111 298880
953936 388690
954004 378700
954951 888025
955948 408347
956149 272872
956928 720476
957862 483560
958157 639790
958604 832767
959538 304278
960057 511731
960898 278897
961187 307258
962018 706467
962074 650290
962853 774943
963588 20957
964162 890186
964455 718095
965419 79474
965667 120747
966350 696973
966787 473603
966819 570027
967371 569253
967824 533045
968047 285428
968152 240775
968157 908887
968889 117950
969592 737606
970292 642271
970572 79323
970770 970269
971353 902890
971882 361412
972520 29758
973006 657757
973086 929529
973855 472097
974445 395333
974512 203266
975431 242571
976375 683453
977033 975692
977695 52731
977810 210829
978609 380657
978848 837004
978984 637636
979788 728480
980335 644542
980787 203914
981690 234214
982561 894053
982650 641577
982999 822408
983450 192920
983490 935691
983610 448892
983932 966468
984151 477730
984952 157157
985213 711291
985804 782319
986666 412623
987261 944510
988202 806550
988390 951574
988983 86672
989359 493360
989559 320879
989777 416351
989854 721329
990069 580459
990337 147735
990670 42918
991055 558905
991090 620759
991839 414553
992255 39383
992992 17376
993952 205354
994068 527331
994827 458814
995497 138554
995832 616667
996210 850037
996662 72464
997519 688420
998385 436448
998804 61408
999660 486037
1000422 375752
1000841 415005
1001140 977542
1001699 197083
1002694 796778
1002966 19398
1003034 779980
1003729 542999
1004499 389334
1005216 613908
1005388 649706
1006144 995107
1006727 249330
1006910 382722
1007617 80549
1008110 825745
1008149 431707
1008474 968041
1008951 757170
1009432 54757
1009841 659930
1010059 581753
1010926 936891
1011261 262798
1011990 212519
1012131 959367
1012142 602881
1013020 124045
1013348 682340
1014119 942736
1014961 993823
1015846 97566
1016598 43010
1017051 78670
1017249 592914
1017255 974263
1017458 464870
1017856 719994
1017885 781676
1017918 628840
1018497 645785
1018550 44514
1018693 454241
1018704 376617
1019084 643195
1019087 720810
1019419 997812
1019858 98607
1020303 346174
1021019 18610
1021345 422511
1021743 789389
1022503 370039
1023400 620306
1024241 737896
1024609 722329
1025531 941332
1025589 689555
1025592 742457
1026239 753211
1026373 742132
1026452 411305
1027420 277339
1027777 652365
1028461 100076
1028727 741060
1028746 423644
1029514 770584
1029518 653970
1029885 81457
1030530 467991
1030937 210190
1031916 968694
1032832 892891
1033155 100337
1033566 151199
1033657 25974
1034570 696117
1035028 602490
1035795 549007
1036171 444666
1036657 645038
1037182 911864
1037949 421142
1038013 480378
1038304 1367
1039018 551188
1039441 522689
1040129 99127
1041040 728579
1041959 96280
1042033 73466
1043020 317719
1043259 893707
1044259 496756
1044278 594722
1044678 973737
1045521 787224
1045905 326277
1046730 355199
1047620 38644
1047717 966443
1048687 692630
1048880 28945
1049432 658030
1049975 153037
1050771 10036
1051314 13233
1052140 935712
1052405 342675
1052544 981387
1053522 902181
1054453 729750
1055260 356607
1055403 64652
1056061 322854
1056089 606517
1056522 183223
1056825 288153
1057773 256960
1058394 386786
1058963 837901
1059533 341289
1059801 71250
1060712 137040
1060774 200267
1061502 833967
1062482 884778
1062578 983989
1063276 818150
1063893 630067
1064854 21024
1065367 66491
1066053 58206
1066979 314394
1067959 704124
1067998 353728
1068798 659371
1069632 28839
1070467 289783
1070582 331614
1071526 24334
1072370 631962
1073211 187647
1073427 657831
1074172 528168
1074996 751499
1075178 640675
1075874 164044
1075984 304267
1076775 920876
1077461 896876
1077915 841277
1078560 873256
1079024 644937
1080023 840117
1080951 789615
1081532 849534
1081793 973924
1081871 980303
1082863 702691
1083659 67952
1084530 414294
1084871 5024
1085358 957923
1086011 383329
1086503 536646
1086589 27636
1086722 603760
1087672 473135
1088159 965804
1088336 966756
1089211 484708
1089722 187656
1090593 150067
1090705 597049
1091005 282584
1091060 362268
1091816 498525
1092133 217073
1092578 889240
1093256 92278
1093356 477942
1093716 457685
1094701 967538
1095552 701889
1095915 15743
1096501 125748
1096744 724858
1096848 462327
1097202 446112
1098041 871521
1098319 807700
1098585 478740
1098996 750953
1099406 343493
1100359 647598
1101036 161248
1101090 114360
1101782 214628
1102270 103478
1102563 507445
1103122 908593
1103860 387508
1104588 359622
1105496 109281
1106114 781871
1106464 279183
1107385 589201
1107993 664617
1108065 890572
1108505 720012
1108642 799692
1109052 489041
1109824 763031
1110000 438845
1110973 583373
1111115 14102
1111447 236553
1112429 886130
1113053 730708
1113265 249294
1113752 55878
1113854 818424
1114482 99287
1115103 212859
1115169 440340
1115189 966977
1115279 398319
1116254 902892
1116999 418198
1117869 942115
1118164 598558
1119036 299948
1119236 208857
1119395 284692
1119998 944132
1120564 677360
1120689 826067
1121064 462526
1121347 583441
1121803 927334
1121924 306790
1122851 869421
1123541 54619
1124098 893782
1124111 449368
1124503 865353
1124534 798624
1125461 264512
1126443 597641
1127274 196136
1127674 670780
1127828 998091
1128488 43897
1128840 221830
1129048 57240
1129402 717914
1130074 879753
1130961 271353
1131671 540493
1132380 228838
1133182 42287
1133845 781685
1134798 974446
1135602 406697
1135633 331234
1136522 234663
1136644 174841
1137373 353241
1138169 436129
1139135 571723
1139176 163115
1139533 548005
1140325 138033
1140388 998805
1140586 855522
1141397 249060
1141446 385378
1141511 432498
1142189 163865
1142461 544187
1142939 690825
1143295 785400
1143811 996390
1144793 646386
1145767 717261
1146730 617416
1147141 780096
1147485 747640
1148077 225410
1148207 284475
1148319 18169
1148506 169963
1148614 890077
1148693 277114
1148921 302721
1149369 502353
1149434 61366
1150204 866694
1150979 294616
1151589 793485
1152321 459344
1153075 748444
1153299 993870
1154088 628946
1154474 918280
1155445 309627
1156168 425239
1156973 684690
1157924 393398
1158067 699694
1158090 347241
1159045 97540
1159506 533294
1159934 387290
1160021 73777
1160656 933913
1161239 143715
1161690 631109
1162304 455717
1162740 465442
1163191 129732
1163613 551015
1164240 106084
1164902 89449
1165268 79201
1165904 323881
1166626 840282
1167421 931578
1167785 973529
1168519 391804
1168664 864041
1169043 944367
1169680 149028
1170129 405510
1170708 171931
1171306 947121
1172024 105453
1172425 377015
1172719 544240
1173008 654514
1173326 621645
1174106 170704
1174491 328621
1175476 283069
1176248 745235
1176942 633525
1177658 235626
1178622 445154
1179049 17968
1179073 431549
1179627 741660
1180313 276676
1180467 363353
1181052 45888
1181153 231592
1181752 637433
1182691 674417
1183270 472088
1183901 105591
1184162 318862
1184284 771125
1184755 349186
1184852 122106
1185757 763652
1186453 99925
1187177 922283
1187627 559670
1187842 723814
1188023 686419
1188524 849038
1188865 476688
1189038 359227
1189216 415769
1189264 446115
1189517 937200
1190046 233630
1190625 25932
1191021 693184
1191059 240065
1191655 441687
1192376 945588
1193229 225533
1194071 183909
1194144 406266
1194584 430906
1195332 854358
1196239 803211
1196539 827841
1196775 317386
1197361 320299
1198011 986162
1198964 986584
1198994 215268
1199978 622379
1200850 657162
1201045 343386
1201165 537339
1201705 445789
1202238 500652
1202955 287145
1203225 118901
1203813 928554
1204410 539979
1205369 815077
1206080 109077
1206524 131075
1206540 921288
1207533 324257
1207928 614932
1208123 211871
1208831 376780
1209161 590934
1210092 802632
1210341 253127
1210980 34429
1211334 201106
1212272 12774
1212818 852834
1213600 945541
1214352 755995
1214422 704049
1214861 910733
1215476 708947
1215843 182999
1216188 292268
1216368 267750
1217016 842505
1217661 243254
1218009 988008
1218853 356855
1219445 722189
1220047 926479
1220686 140883
1221417 669142
1221774 495574
1222526 18711
1223039 807756
1223733 11258
1224338 468090
1224715 837276
1225598 825443
1226544 367128
1226668 33063
1226820 208908
1227716 256250
1228363 24282
1229111 619940
1229762 65271
1230467 51353
1230746 10545
1231520 113660
1231571 421261
1231593 339855
1231904 33120
1232091 376082
1232535 734646
1232970 283873
1233200 375376
1233385 302894
1233947 471050
1233961 172371
1234108 475726
1234925 782937
1235414 825498
1235540 679852
1236492 319323
1236622 587302
1236652 224616
1236680 535180
1237546 922713
1237866 956939
1238488 969132
1239070 133518
1239250 800725
1239667 179900
1240393 276480
1240545 947180
1241242 504418
1241602 355125
1241925 683237
1242466 657035
1242726 60404
1243585 414809
1243957 857048
1244326 312839
1245273 309917
1246016 360820
1246754 799351
1247438 710698
1248344 961864
1249236 472025
1249617 829268
1249923 570345
1250715 551832
1251701 31676
1252440 837794
1253088 950023
1253576 890283
1253797 273378
1254438 595456
1255430 370925
1256175 270555
1256318 145210
1257272 648298
1258154 410655
1259057 920959
1259452 750622
1259702 233603
1259899 533769
1260331 576689
1260541 470106
1260699 533928
1261469 679106
1262249 965620
1262978 190977
1263561 752645
1264521 322781
1265518 756148
1266325 700605
1266890 203034
1267085 310023
1267131 223985
1267978 726977
1268690 399024
1269562 539142
1270411 244315
1270450 647344
1271378 511223
1272299 941786
1272968 768383
1273137 639578
1273384 858145
1273982 544817
1274451 77790
1274971 68316
1275063 864012
1275150 765080
1275391 714585
1276244 35194
1276552 934965
1276686 259455
1277563 587388
1278281 625889
1279109 681815
1279225 152189
1279850 124637
1280039 301642
1280364 638848
1280960 622345
1281753 738315
1281876 335910
1282292 638677
1282403 981131
1282433 413807
1282870 359188
1283426 353421
1283990 849550
1284413 980822
1285247 321897
1286068 438546
1286720 430549
1287564 968484
1288419 638973
1289017 377588
1289573 756818
1290065 671909
1290833 604452
1291368 989626
1291780 888210
1292349 383451
1292994 659726
1293574 19758
1293891 112998
1294087 155071
1294986 318238
1295930 752685
1296596 856156
1297568 791044
1297931 382364
1298672 191902
1299054 118534
1299083 604310
1299211 404961
1299397 854229
1299441 927621
1300027 966169
1300053 158777
1301023 67107
1301083 271705
1301310 997772
1302267 785342
1302790 884768
1303481 282890
1303486 867439
1303568 516571
1304209 3408
1305123 979715
1305781 160036
1306613 231179
1306673 327842
1307396 960758
1308059 284441
1308972 503514
1309372 804056
1310189 514215
1311009 131754
1311019 472343
1311743 317318
1312671 952028
1313489 303924
1313558 522954
1314200 149213
1315131 939430
1315395 14218
1315535 894835
1315750 267192
1316403 66075
1317164 242783
1317510 757163
1317986 910268
1318018 759301
1318879 464948
1319615 611117
1320381 185484
1321074 301789
1321652 571351
1322633 35561
1323361 785077
1324073 993270
1325064 59088
1325074 98156
1325238 509743
1325867 250213
1326397 142099
1326477 754085
1327420 980446
1327834 183660
1328159 124408
1328656 659820
1329256 283825
1330098 395704
1330649 899141
1331369 320821
1332109 9581
1332148 207479
1332205 214017
1333135 328337
1333678 319516
1334573 67605
1334675 946853
1335087 66678
1335390 453385
1336182 374627
1336383 556673
1337130 264425
1337604 611374
1337611 844763
1338203 968869
1338936 768192
1339076 553760
1339749 400218
1340431 454740
1341348 861736
1341439 324788
1341844 546214
1342696 88125
1343644 938729
1343732 649738
1343895 274856
1344669 200924
1344764 62814
1345202 69788
1345235 588362
1346054 221590
1346240 913402
1347104 906863
1347960 297390
1348776 486590
1348857 221598
1349836 913841
1350069 518247
1351061 292747
1351279 370681
1351521 288333
1352513 429473
1352734 331409
1352772 368307
1353526 726054
1353898 923354
1354247 134897
1354764 765460
1355498 360831
1356337 167282
1356806 653304
1357352 880950
1357558 30809
1357962 26101
1358283 135023
1358624 858589
1358658 605229
1359418 605793
1360409 439772
1361053 492868
1362028 127673
1362778 836222
1362917 788526
1363863 843389
1364476 957676
1364599 683829
1364986 846660
1365538 89946
1365882 303022
1366356 194431
1367207 820650
1368165 108426
1368933 411633
1369207 898889
1369780 432085
1369941 619817
1370933 24778
1371723 776393
1372506 642884
1372655 96936
1372937 574987
1373388 201438
1373802 558304
1373859 429778
1374778 116444
1375612 944120
1376229 854170
1377073 40564
1377244 991665
1377801 355983
1378498 3166
1378861 358374
1379324 847539
1379979 247365
1380222 32447
1380735 825487
1381011 808603
1381363 534204
1381422 315959
1381510 436823
1382440 290984
1382986 433389
1383924 424802
1383994 707487
1384215 437336
1385145 644614
1385950 219029
1386740 526086
1386747 923133
1386995 304480
1387133 903401
1388118 433716
1388970 311626
1389889 633225
1390401 867973
1390660 10841
1391349 557808
1392068 926665
1392821 157910
1393470 830336
1394174 549335
1394842 924979
1394996 628302
1395425 220835
1395963 783877
1396176 539314
1396272 532144
1396844 279592
1397588 470727
1397827 43431
1398705 307473
1398743 315293
1398922 503330
1399255 350000
1399772 607372
1400375 358055
1401282 46157
1401572 373376
1401829 636459
1402800 999475
1403687 435587
1404513 815309
1404882 685058
1405145 637746
1405724 133625
1406521 210701
1407148 631330
1407798 186959
1408395 53207
1409270 260940
1409937 46449
1409945 580013
1410256 849691
1410531 659012
1411450 164008
1412068 428678
1412591 72606
1413497 357701
1414402 747793
1414700 886679
1415457 865627
1416319 397451
1416552 786257
1417302 573168
1417555 23098
1417605 543212
1418592 684296
1418871 406076
1419665 731788
1420231 431134
1421000 549259
1421773 48711
1422282 231842
1422810 415947
1423437 198770
1424273 307204
1425075 4753
1425681 95943
1426526 122252
1427132 546848
1428076 61823
1428366 345523
1428695 146975
1429497 61375
1430219 748156
1430715 391304
1430940 304743
1431481 27082
1431679 996245
1431842 41421
1432024 122355
1432592 638283
1432653 868251
1432724 595702
1432967 510952
1433967 698893
1434861 158982
1435744 597033
1436057 926227
1436950 150033
1437421 365805
1437560 119051
1438391 341324
1439117 577461
1439966 663905
1440240 591230
1440940 73332
1441911 606444
1442029 12970
1442212 677586
1442555 931147
1443387 707274
1443825 823268
1444819 289911
1445738 585916
1446232 155618
1447137 419254
1447861 801866
1447994 384034
1448989 515707
1449803 528808
1450033 792687
1450356 590647
1450392 647080
1451002 879278
1451960 53998
1452621 14311
1453305 184864
1453847 668345
1453881 257202
1454581 622427
1454703 253352
1454723 954316
1454972 442072
1455197 89109
1455964 44324
1455997 546820
1456113 354943
1456423 27647
1456979 248359
1457052 366357
1457959 783070
1458533 140854
1459359 494343
1459475 586845
1459802 984335
1460268 55264
1460999 829035
1461150 334897
1461303 904830
1461855 659972
1462117 419357
1462192 969454
1462386 348053
1463008 241601
1464003 220957
1464995 242200
1465241 633417
1465964 7391
1466703 655680
1467158 141787
1467420 909368
1468116 936414
1468985 847083
1469654 777869
1470289 375872
1470320 178760
1471303 250052
1471946 605963
1472624 257608
1473185 650759
1473746 810158
1473760 515991
1474240 900235
1474926 779621
1475893 610372
1476518 210715
1476536 305366
1477169 851468
1478100 506922
1478300 61046
1478513 712806
1479305 4789
1480073 388781
1480885 347165
1481218 477279
1481979 619638
1482317 531281
1482688 946182
1483652 860842
1484054 821603
1485016 722460
1485533 708453
1486034 831819
1486945 575437
1487507 808537
1488042 602577
1488716 568386
1489297 112648
1489967 659557
1490528 815408
1491088 754512
1491456 433292
1491645 422043
1492191 276625
1492965 414738
1493774 435473
1494406 611975
1495262 739499
1495876 620368
1496594 240547
1496835 266143
1497395 78616
1498322 821284
1499284 774230
1500098 338490
1500906 938166
1501731 234527
1502166 222585
1502636 634169
1502759 800616
1502875 176299
1503704 364916
1504139 233837
1504355 765914
1505272 708212
1506045 360267
1506277 443077
1506396 547828
1506958 275816
1507288 188718
1508284 751154
1508346 179171
1508448 863826
1509295 310608
1510022 695127
1510934 299896
1511491 913757
1512374 417900
1513355 911988
1513403 8846
1513725 55804
1514250 657188
1514682 990580
1515530 60513
1515591 274906
1516335 216131
1517303 508123
1517418 911392
1517419 733542
1517924 445850
1517969 19197
1517998 354200
1518616 457761
1518906 10341
1519523 364032
1520063 950338
1520459 347158
1521124 708224
1522031 284057
1522118 903157
1522464 483497
1522911 878929
1523579 186558
1524098 221137
1524670 335538
1524754 827613
1525288 440550
1525517 91456
1526354 444970
1527220 950580
1527295 209470
1527868 513215
1528547 214345
1528992 210852
1529484 270356
1529916 694980
1530258 64845
1531035 313945
1531287 462558
1531411 898631
1532063 711874
1532790 209143
1533452 533076
1533677 993606
1534535 280437
1535127 698025
1535459 637153
1535690 752849
1536379 111283
1536595 758057
1537172 782822
1537959 43898
1538906 183809
1539156 195673
1539701 700128
1540262 595167
1541227 477551
1542188 172531
1543124 656094
1543273 791599
1543554 417352
1543838 585024
1544359 800910
1544636 459169
1544733 254232
1544993 612804
1545177 518124
1545228 662486
1545398 395982
1545503 310291
1546191 905805
1546932 917959
1547881 538014
1548735 639847
1549082 523954
1549178 43733
1550138 610872
1550543 815103
1551360 168054
1552315 400529
1553235 413463
1553989 777424
1554636 719093
1555036 417255
1555311 534693
1555957 374510
1556843 419068
1557308 476519
1557315 746737
1558286 844574
1559101 886637
1559569 893890
1559756 6374
1560457 572207
1560545 962483
1560868 767071
1561133 527464
1561338 519680
1561356 807981
1561810 855013
1562132 564636
1562410 342394
1563346 710213
1563397 596393
1563433 837569
1564163 83331
1564323 584420
1564504 610307
1565186 98764
1566115 81108
1566754 471269
1567140 149349
1567511 611277
1568015 613101
1568915 383443
1569631 534706
1570093 326327
1570230 563798
1570641 547464
1571529 104072
1572394 779276
1572819 597210
1573313 188085
1573566 588267
1574545 127135
1575162 473748
1575607 202563
1576436 886279
1576579 369258
1576665 570417
1576946 703132
1577721 710610
1577856 18952
1578123 258880
1578915 691122
1579175 497182
1579324 127696
1579371 546805
1579913 733260
1580585 358248
1580791 957753
1581408 647638
1582383 853201
1582997 919058
1583037 815516
1583119 599113
1583431 834157
1583647 291588
1583725 738858
1584430 532625
1584960 703297
1585639 4418
1586535 471118
1586986 689319
1586988 529827
1587131 373681
1587784 623606
1588443 944524
1588496 882053
1588705 960179
1589212 736300
1589512 36792
1589853 316086
1590214 102737
1591095 756116
1591133 414952
1591851 631696
1592335 356362
1593000 538760
1593885 809252
1594738 138657
1594898 581765
1595879 658973
1596235 90726
1596713 541691
1597201 943743
1598013 222660
1598703 541791
1598804 975805
1599262 278511
1599404 655988
1599982 406106
1600402 98320
1601296 656365
1601918 506345
1602508 198239
1603075 31372
1603315 77198
1603982 894539
1604861 691820
1605249 600917
1605330 464536
1605515 839155
1605790 820570
1606401 61352
1606855 927077
1607468 329264
1607625 257307
1608411 621494
1608759 604374
1608902 910558
1609227 564745
1609749 117718
1610416 707731
1610851 448079
1611678 249063
1612522 468092
1613011 314825
1613038 369143
1613318 597
1614263 923942
1614316 374689
1615132 237176
1615313 583153
1615529 188396
1616283 443605
1616866 418954
1617516 875152
1618201 128686
1618601 567685
1619225 623843
1619889 236260
1620111 739731
1621039 569008
1621285 759649
1622001 760679
1622950 979691
1623291 934847
1623528 526856
1624000 161039
1624064 268087
1624498 648659
1625267 478466
1626159 355617
1626657 727291
1626999 771070
1627557 688353
1627831 253477
1628536 118793
1629246 290520
1630063 541417
1630889 93341
1631446 3395
1631609 960086
1632387 509887
1632652 618201
1632658 485635
1632996 395601
1633340 3052
1634012 249162
1634969 515508
1635380 207941
1636022 931028
1636944 733482
1637886 865458
1638008 406879
1638634 336485
1639389 374304
1639896 417020
1640181 679667
1640230 27294
1640481 826044
1640809 461222
1641391 113734
1642389 491732
1643305 957074
1643805 840626
1644304 52064
1644648 998051
1645627 797808
1646620 142944
1646740 806235
1647497 246394
1648103 294553
1648815 378186
1649530 600743
1649950 662055
1650070 962166
1650946 235590
1651602 542475
1652272 388123
1652831 747252
1653738 857681
1654253 960875
1654358 262670
1654431 696631
1654662 228539
1654835 448077
1655312 81310
1655439 682141
1655736 57131
1656154 504198
1656677 732428
1657315 824538
1657627 235106
1657730 928544
1658023 518809
1658906 704439
1659138 721494
1659150 382178
1659476 349675
1659757 303167
1660435 530293
1660762 611462
1661439 261344
1661501 738533
1661568 848855
1662349 236843
1662579 127917
1663101 889215
1664028 24567
1664208 514149
1664497 153239
1665404 430305
1665806 252843
1666184 539873
1666215 871603
1666993 377716
1667232 555052
1667323 412572
1668287 55810
1668800 820285
1669541 879393
1670223 424269
1671152 978158
1671304 845026
1672277 503285
1673095 22537
1673459 5701
1674407 943926
1674884 573313
1675395 10132
1676239 84129
1677164 23324
1678132 753752
1678858 954717
1678897 787744
1679723 83718
1679870 649099
1680528 594454
1680620 55916
1681290 918277
1681986 306513
1682272 965282
1683206 86126
1683509 920640
1684347 661
1684427 182427
1685258 333480
1685802 477514
1686350 677281
1686419 533691
1687137 847798
1687964 828024
1688258 604566
1688799 145666
1689388 275558
1690172 191446
1690891 693839
1691467 991379
1691788 792160
1692782 729575
1693617 270208
1694377 338623
1694569 629341
1694627 516715
1694666 395985
1695528 165951
1696372 933654
1696911 908844
1697223 797816
1697887 284380
1697933 814922
1698632 781594
1699603 494880
1699944 918098
1700311 581798
1700572 89908
1700748 707855
1701543 246478
1701985 645087
1702784 812835
1703017 853270
1703707 624486
1704222 866363
1704523 733582
1705143 666271
1706140 33844
1706530 430501
1707520 170847
1708446 742303
1708777 915210
1709666 48890
1710293 469986
1711280 948402
1711661 182663
1712492 663200
1713288 947026
1713834 573664
1713895 309015
1714318 167178
1715192 213833
1715569 582312
1715607 547482
1716525 150249
1717107 36589
1717454 557270
1718430 750012
1718714 782189
1719646 397388
1719729 310481
1720203 801704
1720615 173254
1720670 998822
1720995 590773
1721387 866629
1721585 846044
1722247 942993
1722306 350312
1723258 628554
1723335 628702
1724141 296096
1724592 711907
1724668 272380
1725326 485606
1725459 748884
1726081 419244
1726244 38631
1726534 372534
1726679 864588
1727378 166404
1727690 240549
1728605 846268
1729149 704928
1729583 566133
1729672 344176
1729865 683705
1729994 519696
1730785 724370
1730977 7194
1731150 64978
1731696 573149
1731751 515518
1731896 223206
1732609 195340
1733297 442802
1733515 570771
1733604 536520
1734206 999418
1735065 887896
1736012 816366
1736893 843699
1737837 436434
1737916 165539
1738004 79018
1738784 696553
1738799 202312
1739149 559803
1739244 673532
1739552 545237
1739768 835126
1740269 885947
1740659 443415
1741654 270792
1741748 59867
1741903 881505
1742810 733692
1742919 877974
1743770 270564
1744340 922116
1744639 978655
1745527 815396
1746318 446325
1746847 762567
1747675 150542
1747903 812495
1748158 678810
1748852 119939
1749685 31648
1749709 336183
1750422 772998
1750448 19725
1750577 266103
1750732 608596
1750793 942577
1751714 900998
1752347 897972
1752929 106545
1753659 680286
1754465 853713
1754918 946383
1755043 162350
1755249 9759
1755280 483176
1755586 519577
1755959 53519
1756469 719083
1756539 762402
1757447 37934
1757970 462864
1758836 409174
1758976 750510
1759538 437804
1760230 161328
1760486 554228
1760693 677543
1761679 334308
1762502 100039
1763274 682496
1763513 322628
1763530 73707
1764487 206876
1765099 152791
1765717 708593
1766567 207220
1767354 512654
1767668 823228
1768580 733405
1769112 370535
1769921 569997
1769976 120072
1770267 610311
1770341 352752
1770470 770345
1770622 117633
1771233 526820
1772230 606655
1772243 963834
1772936 971515
1773012 375561
1773366 758938
1774197 887204
1774892 516337
1775394 932003
1775832 692157
1776005 380370
1776618 397069
1776720 904474
1777266 799986
1777835 702424
1778625 858447
1779200 17594
1780151 215945
1780750 921306
1781404 864976
1781424 687145
1781659 147928
1782417 899750
1782946 337358
1783832 506390
1784223 487744
1784802 586872
1785491 381704
1785835 318785
1786625 939932
1787224 859213
1787770 528451
1788465 991447
1789300 902185
1789985 499550
1790349 352083
1790918 858694
1791424 450471
1792031 730469
1792183 598551
1793057 869230
1793665 870867
1793681 315410
1794167 200955
1794660 467395
1795033 221280
1795777 307702
1795890 197485
1796684 857622
1797469 469375
1797877 293597
1798876 825210
1799238 459340
1800117 502590
1800120 281357
1800425 53252
1800813 40612
1801673 344721
1802523 206452
1802838 345026
1803398 901932
1803960 472015
1804391 883804
1804837 912705
1805456 433846
1805626 958681
1805771 898018
1806454 629479
1806752 951674
1807673 631870
1808193 913090
1808554 96885
1809313 6970
1809813 578151
1809978 643165
1810683 712943
1811462 921159
1811627 453645
1812302 148055
1812613 845069
1813502 168957
1813961 589138
1813993 31422
1814328 957355
1815094 609520
1815970 794984
1816013 720538
1816762 870835
1817361 77077
1818296 66418
1818550 721093
1819431 962682
1819502 155277
1819979 476107
1820551 500668
1821485 984426
1822032 622881
1822348 100062
1822783 867204
1822862 458560
1822983 450508
1823099 818296
1823988 279128
1824846 306885
1825603 386338
1826455 892593
1827182 816970
1827365 32582
1827802 902770
1827985 749860
1828215 753775
1828397 555968
1829260 70958
1829902 316681
1830019 902563
1830496 560985
1830623 869088
1831096 445664
1831934 296711
1832590 856694
1832878 894576
1833150 926832
1833188 408927
1833296 781567
1833933 36330
1834236 631185
1834665 698272
1834897 92374
1835127 233217
1835644 453052
1835941 503354
1836688 673636
1836701 639312
1837449 527814
1838242 882183
1839110 591478
1840010 666618
1840034 46601
1840171 345871
1840666 289889
1841260 856938
1841637 794166
1842311 425180
1843132 186034
1843271 872766
1843717 531483
1844378 969924
1845122 226479
1845683 330757
1846050 430107
1847032 358737
1847328 521491
1847757 66369
1848638 589317
1849043 315692
1849071 134846
1850057 332025
1850274 647569
1850538 839201
1850945 826517
1851653 240416
1852621 662825
1853119 771599
1853290 370571
1853498 748645
1853805 799678
1853851 828571
1853976 839252
1854191 351259
1854329 799585
1855025 993172
1855335 628970
1855882 881040
1855906 66532
1856283 386601
1856290 230177
1856455 509380
1856631 239883
1857338 520049
1857354 343908
1858310 773260
1858390 458567
1858792 153961
1859664 174375
1859962 300041
1860949 629635
1861654 68884
1861999 709794
1862326 640789
1862803 926589
1862998 821103
1863861 277336
1864440 61417
1864763 682604
1865045 656610
1865844 390856
1866256 988447
1866394 306054
1866441 208390
1866746 946149
1867187 940886
1868010 131219
1868948 110075
1869153 617380
1869237 630357
1869371 939109
1869882 279157
1870868 718389
1871390 712988
1872221 119001
1873189 373389
1873726 619253
1874378 543215
1874822 769049
1875454 155849
1876214 922210
1877125 528726
1877781 706673
1878207 37461
1879077 19433
1879613 931346
1879832 570398
1880693 608378
1881560 938014
1882310 181626
1882780 108731
1883773 35838
1884369 797634
1884966 206
1885868 587563
1886146 510472
1887063 858183
1887536 820701
1888221 131955
1888622 705431
1889418 510701
1889845 132692
1890551 58186
1891097 218078
1891360 960779
1892217 466964
1892471 959947
1892483 659918
1893207 447157
1893253 872511
1893989 550647
1894424 777462
1894430 647767
1894630 409233
1895562 431573
1896277 675039
1896363 296453
1896744 766901
1897574 797666
1898223 963299
1898690 527356
1899218 654195
1899339 202316
1899921 890566
1900249 734359
1901139 801070
1901776 117462
1902425 673092
1902455 280644
1902563 535427
1903413 209144
1903452 499372
1903547 850474
1904246 749637
1905200 603857
1905653 360849
1906137 17921
1906591 270112
1907345 571897
1907923 481858
1908560 965178
1908844 841154
1909479 612666
1910035 306991
1910912 88170
1911689 41454
1912545 441925
1912555 468973
1912649 373479
1913353 587482
1914231 436838
1914688 695806
1915385 804497
1916033 889335
1916499 597068
1916790 550704
1917469 211278
1918151 549713
1918964 31305
1919733 285842
1920687 482955
1921210 272247
1921413 273143
1921872 165089
1922862 619299
1923562 433009
1924048 137920
1924753 288867
1925007 557073
1925502 797802
1926485 333021
1926782 20183
1927620 338630
1927720 465256
1928180 805475
1929000 483609
1929126 696989
1929721 436926
1929961 684233
1930540 787975
1931308 200213
1932225 244257
1932869 990672
1933648 109134
1934236 797426
1934365 764253
1934530 666627
1934925 537123
1935810 953572
1935851 958598
1935941 702561
1935985 120124
1936249 700817
1936835 894758
1937138 839749
1937632 873778
1938291 260997
1938945 648215
1939084 400257
1939713 766212
1940057 24189
1940297 285884
1940333 995676
1940866 58526
1941270 570373
1941737 66138
1942422 535951
1943420 643073
1944064 918241
1944092 236768
1944778 599767
1945636 756441
1946171 938722
1947104 274406
1947529 65822
1947733 367130
1948540 348518
1948649 765444
1948720 40945
1948764 4149
1948876 505333
1948996 139482
1949260 896499
1949854 382271
1950058 313574
1950143 556929
1951048 705184
1952037 436057
1952513 585378
1953156 976860
1953234 728431
1953876 72774
1954516 943680
1955362 177695
1955874 656862
1956444 349067
1956973 467150
1957075 332330
1957377 152195
1958339 575379
1958371 995930
1958590 293044
1959305 335917
1960192 394298
1961175 252686
1961878 817185
1962328 749109
1962937 197640
1963218 406363
1963390 426685
1963945 923883
1964589 622541
1965567 435
1965666 946368
1965896 661478
1966606 284512
1967514 97550
1968447 153704
1969210 203573
1970112 505527
1970418 284502
1971278 878601
1971492 403072
1972207 721006
1972313 648108
1972891 321677
1973796 566782
1974302 230041
1975122 855561
1975599 296234
1975838 338669
1976779 300193
1977317 825647
1977909 156279
1978369 429493
1979086 833076
1979138 814342
1979381 664819
1979615 725491
1979849 917768
1979992 501825
1980487 520121
1980965 336641
1981364 744103
1982223 429881
1982860 438154
1983199 512080
1983400 823201
1983456 549793
1984385 332677
1984478 367732
1985344 415704
1986284 841277
1986573 922700
1987318 724869
1987554 494139
1988364 481059
1988966 944536
1989716 907522
1989866 182479
1989969 361887
1990624 417100
1991398 518033
1992320 592087
1992518 147804
1993510 406044
1993696 549612
1994302 56327
1994607 802137
1995601 576591
1996480 52674
1997345 403258
1998121 594816
1998399 627424
1998746 331275
1999136 125182
1999766 308761
2000581 438324
2001114 352169
2001695 330794
2002274 161034
2002705 402335
2003223 193105
2003515 924876
2003921 161869
2004704 125091
2005247 352393
2005321 130633
2006062 518512
2006501 150274
2006598 370015
2007148 852934
2007336 690407
2007681 856622
2008169 727217
2009003 554333
2009557 626268
2010018 314806
2010492 677756
2010754 112288
2011535 582182
2012186 260551
2012306 608140
2012631 611785
2013306 663733
2014174 472268
2014979 380774
2015190 291398
2015277 895000
2015787 146711
2015793 456568
2015915 828938
2016652 426002
2016699 958089
2017698 530120
2018449 291285
2018571 48367
2019448 994040
2020422 352420
2020538 401624
2021361 709961
2021573 440607
2021830 318730
2021901 58422
2022262 91915
2023233 297620
2023417 402727
2024176 299461
2025077 918049
2025958 310720
2026498 391475
2026501 167493
2027194 828013
2028050 45734
2028265 474479
2028658 611208
2028842 311741
2029193 131486
2029239 210302
2029718 469809
2030251 809552
2030449 558083
2030548 404059
2030725 61040
2031093 761816
2031635 163511
2032222 83354
2032546 477099
2033492 812503
2034057 434292
2034276 16417
2034470 64793
2035097 623053
2035708 390676
2036111 637186
2037004 107777
2037690 761171
2037808 153485
2038561 174869
2038913 255175
2039269 103678
2040074 606868
2040350 744220
2041058 711040
2041439 214795
2041480 596553
2042438 91584
2043278 878236
2043797 655857
2044154 336875
2044739 338342
2044954 541207
2045771 506941
2046249 248230
2046864 995204
2047432 655220
2047662 730738
2047980 588860
2048535 80808
2049113 826822
2049695 393824
2050367 868436
2051327 538212
2051854 336436
2051954 443237
2052640 978460
2052882 223399
2053119 200073
2053919 326686
2054535 841206
2054857 509524
2055447 971386
2055977 739916
2056519 141897
2056657 202052
2057135 455235
2057965 587395
2058706 80565
2059582 404627
2060335 21213
2061265 237501
2061906 309377
2062675 291922
2063121 635239
2063306 966599
2063441 933175
2064114 467636
2064959 109333
2065074 227331
2065778 840077
2066691 757300
2067543 182546
2068502 81660
2069406 434172
2070263 749237
2071144 351931
2071509 688521
2071651 169111
2072641 34369
2073519 866007
2074497 460078
2075473 279031
2075766 77286
2076330 454333
2077305 573875
2078225 922435
2078752 461878
2079309 501014
2079609 612070
2080077 377025
2080266 634613
2080909 191197
2081892 225833
2082311 337849
2082951 718626
2082995 554715
2083689 793647
2084227 142248
2084901 387632
2085888 812162
2086502 675808
2087264 840555
2087638 348101
2088020 459147
2088775 986125
2089589 696442
2090198 41259
2090838 545242
2091433 105290
2091516 815048
2091809 680557
2092128 647146
2092261 213668
2092960 482732
2093306 646507
2093693 198124
2093746 599280
2094000 70332
2094733 808303
2094930 521250
2095389 817601
2095863 725855
2095864 632899
2096690 545929
2097043 382001
2097275 505713
2097514 418833
2098033 496396
2098640 22234
2098978 311250
2099283 258874
2100181 231161
2100861 977004
2101752 684239
2102103 325903
2102626 871839
2103178 613630
2103762 311801
2104462 524048
2104833 164684
2104994 106227
2105553 79266
2105611 958491
2106162 72888
2106180 486754
2107095 218331
2107632 656877
2107867 538767
2108653 942675
2108901 597229
2109884 675282
2109934 388511
2110284 384403
2111058 347199
2111897 101424
2112551 387731
2113344 646508
2113430 458637
2114079 531259
2114722 464889
2114994 769915
2115304 613103
2115577 703151
2116410 348239
2116782 413341
2117134 391903
2117728 640981
2117979 998351
2118071 100474
2118946 305471
2119397 926150
2119637 778957
2119696 897913
2120018 813626
2120687 685508
2121323 885199
2121413 831088
2122279 504369
2122323 176222
2122968 70412
2123842 919318
2124417 20479
2125144 725379
2125898 588631
2126270 254487
2126438 236647
2127173 727536
2127442 564397
2128300 452626
2128420 215896
2128783 121702
2128835 905426
2129452 424330
2130141 385309
2130242 170724
2130663 480367
2130991 445030
2131081 595948
2131661 622090
2131906 520935
2132098 202997
2132552 254548
2133302 265773
2134083 659952
2134162 60723
2135055 411155
2135566 730936
2135969 371992
2136280 258267
2137007 436441
2137627 699639
2138119 453552
2138213 315682
2139065 390797
2139261 240658
2139822 992653
2140753 674031
2141585 228473
2142247 223970
2142807 814348
2142822 702069
2143756 119139
2143936 652549
2144193 671677
2144776 925708
2145446 217500
2145504 3650
2145979 83786
2146760 74855
2146942 569260
2147821 649712
2147823 589077
2148700 406034
2149286 934591
2149563 297276
2149652 727563
2150004 507317
2150487 320557
2150829 228163
2150955 204212
2151463 529862
2151766 440433
2152217 482159
2152903 646838
2153383 622220
2153645 174139
2154448 682965
2154672 893158
2155339 66935
2155471 4560
2155982 495899
2156265 239655
2156497 981289
2156953 892167
2157239 217776
2157708 604655
2158359 299284
2159348 527732
2160014 825321
2160353 750396
2160955 577366
2161131 315049
2161599 194360
2162515 56951
2163279 21696
2163440 898367
2163839 587127
2164195 480922
2164466 357494
2165303 306729
2165512 95286
2166474 657959
2166550 412833
2167039 470415
2167931 787511
2168846 52264
2169657 249044
2170590 59319
2170996 419061
2171292 579576
2171416 297434
2171634 169786
2172502 868078
2173337 116058
2174132 521785
2174374 686397
2174400 924374
2175306 389160
2176152 983587
2176348 35003
2176964 816218
2177070 85957
2177739 29378
2178248 796061
2178271 40942
2178423 897169
2179352 925415
2179534 475001
2180383 268277
2180680 263376
2180807 602615
2181072 748495
2181908 497275
2182074 205673
2182891 952955
2183719 984049
2183943 326380
2184750 915581
2185750 235638
2186351 146486
2187138 111361
2187858 579183
2188309 962741
2189000 170523
2189380 772578
2189923 844290
2190756 367320
2191419 66553
2192363 756711
2192760 445537
2192870 63087
2193581 9569
2194404 184505
2194662 423831
2195143 461020
2195862 24710
2196829 309162
2197347 351729
2198120 316785
2198516 838861
2199033 281626
2199856 898898
2200595 117657
2200767 454868
2201706 319835
2202285 923549
2202299 690668
2202374 695270
2202603 346036
2203535 47192
2204035 262319
2205009 964228
2205547 244157
2206329 22673
2206826 426876
2207453 956479
2208094 181552
2208492 29881
2208880 163330
2209591 119135
2210368 801256
2211318 648153
2211784 196104
2212522 139641
2212537 442432
2213530 916519
2214017 898584
2214685 43448
2215490 561394
2215627 607482
2215743 196365
2215979 538190
2216252 829565
2216990 925622
2217674 454792
2217961 102584
2218352 678736
2218838 17000
2219018 327638
2219216 831336
2219877 595930
2219927 915160
2220442 459191
2220873 874885
2221186 429827
2222029 134204
2222573 354567
2223341 961172
2223755 811497
2224081 879744
2225075 416589
2225163 350141
2225748 127743
2225962 452363
2226585 930256
2226587 18122
2227505 80689
2227869 99752
2228374 268154
2228857 835068
2228952 318190
2229844 938177
2230105 456991
2230176 165006
2230737 660922
2231240 884957
2231955 527937
2232928 714247
2233607 182116
2234149 816337
2234210 218741
2234764 847855
2235711 516347
2235729 880407
2236271 489741
2236448 252105
2236978 176294
2237845 15800
2238032 485222
2238693 695160
2239200 153408
2239537 219856
2239679 826783
2239868 977084
2240331 469243
2240728 298924
2240927 558247
2241154 723425
2241825 560897
2242618 746418
2242959 373623
2243848 891980
2244459 379206
2244756 848274
2244996 848565
2245368 414608
2245885 992077
2246424 786265
2247274 783410
2247521 695416
2247595 914749
2248120 674119
2248178 289919
2248466 722638
2248586 857851
2248627 944138
2248938 640147
2249527 946552
2250431 187280
2250546 644554
2250819 680805
2251149 601763
2251467 794469
2251626 142113
2251903 362246
2252613 338727
2253051 71901
2253631 836312
2253815 625735
2254670 266193
2255322 716336
2256084 430171
2256484 792118
2256970 752413
2257203 387888
2257676 792000
2257960 866218
2258510 498640
2259457 570904
2259776 464420
2259816 990328
2260249 666536
2260865 819817
2261594 378174
2261651 687973
2262397 111972
2262902 692875
2263708 941125
2264229 388404
2264764 463201
2264893 422356
2265154 591997
2265193 181985
2265286 14463
2265907 315088
2266684 837292
2267297 837259
2267732 645496
2268187 740262
2268507 758626
2268755 676061
2269317 530598
2269912 117017
2270583 103658
2271245 339108
2271730 199196
2272226 563120
2273183 163133
2274066 711808
2274493 526105
2275412 679532
2276358 399175
2277047 497657
2277107 381136
2277276 785488
2277513 354454
2278375 335474
2279141 535675
2279705 113187
2280618 601391
2281198 794949
2282061 969187
2282293 670367
2282681 901012
2282850 397982
2283581 554277
2283967 48833
2284353 373070
2284990 248465
2285431 795812
2286351 455505
2286552 287382
2287061 406401
2287300 918244
2287965 731118
2288472 1745
2289340 121728
2289801 993201
2290361 26055
2290464 375247
2290701 471450
2291040 912276
2291941 68648
2292390 667904
2293043 969872
2293151 231181
2293925 589735
2294090 929314
2294373 207741
2295097 921514
2295380 853839
2296046 788765
2296346 550717
2297251 791858
2297352 21995
2297867 226585
2298829 840596
2299583 326318
2300094 994273
2301054 685403
2301100 414915
2301148 629268
2302140 231342
2303016 217512
2303095 714393
2303960 852535
2304525 866294
2304894 218771
2305077 230888
2305510 513360
2306368 371301
2307100 405696
2307199 758111
2307209 340328
2307393 292851
2308336 465681
2309273 740778
2309484 754593
2310068 839950
2310664 676245
2311231 886347
2311716 128754
2312192 418085
2312756 111708
2313161 555533
2313634 290561
2313955 356130
2314058 716380
2314984 801480
2315089 215526
2315274 177224
2316087 407754
2316694 468182
2317030 5498
2317526 585104
2318139 434741
2318864 597938
2319251 791964
2320072 297302
2321065 137327
2322041 673083
2322885 932711
2322979 236536
2323402 392339
2323545 412061
2324532 456151
2324653 596983
2324970 804409
2325912 160186
2326004 494879
2326138 679536
2326319 197191
2327002 222950
2327730 623953
2328074 986007
2328995 319288
2329205 390602
2329470 650193
2329711 22113
2329936 49712
2330248 539439
2330751 806382
2330773 670541
2331716 394084
2332201 440656
2332432 762710
2332725 896070
2333104 123453
2333431 307039
2334368 215171
2334690 905487
2335043 110411
2335091 508673
2335415 539044
2336178 715907
2336829 123938
2337555 35210
2338554 611595
2338800 12643
2339486 295051
2339532 59489
2339692 780921
2340509 551127
2340521 78560
2341403 856119
2341860 994308
2342230 884610
2342621 701156
2343370 48575
2344282 209783
2345101 193544
2345779 452734
2346666 690391
2347076 904424
2347749 424765
2348696 851153
2348749 585537
2349236 526378
2349523 451022
2350157 534933
2350262 52331
2351197 193226
2351495 219035
2352460 297611
2352724 366564
2352853 466581
2353721 396236
2354541 743645
2354946 916055
2355766 406093
2356007 759382
2356583 448760
2357370 762105
2358052 813210
2358655 663638
2359214 193113
2360085 397884
2360992 216825
2361146 476
2361980 18940
2362463 244885
2362499 282080
2362744 620881
2362945 51236
2363316 358098
2363620 9478
2364300 313092
2364301 483761
2365053 791017
2365666 372920
2366628 438468
2366919 731436
2367418 917738
2367564 870701
2367874 621220
2367987 374132
2368415 460030
2369168 592709
2369726 753112
2369907 874549
2370165 81139
2370789 784019
2371057 138995
2371813 642667
2372788 256033
2373710 595240
2374668 967020
2375259 292422
2375797 678856
2375938 856914
2375990 485935
2376800 767978
2377355 533704
2378234 308238
2378629 696516
2379056 792193
2379152 569147
2379219 576901
2379792 438943
2379872 592734
2380734 203596
2380970 347553
2381454 555122
2381582 442556
2382393 359380
2382505 296708
2382925 240763
2383264 736332
2383623 442198
2383915 272664
2384820 659738
2385802 498565
2385874 743603
2386572 870292
2387273 633807
2388028 60423
2388267 712181
2388765 881295
2388996 234772
2389891 419742
2390326 376768
2391317 596008
2392001 86923
2392915 259809
2393899 476314
2393972 700243
2394204 919283
2394900 149280
2395568 203326
2395818 901151
2395906 177915
2396610 370984
2397371 263698
2398191 468039
2398781 428250
2399247 107665
2399866 486332
2400700 811084
2401154 548663
2401639 265305
2402035 857808
2402039 534263
2402813 470659
2403303 276060
2403428 825571
2404203 852235
2404903 159245
2405811 868700
2405900 939018
2406770 690771
2407643 400420
2407947 686676
2408655 738016
2409457 556242
2410128 351037
2410313 559299
2410376 467274
2410496 620330
2410928 882269
2411390 793696
2411680 991752
2412106 371909
2412154 519619
2412978 833994
2413222 769351
2413864 884913
2414250 453494
2414934 44417
2415621 715760
2415870 923373
2415899 347400
2416525 372114
2417118 179804
2417759 325375
2418751 301588
2419330 41473
2420281 46238
2421148 82441
2421974 831104
2422907 590980
2423441 720228
2424317 645495
2424756 253
2424844 597923
2425335 832463
2426244 374008
2426710 701506
2426908 327703
2426921 611463
2427065 806132
2427824 426342
2428316 106823
2429314 190008
2429562 782447
2430135 644486
2430204 59960
2430264 732465
2430861 640576
2431571 171551
2431794 848836
2432641 279535
2433115 955787
2433156 928481
2433869 861116
2434673 375707
2435224 429183
2435533 117341
2435726 163779
2436134 639974
2436583 455475
2437146 925703
2437776 63481
2437777 604853
2438130 801844
2438554 372053
2439132 897959
2439420 232524
2439453 802687
2440413 142065
2440812 528602
2441214 695729
2441918 183728
2442321 737023
2442721 451071
2443235 629853
2443241 971757
2443406 373063
2444403 362601
2445311 860856
2445318 337751
2446232 589408
2446922 147913
2447899 982384
2448411 409551
2448756 249791
2449417 636546
2450069 917913
2450900 522007
2451644 217467
2452637 154283
2453521 150612
2453587 334401
2453799 72989
2454245 841919
2454983 888641
2455385 540177
2456337 725030
2456662 474050
2457381 111243
2458169 726981
2458226 794332
2458753 966109
2459506 456997
2459729 811002
2460634 115478
2461536 75336
2462480 959180
2463309 229803
2463416 6738
2463713 771331
2463729 980343
2463770 52978
2464060 736559
2464962 22948
2465839 629991
2466632 81387
2467291 346539
2467396 793196
2468171 606049
2468809 933349
2469209 590259
2469862 349394
2469981 38791
2470513 648232
2470714 216930
2471227 2845
2471810 903258
2472804 246016
2473699 658717
2474139 318723
2474258 773857
2474685 399645
2475362 670774
2475876 778467
2475915 852008
2476160 537599
2476643 154534
2477633 360866
2478191 685724
2479134 470154
2479173 621765
2479499 600769
2480055 206483
2480747 179290
2480897 365509
2480939 341584
2481816 893021
2482098 650382
2482657 962256
2483519 326859
2483708 852287
2484552 179348
2485506 161460
2486101 415127
2486643 765889
2486870 64745
2486968 110945
2487061 38847
2487692 420148
2488376 70961
2488655 639797
2489572 828974
2489753 149823
2490087 379462
2490984 181500
2491444 407146
2491791 742652
2492564 853230
2493247 432272
2493399 563291
2494002 656336
2494302 600109
2494488 561669
2494965 117099
2495945 772001
2496941 262932
2497024 734052
2497536 246069
2498411 638888
2498870 890397
2499190 773473
2499373 578916
2500098 222504
2500194 311826
2500575 863206
2500832 504505
2501641 27548
2502285 805847
2502518 915554
2503007 32527
2503025 837490
2503828 309787
2503995 804631
2504323 101572
2504728 34262
2505591 341556
2505983 768806
2506217 713947
2506435 116255
2507020 471568
2507837 774508
2508608 691211
2508992 782400
2509965 210519
2510583 329137
2511144 678390
2511836 93663
2512764 922193
2513425 180692
2513875 974092
2514471 828493
2514845 530063
2515059 660680
2515859 14896
2515924 854730
2516222 285671
2516537 949536
2516683 318458
2517399 773133
2517952 667636
2518320 554212
2518869 880358
2519282 978551
2519637 195820
2519665 230281
2519961 243783
2520152 948433
2520293 796929
2521185 164222
2521753 699974
2522161 178741
2522926 133444
2523411 542606
2524176 352284
2524541 348126
2524695 795164
2525250 82520
2525453 380366
2525456 877447
2526429 684233
2526689 917634
2526881 887543
2527445 82751
2527865 974860
2528644 877036
2529027 757134
2529240 190562
2529864 753964
2530457 359138
2531410 339720
2532236 620614
2532818 265359
2533528 971137
2533649 88361
2534112 120076
2534488 350247
2535181 496675
2535225 572710
2535941 178373
2536757 927807
2537135 654473
2537607 1242
2538484 36093
2539158 580312
2539239 682834
2539870 355814
2540779 129304
2541097 913713
2541174 339844
2541202 675385
2541983 661069
2542055 989886
2542880 495027
2543626 816860
2543664 437980
2543852 692592
2544355 172495
2544934 373978
2545802 600766
2546252 692022
2546376 565693
2546446 849894
2546702 218663
2546920 665952
2547215 431317
2547798 732045
2548306 696447
2548615 208410
2549230 103836
2549933 441922
2549954 385588
2550257 61745
2550761 865983
2551492 439990
2552204 928273
2552355 613955
2552411 886849
2553298 486912
2553952 847340
2554818 412822
2555131 800593
2555350 409335
2555718 938697
2556657 270315
2557060 52118
2557528 431963
2557874 518726
2558591 323749
2559569 134886
2560336 964694
2560686 923108
2560693 784426
2561645 234555
2562619 548218
2562713 96210
2563439 119512
2563898 490262
2564379 137767
2564839 835289
2565085 6927
2565606 325772
2566269 173591
2566456 904635
2567416 43841
2567498 818309
2568269 843130
2569117 237342
2569515 372027
2569859 801547
2570376 328294
2570700 947887
2570920 58826
2571133 174366
2571900 78527
2572011 603589
2572809 461821
2572915 548062
2573569 14826
2573812 50420
2574403 394583
2575341 581788
2575885 886768
2576485 913302
2577058 972314
2577113 784107
2577264 844008
2578002 4296
2578422 119673
2578852 491372
2579581 675419
2579685 642084
2580532 559532
2580801 926870
2581302 695870
2581317 740092
2582185 708979
2582590 372353
2582656 845690
2583438 497848
2583976 392649
2584555 362314
2584928 879495
2585324 383810
2585628 215903
2586464 380030
2586834 118585
2586958 893665
2586982 253914
2587830 490382
2588004 299083
2588688 889105
2589167 791898
2589565 776581
2589704 362089
2590172 346681
2590290 987731
2590883 681649
2591276 273445
2591924 518788
2592767 773595
2593158 516197
2593523 843067
2593896 500973
2594192 495753
2594273 51121
2594648 933079
2595521 478622
2596422 11050
2596851 200060
2597192 811046
2597270 337589
2597524 360184
2598407 459043
2598633 648453
2599166 448742
2599559 821630
2599610 613534
2600202 528823
2601171 995691
2601307 808160
2601450 974632
2601615 849814
2601913 402956
2602866 336974
2603232 816314
2604125 976442
2604663 6937
2604943 153786
2605841 158006
2606122 946240
2607060 614909
2607999 369360
2608695 272744
2608965 683347
2609702 440695
2609975 880877
2610893 487692
2611801 751197
2612541 824298
2613161 631793
2613249 160670
2613416 501686
2613682 885166
2613818 869537
2614377 332065
2614524 711503
2614842 586413
2615086 234815
2615322 306782
2615982 35845
2616657 31758
2617289 658411
2617833 521534
2618245 397742
2619102 733564
2619940 222238
2620003 191311
2620519 874912
2621365 701453
2621654 611648
2622431 845965
2622794 280211
2622829 116388
2622984 579257
2623441 748228
2623984 350495
2624524 611115
2624948 559834
2625448 573132
2625755 264789
2626449 375728
2626588 837163
2626923 623892
2627811 488621
2628242 637325
2628490 528310
2629474 991044
2629878 923906
2630496 733237
2631341 140586
2631864 34034
2632682 35720
2632731 639441
2633003 963690
2633412 793721
2633653 128318
2634634 827053
2635102 589820
2635225 669106
2636090 400968
2636775 202301
2637466 79716
2637664 877220
2638530 228191
2639294 166067
2639889 460820
2640579 529074
2641295 703727
2641967 749827
2641981 207384
2642259 165977
2643091 59150
2643190 183972
2643245 136758
2643720 361594
2643937 446448
2644441 17327
2644882 695349
2645515 897740
2645746 282471
2645943 304399
2646179 105645
2646418 693378
2646591 668952
2647518 836007
2647625 443706
2648492 838650
2648867 562186
2649078 201799
2650006 827962
2650518 61686
2651222 836128
2651683 352010
2652495 872984
2652836 304448
2653759 985597
2653827 730690
2654372 624149
2655330 498947
2655875 732728
2656215 381276
2656635 419649
2657094 552843
2657568 615661
2657744 79144
2658707 88352
2659341 785686
2659992 345862
2660281 2482
2661053 132460
2661767 176191
2661857 878566
2662344 981597
2662674 352801
2663200 343318
2663705 170478
2663771 178644
2664426 954165
2664823 368799
2665386 168213
2665575 644991
2666080 460878
2666243 381077
2666515 352176
2667504 363230
2668140 620012
2668676 574359
2668742 732120
2668796 455144
2669584 766793
2669628 3489
2670073 847039
2670199 241329
2670228 818334
2670378 789055
2670598 621027
2671513 269504
2671517 694102
2672314 560287
2672907 675526
2673676 289482
2674129 519489
2674567 7654
2674676 38135
2675358 223428
2676100 759623
2676918 81361
2677361 29608
2677662 112439
2678395 293284
2678674 316678
2679411 697009
2680098 234257
2681069 196823
2681137 268440
2681719 663916
2682245 500922
2682409 879751
2682410
