2408
450 919146
1151 361277
2028 119841
2211 582321
2665 444696
3367 838917
3718 591078
4363 929874
4925 742235
5545 417828
5712 398150
6499 196724
7010 617791
7539 119151
7909 124591
8565 727955
8943 441538
9569 238519
9662 882686
9678 849692
10155 969713
10542 677460
10967 193340
11536 348413
12235 230247
12596 446954
12930 138149
13392 828870
14187 392719
14873 362333
15128 907936
15610 958
16426 810253
16772 589323
17089 295580
17352 803804
18245 95454
18248 239579
19115 701447
19444 83650
20037 11889
20761 135100
21262 388622
21969 553110
22392 874071
22861 335726
23085 463055
23109 640915
23404 966269
24230 543564
24898 419975
25755 447463
26077 326137
26606 554711
26879 820606
27654 637478
28594 537310
29325 983650
29696 504670
30591 509205
31032 946990
31943 447182
32074 657541
32877 338744
33120 740415
34101 370204
34624 145443
35251 884178
36130 927902
36392 122205
36578 229390
37057 620200
37730 893727
38125 581641
39008 580328
39055 827240
39921 517608
40031 941136
40066 918638
41058 401411
41743 460522
41989 766933
42209 380986
42945 503154
43702 90945
44137 970564
44911 27529
45711 987918
45957 11537
46436 233705
46936 384712
47110 776521
47458 123902
48303 935065
48891 834174
49552 889978
50205 777918
50284 183375
51255 30380
51322 308993
52021 810546
52565 668786
53024 401598
53405 982136
54235 421382
54443 314531
54511 516758
54556 89977
55034 365851
56017 526589
56773 261996
57635 182083
58627 765664
58988 707722
59343 536552
59438 399664
60094 21384
61003 307717
61898 624498
62270 479694
62834 865928
63293 471127
63727 657068
64340 431075
64373 901921
64528 7828
64774 447742
65739 488836
65928 958928
66911 872394
67378 921196
67648 708234
68257 54455
69012 876735
69584 177726
69857 241263
70023 719340
70424 667189
70823 34920
70835 285501
71742 412781
72449 597099
72894 314715
73023 51745
73130 961547
73837 322739
74522 687989
74601 688280
75325 576091
75371 442005
75374 50764
75861 136874
76454 225812
76964 12656
77652 928757
78057 700841
78757 503497
78790 84894
78968 705941
79809 263653
80758 525078
81112 368086
81774 888872
82749 334959
83601 713943
83932 841040
84411 737499
84603 102219
85094 673833
85214 890497
86167 652206
86854 180724
87459 616512
88292 285918
88326 468281
88806 454210
88931 282675
89055 616636
89812 141571
90178 655802
90944 469826
90986 628155
91654 453400
92476 632019
93128 383946
93409 761317
94255 795236
94627 104751
94769 230313
95515 327851
96372 297426
96929 819920
97263 399916
98216 891664
98822 977753
99106 709309
99347 897453
99877 86015
100762 269374
101243 432505
101357 940114
101674 163986
102629 889993
103430 169133
103618 18931
103884 619445
104164 280238
105140 536799
106045 184461
106083 959374
106299 658955
106564 22749
107081 359663
107485 457899
107492 718357
108262 267788
108540 751293
108945 52229
109546 164770
109595 925805
110391 586750
110670 563718
111120 96496
111259 237647
112158 452432
112467 796917
112648 393616
112923 48637
113166 98891
113368 778989
114288 109660
114922 328876
115411 478550
116158 496015
116237 107585
116881 216037
117510 388617
117750 281919
118083 204536
118393 783203
118981 706404
119586 868223
119726 408873
120290 715710
120949 738778
121668 69189
122411 519512
122591 769566
123348 50615
123634 405755
124118 217454
124168 410903
124621 268076
124694 597560
124796 257691
125471 695463
125607 983553
126295 776832
126569 127976
127333 714198
128117 225612
128363 666209
128551 641189
129539 968326
129835 538635
129905 410261
130854 950178
130863 137634
131505 434734
131971 549040
132343 790185
133054 961950
133580 733514
134194 446965
134578 432922
135279 670330
135483 671225
135635 279812
136167 263975
136353 867302
137303 320468
137908 854936
138442 622747
138691 592403
139202 748597
139557 798198
140215 996496
140278 817954
140354 824292
140444 535844
141281 588061
141746 146953
141856 812975
142119 514193
142777 730039
142997 729529
143692 80647
144562 95565
144986 510345
145541 661112
145990 651863
146928 191717
147065 27183
147816 270329
147941 647264
148781 259890
149122 927655
149228 529387
149383 633820
149899 933226
150340 533722
150634 918446
150938 418688
151074 75355
151569 222637
152024 198234
152435 695192
152914 9962
153256 95329
153608 928942
154232 456428
154508 818468
154989 652
155471 988578
156044 484871
156470 955826
156807 93729
157718 694538
158027 373243
158107 129493
158510 551777
158990 484859
159242 789660
160089 540530
160591 961938
160998 270980
161619 833333
162333 170912
162608 302852
163249 852539
164069 491743
164400 858518
165086 681654
165943 700092
166267 120683
166936 679381
167188 674238
167701 954392
168112 130516
168225 316708
169171 483245
169664 186622
169940 282891
170108 63209
170439 958511
171398 617108
172016 551432
173007 473363
173092 434956
173555 727921
173933 275815
174329 944515
174683 719809
175283 456224
176090 591218
176231 582198
176760 41640
177156 346311
178130 132041
178508 260682
178626 688267
179538 17965
180080 894029
180846 344278
180959 732026
181894 586139
181914 564071
182003 822750
182943 658736
183350 585261
183463 127005
184164 924155
184788 8157
185034 854996
185568 184333
185571 567502
185685 991372
186630 704165
186685 232475
187488 443516
188400 51884
188535 886206
189366 848825
189695 66067
190488 669402
191243 667928
191440 396823
191846 852570
192772 284825
193348 578474
194130 191727
194808 798949
194829 722142
195340 927148
195607 765110
195948 127465
196903 398508
197156 932230
197819 14945
198196 147682
198480 376401
199350 504109
200068 882294
200558 56713
201464 149729
202413 842927
203068 753027
203144 509712
204108 644627
205029 254696
205505 436636
205674 212
206278 882302
206479 449801
206775 829736
207568 683580
207572 922973
207926 80294
208082 333369
208639 260474
209001 626137
209624 766132
210060 528033
210932 79815
210957 598186
211354 785343
212138 448830
212322 849208
212447 596299
213217 646176
213447 618289
214379 16161
215254 855054
215305 989756
215990 146361
216071 763506
216550 260956
217476 606856
217740 929673
217972 588490
218400 559694
218540 590933
219147 815796
219960 248553
220400 103139
221075 324110
221337 828645
222300 951174
223023 297394
223411 652869
223763 975640
224187 626671
224376 871475
224620 3519
225482 843
226097 309646
226956 482055
227241 531433
227516 414528
228309 302100
228923 362824
229727 848517
230203 575793
230289 305290
230697 879547
231086 259364
231344 535740
231672 486781
232319 475538
232490 128979
233445 534028
233939 972419
234680 635926
235491 661722
236247 106958
236383 739976
237031 115886
237175 362332
237921 372637
238339 484133
239111 438996
239569 638927
240348 592793
240676 51714
241585 265660
242267 64041
243178 29927
243424 634582
243818 893456
244300 837294
244707 624018
245534 169848
246325 49361
246818 879690
247058 53141
247364 725197
247607 298067
248551 356240
249224 952293
249311 427112
250213 67997
250275 359658
250615 587361
250914 476389
251038 396603
251735 787247
251755 735221
252685 930505
252922 946818
253224 789059
253760 677038
254317 852050
254704 266798
254855 359119
255032 663852
255893 648559
256325 842933
256993 367279
257890 235793
258568 81258
259083 929144
259611 69226
260593 558347
261276 814648
262015 872649
262738 473637
263154 383555
263828 595103
264490 433572
265193 913514
265921 298329
266768 189410
267635 126901
268432 381573
269091 711205
269357 509204
269841 336190
270100 827194
270939 127934
271479 610678
271548 214032
272279 243139
272827 337538
273513 514029
274181 196290
274265 560362
274587 295175
274829 828763
275588 775898
276525 965569
277103 249879
277295 528243
278094 145073
278618 777370
278866 771939
279666 629042
280072 539637
280510 690793
280910 222681
281292 500246
281821 355326
281842 854909
282693 680966
282780 327279
282915 641897
283482 205974
284440 756756
284844 219012
285156 808853
285565 156701
285700 839724
286389 732040
286430 143031
286497 299552
286675 306474
287381 203752
287816 572506
288256 100811
289199 894061
289228 519611
289594 239253
290463 99070
291001 549716
291809 693538
292645 18555
293399 66501
294365 354098
295210 205505
295435 283347
295947 88467
296576 71976
297287 621924
298173 208947
299149 290924
299986 903205
300549 541464
301322 834574
302290 305031
303245 843827
304194 53686
304678 134795
305420 479151
306398 730400
306829 660507
307046 924625
307417 875445
307691 630406
307710 940932
308666 323650
309103 823897
309372 957414
310099 107858
311081 254185
311458 199746
312241 978358
312744 193
313286 781342
314129 909571
314553 10012
315059 793869
315826 380686
316392 101661
317331 995412
318252 915371
318371 717489
318634 987279
319312 677200
319339 219621
320250 448403
320743 304121
321072 578750
321134 855137
321465 855485
321504 362316
321567 6699
321715 150912
321844 845363
321936 409925
322547 772140
322584 595293
323176 714287
324042 102253
324827 873911
324927 549254
325423 863482
326261 531082
326833 740773
327526 379813
328394 68950
329170 689587
329917 708272
330158 676568
330795 485959
330925 118617
331691 539644
332329 401430
333152 277597
333814 812296
334437 454962
334870 850401
335810 128106
336740 19915
337021 330620
337628 736207
337807 126016
338101 28228
338634 226424
339247 398788
340174 452497
340443 780359
340849 130437
341493 595118
342237 834373
343016 206055
343522 586057
343933 278649
344196 257846
344508 397579
345340 54745
345760 95228
345797 573562
346655 751332
346807 895967
347469 601485
347661 287256
347860 48462
347987 668420
348918 489963
349422 930270
349968 443505
350780 767089
351306 470898
351621 751786
352367 518321
352957 273329
353035 533569
353371 12440
353745 835777
354507 467007
354681 757821
354961 521511
355483 423075
355793 316841
355879 807182
356350 855927
356912 853488
356979 909123
356996 712463
357601 356392
357740 890304
357752 706845
358454 727343
359109 613182
359567 684998
360350 611316
361188 547814
361847 683072
362234 964041
362542 854751
362647 516232
363223 727694
363834 776007
364818 530381
364926 42084
364981 131276
365020 614861
365989 189985
366062 781568
366982 956957
366986 161616
367091 893053
368091 424836
368774 818220
369003 96096
369166 440530
369925 319908
370128 672886
370810 401932
371256 178749
371932 931246
372202 399832
372986 764192
373607 383729
374131 51165
374512 882770
375267 411529
375904 443884
376684 394617
377421 526941
377723 134508
378684 444635
379507 177151
379901 707320
380678 719639
381311 178376
381353 637683
381766 11551
382045 731161
382908 895632
383622 364647
384175 815734
384299 83947
384337 593096
384608 359003
385543 921111
386434 878095
387034 937371
387584 64057
388578 532430
389146 427900
389847 643660
390761 857609
391395 212842
392195 999118
392881 527944
392888 81403
393294 360026
394066 214502
394584 972179
394808 960902
394874 788800
395203 124234
395727 893548
396639 14693
397556 538099
397952 362996
398443 241948
398710 366971
399687 700710
400026 169928
400494 310480
401337 7410
401638 161240
402127 921962
402520 339590
402874 312467
403636 700099
403899 837032
404666 134098
404821 323536
405204 42428
405764 256059
406031 638444
406256 8033
407125 428205
407326 429820
407675 884000
408473 941290
408984 106488
409882 91252
410102 849398
410515 202453
410913 60865
411204 20162
411432 585811
412140 352101
412625 722959
412799 936260
413169 602382
414058 889009
414876 56673
414940 518318
415922 449033
416200 686352
416715 745750
416995 747761
417531 346976
418503 173048
418959 658683
419224 105300
419331 142767
419340 33116
419931 719022
420827 337939
421073 413619
421194 211060
422175 981435
422619 980478
422797 695741
423338 612581
424130 875015
424723 397729
424941 116291
424950 943061
425364 644741
425834 818327
426535 602944
426664 679956
427283 410012
428012 468726
428082 4033
428535 22654
429007 543992
429801 858927
429974 65984
430836 580277
431111 609327
431800 54231
431970 592040
432701 262207
433657 250802
434267 380148
435008 136640
435955 371223
436570 854767
436836 288181
437556 115762
438467 718627
439397 537884
440010 71471
440201 340887
440989 667338
441633 936841
442011 622841
442592 67185
443173 405040
443316 77876
444163 84925
444436 553232
444454 105039
444559 650080
444560 28753
445297 745800
445627 755580
446405 804788
447201 66785
447338 72004
447555 283445
448273 812785
449048 777724
449193 415181
449371 459166
449466 622422
450435 133411
450974 743825
451336 604918
451378 17122
451899 948061
452603 590486
453338 271730
453672 743502
454013 505793
454920 118353
455300 124585
455442 617525
456293 255315
456849 112836
457825 389432
458444 765865
459359 400739
459609 477301
460467 787984
460593 336922
461261 355049
461873 312591
462061 724694
462307 23273
462715 425403
463559 40291
463593 424776
464390 602699
464969 467315
465601 753126
465767 377706
465991 150282
466164 205390
466789 138050
467354 984867
468099 345464
468736 282538
468869 95091
469628 237831
469940 63976
470533 450130
471338 314206
472106 846765
472345 98229
472729 966874
473259 999583
473648 281973
474301 176023
474930 702528
475000 982330
475519 934830
475845 821517
476352 204991
477173 905841
478034 830748
478635 179334
479568 484030
480152 572192
481059 708497
481978 198858
482673 863560
482721 567018
482772 569564
483761 952266
484559 88810
485542 395820
486318 954776
487132 279908
487919 808195
488399 551366
488897 262673
489070 816650
489661 585547
490255 324302
491185 251133
491253 425248
491406 81748
491760 176900
492166 609519
492725 261436
493650 541395
493771 919403
494307 774154
494734 471726
495629 322890
496604 375281
496849 253354
497335 408650
498218 580658
498222 840856
498278 881829
498446 842069
498703 224403
498969 232166
499508 431562
499961 899738
500773 295104
501607 910584
502045 116974
502572 449793
503017 206813
503932 755324
504129 98559
504890 689630
505826 986326
506539 563342
507200 994883
507258 549179
507825 673699
507950 428407
508415 947683
508468 925404
508696 22532
508899 205253
508954 771545
509924 192239
510891 658591
511151 400902
511430 806612
511962 158933
512505 323639
512817 172997
513709 767933
513745 516580
514376 450942
515112 140915
515839 402519
516250 215312
516627 790978
517432 73978
518269 751941
518712 886573
518752 949753
519451 220242
519811 340092
520056 104845
520870 236863
521450 358426
521506 2764
522120 857707
522771 82408
523428 700914
523694 591997
524087 110668
524088 757385
524804 350595
525277 77204
526166 511475
526966 965979
527083 20027
527705 546921
528356 949246
528824 175752
529040 488094
529208 432324
530016 131951
530731 987837
531271 917668
531967 675801
532261 861923
532412 666042
533013 830814
533616 134288
534589 733256
534758 689
535359 135898
536161 87480
537005 180115
537690 773873
538587 870025
538991 874059
539701 131804
540379 475074
540571 113568
540581 953750
540709 448189
541483 265133
541874 869417
542264 911898
542659 696343
543634 772239
544358 269510
545053 920141
545308 281156
545583 119003
545830 355633
546057 534101
546488 868332
547197 18228
547745 439332
548730 883248
549528 852370
550296 215572
551207 158439
551228 321831
552216 306691
552527 664242
552786 659540
553188 339864
553683 793954
554662 716855
555274 649054
556174 498781
556402 671283
557010 68756
557900 587176
557928 279792
558407 660918
559017 470036
559583 630403
560328 590091
561163 398380
561407 448576
561585 647734
562078 750883
562582 201555
563406 146946
563445 66790
563869 340159
564128 632156
564537 346293
564700 38858
565086 917674
565408 934162
565804 613844
566737 405831
566904 896719
567461 241032
567513 407929
568164 30826
568211 817654
568451 40294
569069 429942
569847 54086
569897 992688
569973 461462
570289 629287
570821 116625
571021 367245
571993 196017
572637 907916
573568 584320
574501 720654
575011 163994
575375 334268
575483 477885
576043 591886
576530 924968
577519 107337
577726 591782
578722 622751
578757 279600
579650 12379
579793 921483
580448 315687
580888 922660
581445 442514
581910 641840
582821 876306
583751 975458
583894 660588
584512 739560
585284 479830
585614 111064
586406 639343
586979 664490
587308 608471
587469 170070
588148 213911
589141 678030
589401 342345
589833 406795
590071 21536
590250 670732
590470 58357
590516 179965
590595 560313
591213 153868
591482 61232
591695 585188
591723 5166
592495 478030
593161 538634
593854 104731
594762 51504
595672 627731
596471 625742
597441 369298
598352 665085
598991 951936
599517 437299
599977 544094
600745 8224
601700 554012
602518 633494
603039 171713
603671 607138
604655 472382
604883 420078
605360 388523
605496 964892
605892 874402
606500 863148
606832 640899
607304 562336
607768 255341
608101 178274
608629 271894
609243 313104
610193 924033
610954 613854
611472 83043
612468 179657
612642 768205
613134 278052
613572 311676
613946 447890
614751 66024
615204 108745
615982 664810
616253 113163
616763 170353
617236 995266
617678 206120
618221 684193
618736 841858
619421 960684
620210 879013
620796 197202
621162 175407
621350 374352
621578 308152
621887 212030
622308 825254
623127 661033
623629 412778
624326 949980
624633 649350
625330 541455
625612 939588
626054 450313
626349 83358
627002 796503
627539 182925
628288 588962
628556 352629
628890 4162
629113 815446
629617 357795
629976 798371
629983 581195
630554 800224
630783 134677
631332 559981
631779 665425
632771 190288
633102 934716
633437 673599
633601 136053
634400 773338
634849 933581
635227 481377
636013 302755
636435 542681
637265 184891
637785 606443
638171 852087
639093 77853
639138 913464
639381 670368
639947 674114
639995 783289
640132 526044
640741 564432
641541 481004
642192 459333
642785 551219
643668 803226
644215 141415
644680 499912
645665 871942
645695 394767
646270 831808
646284 837716
646712 926648
647471 612909
647937 719724
648904 51273
649182 105893
649625 662887
650078 604869
650151 864675
650354 598685
651303 31513
651983 673646
652581 799928
653214 968237
653299 711542
653318 436258
653692 913648
654140 298133
654994 825254
655620 591640
656296 491223
656313 968216
657199 894848
657457 617232
658231 988698
658356 869269
658825 178394
659502 522370
659714 97144
660022 786940
660930 167964
661011 359521
661980 433794
662394 273315
662427 410263
662585 787144
663154 278101
663165 242813
663896 678166
664754 497648
664756 644728
664887 552908
665020 883252
665955 89905
666581 703063
667245 617985
667986 152131
668286 108727
668496 765877
669407 997595
669821 410245
670547 24655
671435 345403
672170 542118
672928 486769
673753 858925
673810 955500
674074 908566
674654 169633
675417 253603
675491 232116
675962 773149
676070 727661
676748 13130
677619 756438
678514 387948
679059 57165
679302 515814
679437 421698
679691 987530
679747 449065
680637 665539
681302 898063
681456 190294
681970 531315
682472 579780
683086 827635
683311 287545
683597 836599
684174 375173
684396 512618
684949 288326
685478 141521
686060 820111
687056 375008
687517 152352
687762 948010
687807 200750
688451 31286
689321 212004
689384 109946
690014 368347
690946 981036
691440 961288
692354 812861
692535 646956
692993 207431
693452 606700
693765 398901
693775 519795
694093 611236
695059 258615
695067 665472
695568 858838
696431 417362
697094 233042
697444 894264
698270 933198
699054 339054
699745 352501
700377 212811
700450 442589
700944 541510
701320 236849
702217 772702
702737 177569
703082 927448
703157 804904
703283 698909
703318 195370
703625 997458
703631 676145
703834 289233
704682 635910
705113 178328
706013 150296
706796 90154
707754 550049
708617 774729
708919 784796
709781 367670
710211 558493
710707 722113
711187 104817
711382 109792
711583 549625
712260 385182
712614 432247
713590 505350
713967 67730
714526 616676
714553 4525
715373 959286
715474 114309
715674 282506
715940 593849
716480 557801
716717 396072
717431 275057
718106 919079
718331 530182
718366 677808
719285 284566
720097 822684
720539 969855
721323 831779
722042 42996
722312 616850
722524 945177
722991 96017
723732 200106
724362 958704
724560 785139
725155 364167
725921 646170
726798 723651
727631 353360
728409 714824
729132 327710
729526 440012
729964 933731
730955 407471
731952 194481
732911 401960
733532 252828
734405 812328
735230 181120
735400 571804
736336 426028
736373 156917
736861 343140
737560 730616
738080 744236
738219 193842
739005 615852
739111 753025
739339 830268
740265 339634
741063 237993
741387 512531
742371 867710
742813 345594
743677 414433
744155 440567
744338 88180
744401 56711
745278 106775
745308 323437
745982 200571
746600 77790
747212 759501
747509 752184
747581 462594
748115 492694
748769 415287
749093 295474
749870 62589
750109 713817
750290 540995
750736 642416
751300 603006
751454 960336
752156 616140
752618 142969
753157 279485
753824 261299
754076 865436
754460 699942
754705 923511
754981 895187
755718 722669
756220 465929
756400 522947
756431 620559
756494 850575
756612 703538
756949 389315
757102 622422
757151 667332
758049 325777
758203 739769
758551 348485
759045 50418
759807 234839
760600 129242
761183 766261
761735 467304
762617 854139
762768 334438
763185 129557
763213 142737
763391 189196
764317 238578
764918 112389
765589 444800
766044 818578
766506 319953
767439 915358
767970 660893
768116 87183
768225 656950
768419 584535
769376 636310
770006 882506
770380 473908
770672 35566
771097 562300
771632 153718
771767 687757
771944 27117
772069 446432
772610 954683
772812 226513
773678 247990
774607 645740
775118 56328
775316 568778
776016 180313
776791 993698
777781 497814
778186 3010
778676 8390
779485 946459
779986 951084
780519 22557
781372 32283
782047 870059
782674 551298
783568 75381
783900 720597
784522 913337
784699 36903
784969 8360
785262 725253
785952 563022
785989 241784
786182 100327
787058 522393
787643 283919
788595 894732
788728 990685
789674 168324
789676 687259
789911 991643
790422 196781
790642 327245
791181 125594
791276 965630
792174 391636
792207 514144
792268 914634
792713 371385
793271 245626
793874 171694
793952 506116
794629 914676
795264 525435
795484 906396
795601 109387
796575 15685
797198 906491
797638 378496
797966 121657
798645 427668
799424 752987
800008 465727
800996 752840
801892 567238
802358 230744
803313 174306
803711 292853
803770 144006
804480 777857
805217 333231
805829 761216
806633 535794
806899 783762
807789 834706
807998 143878
808821 219600
809223 730263
809433 530420
809573 254263
809581 718
809778 675001
810525 87610
811205 512634
812069 330717
812651 687654
813185 950195
813988 807157
814440 229138
815407 635317
816003 640537
816196 59497
817141 496299
817621 840466
818588 485578
819122 333481
819866 391113
820616 961694
821436 743194
821575 310095
822029 796011
822896 763134
823263 77767
823970 174069
824140 228758
825064 610588
825656 249729
825906 992400
826750 215739
826894 889859
827737 987952
828010 152604
828873 275087
829002 396895
829355 44704
829732 133413
829821 218142
829858 349083
830082 402163
831032 780553
831744 621763
832709 339894
833239 866446
834198 808248
835058 270023
835903 572254
836382 396952
836815 602008
837288 730090
838158 511258
838425 445305
838512 229145
839053 966765
839096 122809
839820 595359
840073 49523
840386 954869
841122 248966
841509 278142
842147 640532
842162 673912
842412 369663
842896 534856
843279 21039
844060 861875
844142 704167
844969 620092
845819 756998
846723 791900
846737 842052
847301 576570
847606 998210
848573 661501
849485 388747
850289 712208
850773 584736
851032 868090
851385 85599
852004 218192
852292 575023
852858 576954
853509 632126
853594 605666
853810 44915
853855 917387
854799 123387
855334 349478
855954 631435
856125 752632
856978 947676
857416 170419
857834 961175
858439 392776
858486 754583
858858 724248
859594 154746
859645 683334
860266 739522
860591 153651
860714 312238
861087 13438
861848 450843
862665 219659
862716 773253
863698 995338
864390 299503
865289 299136
866273 527730
866771 737956
867595 894070
868520 402994
869243 119403
870039 831829
870551 416030
870989 610676
871721 345172
872686 801282
873417 956672
873772 211469
874765 378713
875432 426925
876385 598188
876709 29500
877597 644610
878000 42367
878653 49109
879626 834494
880267 1962
881197 121397
882045 845745
882228 37056
882522 82036
882810 9225
883759 100208
883973 209677
884345 41664
884619 280895
884705 193765
885613 290787
886415 20557
887383 664045
887705 145375
888332 776733
889057 860445
889560 179033
889710 409066
890636 19950
891479 386610
892262 401151
892892 770529
893753 840381
893884 476124
894669 159243
894962 681614
895899 697517
896224 933586
897068 411672
898001 931630
898370 674691
898937 135376
899819 837081
900585 806446
901152 514664
901778 279814
902587 839991
902930 887174
903377 695999
903515 155465
903682 823192
904523 758533
904540 997215
904921 14869
905070 210485
905349 39832
906086 851280
906763 14315
907486 216506
907507 735523
907907 904313
908614 126124
909469 218277
909699 14976
910448 604728
910462 608561
911302 590969
912146 708836
912598 34035
912965 312450
913479 395751
913493 423310
913919 308744
914160 841620
914215 229776
914400 747743
914775 238777
915421 69463
915637 951912
916445 993513
916467 866558
917391 749192
917729 481261
918387 261861
918715 466491
918897 153840
919858 864226
920722 274619
921192 453441
921253 4258
922107 856556
922882 772726
923191 901291
923895 257000
924692 831059
925073 400030
925591 824194
926225 801698
926798 148394
927522 338461
928410 891712
928425 521742
929240 843899
929337 609909
929449 876445
930110 834562
930208 520589
930382 76103
931122 957391
931230 154405
931283 713681
931867 556857
932407 808546
932460 148868
932539 136642
932870 151269
933848 335645
934107 74074
935102 475410
935594 623149
936257 203136
936565 581647
937373 95035
937863 602883
938141 484286
938219 237904
938439 421497
938793 309622
939224 438236
939278 632198
939670 331312
940574 401453
941234 850786
941828 339763
942334 187671
942831 951671
943113 71481
944108 667361
944784 410571
945556 895657
946425 423497
946749 708037
947613 668777
948132 299739
948516 704537
949373 386311
950269 724861
950293 391469
950696 97572
950974 983326
951166 612378
951604 460168
952548 725073
952791 122672
953285 529382
954214 169575
955061 71148
955979 301666
956683 406000
957599 994556
957890 39546
958840 150693
958935 243583
959037 846159
959232 116439
960163 731516
960938 951285
961806 652767
962139 502264
962193 223205
962547 880027
963537 638246
964225 568190
964362 773762
964997 338367
965299 219669
966264 716350
966940 536514
967375 215055
968192 711815
968962 806716
969223 797310
969227 934255
969504 545505
970066 208758
970325 535787
971029 162193
971104 125850
971832 698451
971975 315460
972768 566992
973514 418102
974372 304049
974561 848694
975278 437563
975534 833552
976121 920170
976724 917439
977182 841539
977745 728130
978442 781274
978823 676921
979212 525723
979973 11122
980750 400426
981465 497916
981532 643550
981901 707110
981905 528055
982292 887544
982359 995167
982874 30498
983276 716640
984014 658338
984102 420679
984600 442813
985470 593084
985486 831681
986125 361917
986982 741845
987425 851543
987554 9753
988304 475275
988676 724493
989639 962130
989821 184713
990371 408989
990524 266191
990958 461448
991822 213499
992709 723633
993131 508607
993522 260340
994350 634932
995272 696344
995846 471076
996226 561445
996415 926650
997252 10324
997542 949140
998468 674898
998560 668378
998961 668683
999352 879068
999972 404412
1000037 778995
1000640 3479
1000936 135723
1001090 452707
1001341 714412
1001602 797052
1002529 643574
1002747 323291
1003197 185597
1003372 152201
1004144 694025
1004679 834402
1005467 661481
1005835 747292
1006771 273135
1006871 227960
1007144 737456
1007168 879138
1007243 227969
1007628 652653
1008611 236366
1008861 169161
1009621 708701
1010143 393538
1010275 552268
1010483 772652
1010802 528396
1010905 932585
1011295 982602
1012210 998675
1013169 516643
1013495 838070
1014183 541354
1015106 755188
1015860 39142
1016349 414138
1016431 87725
1017133 604283
1018086 628596
1018229 277508
1019130 432068
1019176 571113
1019373 225800
1020082 631385
1020610 221149
1021082 89288
1021441 66159
1021722 484111
1022132 861410
1022419 382168
1023177 395612
1023236 133197
1023672 115411
1024587 957509
1025345 881200
1025406 903863
1025929 754370
1026628 287275
1027449 775587
1028310 339140
1028828 534747
1029795 484342
1029813 293885
1030175 72644
1031067 311107
1031294 618549
1031891 310757
1032465 986010
1032472 799471
1032693 619767
1033690 240974
1034526 98429
1034808 340358
1035682 459208
1036403 92063
1036446 531127
1036989 118542
1037944 336928
1038259 45325
1038319 175991
1038424 618002
1039076 1582
1039865 65342
1040149 289606
1040628 463263
1041043 617979
1041801 853396
1042064 910018
1042498 711474
1042953 890406
1043213 771262
1043616 235844
1044419 602742
1045089 842302
1045750 230288
1046629 751873
1046721 98934
1047690 995751
1048360 838626
1048847 974758
1048855 918918
1049112 369456
1049590 638292
1049667 738143
1050179 743465
1050830 582373
1051024 173427
1051859 693702
1052406 676890
1053395 880013
1054266 528512
1054845 586591
1055483 395883
1055987 545022
1056961 261223
1057623 123409
1058156 607823
1058455 267356
1058513 882795
1059362 813758
1059440 619294
1060409 646649
1061073 358622
1061485 661900
1062413 983649
1062441 758801
1063161 403585
1063893 949186
1064684 188935
1064945 54586
1064947 552715
1065302 951083
1066178 652911
1066513 176341
1067287 850163
1067895 197678
1068443 160499
1069184 828734
1069824 124739
1069864 640708
1070028 703085
1070925 616711
1071875 375724
1072176 300853
1072273 627907
1073136 464160
1073166 848254
1073495 846449
1073663 852610
1074100 47164
1074171 610419
1074399 550776
1075179 174365
1075427 328161
1075431 465676
1075588 29442
1075891 375068
1075936 728977
1076860 177610
1077369 37417
1077890 5680
1078123 826702
1078302 348609
1078543 129178
1078544 949418
1079436 243584
1079627 505522
1079662 29421
1080182 990573
1080424 371315
1080631 975040
1080842 285127
1080888 305525
1081671 879709
1081971 121672
1082166 91652
1083160 504763
1083805 993406
1084490 700138
1084526 219409
1084929 609078
1085178 6741
1085407 505130
1085447 168238
1085964 491563
1085989 888395
1086179 888453
1086582 581441
1086758 772361
1087627 817972
1087696 533697
1088111 665061
1088792 34218
1089065 579557
1089653 792419
1090061 507322
1090248 241052
1090458 899153
1091277 634653
1091462 997647
1092196 738675
1093042 132602
1093930 801547
1094633 686297
1094726 624659
1094854 417716
1095424 436713
1095870 769726
1096328 845323
1096365 279001
1096481 105974
1097013 301670
1097662 349737
1098123 251055
1098526 37573
1099363 613399
1099612 142740
1100510 803808
1101508 127428
1102255 873913
1102651 53240
1102864 56805
1103328 540277
1104122 795357
1104255 785234
1104277 642360
1104610 223634
1105183 851239
1106115 608300
1106783 725216
1107670 357348
1108179 42778
1108865 113821
1109226 954310
1110079 169426
1110127 1495
1110183 157189
1110717 905756
1110791 837766
1111433 878137
1112421 621030
1112510 182694
1113346 580310
1114315 149677
1114340 303122
1114469 291446
1114977 151200
1115843 800722
1116131 159252
1116380 679714
1116943 260165
1117014 907827
1117781 195122
1118745 740947
1119375 719968
1120100 380395
1121055 420096
1121199 28895
1122015 343550
1122633 436151
1122735 845911
1123648 191302
1123929 242038
1124131 534687
1125026 94046
1125378 497283
1126290 35585
1127093 243641
1127448 803525
1128415 333930
1129373 13778
1129462 449509
1129976 86990
1130486 513977
1131013 797419
1131695 698797
1131978 557053
1132704 395268
1133602 53449
1133867 713376
1134133 490660
1134192 347686
1135171 757174
1135746 74213
1136696 254906
1137258 224535
1137298 40961
1137836 188840
1137844 870654
1137850 317629
1138520 646474
1139187 933053
1139971 32788
1139978 451577
1140267 550325
1140712 545741
1140959 790212
1141767 941850
1142480 197849
1142633 617570
1142681 763812
1143215 479689
1143521 736123
1143643 121014
1144528 894269
1144804 837506
1145257 509990
1145925 496940
1146324 808804
1147090 997324
1147643 119457
1147900 724432
1148708 223930
1149361 824725
1149417 575483
1149617 555876
1150019 857353
1150252 313549
1151042 118373
1151187 110624
1151379 186926
1151880 377256
1152040 496428
1152070 132084
1152849 793604
1153402 622099
1153898 708090
1154022 329420
1154131 444349
1154435 628471
1155293 160658
1155348 491955
1156337 780389
1156964 530080
1157070 517832
1157718 55124
1158108 68988
1158942 214893
1159733 143202
1160716 444589
1160845 843499
1161232 18893
1161859 78846
1162121 59123
1162885 689230
1162909 894505
1163695 312132
1164690 454613
1164780 919327
1165463 276093
1165876 681469
1165908 154048
1166335 828102
1166381 269795
1166586 969475
1167062 545781
1167810 611459
1168427 757789
1169149 423670
1169181 434264
1169634 850488
1170600 424641
1170719 369418
1171280 442149
1172238 676226
1172828 363431
1172881 314209
1173718 559397
1174400 902014
1175004 459555
1175218 461882
1176070 21456
1176996 600749
1177832 684760
1178176 901224
1178880 123128
1179435 605039
1179440 6655
1180068 109504
1180812 666338
1180921 257800
1181007 55694
1181178 370541
1181646 639213
1181748 511923
1182662 243748
1183588 105039
1184021 91139
1184482 627569
1185388 942549
1185658 649400
1186293 905197
1186321 877230
1187063 305243
1187086 150228
1188024 272403
1188334 98588
1189032 483593
1190018 278111
1190806 709937
1191561 791301
1192554 688994
1193378 850355
1194134 930984
1194385 242424
1194695 587058
1195002 158507
1195746 298449
1196221 1418
1196802 457730
1197216 993888
1197370 280611
1197842 659867
1198352 674773
1198884 85234
1199725 412574
1199940 217115
1200327 282766
1200710 427989
1201324 233028
1201614 906254
1202430 145587
1202739 525579
1203146 152182
1203441 70478
1203475 464080
1203476
