3885
828 501056
1495 603469
2096 648152
2258 900961
2349 511747
2733 656174
3393 534553
3747 605459
4052 122769
4321 154157
4651 626151
5585 989929
6077 522812
6946 529665
7542 107928
7782 27211
8557 367781
9499 549251
9852 436464
10464 720393
10861 501000
11010 77517
11887 721904
12666 881546
12860 774926
13738 590430
14197 294375
14820 630283
15055 480231
15875 398112
16314 510953
17241 230261
17545 431338
18073 614732
18319 633731
18564 159338
19515 764974
20062 111231
20347 267724
21228 850116
21281 16342
21369 800182
22317 339195
22893 462732
23450 870302
24019 37723
24643 369730
25503 157527
25671 391357
26074 458916
26139 247549
26594 646358
27186 921598
27351 399944
28227 349900
28679 588381
29616 850178
29820 789290
30549 251145
30700 297511
31597 434837
32268 612625
32959 99768
33367 509485
33888 976022
34080 934978
34370 283813
34435 697799
34860 171470
35016 445830
35281 352599
36219 309696
36688 811853
37571 369854
38400 969781
38429 605496
38930 475026
39663 524239
40221 833431
41103 899341
41947 371692
42753 606385
43735 706946
44635 828892
45034 998864
45597 164272
45817 844512
46514 872140
46889 566637
47229 861660
47660 944202
48615 432458
49512 570627
50459 546663
50719 493390
50760 999467
50821 51998
51315 890614
51403 832101
52034 351115
52897 368042
53562 534476
53838 866683
54031 139818
54374 933839
55043 174888
56002 347564
56898 6814
56899 959952
57215 381032
57659 864965
57772 359790
58448 4544
58510 962119
59083 556060
59425 128646
59437 95609
60157 291842
60869 898821
61086 555525
61986 639342
62425 507582
63312 881428
63596 372795
63904 590035
64801 881314
64912 430808
65459 481792
65532 679914
65934 963544
66328 129731
66862 43677
67704 380816
67780 260244
67996 352674
68418 376034
68961 983254
69064 938388
69998 179336
70226 328374
70360 132856
70486 545099
71261 27198
71858 404906
72770 394703
73022 23892
73676 585529
73913 157862
74575 184230
75095 644413
75248 503743
76011 287733
76892 789189
77424 231931
77682 293051
78029 96373
78059 598879
78963 16161
79649 725691
80198 523132
80386 30940
81313 477792
82100 315964
82917 685733
83132 466161
83779 306773
84725 126939
85722 462236
86550 462596
86559 709094
86808 691623
87084 876154
88062 101850
88067 593042
88613 99047
89284 124839
90209 264118
90872 788482
91617 472048
92447 571991
92877 907709
93417 241455
93486 762770
93881 176358
94298 986924
94615 95199
94966 140206
95661 374297
96354 430949
96974 573253
97481 444814
98253 914709
99218 595604
99311 391552
99604 666157
99771 68575
100719 233167
100919 235417
101465 498160
102435 884127
103159 904627
103726 273510
104606 564361
104704 136936
105474 87155
105985 239716
106076 505035
106142 27376
106914 395284
107166 289032
108107 258653
108633 145516
109600 737274
109612 426106
110192 540385
111118 389787
111829 895447
112663 8241
113242 772395
113393 65086
113446 313997
114327 717714
115185 515612
115310 433514
115766 66111
115944 757909
116670 7071
117035 560479
117320 598643
118058 776158
118198 332692
119091 782848
119236 358459
119262 155316
119619 202037
120009 859958
120550 754195
121231 578368
121453 876672
122098 681558
122530 599361
122551 208380
123246 595255
123783 303304
124364 545761
124938 417036
125494 306635
125692 537695
126579 813695
126889 641200
127631 594176
128329 728315
128398 701546
128902 408601
129665 627211
130429 977602
130846 403731
131816 350168
132277 986119
133210 91902
133898 675169
134175 393370
134527 374483
134798 320896
135769 269719
136326 383657
136386 933637
136423 571839
137335 654060
138015 798357
138222 334493
138821 548701
138873 987801
139017 482354
139781 939534
140086 901532
140533 516855
140697 943884
140791 927031
141432 866049
142092 941798
142741 327994
143296 354935
143559 727136
144286 891542
145088 311377
145982 718653
146884 892896
147514 421892
148131 730721
148512 191962
149233 362574
149844 126906
150734 651195
150784 113109
150791 893628
151254 900647
151773 123768
151834 705694
152777 533861
153387 276172
153805 790919
154292 567553
154778 848311
155623 716784
155782 27947
155946 375349
156072 520344
157025 961248
157341 232557
158282 259617
158885 33916
158908 295971
159275 586375
159323 863441
159667 501286
160636 881336
161001 102565
161409 719007
161807 248909
162261 828439
162960 430464
163905 314722
163975 771825
164118 995635
164714 22478
165037 52152
165908 834255
166261 321020
166965 247349
167533 696070
168307 314591
168394 544648
169108 143332
169715 577182
170353 33436
171263 397047
171836 174788
172621 502305
173179 497620
173977 810480
174778 185664
175283 892339
175811 620476
176697 725833
177549 173598
178256 548560
179095 733372
179996 332680
180103 67970
180273 437307
181248 674142
181966 625541
182254 571313
183179 785506
183267 560936
183593 716339
184029 937428
184860 729490
185729 536141
186374 270722
186794 526607
186900 77144
187738 877327
188338 273768
188951 215778
189260 362623
190067 421600
190197 37241
190992 234474
191056 862349
191246 933591
191283 243266
192125 999183
192958 380775
193462 153012
193666 866186
194222 461849
194271 546812
194806 835779
195567 504331
196071 215533
196656 269607
196994 357099
197343 957261
197431 4129
197981 514121
198503 204762
199341 175907
199692 378669
200403 496361
201111 728160
201579 104304
202217 394230
202534 443773
202975 372038
203966 975810
204923 760666
205805 398924
206364 956464
206557 665149
206685 817931
207601 897821
208224 600412
208670 994608
208720 535358
209130 560928
209659 722725
210002 197180
210717 445388
211099 428937
211432 219965
211991 260358
212386 709938
212712 582119
213407 743375
213455 816239
213962 523539
214251 685513
214880 654386
215145 559716
215470 719290
216345 409994
217162 71096
217328 810524
218290 883840
218987 19547
219675 383684
219996 248003
220543 690432
220549 171556
221125 471619
221507 172150
222195 654380
222375 846417
222886 165944
223624 774566
224157 963729
224501 119920
224589 531803
224684 476781
224917 996377
225523 832728
226118 335223
226806 692325
227051 909034
227244 475810
227612 100212
228324 179649
228761 359871
229092 488520
229935 659950
230722 778766
230767 295943
230851 989092
230967 226662
231810 132223
232408 965810
232635 416155
233354 974101
234295 991172
235094 392949
235293 210719
235297 797658
235772 33011
236516 766364
237103 819259
237147 100768
237558 988167
237666 404573
238536 336812
239181 798025
239651 629955
240346 979183
241233 111490
241923 496987
242642 19798
243247 720460
243571 767695
244258 376525
245244 832937
245855 416029
246133 850679
246269 388031
246355 421508
246858 172044
247844 833588
248504 238197
249294 219109
249340 725878
249677 423093
250451 465938
251295 838902
252221 646237
252444 861374
252634 954144
252894 729654
253881 565368
254879 825735
254995 654895
255951 404327
256666 753613
256765 278737
256983 403393
257815 94757
258045 563200
258762 336061
259534 893988
259601 871224
260299 785873
260810 250582
261639 922430
262207 592928
262218 369521
263197 167022
264058 765426
264494 653900
264857 634812
265234 401786
265584 118528
265727 478428
266071 283422
266866 583281
267147 710959
267691 549707
268202 164533
268445 626854
269361 552170
269652 771351
270058 962851
270646 409082
271130 897913
271680 615321
272477 256262
272702 602333
273134 862320
273793 526465
274336 200626
274376 830469
275047 331225
275938 654981
276251 469949
277000 742808
277738 40739
278691 973036
279448 658013
280284 408866
281055 539550
281829 830488
282608 529042
282973 521130
283819 882368
284163 448582
284615 928394
285089 405848
285963 534959
286928 822158
287443 247797
287508 123491
288010 647782
288057 731676
288244 879203
288433 587896
288762 215956
289313 135947
290272 216246
291148 791381
291921 660524
292082 930344
292451 397151
292577 776089
293416 459045
293688 985862
293884 569915
294094 251845
294532 159128
295055 166333
295931 179956
296601 544419
297075 694750
297102 795396
298026 127214
298396 349359
298981 381671
299569 967710
300451 537869
300490 617467
300689 49868
301531 506222
301683 360583
302493 580944
302923 942407
303315 239477
303857 471929
304168 339034
304886 562797
305583 381567
306054 624075
306899 977724
307525 748122
308408 919104
308958 10055
308960 638105
309534 96412
310090 273862
310673 901403
310694 927366
310845 398901
311736 328006
312301 683422
312434 522081
312961 594256
313068 946085
313748 840511
313835 85284
314128 290274
314438 970222
315080 751167
315137 150970
316071 778165
316503 26820
317028 359516
317516 240356
317631 808339
317854 821069
318002 96650
318609 558453
319185 343814
319251 158827
319520 471990
319808 296575
319923 5818
320477 403428
320755 355234
321749 675874
321955 430511
322435 795012
323116 869920
323554 266940
324151 957289
324806 27293
325156 999793
325725 916831
325853 199011
326008 754478
326386 369800
327108 166853
328048 336580
328633 914917
329023 43501
329529 202121
330254 974021
330864 24234
331160 484751
332097 688686
332742 86884
333324 463237
333758 624682
334431 116285
335138 984636
335532 765963
336227 170370
336421 773858
336457 823395
337171 636961
338149 841707
338638 954803
339627 530218
340581 639686
340713 66999
341096 53006
342051 794194
342668 114462
343470 638988
343618 227009
344003 784606
344628 515848
345215 843778
345675 412325
345928 511046
346389 550560
347030 611846
347270 726499
347533 221855
348273 345148
349234 827525
350110 293328
350891 881691
351271 341469
351451 185448
352155 203211
352595 574490
353030 100437
353929 918011
354087 769710
354644 153353
354864 837682
355804 165668
356479 515999
356863 164422
357592 437817
358101 700198
359017 8442
359619 612483
360175 399216
360350 595617
360847 273169
361206 305153
362195 995332
362642 810077
362698 49071
363606 167596
364135 124742
364695 848731
365585 900511
365816 194286
366190 684078
366693 939120
366948 657970
367024 537375
367377 44690
367950 153058
368569 864211
368794 584547
369665 880008
370262 508370
371239 687490
371927 792465
372182 666820
373167 646159
373471 30972
374137 870411
374152 780625
375040 416928
375995 721736
376648 58309
376751 951014
377690 645948
378366 917394
379277 761227
379920 351584
380301 632308
381244 719073
381813 518446
382325 226490
383063 73918
383481 738355
383484 132452
383595 947785
383980 906189
384256 498176
384514 634459
384821 725362
385680 662834
386501 607797
386845 255386
387188 398917
387208 499062
388076 502858
388808 721986
389153 244264
389879 36742
389930 722411
390221 640537
390424 767562
390476 273100
390489 835329
390591 476099
391190 746596
392055 787520
392500 916651
393475 805098
393770 353973
393861 234836
394445 775923
394903 119581
395000 112111
395362 51792
395960 831683
396448 154158
397212 880861
397881 783460
398194 463437
399155 646258
399980 366400
400428 817396
401195 156620
402141 298851
402458 134579
402610 242729
403541 337524
403583 501133
403813 298913
404549 146662
404816 126485
405262 991977
405800 677583
406285 85277
406523 220733
407335 607452
407534 531418
407731 97239
408324 468827
409014 85399
409359 923528
409965 303465
410030 783253
410824 542427
411473 558167
412421 658661
412803 831057
413570 568079
413622 102246
413867 369638
414030 727727
414830 717625
414974 7085
414994 673500
415561 714821
415857 160764
416368 898516
416628 207217
417435 794650
418071 485014
418091 763440
418145 309106
418933 725889
419226 726968
419273 384289
420246 757561
421163 913298
421625 321652
422288 811015
422720 629292
423379 792938
424098 263576
424532 18968
424757 141026
425112 462246
425274 6994
425445 641415
426048 990485
426946 965124
427129 234458
427582 729047
427914 379719
428661 129759
429238 397793
429841 665806
429848 266167
430072 391650
430123 843351
430544 440240
430841 406691
431212 246914
431398 797909
431431 383838
432411 220802
433156 550801
433887 492956
434252 878749
434394 671262
435302 491931
435387 294966
435579 355888
436051 548928
436282 300176
436774 924904
437220 596424
437817 506014
438089 874315
438122 727118
438857 562341
439627 883448
440213 70176
441152 794198
441370 94754
441969 748495
442878 924949
442954 944435
443936 805782
444141 295070
445077 575685
445334 62208
445807 518541
446368 50728
447076 514401
447670 175924
448190 439072
448300 192025
449286 686851
449472 320346
449684 121223
450530 736428
451239 298607
451975 581992
452201 714830
452270 191766
453100 859959
453941 646954
454248 837850
454762 79970
455541 751596
455690 909753
456041 375706
456200 710100
456291 239462
456612 18296
456970 483611
457730 629706
458211 807067
458387 32278
458843 766384
459753 957233
460533 353677
461014 861802
461079 415132
461529 736424
462312 97037
462548 867065
462932 341816
463176 689100
463557 34756
464338 880951
464773 262101
465372 552063
465686 641884
466533 996905
467510 20724
468013 893256
468186 378185
468466 659237
469376 206889
469954 629969
470236 544865
470449 750307
470461 873938
471395 465332
472174 371143
472967 546366
473645 745743
473933 194116
474642 688920
475587 290606
476321 122362
476851 423686
476884 27470
477728 88804
478275 736189
478771 58766
479108 382719
479980 43771
480282 956806
480437 13940
480522 467283
480586 87718
481525 803366
482386 172960
482793 491500
483176 991677
483725 243059
484547 643611
485282 278947
486224 366013
486695 894304
487345 489259
488244 829492
488687 418774
488912 821780
489690 466405
489947 370604
490145 30789
490373 983917
491155 738436
491813 108167
492586 820297
493420 440485
494183 503025
494429 328695
494908 97817
494922 520898
495562 134271
496034 977145
496599 922288
497310 802459
497607 812680
498550 74372
499297 731351
499848 663478
500394 772666
501287 456620
501377 508492
501539 816637
501729 815377
502725 577903
503379 955597
504172 495012
504767 628386
505137 108527
505653 352752
505925 654282
506901 318075
507228 890797
507441 469540
507688 630908
508288 999921
508969 230077
509465 477414
509694 178804
509793 142743
510368 830748
511188 699068
511611 463894
512332 425201
512576 180285
512626 125610
513600 208094
514301 583852
515285 755288
516073 409106
516383 268241
517315 196671
517566 974648
518428 260896
519348 440999
519748 50702
520053 644573
520885 956838
521550 360810
522170 83234
522722 826840
523119 666048
524116 122885
525006 674771
525102 150248
525498 647471
525899 340187
526283 827664
526442 132452
526512 924526
527283 520053
527683 819903
527723 54040
528617 433188
528771 809565
528892 119032
529023 103168
529218 220618
529628 430279
529674 399155
529935 654579
530125 517607
530857 716143
531408 147799
532326 751087
533314 569394
533838 902370
534494 361377
534723 388907
535470 714604
536319 335038
536626 803919
536859 577194
537066 674359
537332 346016
537583 175814
538515 723744
538892 910803
539549 982840
539751 875873
540423 813629
540977 796196
541071 93549
541510 930779
542134 348548
542818 325201
543069 176216
543423 222405
543560 337866
544521 908613
545420 47197
546380 958400
546859 958517
547658 135290
548012 601860
548387 114236
548694 428964
549320 286940
549887 154234
550625 894018
551309 137335
551530 436912
552296 825530
552670 446477
553454 240537
554058 593938
554639 261274
555029 433728
555149 98762
555413 147505
556116 650172
556281 482291
556785 602205
556979 784492
557939 558730
558612 789327
559159 133713
559511 247975
559826 619967
560637 918015
561511 841791
561904 949901
562781 480936
563484 501486
563492 882045
564049 702622
564071 178335
565059 917634
565676 799175
566570 268146
566932 813197
567161 280963
567373 505727
567521 84679
568231 568929
568722 199800
568965 710076
569039 774288
569808 849088
569974 825795
570886 554296
571068 666475
571096 213901
571110 84728
571491 218087
572261 999304
572474 743720
573175 287808
573199 220951
573388 908098
573644 946223
573711 169590
574052 994446
574678 790956
574881 389548
575412 858923
575732 534582
575772 538030
576645 9752
577056 187943
577838 754823
578053 388382
578441 225708
578466 971906
578544 446577
578567 788479
579307 892898
579817 632819
580764 886597
581670 350389
581805 21457
582424 78950
582896 947120
583850 346805
584380 88168
585184 504883
586017 256302
586269 652171
586336 269741
586435 410628
587435 711550
588210 727096
588810 285098
588818 627558
589716 214407
590580 597501
590759 163685
591076 341850
591107 289303
591899 803210
592395 931612
593295 653136
593305 397550
594234 593374
594614 971778
595156 979274
595558 879915
596023 371419
596303 339299
596360 391830
596812 667625
597363 175635
597393 488112
597423 688053
597614 602996
598504 948371
598531 176027
599419 858204
600009 587687
600443 206915
600614 826175
600944 872999
601119 121162
601859 248982
602579 354973
602748 592946
603692 983919
604604 713202
604699 795900
604858 568519
605858 292056
606779 812734
607536 93092
607820 207377
608807 202315
609714 55779
610440 914841
611057 190736
612040 531043
612280 424819
613240 326793
614167 174800
615051 125464
615227 515475
615636 926880
615916 334868
616247 60759
616268 691687
616470 158965
616597 750248
617044 462865
617704 961288
618476 715559
619314 719722
619812 462675
620060 143138
620628 846099
621102 191270
621869 65456
622450 442292
622538 198404
623232 807446
623548 312752
623751 748959
624175 526798
624352 426019
624617 82813
624852 434862
625617 462060
625871 884283
626325 882289
626888 605404
627879 196787
628157 289092
628688 844864
629469 720786
629839 465642
630020 343517
630428 618877
630874 427805
631702 156058
632029 951287
632316 835703
632669 728112
633035 112925
633766 868728
634389 411651
634884 628217
635043 71172
635397 208339
636117 41407
636250 194779
637007 400776
637400 439473
637659 209046
638299 792362
638333 726609
638666 717119
639496 564951
640464 632953
641245 504231
641655 822676
642526 792651
643382 992468
644075 29230
644992 755172
645446 133812
645499 398030
646221 594165
646306 645203
646635 918699
647074 715937
647095 359920
647770 174967
648474 620570
648873 997887
649095 999107
649702 306894
650368 386824
650583 330165
651168 87216
651580 15967
651750 664042
652750 591924
653181 729179
653463 885871
654293 393166
654377 531055
654730 571054
654961 781588
655823 680673
656495 956181
657370 478515
657748 980831
658199 931293
659185 622950
659509 757326
660399 25992
660436 437088
661353 717133
661373 832592
661835 13474
662501 704234
662850 750051
663063 764476
663828 453353
664642 908664
665360 96258
665880 903730
666162 447932
666881 964394
666951 826099
667493 840684
668267 189653
668712 164187
669416 427674
669938 156435
670524 929574
671323 285191
671678 984595
672628 124974
672788 487748
673493 906089
674468 507502
674795 940818
675166 502186
675490 122367
676286 171910
677247 494279
677468 696831
678034 864241
678817 997820
679350 607058
679462 410197
680187 784107
681066 383945
681897 379084
682764 465787
683459 743371
683835 339585
684534 153711
685233 498426
685886 68566
686216 509800
686736 190824
687143 996427
687776 399711
688283 464329
688979 729299
689499 559000
690277 770703
691059 780045
691717 961617
692423 341852
692663 696788
692710 640536
693312 937402
693863 817341
694482 126986
695115 904396
695191 461465
695975 548197
696128 579674
696400 566287
697345 338666
698078 161649
698190 27667
698666 686818
698746 337148
699741 142398
700410 893680
701292 617158
701321 480648
701876 33837
702862 557798
703072 439294
703800 932526
704071 216696
704261 338676
704906 363922
704938 424945
705705 508686
705877 804939
706609 148282
706895 632672
707110 486234
707576 381575
707858 477388
707951 626677
708088 375757
708097 134534
708421 227020
709369 291063
709656 731771
710153 112201
710996 462274
711740 837088
712326 978987
713252 291139
713677 533960
714564 440666
715201 604749
716115 912558
716448 951171
716682 558508
716771 149642
716913 789851
717047 121754
717603 587699
718537 875288
718849 783674
719237 233583
719900 620679
720342 927853
720779 259695
721051 400007
721221 801096
722181 522095
722982 967338
723670 402643
724322 601931
724618 54031
725235 814175
725291 469039
725519 873574
726405 567805
727313 575955
728204 278593
728787 423193
728914 477444
728991 389400
729069 205245
729503 26923
729905 637302
730340 943556
730717 442516
731441 738178
731461 922883
731640 360934
731958 240830
732699 853980
733692 375265
734154 950377
734717 283983
734839 106376
735832 792856
735966 266203
736071 675290
736922 682817
737657 583441
738132 299219
739107 988712
739295 55790
739780 600333
740168 993254
740732 53996
741081 539585
741268 446027
741364 598087
741875 358475
742502 961784
743127 20706
743648 516254
743833 963247
744156 898257
744907 61206
745356 668379
745978 304043
746065 138197
746479 431842
747395 171483
747597 621227
748210 305077
749118 713213
749689 424156
749864 338786
750756 261403
751044 63774
751759 877915
752435 869129
752816 843807
753399 135560
754078 101945
754439 109046
755020 707639
755476 695319
756310 960871
757106 813606
757227 961146
757237 40146
757360 954659
757607 884113
758206 344375
758731 250066
759360 978364
759975 703167
760553 954631
761386 863507
762335 449603
762710 74056
762801 431970
763497 334866
763594 330917
764435 185968
765322 114712
765516 992957
766249 206461
766718 400681
766787 217217
767031 958070
767140 877321
767730 914477
768070 736295
768775 113252
769724 647561
770636 75620
770832 336444
771095 488855
771697 102840
772003 479670
772877 214775
773067 192450
774037 601226
774201 199060
775079 253102
775110 50162
775449 358880
776433 883931
776626 302360
776954 740307
777591 850721
778302 921809
778998 479486
779693 467752
780677 938890
781421 802333
782016 552141
782106 659338
783096 435179
783984 230619
783993 30873
784070 650690
784360 282018
785221 619663
786082 464597
786537 857933
787053 611451
787110 486242
787891 308843
788339 541801
788732 502231
789566 783309
790175 882072
791112 475988
791742 167776
792348 175151
792959 56115
793213 182338
793635 689417
794260 77689
795012 894689
795315 652191
795651 298044
796310 993913
796714 592809
796889 595794
797506 762681
798494 199239
798990 117578
799580 904416
800513 544588
800534 73826
801427 281697
801573 215921
802535 832717
802557 999892
803127 455624
803526 477489
803590 770826
804317 83211
805170 564270
805390 99294
805429 20342
805773 76275
806760 32110
806881 338251
807868 657130
808326 248926
808876 829909
809681 415818
810667 880751
810750 943154
811135 314273
811293 132371
811490 359156
812085 839952
812180 789887
813040 722679
813109 566473
813775 509429
814151 917125
814731 598458
815438 408305
816134 402044
816753 931320
816949 509767
817038 6673
817157 250859
817914 972503
817945 618735
818884 441102
819104 507824
819591 447988
820022 679944
820667 250168
821019 559683
821725 199533
821764 630650
822160 25548
822975 295269
823175 764151
823184 867862
823686 654081
824630 802772
825005 231390
825569 55797
825599 624142
826173 18814
826976 148558
827061 251792
827954 894380
828295 509115
828866 648909
829849 430873
830227 45885
831084 585277
831486 886814
832291 467447
832424 470117
832588 123631
832819 378445
833306 676730
833838 874318
834348 470004
835280 409302
835347 602322
836282 956443
836890 728076
837096 595989
837785 176198
838305 183761
838330 242021
838549 87966
838816 234737
838905 433620
839271 278436
840037 959193
840506 429674
841433 807259
841767 246161
841823 677786
842154 284347
842765 794075
843761 704410
844585 433055
845401 139800
845458 917563
845722 831665
846136 88577
846826 89898
847706 50
848352 229546
849114 307683
849394 299176
849674 302482
850249 218279
850308 479050
850340 687016
851179 9299
851401 506022
852370 598712
853012 31462
853934 124627
854696 634062
854703 967004
854961 846566
855185 546322
856132 55176
856690 878646
857073 814083
857403 113582
858149 741367
858550 182069
859120 6623
859910 758516
860185 227936
860767 219235
860872 248436
861557 335865
862349 257943
863058 895417
863186 529528
864140 691477
864199 806012
864469 344694
864521 614989
865420 812940
866378 230982
866748 697251
867068 698399
867504 397896
868302 180110
869072 438326
869633 720548
870579 453001
870674 948674
870748 716146
870851 9624
871093 363134
871402 587796
872286 613929
872612 758886
872784 377659
873675 682498
873765 827738
873873 603226
874119 334390
874227 510332
874251 488412
875058 782552
875497 698752
876099 540947
877032 133410
877673 164880
878411 604677
878897 960146
879182 763458
879541 884315
880331 384458
881257 840689
882224 513881
882645 277947
883013 120154
883076 55503
883873 638691
884644 764520
884956 442745
884976 648491
885813 142867
885816 170312
886117 239608
886504 977074
887491 145688
887890 759313
888175 896145
888249 494532
889189 953269
890046 166814
890052 577964
890073 893105
890754 523069
891729 139348
891956 537528
892800 60784
892812 609237
893354 953301
894001 741262
894059 73909
894938 257931
895737 826522
896507 430870
897288 404702
897851 662350
898553 841196
898981 224695
899658 180362
900003 893492
900781 249882
901358 248942
901801 244457
902046 710566
902331 825087
902791 496630
903050 410896
903172 704832
903539 400912
904528 486377
904882 533091
905727 534319
906297 434296
906477 154803
907327 173437
907453 113184
907503 995597
908350 107987
909184 23269
909940 132616
910805 362029
910977 917287
911780 485983
912405 324369
913178 690025
913791 397721
914240 412237
915043 196636
915542 187312
915642 358259
916066 104785
916647 439615
916879 598923
917735 738056
918716 826207
919345 881458
919906 38288
919982 664017
920008 475632
920351 698454
920583 115460
920777 377971
921043 305983
921226 548942
921978 433363
921985 498487
922083 761838
922098 703727
922389 259339
923225 375984
924161 909947
924968 21462
925387 968036
925500 611449
926201 295491
926225 164620
926396 200211
927068 725521
927680 607452
928653 307526
928764 164445
929069 889868
929486 214277
929676 573081
930608 834474
930793 713853
931436 490879
932032 501747
932620 375906
932861 614872
933252 288805
934201 792072
934824 615966
935792 33639
936474 978052
937265 906964
937983 755935
938602 718781
938928 550252
939000 185375
939434 440533
939723 314035
940541 982771
941108 518496
941955 546751
942620 199807
943266 720322
944240 682264
944918 524954
944998 603163
945133 382815
945812 934053
946404 269777
947291 507641
948160 54152
949026 766354
949775 960458
950178 753714
951094 809099
951550 352812
951554 506678
951741 980624
951833 794382
952386 997387
953064 245846
953185 702935
953195 205583
954056 724629
954078 448383
954538 92582
955178 550638
955449 447079
956146 303444
956670 638744
957422 811822
957533 503797
957806 318608
958278 450708
958341 268418
958888 491688
958901 752278
958989 145473
959305 951094
960082 575712
960206 749769
960421 541210
960479 151103
961422 986261
961492 734051
961608 648638
962176 162362
962202 281466
962519 345286
963361 847620
964292 801313
965165 141076
965686 364959
966664 232379
967021 108270
967056 894820
967166 822042
967310 135135
968295 566759
968979 984053
969387 289451
970363 171671
971100 174946
972089 839676
972302 333018
973180 367074
973362 303450
973628 347670
973749 56149
974187 288871
974489 964951
975101 40291
975481 813149
976353 544834
976987 189825
977786 904151
978038 870914
978348 944123
979217 278689
979269 140311
979801 153755
980760 158740
981118 677181
981798 160283
982194 611390
983161 332637
983359 299181
983958 615124
984450 745962
985443 293704
985449 203567
985559 355239
986020 805862
986977 723682
987281 131879
987912 927309
988679 28786
989159 217018
989483 758816
989610 494561
990085 178535
990290 48944
990934 895693
991664 391839
992197 320003
992792 108325
993767 984351
994493 428501
994565 469363
995425 774460
995752 614972
996256 952241
997158 984229
997205 246252
998101 435502
999053 673342
999999 866086
1000030 142038
1000920 117853
1001746 681176
1001882 300119
1002454 551728
1002703 269344
1002715 849522
1002918 230192
1002983 957399
1003423 331242
1003674 319572
1003895 942859
1004523 847591
1004533 347324
1005239 661821
1005865 535553
1006410 457715
1007232 321905
1008053 32096
1008300 626754
1008433 102543
1008877 680039
1009126 627825
1009345 528627
1010190 57568
1010571 232877
1011261 593524
1011273 999231
1011432 774413
1011471 418155
1012342 173737
1013160 888169
1014090 904886
1014695 478852
1015465 950673
1015984 999471
1016488 451855
1016694 510467
1016759 674961
1017271 753528
1018049 961342
1018122 388078
1018459 471876
1019074 265758
1020066 720767
1020341 576171
1020868 444493
1020906 569113
1021003 909243
1021484 876710
1022402 213784
1022786 282870
1023534 684072
1023629 592774
1023644 434033
1024416 370690
1024883 730748
1025257 377884
1025424 261864
1026379 85199
1026767 449251
1027587 71072
1027976 140579
1028139 125219
1028757 841461
1029518 317772
1029961 492138
1030185 757389
1030992 551590
1031506 755606
1032280 596656
1033193 368078
1034149 380695
1034666 158725
1035198 491132
1035382 396185
1035437 660437
1036310 602611
1037026 285371
1037537 767074
1038437 564793
1039371 964982
1039660 950938
1040268 47235
1040619 258916
1040796 820501
1041696 618737
1042003 816553
1042507 288800
1042617 130728
1042635 871526
1043482 206285
1044442 117217
1045181 531203
1045690 639559
1046574 463351
1046950 149502
1047424 393544
1048095 106402
1048904 644427
1049698 106617
1050651 700682
1051589 267418
1052212 224384
1052989 466724
1053969 883182
1054239 572827
1054297 581122
1054953 960320
1055090 468425
1055455 122411
1056092 464039
1056278 380270
1056426 865184
1056529 483930
1057313 316404
1057501 532295
1058339 58587
1058402 21225
1058588 316545
1059544 161898
1059920 600244
1059958 382403
1060093 718604
1060636 76041
1060866 141630
1061024 466437
1061519 767819
1062332 209689
1063085 371969
1063882 596210
1064167 408374
1064858 958939
1065337 642007
1066067 168651
1066423 746190
1067100 390548
1067670 600578
1068102 788854
1068891 255365
1069807 975746
1069936 334773
1070199 237645
1070598 492212
1071470 76320
1071801 998017
1072761 342913
1073657 454012
1074083 964096
1074985 971862
1075584 528803
1075859 589461
1076591 16379
1076713 508370
1077082 873300
1077207 134729
1077764 262994
1078181 78317
1078866 181975
1079744 19232
1080427 662105
1081197 612714
1081649 782356
1082472 609073
1082836 571810
1083203 905370
1084046 482818
1084527 574864
1084779 315083
1085286 182629
1085755 912798
1085991 505981
1086798 929175
1086878 539471
1087704 914245
1088380 162937
1088670 393906
1088889 182376
1089885 358480
1090537 519815
1090566 711637
1090617 594371
1090899 625379
1091020 690048
1091269 559445
1092175 763041
1093104 717150
1093709 525842
1093760 351723
1094073 867425
1094131 899252
1094471 814778
1094968 258732
1095858 553716
1096531 290717
1097337 462990
1098107 82763
1098536 392822
1098938 3112
1099315 652742
1100174 737425
1100685 851247
1101454 565630
1101827 925288
1102629 924130
1103497 227267
1104414 323550
1104595 915668
1105167 126022
1105256 683512
1105658 70024
1106083 664742
1107064 887668
1107808 488228
1108402 655539
1109226 563761
1109927 43377
1110765 794315
1111010 182949
1111763 815705
1112226 661167
1112424 109450
1112802 428613
1113144 63631
1114124 123211
1114992 869578
1115294 807504
1115345 712270
1116026 11844
1116173 616076
1116530 834990
1117211 922412
1117586 167891
1118444 893855
1118522 465870
1118729 129304
1119179 496421
1120042 83467
1120795 324718
1121466 672993
1121738 896622
1121804 674891
1122261 230596
1122672 39190
1123601 993478
1124300 376517
1124947 738291
1125028 986516
1125105 766175
1126037 427139
1127031 219544
1128002 547537
1128493 970131
1129069 831318
1129374 648392
1129606 491680
1130505 681014
1130912 597838
1131854 391434
1131968 766690
1132290 795434
1132541 363208
1133512 576795
1134400 285088
1134779 778281
1135442 413792
1135474 338283
1135640 464303
1135836 199603
1136709 491877
1136925 663578
1137438 227883
1137800 799068
1138031 493742
1138066 343715
1139033 186653
1139320 165927
1139742 335916
1140448 161249
1141108 74704
1141889 538749
1142429 135432
1142573 325457
1143341 630908
1143794 643580
1143935 288644
1143945 606416
1144504 410638
1144565 879781
1144612 563268
1145606 180445
1145866 303652
1146249 317782
1146783 848755
1147655 880563
1147936 750894
1148376 63226
1148969 178145
1149192 193582
1150137 228843
1150810 201154
1151277 961129
1151345 430216
1151594 111843
1152543 351039
1152926 955820
1153162 770161
1153367 383315
1153545 38062
1153648 934624
1154466 846966
1154494 695411
1155413 766016
1155974 312373
1156026 513741
1156154 972292
1156860 876062
1157623 135193
1158513 725195
1158702 318601
1159106 91706
1159440 205504
1160412 915710
1160865 938084
1161551 948869
1162490 514680
1162791 968833
1162994 713034
1163264 465821
1163870 985743
1164714 974068
1165607 13492
1165989 414753
1166511 222674
1167112 744316
1167210 146512
1167451 81309
1168373 86499
1168839 773443
1169515 220953
1169893 859881
1170325 183602
1170546 463183
1170547 355485
1171151 83135
1171785 679319
1172183 803898
1172269 136101
1172415 890342
1173137 310231
1173514 300406
1173683 765198
1174482 662168
1174904 325190
1175773 483113
1176503 910991
1177390 650710
1177574 946817
1178067 245449
1178101 401392
1178596 29903
1179376 781148
1179640 997443
1180118 291079
1180541 170155
1180920 500178
1181859 893736
1182058 50969
1183038 65387
1183334 906997
1183530 250865
1183711 487432
1184068 381303
1184347 268199
1185020 79176
1185767 272616
1186117 745897
1187038 24767
1187088 710305
1188004 386142
1188667 337482
1189608 225317
1190019 342338
1190222 788366
1190812 487017
1191127 186381
1191515 599423
1191842 842439
1192539 882421
1192580 260927
1192757 892304
1193673 456237
1194223 774155
1194921 263247
1195392 434283
1196059 886958
1196761 829406
1196834 158930
1196913 3515
1197603 736827
1197833 837733
1198740 478168
1199267 768128
1199767 745240
1200707 712576
1201608 270413
1201809 681261
1202359 78840
1202830 942741
1202869 735911
1203790 503310
1203927 181940
1204921 742171
1205095 137260
1205424 163455
1206107 638215
1206278 581132
1206749 299915
1207747 509995
1208006 128372
1208589 328931
1209359 942646
1210244 209011
1210880 56516
1211837 628842
1212242 702056
1212634 90699
1213139 436986
1213690 512839
1214455 550362
1214960 765580
1215166 20302
1215872 657766
1216241 232104
1217059 590691
1217502 726113
1217616 747668
1218320 95982
1218354 461865
1218950 629387
1219836 186723
1219971 450903
1220539 726158
1220560 444627
1221173 211867
1221826 357335
1222178 16436
1222725 710004
1223672 801269
1223802 421117
1223888 684692
1224440 886750
1224933 953610
1224936 787976
1225474 347730
1225673 372323
1226095 428750
1226215 419066
1226797 246420
1227394 741572
1227427 481275
1227982 758811
1228252 144779
1228817 400595
1229323 905241
1229350 153421
1229505 236856
1230332 705334
1230733 236945
1230768 681691
1231072 972622
1231212 570484
1231478 576762
1232321 286712
1232504 415767
1232792 434376
1232898 978341
1233575 485356
1233703 206138
1234423 997038
1234619 121102
1235262 948613
1235948 668493
1236715 107465
1237289 402611
1237532 30289
1238253 908324
1238539 456323
1238933 315573
1239385 283768
1239575 672466
1240555 373625
1241137 423488
1242013 834819
1242686 607941
1243055 177743
1243578 896874
1244560 391130
1244643 233497
1245191 556307
1246089 918694
1246791 133018
1247122 511835
1247970 397636
1248397 362920
1248898 928276
1249589 882826
1250212 475995
1250976 3131
1251800 904143
1252718 65803
1252891 115596
1253840 639629
1254830 884877
1255689 962874
1256011 169326
1256390 466845
1256406 425294
1256501 83973
1256767 417338
1257176 685653
1257813 361135
1258278 116313
1259225 405035
1259748 827429
1260252 557075
1260274 633974
1260626 641553
1260975 696586
1261029 525161
1261498 24087
1262427 333174
1263222 258138
1264181 818360
1264932 533135
1265329 50315
1266299 320238
1266489 449952
1267062 294584
1267440 139275
1267732 953339
1268213 147874
1268646 5225
1269384 747468
1270107 19655
1270525 895864
1271112 486278
1271961 523100
1272932 403858
1273386 177135
1273972 174208
1274326 691506
1274970 63287
1275294 338054
1275441 869799
1275982 870089
1276821 301599
1277632 661313
1277825 219736
1278119 223993
1278854 487729
1279047 345497
1280038 277813
1280480 558358
1280862 922775
1281137 38729
1282075 416063
1282800 84522
1283000 275730
1283603 900483
1284484 840302
1285204 867276
1285248 610554
1285877 746971
1286137 822474
1286250 87478
1287106 650178
1287316 927528
1287391 499431
1287804 940941
1288213 493704
1288290 209546
1289037 897820
1289536 524885
1289642 706502
1289813 57924
1289849 460671
1290108 988859
1290237 847804
1290880 549648
1290954 900185
1291450 426397
1291755 585934
1292679 422782
1293300 72113
1293864 211080
1294397 601345
1294669 989672
1294914 769322
1295715 12915
1296183 313164
1296671 80733
1296683 494547
1297388 673601
1297513 515031
1297909 222731
1298413 295009
1299392 36379
1299631 854261
1299668 323636
1300451 169685
1301171 188160
1301370 723104
1301879 959936
1302026 310076
1302773 536194
1303474 911551
1303811 231331
1304535 130175
1304966 603483
1305566 231213
1306022 461987
1306436 888690
1307041 787986
1307915 189884
1308794 794586
1309742 794138
1310418 628038
1310466 479574
1310868 53231
1311382 551714
1311403 427660
1311675 623723
1311771 815152
1312680 155535
1312873 749004
1313287 537680
1314223 34640
1314641 807648
1315474 657236
1315649 727822
1315909 408458
1316466 554885
1317458 637110
1317943 894267
1318287 59701
1319104 883309
1319625 812968
1319793 734722
1320194 273761
1320597 208893
1321105 499224
1321922 275122
1322119 606682
1323095 196892
1323602 162400
1323606 414921
1324052 109897
1324393 743484
1325092 128348
1325647 592306
1326230 921497
1326473 323570
1327344 683361
1327668 309798
1328154 921684
1328329 442612
1328371 556689
1328523 168915
1328662 146180
1329218 457292
1329625 323308
1330190 258984
1330380 774230
1331099 258596
1331805 490948
1332116 542008
1333107 230148
1333343 908377
1333564 205812
1334215 888480
1334911 14695
1335421 168822
1335669 526699
1336213 376871
1336309 420903
1336500 626425
1336812 988969
1337332 302151
1338010 340215
1338460 519448
1338595 531237
1338917 946255
1338942 181895
1339820 603162
1340268 685661
1340652 282621
1340891 23132
1341129 852385
1341676 231994
1342126 262586
1342890 467855
1342993 819527
1343658 433032
1344583 970604
1345094 47688
1345706 200084
1345775 975188
1346712 247308
1347436 876574
1348130 926479
1348406 60329
1349097 481549
1349333 719350
1349500 978126
1350119 178622
1350938 311105
1351282 535470
1352020 636240
1352673 739306
1353100 6058
1353193 171270
1353250 413408
1353669 892662
1354547 806003
1354843 771189
1355236 633508
1355561 442432
1355724 588615
1356345 325840
1356653 942261
1357324 712817
1358171 285089
1359050 726870
1359839 312850
1360824 725732
1361644 677688
1362309 828369
1362944 42311
1363621 31162
1364011 89490
1364785 448149
1365141 466472
1365837 989178
1365853 505186
1366682 233443
1366833 298516
1367579 66084
1368079 983439
1368422 870373
1368617 673158
1368709 535164
1369178 97452
1369752 819730
1370482 429574
1371409 253286
1371755 41437
1372125 941757
1372191 589695
1372292 19611
1372463 621988
1372997 541643
1373125 416282
1373869 276976
1374708 663664
1375534 901475
1376380 182739
1376839 475200
1376851 839007
1376864 14199
1377154 108693
1378105 255305
1378220 541357
1379181 946168
1379407 923775
1380336 61408
1380430 763054
1380625 143482
1381254 172483
1381697 414323
1382198 913357
1382706 59626
1383368 781890
1383941 916274
1384595 578493
1384728 981865
1385151 215739
1385195 671887
1386120 673298
1386725 220763
1387065 22845
1387221 920657
1387354 803747
1388074 403819
1388229 381163
1388973 367016
1389156 683820
1389232 754200
1389892 954811
1390765 734491
1391071 34955
1391192 820948
1391240 788312
1391330 162990
1391770 410305
1392530 826494
1393521 73097
1394228 27262
1395046 41239
1395058 192206
1395471 600611
1396258 567819
1396675 707721
1396685 180180
1397650 887064
1398113 944102
1398874 864459
1399705 645204
1399845 508753
1400538 782815
1400928 551417
1401490 901244
1401595 787912
1401743 985465
1402018 663869
1402537 4196
1402898 631073
1403887 862754
1404861 146655
1405218 797565
1405450 749282
1406133 447352
1407114 490437
1407999 61291
1408633 210082
1409321 771124
1409408 413548
1410217 192594
1410378 931155
1410610 549710
1411013 275415
1411377 857093
1411893 543752
1412369 916731
1412748 453660
1412841 92983
1413251 836093
1413563 707398
1414496 339071
1414730 211546
1415520 640840
1415877 417485
1416485 977145
1416923 964021
1416934 528640
1417654 306271
1418245 4036
1418731 632496
1419003 335892
1419359 72994
1419600 223954
1419897 654090
1419927 126280
1420882 872177
1421316 981017
1421915 168540
1422105 320584
1422828 250520
1423111 479740
1423677 136257
1424314 636528
1425012 414573
1425546 125302
1426389 920922
1426647 917591
1427121 55935
1427757 103722
1428535 485440
1429083 74103
1429438 593184
1430042 596441
1430383 644480
1430395 239306
1431029 329881
1431630 643647
1431658 694775
1432624 979026
1433340 834460
1434072 832415
1434855 227131
1435446 221477
1436295 907318
1436409 694994
1436706 538930
1437144 687957
1437481 734141
1437566 931211
1438310 495756
1438348 676659
1438587 420595
1439295 970536
1439560 99658
1440189 636997
1440672 391499
1440956 847877
1441699 266428
1442375 431017
1442388 212506
1442525 681962
1443471 577990
1444211 364308
1445030 476229
1445886 823843
1446808 655023
1447649 921745
1447689 397168
1448001 371130
1448451 904968
1448468 16139
1449018 572131
1449683 182833
1450482 950029
1450634 743406
1451112 926155
1451779 476519
1451862 448384
1452596 944815
1453326 734391
1453334 442050
1453345 290375
1453498 420075
1454185 418978
1454592 19181
1454898 824019
1455463 99903
1455562 433628
1455631 761108
1456134 746365
1456575 735579
1456891 42829
1457237 426379
1457393 451540
1457487 813922
1458417 617741
1459078 364871
1459958 524952
1460558 897400
1460638 568423
1460738 840026
1461028 728689
1461138 316185
1462130 960935
1462969 141732
1463220 113013
1463915 635782
1464734 630561
1465022 482840
1465247 75260
1465646 974144
1466573 276584
1467478 129873
1468070 130964
1468165 378635
1468229 711662
1468920 438395
1468939 790452
1469080 593187
1469839 357638
1470445 958069
1470490 515186
1471098 592112
1471481 492715
1471932 311730
1472431 915991
1473004 538631
1473031 107632
1473998 118298
1474031 662889
1474631 322474
1475627 181831
1476344 632237
1477184 14166
1477783 72916
1478694 154886
1479634 859477
1480417 282935
1481326 259170
1481618 682771
1481644 469877
1482461 120317
1483399 18185
1483607 290505
1483831 899113
1484118 368997
1485073 374225
1485814 537501
1486477 640903
1487345 658798
1487629 765276
1488549 351215
1489222 80463
1489596 308108
1490068 967530
1491043 327261
1491168 642497
1492094 44880
1493080 97669
1493202 700864
1493307 472052
1493599 158346
1493948 772006
1494904 367455
1495403 41649
1495893 58698
1496210 338600
1496732 703950
1497238 420887
1497507 811438
1497667 796003
1498064 176446
1498674 783590
1498809 605824
1499540 855763
1499589 316599
1500394 931003
1500906 287214
1500924 566744
1501894 262884
1502429 250406
1503311 955744
1503523 497161
1504015 374654
1504199 708001
1505037 646563
1505436 417012
1505735 662832
1506075 977439
1506155 711671
1507011 573355
1507891 655585
1508009 713588
1508032 307183
1508969 596273
1509560 258164
1509671 192264
1510575 654569
1511224 429686
1511932 318294
1512852 566822
1513225 546818
1513506 199049
1514008 196621
1514481 358243
1514822 967912
1515800 697135
1516663 236444
1516933 334627
1517902 158765
1518214 669455
1518656 236082
1519200 667920
1520147 497516
1521022 542879
1521665 538891
1522569 758816
1522745 93361
1522803 626710
1523227 204744
1523639 851986
1523924 70261
1524377 959181
1524610 317272
1525017 307
1525099 168558
1525470 921870
1526268 41609
1526532 506708
1527196 902295
1527465 577203
1528277 358877
1529133 195217
1529324 741068
1529627 689103
1530521 636931
1530603 68938
1531457 503163
1532006 169134
1532813 826673
1533691 824251
1534001 207924
1534118 348548
1534954 205736
1535661 881221
1535796 343037
1536666 486547
1536840 920327
1537164 379500
1538038 228419
1538586 51542
1538668 634633
1538766 459634
1539261 917499
1539815 362628
1540670 473387
1540859 822948
1541740 960696
1542216 578173
1542689 496969
1543192 800918
1544072 609460
1544169 902336
1544460 509572
1544480 309450
1545198 420634
1545918 294934
1546788 483486
1547149 458850
1547183 652956
1547705 419323
1548037 769504
1548186 702618
1548617 274113
1548845 843982
1549117 728434
1549669 616125
1550256 879447
1551050 294956
1551089 195677
1551806 562584
1552443 581528
1552776 317287
1553268 871395
1553485 676036
1554042 364403
1554447 964352
1554704 34763
1554725 441082
1555038 216341
1555734 29872
1556009 489145
1556347 753627
1556730 390980
1557672 841812
1557903 81289
1558341 608103
1558915 54363
1559636 886070
1560565 52676
1560728 911239
1561005 28044
1561178 72004
1561805 563226
1562427 705007
1562517 326999
1563516 422653
1563637 651473
1564494 596875
1565447 823263
1565981 97698
1566005 630737
1566764 845922
1567286 275218
1567788 909091
1568570 807748
1569321 799909
1569367 695177
1570181 444202
1570846 720316
1571687 835371
1572030 195974
1572334 947273
1572575 220989
1572807 185422
1573108 573200
1573437 164220
1574111 155246
1574518 449438
1574772 424931
1575044 430712
1575177 22915
1575930 559733
1576182 76249
1576620 168248
1577151 793026
1577234 736011
1577401 19796
1578045 143981
1578512 565858
1579339 837423
1579516 987024
1579847 621325
1580090 108033
1580358 655331
1580831 910821
1581425 211078
1581470 459532
1581956 205615
1582812 112570
1583505 414700
1584441 297110
1585143 945366
1585236 71314
1586157 807651
1586254 692557
1587039 531271
1587148 707724
1587494 940626
1587772 319259
1588174 764057
1588778 889572
1588811 783089
1589448 266895
1590212 197078
1590606 468068
1590620 235957
1590795 199359
1591652 820620
1591867 274862
1592797 845206
1593043 123281
1593151 863889
1593325 315828
1593591 546536
1593716 420135
1594360 15414
1595038 700330
1595274 404517
1595948 957888
1596538 787738
1597536 312414
1597858 865640
1598843 540650
1599575 110881
1600538 929490
1601261 662299
1601706 390001
1601744 285334
1602452 630382
1603040 276091
1603099 425186
1603238 391949
1604197 196076
1604644 605410
1605313 20933
1605738 738355
1606052 642701
1606163 150398
1606871 995709
1607585 848701
1608187 700664
1608872 654810
1609719 839305
1610114 160164
1610140 823707
1610586 639746
1611246 623669
1612188 159176
1613153 696546
1613154 105826
1614064 910608
1614835 465893
1615369 849073
1615689 523404
1616294 609663
1616889 398003
1617660 905106
1617687 978821
1618346 257041
1618377 632823
1618956 507343
1618971 119009
1619384 374630
1619740 331662
1619863 547834
1620855 283952
1621004 91808
1621533 949220
1622013 344481
1622815 5465
1623271 654323
1623692 500166
1624132 229253
1624798 66620
1625716 945708
1626574 231337
1627454 435997
1628142 939601
1629058 757209
1629208 946272
1629285 802338
1629861 338801
1629884 706707
1630726 823801
1630824 114021
1631227 442893
1631767 928020
1632237 5033
1632824 628692
1633521 4075
1633586 34266
1633935 376557
1634153 967361
1634306 468843
1634544 469223
1634900 934651
1635293 269640
1635583 873373
1636399 7613
1636902 942608
1637171 809493
1637915 617107
1638078 323966
1638841 274026
1639165 442199
1639339 277822
1640096 780345
1640584 507432
1640647 485476
1641191 672871
1641626 224723
1642126 175868
1642442 12498
1642598 987160
1642919 230998
1643293 23114
1644213 51250
1644784 971916
1645373 42858
1645703 778399
1645902 476990
1646179 834835
1647146 555407
1647997 214608
1648303 972968
1648345 467003
1648990 155253
1649102 437821
1649132 417623
1650125 712048
1650289 463900
1650981 225331
1651441 118049
1651804 216610
1652093 440545
1652945 999422
1653400 121796
1654009 295112
1654031 295772
1654806 100513
1655478 970618
1655714 835343
1656026 985718
1656299 909886
1656783 615173
1657685 195649
1658635 574608
1659567 199770
1660156 255075
1660490 209068
1660691 532106
1661007 664035
1661388 650733
1661430 495041
1661998 951713
1662777 61443
1663494 97599
1664478 612329
1664967 745438
1665406 800312
1665667 51731
1666446 463825
1667348 455982
1668129 501353
1668723 359479
1669552 80614
1670143 805619
1670212 969608
1670426 706375
1671272 749201
1671853 126851
1672354 831468
1672875 904690
1673755 419766
1673967 439889
1674319 248772
1674787 346008
1675663 581871
1676508 480312
1677360 309990
1677973 515593
1678514 563623
1679193 510100
1679997 110203
1680975 186593
1681321 750403
1682151 251643
1682907 871342
1683056 513350
1683416 119268
1684213 817245
1684437 702370
1685120 446255
1685181 396759
1685791 380240
1686179 469260
1686225 905507
1686562 380780
1687330 905230
1687908 705475
1688130 883312
1688618 324083
1688802 878957
1688956 726180
1689757 592224
1690723 751061
1691298 345653
1691943 887935
1692033 725048
1692507 282504
1692952 299841
1693088 683268
1693986 697104
1694379 198151
1694454 440884
1694996 700698
1695376 788768
1696375 750137
1696863 701861
1697541 933803
1697864 161143
1698047 851220
1698134 176558
1699131 335564
1700128 517100
1701128 766380
1701674 828737
1702568 821105
1702909 140979
1703046 450636
1703083 990311
1703120 241274
1703931 330597
1704042 93037
1704204 25861
1704569 621398
1705193 59210
1705656 606467
1706349 197975
1706845 46387
1707370 157784
1707860 902275
1708535 383844
1709052 489333
1709598 873777
1710365 57817
1711038 952580
1711674 370405
1712554 801674
1713073 545023
1713122 984413
1713474 387940
1714080 721382
1714635 654338
1714953 106401
1715168 322553
1715451 867354
1715514 904183
1715629 969202
1715665 10821
1716252 503450
1717020 865781
1717960 985696
1718869 322609
1719361 327
1719646 988188
1719788 251506
1720580 311873
1720755 283612
1721571 815219
1721710 103925
1722263 447766
1722797 406664
1723052 309872
1723948 796745
1724703 26955
1724851 202888
1725717 444161
1726363 464959
1726580 964850
1727384 303625
1727808 95085
1728111 233935
1728608 590839
1728736 922523
1729090 719076
1729331 574802
1729557 548466
1729727 422876
1730376 962030
1730394 936565
1730811 639574
1731468 446055
1732119 175388
1732656 246663
1733265 103300
1734166 145566
1734172 459357
1735139 639122
1735884 85709
1735895 452860
1736821 635665
1737209 670217
1737237 628443
1737978 630343
1738299 915041
1738397 259057
1738586 174510
1739123 639069
1739286 182120
1739761 516832
1740111 19918
1741011 799416
1741843 778002
1741994 401751
1742444 709060
1742595 478137
1743150 124188
1744120 348680
1744759 980531
1745343 499868
1745959 603357
1746443 714329
1747208 729939
1747774 319549
1748275 337995
1748592 820939
1749436 288085
1750070 473090
1750651 400568
1750769 68051
1750942 897676
1751451 678946
1751848 502765
1751989 716177
1752876 483221
1753047 756220
1753875 116527
1754440 236230
1755179 129884
1755463 526684
1756175 759377
1756997 290101
1757125 773718
1758038 239747
1758907 49215
1758951 954273
1759588 179188
1760430 236209
1761130 787711
1762015 815346
1762122 58242
1762194 865439
1762861 668554
1763225 9687
1764091 869174
1764462 273117
1764519 588015
1764547 849527
1764963 494605
1765071 474420
1765893 310340
1766003 660583
1766989 68041
1767394 703078
1767408 866873
1767587 30749
1768052 46407
1768692 358222
1769133 265151
1769744 610880
1770166 601490
1770193 234554
1770710 353240
1770840 750996
1770856 519781
1771707 289561
1772477 744643
1773001 885387
1773448 11294
1774181 43471
1775013 941210
1775877 517201
1776619 326373
1777154 570933
1777727 625519
1778198 868926
1778380 189217
1778430 912427
1778597 177637
1779449 113918
1779889 21596
1780393 167450
1780786 855728
1780957 962434
1781273 540013
1781786 801645
1781891 167359
1782317 349719
1782369 550218
1782977 828007
1783486 328253
1783498 51066
1784489 124456
1785268 301860
1785469 84302
1786012 543106
1786425 694170
1786937 847212
1787077 418632
1787339 947454
1787998 52008
1788051 744756
1788383 541616
1788640 585781
1789334 284584
1789621 797526
1790205 849299
1790338 302070
1791109 349519
1791454 879640
1791648 74291
1792108 64227
1792880 828748
1793769 842429
1794582 861298
1795131 580527
1795774 514482
1796575 807438
1796929 634856
1797389 612479
1798050 427110
1798837 812995
1799129 418669
1799823 763748
1800231 886222
1800871 232641
1801771 874188
1802294 506850
1802928 401092
1803848 242192
1804609 250446
1804961 806251
1805961 829386
1806420 650185
1806655 151296
1807352 429096
1807476 317545
1808250 583537
1808682 352733
1808794 405299
1809676 373999
1810198 117555
1810348 555455
1810775 27133
1811430 622179
1811919 501162
1812740 770523
1813345 280288
1813904 552962
1813987 7295
1814981 145513
1815317 709926
1815386 584431
1815658 153070
1815722 664211
1815758 610949
1816449 740872
1816624 507506
1816728 273077
1817649 84914
1818648 901527
1818754 924440
1819695 39148
1819814 75351
1819996 196464
1820157 339183
1820799 742450
1821255 652540
1821793 547653
1822660 639700
1822727 140819
1823560 849286
1823780 605232
1824521 628277
1825468 807170
1825994 149813
1826635 766996
1827442 704747
1828045 881084
1828192 683773
1828670 232619
1829018 259356
1829412 549599
1829929 683415
1830840 930552
1831616 12552
1831682 767521
1832434 665234
1832963 788644
1832965 63799
1833813 226295
1833846 702327
1834259 674382
1834395 677971
1835037 688347
1835151 309604
1835253 609375
1836129 408702
1836648 696602
1837569 423502
1837602 358966
1838043 405389
1838874 217429
1839661 454590
1839795 383506
1840771 81136
1841045 944591
1841637 248395
1842613 416075
1843488 618020
1843856 68615
1843917 519127
1844834 596828
1845668 514058
1846104 265238
1846320 109061
1847097 982510
1847106 350081
1847743 905334
1848302 714648
1848383 107600
1848392 649907
1849050 665191
1849199 395523
1849577 893384
1849637 223244
1850398 850287
1850478 349364
1850684 99493
1851595 244302
1852098 858438
1852297 138981
1852911 63488
1853744 454795
1854003 140235
1854987 716293
1855129 129632
1855585 617652
1855883 819865
1856172 226344
1856994 17417
1857979 51688
1858968 233750
1859608 682770
1860571 636948
1860669 636709
1861277 460174
1861955 445740
1862215 999647
1862837 835139
1863358 441428
1863605 673049
1863852 189798
1864453 848722
1864655 679131
1865122 746881
1865618 536473
1866237 983471
1867131 687168
1867503 941110
1868366 234002
1868892 94941
1869792 653486
1870097 881051
1870953 939209
1871952 480428
1872066 387026
1872197 94689
1872651 675703
1873117 258914
1873306 153463
1873425 42320
1874170 904482
1875161 574686
1875164 636129
1875971 65662
1876867 913125
1877403 935946
1878137 390835
1878886 93919
1879856 741440
1880003 899000
1880078 400915
1880104 597880
1880619 759970
1881582 388041
1882056 69676
1882637 172437
1882976 35235
1883492 979176
1884104 411048
1884977 346127
1885093 98466
1885500 563478
1886420 565547
1886905 430402
1887463 549376
1888328 641759
1888999 745912
1889745 725697
1890038 709913
1890933 203463
1890955 490520
1891519 504396
1891900 398309
1892441 658053
1892965 99924
1893905 212109
1894233 334957
1895145 344800
1895984 460764
1896892 385353
1896953 758134
1897658 417781
1898089 874424
1898210 471964
1898515 134475
1898593 845630
1898651 436224
1898766 769819
1898966 862792
1899302 529082
1900164 600454
1900545 962179
1900787 366192
1900922 923039
1901922 510903
1902142 954429
1902190 70053
1902246 474796
1903222 857104
1903942 420998
1904607 356269
1905242 703333
1905883 863716
1906437 925636
1907116 510952
1907500 126969
1908155 259807
1908653 845919
1908973 15148
1909530 974880
1910305 250134
1910512 72330
1910695 857648
1911411 793455
1911527 355803
1912128 653663
1912781 523910
1913652 824405
1914283 27911
1914692 592080
1915280 19831
1915739 817868
1916386 697921
1917039 208635
1917674 582305
1918609 802284
1918946 259853
1919778 953731
1920260 962119
1921091 829930
1921770 757151
1921797 226450
1921842 279996
1921859 503916
1922653 273194
1922654
