2888
461 616819
586 642700
1342 946658
2183 882104
2906 75946
2997 453016
3316 913036
3907 500303
4630 623434
5330 856556
5407 508041
6284 903722
6737 365841
7392 410911
7765 144504
7902 94225
8522 311940
8948 576899
9782 408733
9992 337742
10537 517459
10785 614762
11657 907712
12230 57439
12383 117731
12730 587796
13170 246099
13206 693427
13462 428577
13892 560691
14703 92647
15572 901043
15660 854277
15964 899419
16771 583578
16838 194617
17142 825648
17148 813443
17679 623722
17786 94072
18421 319614
19046 126447
19969 988946
20082 778589
20429 961294
20817 455470
21465 620988
22133 38008
22762 737053
23421 78652
24319 961102
24821 154704
25794 703217
26372 891600
26943 248120
26961 638518
27067 682340
27748 691437
27763 436754
28120 319373
28799 690100
29018 284673
29667 567271
30475 370816
31301 754510
31406 114698
32011 534149
32383 276552
32666 458868
32854 821156
33764 509257
33782 994633
34345 168996
34929 848486
35523 71531
35743 400936
36471 215252
37222 392663
37246 452172
37573 883490
38438 612008
39149 722478
39984 925843
40200 469743
41121 675992
41919 172804
42137 13006
42497 938885
43047 223068
43987 525963
44096 55302
44102 571956
45047 116108
46035 332691
46564 59942
47056 271814
47618 738944
47873 61915
48544 421267
48816 48302
49455 469752
50219 955985
50685 522953
50999 602577
51241 632102
51786 273315
51835 558677
52692 821600
53028 55462
53808 556743
54717 942643
55650 413029
56341 682451
57139 749785
57704 249251
57839 153018
58263 253005
59014 611084
59635 530299
59935 248374
59939 95557
60532 481817
61429 560155
61874 488820
62393 23078
62966 974202
63530 835361
63866 251802
64183 41193
64431 3893
65077 294302
65259 400150
65314 612539
66002 779712
66991 480464
67506 191541
67617 3984
67798 845502
67912 951128
68708 676351
68990 960554
69065 15232
69658 952276
69674 741519
70103 153902
70930 136694
71150 2190
71221 579665
71259 586696
71273 251246
72016 247666
72907 877802
73584 651162
73784 925254
74559 180039
74561 366129
74735 730764
75456 979167
75812 278908
76544 656260
76597 591596
76727 856051
77354 138307
78149 876606
78162 708089
78653 906287
78808 258154
79672 179822
80490 369626
81137 938772
81412 61571
82295 895784
83057 667670
83553 311458
84078 429203
84496 140377
85150 67086
86069 356527
86865 757710
87534 871691
87692 722527
88244 279887
88665 128329
88968 151751
89266 253832
89312 731468
89847 603700
90733 845471
90812 945382
90911 771753
91504 892579
92435 472813
93156 327640
93578 43451
93706 110882
93993 846124
94157 447831
95075 405779
95568 731969
96322 253237
96462 210824
96503 834730
97165 562456
97749 887061
97949 310844
97951 749442
98225 463028
99062 479689
99874 721732
100167 111199
100612 310409
100720 39040
101085 146504
101233 733663
101817 233643
102598 804668
102689 288182
103508 895977
104004 501003
104434 828728
104729 30272
105498 7823
105893 507539
106711 13417
107305 593680
107790 258186
108197 85431
109088 350699
109291 65354
109430 901400
109667 314898
109950 538552
110319 724428
110666 760288
111571 562928
111757 175478
111775 96781
112724 619565
113723 727432
113990 878735
114190 953848
114783 208707
114834 771798
115017 595937
115387 336992
115401 498027
115413 428616
116019 135311
116258 536281
117188 406309
117992 239149
118251 819083
118722 870901
119589 244512
120548 562036
121423 611288
122297 923054
123274 840577
123679 951922
124222 977433
124502 441630
125311 913435
125695 824573
125979 46198
126335 88512
127118 315543
127519 107096
128010 812659
128518 38268
129142 464147
129631 792425
130447 273011
130867 981929
131591 830532
132234 711849
132437 600399
133062 39675
133374 6824
133755 121219
134413 224526
134686 495205
135472 847275
135998 116662
136948 521320
137455 871572
137577 161380
138405 20014
138699 446600
139238 254425
139769 223870
140303 472842
140336 177748
140624 791824
141115 77708
141895 740151
142625 733572
142919 190989
143363 349410
143607 959265
143620 906130
143971 895670
144048 903705
144474 905852
144800 392518
145369 170559
146133 97897
146463 728432
147292 414308
147560 108748
148387 34781
148697 398002
149436 407981
150091 184494
151080 614298
151502 391886
152438 414100
153324 354837
153993 15707
154611 390701
155560 799666
155730 307396
156289 298184
156581 936927
156920 579698
157184 248676
157412 958464
158200 861990
159129 855625
159146 684303
160109 203293
160359 675615
160499 471
160508 281345
161420 87355
161659 89787
161925 808882
162081 587833
162921 83546
163052 57258
163973 196155
164213 547496
164446 981024
164504 503386
165406 175310
166177 797284
166235 403251
166306 476113
167121 267616
167917 465149
168460 902027
168521 563281
168677 69934
168688 381871
169404 690673
169754 27423
170037 377208
170138 104514
170817 686395
171121 193205
171596 310225
172426 621584
172713 45387
173282 835262
173338 202405
173832 779177
174081 48876
174176 877604
174425 1174
174585 435520
175191 428835
175934 391617
176494 316474
176877 975128
177687 828543
177699 196047
178660 184661
179132 962624
179866 985816
180489 643932
181289 884602
181887 890517
182177 988150
182979 114416
183605 296041
184502 905787
184736 385336
184964 105471
184971 646996
185944 447867
186760 879092
187092 162581
187813 628648
188295 688783
188320 754044
188754 556016
189087 324745
189992 105378
190666 485424
191467 958181
192056 108785
192905 24204
193434 728987
194122 822524
194706 47458
195677 906413
195822 746703
196232 337783
196318 523985
196758 11533
197606 92950
197830 225519
198378 663974
198650 617639
199455 10522
200201 192350
200320 17444
201061 266086
201105 675707
201770 328509
202530 216568
203242 399181
204018 686297
204353 439362
204864 74608
205020 338652
205757 311846
206186 624366
206879 239991
207009 349966
208009 500399
208132 447038
209005 138043
209058 981582
209292 236311
210123 113902
210899 129850
211283 466470
212261 814389
212742 654477
212964 738079
213116 291435
214033 484482
214340 78320
214515 821163
214995 439877
215870 908114
215951 286129
216036 724178
216865 918834
216931 678158
217186 883694
217775 430012
218483 198033
219213 310268
219549 314589
219863 110624
220257 16703
220817 5716
221630 960318
222029 638695
222334 509525
222928 408879
223620 665674
223820 987230
224797 395053
225384 955219
225832 217878
226766 674862
227307 720193
228217 295307
228924 434122
228989 947887
229977 140941
230783 34100
231484 32405
231655 521013
231767 305256
232337 168952
232519 461977
232986 546816
233422 828394
234305 988778
234636 261252
234761 489759
235124 21238
235836 834839
236729 936612
237428 576788
238327 761597
238720 761826
239678 86610
240328 162812
240354 858966
240675 595010
241504 108931
241630 805193
241736 84756
241829 159466
242601 570495
242777 291034
243173 288352
243749 820198
243949 186586
244134 252290
244823 521089
245312 223588
245501 410263
246086 394958
246639 895433
247531 291836
247704 437904
248059 646647
248288 872400
249115 865051
249400 453997
249490 128402
250181 592950
250513 333946
250839 264231
251508 920748
251974 229153
252074 152932
252766 886536
253436 846315
254042 324610
254067 216873
254341 728218
254824 633646
255776 586958
256159 527062
256290 316876
257180 437895
257457 618326
257467 384263
257552 235327
257842 556819
258197 419917
258722 86210
259129 25941
259448 31950
260332 795846
260412 979759
260635 503714
260825 379910
261386 516119
262256 735762
262779 746951
262835 448894
263313 212208
263408 929911
263901 933565
264882 443665
265284 282301
265517 523873
265527 591419
266368 339154
267192 986312
267395 603480
267790 117003
268576 147746
268973 387277
269773 8763
270721 589535
270992 270858
271887 928454
272768 600603
273029 17587
273909 1732
274526 674131
274543 278778
275441 633661
276300 614340
276648 907106
276741 80521
277027 516521
277117 206898
277266 743138
277431 293679
277613 278752
277881 262322
278335 246040
278342 285883
278743 157436
278894 979377
279750 400048
280127 728301
280644 313991
280747 669494
280863 291096
281535 571925
281761 725910
282376 962337
283269 792963
283761 492420
284327 479859
284437 344191
285200 443268
285622 732143
286129 15950
286581 448115
286909 851559
287695 116972
288502 925810
289105 474722
289841 980725
290209 830042
290495 972311
291201 179644
291590 228465
292102 223599
292793 664490
293431 411227
293688 590410
294316 929990
294551 790119
294812 704415
295264 508424
295298 80907
295309 224359
295755 688465
296029 930767
296749 391582
297358 521628
298014 276108
298407 188350
299398 820942
300191 70308
300845 584314
301513 338153
301534 819838
302091 381027
302341 188878
303149 413679
303455 918275
304148 697813
304326 10609
304950 113302
304984 740653
305801 419671
305907 20244
306090 995591
306769 163005
306870 929263
306878 252462
307093 26449
307486 409038
307653 789001
308462 480241
309284 849370
309790 399966
310096 761261
310202 265227
310204 204029
310828 98231
311589 843535
312542 821938
313266 897136
314056 362414
314677 402017
315552 819789
315708 435361
316502 862121
317060 535737
317672 401649
318137 328156
318626 604240
318631 457819
318748 131133
318784 782381
319148 678247
319889 646379
320370 541310
321048 94998
322046 721460
322880 635805
323760 313660
324388 2606
324872 656300
325440 326254
325626 932557
326072 884811
326387 622909
327230 511458
327413 187133
328047 619805
328601 752177
329450 277645
329898 31026
330719 554052
331700 909052
332097 732980
332401 802747
333111 636058
333922 652687
334310 663451
334332 421863
334337 537686
335043 338248
335238 438706
335369 244740
336051 302973
336825 273222
337596 752397
338384 194088
338636 963334
338837 576217
339397 681955
339773 172577
339800 492791
340006 317479
340692 48516
341358 772078
341981 229682
342902 86892
343747 686123
344026 722730
344848 476559
345270 283143
345409 756998
346319 349386
347207 409973
348095 678704
348874 72267
349296 1077
349547 671239
349783 686153
350050 383438
350562 84142
351379 301635
351488 805803
351710 133898
352652 730836
353319 274531
353974 379673
354948 659271
355286 402475
355670 431506
355722 285174
355906 20160
356193 843560
356824 411466
357307 277346
358294 550853
358704 647
358920 358529
358993 217259
359377 24956
359677 882757
360036 331355
360779 428824
361746 721980
362451 463556
362688 924394
363610 970717
363631 225939
363875 138301
364622 169656
364857 878955
364969 807496
365450 547043
365558 92533
366112 163560
366485 494221
367054 748785
367229 956080
367556 38022
368141 567552
368680 916396
368777 954998
369158 217743
370073 585868
370113 841501
370350 320877
370850 472075
371018 468798
371329 290155
371675 772331
371980 399073
372761 254305
373076 988465
373616 482998
373795 472775
374712 793094
375176 657779
375495 903781
376160 205877
377102 636973
377794 232094
378465 530887
378867 473516
379074 368782
379608 995649
380205 299364
380745 632155
381583 615563
382465 418923
383443 147551
384354 258193
385073 32542
385631 31378
385994 101309
386462 603906
387123 755536
387617 880577
387758 306846
388632 114811
389522 442980
390029 177885
390634 515884
390662 821890
390986 460852
391637 369871
392480 87261
392683 749367
392872 530672
393476 834483
394302 102235
394844 52945
395224 327268
395843 381820
396603 680622
397266 333228
398040 752140
398697 342128
398908 239373
398986 536423
399745 831923
400053 970889
400118 387694
400202 930209
400732 454785
401693 566910
402104 613072
402317 821114
402562 523935
402999 9357
403432 350509
404309 83817
404556 597550
405338 494491
405775 985931
405988 355452
406961 805307
407335 245185
407460 392223
407534 619540
408023 33825
408933 566539
409340 124687
409560 648071
409955 263522
410555 338124
411077 519667
411104 69764
411959 334126
412041 346722
412635 86447
413224 501175
414180 171258
415041 988045
415054 844283
415961 352269
416438 155407
416715 771044
417404 502507
417702 821155
418464 299948
419293 840600
419299 243364
419736 310656
420371 153164
421354 290379
422079 298995
422988 640175
423509 332735
423597 861013
423748 651746
423933 246018
424108 103450
424247 188544
424593 689501
424684 52796
425490 763595
425530 724242
426172 41803
426776 927357
427365 212022
427979 917311
428586 107624
428642 518807
429034 465993
429337 242749
429838 752602
430221 824989
430786 349899
431121 530668
432018 746359
432192 239671
432238 762383
433053 694726
433852 908374
434133 692531
434618 366390
435414 84649
435451 848826
435790 549318
435846 782229
435953 758532
436532 275065
437001 437717
437343 874637
437377 806771
438308 158764
439178 199579
439522 21140
439991 8448
440506 468207
441416 963394
441835 4833
442466 401069
442779 272684
443559 381938
443719 349645
444539 47812
445482 184169
445817 172611
446214 691301
447064 808256
447122 947277
447338 330449
447759 47530
447908 960023
448167 937321
448318 50622
448890 23555
448929 93211
449803 349362
450093 165865
450803 933025
451447 775308
452426 498266
453323 868289
453751 226127
454068 833997
454779 192150
455481 820194
455554 711535
456087 707846
456092 365677
456095 157795
456899 80159
457648 892918
458497 207995
459103 58181
459767 422452
460052 624881
460388 227361
461372 490332
461718 139197
462679 888161
463431 115627
463834 295742
464476 427407
464798 870977
465106 157961
465738 799267
466551 196453
466956 730613
467150 478796
467228 577506
467605 46841
468304 996853
469141 329816
470052 245988
470671 805039
471548 35615
471590 10847
471831 376314
472579 396068
473493 493827
474124 668011
474338 492379
474886 54974
475599 287031
476409 640448
477382 13439
477841 883015
477877 64366
478416 544212
479404 301357
480385 785685
480709 64937
481123 116893
481506 262590
482049 46996
482869 747654
483213 136449
483611 166336
483954 294579
484378 257521
485195 292884
485641 509737
486283 859673
486439 592268
487176 710877
487370 730592
488138 941971
488975 51565
489558 640613
489967 815785
490405 804359
491280 64956
491439 338093
492233 985514
492965 546759
493757 214820
494056 948455
494839 661735
495637 42295
496485 603776
497442 962305
498228 310429
498231 670677
499042 103751
499862 332030
500765 239830
500933 463377
501801 742575
501824 382173
501842 166233
502281 864197
502603 885787
502850 720410
503381 190815
503827 545042
504696 215278
505123 65138
506060 814051
506744 871811
507307 25874
507664 788205
508042 678290
508179 933652
509023 309902
509323 51647
509560 216543
510207 182060
510980 240946
511557 153493
512023 440475
512321 623654
512646 367686
513432 186065
513447 726575
514299 37131
514737 594100
515315 256685
515939 942040
516541 907237
516677 846313
517243 470355
517956 864484
518188 381415
519047 898823
519603 15794
519847 843980
520242 16149
520796 10987
521002 860832
521616 312516
522250 538482
522415 333017
522951 115151
522988 369150
523909 45141
524073 106719
524131 706643
524389 435372
524984 750817
525175 832252
526164 481437
526918 796506
527231 332947
528105 573554
528750 62424
528971 146005
529098 819335
529565 993373
529882 315087
530770 463874
531006 759552
531473 743402
532166 534513
532421 641436
532803 768565
532813 373517
533712 429325
534494 580263
535255 210237
536191 176036
536935 235521
536973 381907
537276 322677
537861 558530
538563 678163
539339 749323
539488 795789
539719 848562
539932 882559
540870 723560
541180 334582
541326 84861
541526 831600
542114 84230
542497 479286
542596 985643
543052 178224
543130 538328
543189 987994
543977 115558
544913 898526
545834 225968
545867 457076
546818 591683
547545 381201
547822 300985
548280 466682
548803 234588
549113 92449
549364 277359
549966 440708
550185 355727
551003 864484
551999 671252
552939 619145
553791 387751
554738 376933
555029 872137
555520 100660
555618 945455
556203 311003
556624 938940
557255 992312
557302 321607
557502 84502
558357 236908
558994 464885
559061 858425
559638 913282
559677 218397
560300 735666
560742 847236
561170 417029
561811 74151
562111 251345
562203 618076
563132 718940
564045 628570
565044 923918
565060 211161
566033 20910
566037 22372
566351 85792
567186 312594
567941 741931
568443 388417
568769 80950
569222 154401
569882 430042
570380 712138
570681 641050
571076 736821
571617 920003
572472 936762
572715 520827
573073 771861
573269 254251
573394 514786
574229 38107
574452 81002
575369 358533
575789 1104
575980 582707
576788 406790
576896 99455
577888 471390
577889 54950
577985 791275
578137 768964
578254 145771
578369 776942
579179 633359
579259 770649
579611 941886
580504 21048
581322 54031
581716 132017
581948 925060
582184 161924
582752 185097
583154 81210
583337 139183
584130 736452
584363 909942
585227 728675
586068 378582
586600 274042
586895 891671
587745 636968
588502 431752
588728 952866
589659 196198
590652 742086
590952 434411
591123 4353
591574 864811
591750 68958
592377 663102
592537 56034
593504 194832
594250 324237
595138 957826
596138 420508
596863 812634
597639 435654
598235 898687
598354 811521
598611 339093
599471 858639
600151 429806
600340 886704
601108 27839
601152 455957
601927 348813
601987 831980
602159 895433
602797 979894
603664 534691
604616 151998
605607 329606
606093 661655
606675 919587
607182 753405
607271 560724
608250 220015
609213 33511
609611 910666
610148 145895
610739 930790
610950 143025
611426 573253
612253 23497
612557 286318
613552 812864
613616 427847
614339 166944
615337 214778
615799 352591
616113 529494
616515 253985
617223 296410
617715 148799
617865 405962
618157 640750
618445 785312
618686 881832
619401 775584
620113 191640
620436 638894
620662 211650
621572 672214
621874 157052
622835 86981
623814 852654
624393 599065
624529 448464
625289 640702
626115 662664
626873 544850
627019 874003
627373 331961
628357 412499
629239 68225
629469 941025
630188 167728
630245 731851
630415 134764
631267 170843
631458 877217
632030 607547
632683 638830
633068 821329
633421 684833
633684 663410
633731 826437
633995 419161
634216 189463
634983 138480
635974 228348
636593 309554
636749 753689
636803 478779
637003 609856
637818 442503
638106 482578
638842 832257
639389 532241
639865 30097
640568 528220
640817 906778
641517 809913
641614 720533
642599 34476
643343 296943
643811 927754
644385 363895
645347 641461
646220 29696
646461 649045
647012 354681
647317 775053
648154 887042
648744 306861
649188 429374
650013 944624
650864 222772
650983 510927
651035 710834
651522 842887
652396 478873
652637 149569
652733 516239
653610 306556
654293 128567
655267 616650
655996 573292
656037 316800
657012 82548
657544 373723
658359 527910
658472 448870
659029 54227
659469 785960
659815 49315
660266 594053
660408 17699
660851 602207
661490 705390
662128 473938
662635 225101
662879 650384
663852 171206
663994 469109
664195 499409
664871 184137
665225 473196
665996 331430
666961 928356
667913 288398
667994 359755
668438 743129
668931 115888
669507 427512
670032 680212
670097 139042
670112 282240
670163 152737
670955 661431
671859 623092
672658 99120
673411 108217
673924 432499
674515 157791
674919 671891
675430 842961
675613 863462
676596 453269
677401 125036
678297 769713
679030 5839
679837 256984
680189 848628
680205 248304
681081 423887
682044 637980
682931 685384
683124 116300
684002 83583
684125 297267
684857 987200
684917 91857
685205 327126
685775 621003
686296 545853
686722 748755
686744 923033
687063 575057
687602 115083
687825 230927
688362 218596
688602 912265
689549 486639
690312 540260
691124 8658
692041 906383
692533 360244
693129 552017
693562 375460
693697 199922
694590 934709
695054 386597
695568 603170
695627 371862
695637 49483
696516 174166
696660 639705
697171 61291
697427 580961
698274 423492
698328 384362
698418 80894
699033 802645
699990 407421
700855 137665
701696 551837
701952 735175
701965 265472
702174 774308
702882 619630
703648 679746
704115 53413
705013 152882
705725 308789
706237 883740
706531 367931
707282 74462
708229 300720
708231 590600
708979 847951
709146 216511
710061 898052
710615 509819
710848 870742
711091 643134
711975 905716
712200 809800
712437 88063
713197 490331
713819 490942
713970 67492
714759 994857
714821 177646
715810 907761
715990 68708
716664 392970
716787 666350
717501 357529
717925 427113
718278 200532
719180 608787
719611 553017
720293 725700
720681 534543
720873 843140
721153 539599
721249 727722
722082 412201
722806 939687
723179 348166
723550 153593
724041 776168
724362 931040
725008 519023
725965 208177
726641 570202
727574 731621
728564 977803
728743 835906
729285 1120
729450 153468
730044 46510
730274 64090
730285 764901
730648 503194
730898 781104
731362 396794
731569 266919
731817 875795
732570 506552
732599 650661
732881 428970
733012 982522
733843 413710
734499 784630
734932 449502
735524 612511
735933 100695
736092 185265
736222 331558
736498 626268
736931 922351
737365 370468
737550 57976
738075 348825
738964 143607
739438 652438
739679 910683
739952 434749
740534 812411
741160 186835
741613 881228
742150 966696
742812 633254
742963 214342
743023 497181
743259 548245
743829 67450
744392 360773
744836 576015
745242 678343
745720 340418
746665 110663
747396 202397
748251 962167
748571 208393
748712 577493
749447 554921
749596 350282
749873 620499
750815 196762
751278 853498
751391 840454
752322 685572
752534 837642
752555 241168
753493 842208
753970 939830
754232 807458
754722 60729
755620 674063
755728 170769
756519 188687
756948 382578
757343 290521
757553 328889
758040 196502
758282 269789
758970 563540
758987 169109
759479 194260
759989 884628
760313 216185
760390 460310
761243 87053
761620 11693
761929 402839
762787 883626
762791 951889
763200 188623
763441 196306
763468 911203
763931 697924
764447 456449
765054 822133
765852 930051
766331 836880
766758 417057
767012 385210
767499 211737
767528 411030
768397 343452
768682 497972
768875 711836
769579 560417
770231 80983
770576 857438
770896 392727
771789 955370
772443 762382
772834 785829
773446 483928
773968 965137
774644 585414
775257 192301
775653 138598
776648 365415
776716 513141
777120 30708
777600 734566
778119 56256
778177 179618
778945 403442
779478 554757
779600 965714
780312 178848
780870 68295
781829 547163
782130 636288
782523 649972
783330 20432
783918 425379
784794 687760
785057 242408
785295 639286
786107 38885
786521 228889
786565 265388
787263 940775
787349 691193
787914 348764
788583 179602
788880 294455
789353 578609
789374 271261
789595 994122
789752 447761
789936 465381
790172 160230
791110 438755
791559 40954
792294 190411
792977 103950
793653 470472
793934 458619
794149 794277
794380 696644
794937 756434
795378 407277
796056 568304
796847 349929
797395 639282
797987 844304
798041 450988
798451 647545
798508 977230
799213 198951
799635 656024
799869 273542
800557 710542
801531 836847
801948 207397
802582 912145
803400 345918
804237 822102
804494 51795
805171 994445
805250 838067
805759 92579
805998 352688
806536 910934
807478 75607
807516 866026
807956 583862
808845 536875
808927 855379
809167 87975
809677 233546
809750 404504
810698 564267
810801 114620
811478 831003
812128 774054
813060 106561
813283 824883
813649 67249
814344 598180
814851 546581
815342 179268
816218 624159
816995 904559
817135 926099
817207 429778
817524 802018
817544 765039
817654 797126
818647 847888
819278 778557
820245 48378
820801 189354
821622 349665
821803 211490
822499 629882
822883 575630
823522 401499
823940 476847
824906 336552
825513 294237
826101 666494
826535 768840
827096 293200
827232 86720
827878 56634
828300 974054
829149 230964
829899 773421
830486 549069
831028 916322
831072 113782
831170 727766
831858 95414
832169 589586
832902 62159
833809 193452
834425 810320
834441 693345
835010 497914
835677 705719
835882 573333
836188 673904
836414 366146
836589 723878
836892 674283
837629 434646
838407 804108
838612 654164
838635 26496
839409 226809
839891 701634
840672 896026
841505 431630
841567 468002
842254 664670
842889 581428
843760 764734
844394 431638
844813 27726
845256 8314
846039 376234
846076 45978
846791 670066
846911 565522
847411 177678
848163 494975
848412 588061
848877 496160
849861 5763
850763 908227
850846 848079
850940 183899
851491 761970
852338 907699
853043 891460
853377 82984
853465 600188
853640 618550
853855 393733
854436 389925
854785 409720
855635 603596
855806 764111
856592 816531
857082 899540
857710 51583
858340 815427
858969 70642
859777 950153
860698 217489
861634 106489
861745 348950
862673 524943
862911 918330
863806 734481
864663 303264
865060 154799
865757 610961
865875 460635
866580 211803
866877 245551
867053 24232
867695 137612
867973 814396
868860 864934
869645 535790
870237 610625
870883 460090
871769 588798
872095 107973
872444 628909
872987 612564
873575 539022
873989 534006
874929 339309
874939 315467
875935 294507
876679 649726
877093 859072
878038 412872
878408 573728
879290 329571
879574 64292
880535 617153
881491 995305
881590 312696
881868 220427
882768 698204
883314 391317
883872 773060
884499 856440
884943 122817
885050 175287
885391 56897
885973 96989
886078 64657
886977 944835
887501 71834
887671 871030
887896 494356
888871 657513
888998 501839
889018 359417
889998 180570
890153 576982
890283 95695
891038 959059
892038 718858
892954 834460
893948 861239
894142 191495
894845 964284
895773 44473
896409 986686
896888 845496
897242 342794
897907 667823
898165 841918
898708 418841
899502 197059
900356 811423
901059 868201
901842 584505
902152 320503
903131 685179
903322 492428
904169 121771
905082 851361
905905 232526
906470 393047
907419 339693
907501 552698
908092 757249
909082 581942
910080 530230
910769 516096
911636 950044
912077 443036
913069 849699
913440 330444
914377 528979
914841 755935
915763 780019
916311 814189
916896 250465
917647 205783
918645 302749
918911 154994
919619 469926
920042 91383
920871 736853
921415 182055
921698 384058
922454 374802
923298 243316
924268 286561
924865 257981
925388 938254
925866 69309
926505 683223
926944 293720
927698 343411
928403 602681
929167 835424
929477 8833
930130 503497
930256 489445
930494 666697
930817 107334
931573 718460
932442 136534
933246 866981
933328 481706
933402 725935
933665 370715
933886 646743
934663 809925
935604 627009
935626 172656
935826 790051
936465 681118
937294 604332
937894 408160
938771 464668
939588 428433
939816 295524
940030 584718
940796 306847
941303 777291
941944 387336
942270 729765
943156 380120
943776 821124
944581 659455
945576 866884
946026 359054
946073 415612
946739 669540
947596 372350
948564 192654
949079 267453
949194 97077
949631 886147
949827 659718
950810 960142
950995 165695
951398 860931
951633 646521
952574 303186
953187 694022
953891 803468
954888 541662
955814 925396
956518 508716
956721 8522
956895 131577
957433 59171
957556 645031
957586 958971
958436 415010
959250 898580
960169 414088
960836 379389
961620 512549
962315 588977
962346 834167
963153 158159
963341 531617
963634 451642
964531 909390
964771 94885
964830 977350
965281 486129
965433 226001
965449 869673
965571 268027
966491 867374
966617 392449
967029 679134
967361 981095
967990 315861
968053 524276
968662 42789
969438 154612
970307 180575
970394 28316
971386 686795
971595 183804
971785 112654
972544 642416
973423 805948
973619 534706
974052 117774
974238 173765
974860 920218
975499 138437
975556 270336
976157 61167
976787 380393
977713 527941
977828 818485
978680 314477
979157 999631
979326 53682
979882 10403
980599 121344
980907 324638
981170 865216
982000 129521
982196 74485
982831 633294
983372 67825
983442 506235
983859 327661
984762 136088
985562 820254
985582 830804
986100 267764
986523 833969
986993 464761
987434 830007
987569 92497
987651 751014
988647 387547
988974 633744
989675 249927
989924 42423
989961 420371
990950 36024
991880 915469
992780 33298
993050 818432
993889 41861
994795 331254
994908 184271
995626 153279
996537 286079
997181 753606
997344 935433
997473 503356
997751 809507
998255 730119
999105 879999
999161 330766
999854 184875
1000328 966539
1000361 820635
1000606 182286
1001057 118496
1001100 278194
1002098 553380
1002156 451675
1002997 661628
1003635 171233
1003729 193810
1003820 344509
1004446 584137
1005107 226411
1005659 828844
1006239 842420
1006446 224186
1006738 558462
1006826 370249
1007421 919463
1007524 785207
1008387 722057
1008650 365242
1009320 226439
1009968 603540
1010618 783774
1011516 640159
1012336 243324
1012659 98964
1013362 766679
1014272 234832
1015150 415911
1015966 454924
1016851 613033
1017652 413803
1017836 622873
1018331 714455
1019140 672349
1019189 853584
1019316 384660
1019578 467781
1020439 188175
1020662 649517
1020975 275396
1021399 54848
1021423 196788
1021970 860532
1022754 208541
1022955 911469
1023705 262556
1024004 580618
1024028 886342
1025014 144983
1025958 695050
1026244 56316
1027031 898582
1027312 500590
1027408 698189
1028021 733088
1028254 349934
1029059 39081
1029823 411905
1030238 314023
1031080 328452
1031214 486111
1032180 861206
1032186 57938
1032755 624192
1033064 872999
1033442 285338
1034212 214669
1034420 84719
1034641 264691
1035163 109198
1035644 531467
1036087 373560
1036686 190243
1037068 702949
1037868 692461
1038357 212584
1038749 1324
1038871 425948
1039214 36903
1040195 943076
1040919 604147
1041287 5319
1041894 640391
1042088 166714
1043026 662354
1043993 784518
1044492 322898
1045142 198228
1045170 447435
1045914 817977
1046718 633228
1047342 519334
1048045 665831
1048861 158113
1049017 620373
1049734 178389
1050703 685320
1050946 43334
1051441 682002
1052236 883332
1052352 819521
1053233 151963
1053390 871593
1053579 707948
1053661 590366
1053946 215824
1054320 385236
1054776 260462
1055285 638909
1055766 349991
1056004 830322
1056264 612471
1056810 553365
1057604 60522
1057835 19649
1058472 211608
1059281 86153
1060003 516338
1060106 797105
1060408 108753
1060737 61132
1061318 673085
1061744 326416
1062420 53795
1062757 262668
1062810 604181
1063698 469981
1064155 878911
1064259 416767
1064875 358416
1065051 691053
1065803 403029
1065896 759523
1066550 642403
1067264 466913
1067855 391573
1068118 781006
1068684 425164
1069656 478530
1070151 442402
1070374 485700
1070421 673442
1071297 159962
1071740 155154
1071924 769980
1072617 516173
1072996 232736
1073774 725432
1073828 881407
1074189 295589
1074538 196512
1075468 212786
1075724 501693
1075823 762529
1076362 164559
1077132 370301
1077892 831149
1078502 467875
1079216 329013
1079799 731288
1080505 28392
1080672 134367
1080945 534284
1081393 496070
1081416 80223
1082015 307536
1082940 351138
1083183 19892
1083895 233559
1084198 614030
1084515 997266
1085175 143803
1085637 613706
1086296 362499
1087174 836132
1087942 579979
1088887 625712
1089222 198812
1089360 929876
1089912 79045
1090026 202499
1090095 563362
1090289 745080
1090811 684469
1091113 76591
1091632 538629
1091865 942977
1092487 561994
1093486 77980
1094351 716223
1095148 680358
1095157 431973
1096147 839466
1096467 696885
1097144 715220
1097256 386736
1097402 242073
1097723 790839
1098684 897080
1099348 60629
1099422 201974
1099768 20059
1100093 297356
1100291 163925
1100942 578848
1101417 155615
1101485 833117
1101527 734135
1102213 147681
1102573 122154
1102706 81875
1103584 485372
1103915 993881
1104033 683434
1104750 609338
1104985 231014
1105305 386109
1105723 519763
1106327 382959
1107010 826104
1107346 305327
1107364 239849
1107612 592665
1107740 799352
1107844 580442
1108725 243061
1108837 724760
1109236 586338
1109936 784724
1110085 919860
1110363 891119
1111146 710458
1111929 137442
1112440 854335
1113404 102861
1114397 674971
1114787 418590
1115369 23126
1116159 571928
1116782 942034
1117419 126938
1117520 303386
1118410 556345
1118509 351091
1118678 996043
1118941 432075
1119463 48063
1119538 317661
1119623 744912
1120218 537202
1120520 791912
1120907 767445
1121000 37237
1121218 795889
1121404 90058
1122309 406289
1122530 624317
1123295 136267
1124103 289591
1124650 371225
1125167 942123
1125884 902024
1125990 484683
1126891 697842
1127709 359468
1128399 322691
1128719 236156
1129150 290500
1130088 77153
1130947 984312
1131763 132646
1132037 428150
1132269 772074
1132677 823267
1133361 206346
1134166 817818
1134613 684723
1134907 21454
1135138 844458
1135605 585053
1135934 343884
1136841 692713
1137623 894186
1138554 116766
1138753 90356
1139689 112649
1140184 894564
1140995 327692
1141424 177584
1142022 244610
1142217 202189
1142485 640700
1142583 123645
1143372 34956
1143572 616862
1143638 985785
1144004 374539
1144846 441223
1145039 124017
1145537 725943
1145815 581237
1146076 848335
1146638 37017
1146745 785114
1147325 17531
1148055 505664
1148591 252650
1149446 552368
1149979 243342
1150299 578058
1150710 636965
1150748 470726
1150945 444170
1151896 754339
1152819 347918
1152915 604283
1153184 418393
1154022 859407
1154489 183188
1155318 392949
1155808 399093
1156657 402185
1157514 656086
1157576 266760
1157588 196266
1157993 720540
1158493 872672
1158901 489023
1159219 415231
1159897 331526
1160825 66280
1161247 196146
1161822 638286
1162800 519789
1162838 426240
1163107 128143
1163715 174012
1164382 309088
1164965 874010
1165121 979486
1165811 247098
1166643 974304
1166966 483326
1167469 49628
1168005 960696
1168353 380920
1168508 459651
1168680 247676
1169406 775576
1169801 18174
1170431 209255
1171390 956297
1172119 137497
1172615 544382
1172863 957351
1173389 848271
1173704 117317
1174560 677385
1175292 429108
1175535 29371
1176029 164183
1176306 790903
1176655 736353
1177064 19225
1177929 407007
1178320 127119
1178431 385663
1179326 755526
1179486 991172
1179927 538675
1180645 902092
1181059 835018
1181403 18284
1181930 511009
1182219 668773
1182868 280840
1183421 265029
1184381 529146
1185175 813186
1185365 833558
1186245 849896
1186876 706060
1187296 478427
1187684 541563
1188079 528792
1188549 231516
1189472 455632
1190386 325737
1190788 164777
1191571 438936
1192088 323777
1192897 706392
1193340 890798
1194143 367222
1194543 129821
1194877 310512
1195543 847599
1195933 66041
1196325 389656
1196870 395699
1197001 185713
1197781 664199
1198243 907552
1199049 239604
1199338 526951
1200064 317333
1200095 156480
1200463 293114
1200899 909680
1201314 361121
1201492 577399
1202419 32907
1202729 354852
1203425 628767
1204275 657317
1205221 197959
1205476 346717
1205990 83585
1206443 650523
1207208 6986
1207935 944008
1208312 44992
1209292 700163
1210090 87172
1211084 230295
1211726 22753
1212594 377680
1213172 466218
1214107 413712
1214755 702073
1215239 371256
1215439 52454
1215759 786728
1216304 400550
1216425 194277
1216623 267595
1217203 381471
1217964 353091
1218031 980546
1218660 958862
1218878 669482
1219532 217646
1219612 585656
1220402 257390
1221163 179039
1221836 591306
1221916 636319
1222498 823468
1222710 703111
1222844 949542
1223747 735494
1224214 597007
1224511 326579
1225392 570599
1225729 61064
1226586 41382
1226657 580046
1227413 805729
1228018 438365
1228469 154398
1228633 128699
1228850 556103
1229002 690638
1229646 477177
1230216 191644
1230385 920166
1231109 698362
1232064 485310
1232705 740252
1232752 92526
1233350 271190
1233947 158221
1234719 621769
1235032 57605
1235850 750594
1236405 238789
1236792 307802
1237269 150456
1238042 685037
1238290 904799
1239122 596470
1239636 643809
1240032 976808
1240065 647019
1240804 931237
1240943 772426
1241421 1497
1242113 473797
1242291 887624
1242520 530807
1243388 150763
1243411 601394
1243708 705006
1243996 162021
1244116 646607
1244469 591707
1244932 895283
1245165 528200
1245519 344313
1245775 482910
1246188 375166
1246205 652469
1246872 405228
1247211 929933
1247579 866815
1248116 619812
1248284 808746
1249176 873300
1249450 12847
1249735 696276
1249979 136064
1250135 512234
1250860 509390
1251044 830547
1251707 784223
1252240 905588
1252694 478884
1253537 49044
1254005 290514
1254956 498803
1255248 107796
1256226 889997
1257106 414497
1257889 350430
1258407 974549
1258450 698791
1259274 196636
1260131 229842
1261035 804332
1262031 82524
1262848 758787
1263520 602144
1264083 602525
1264242 39730
1265171 142549
1265179 84501
1265373 364458
1265524 872806
1266051 158661
1266996 578337
1267158 286397
1267496 850689
1268231 357473
1268819 243906
1269657 720608
1269783 265865
1270661 406960
1271591 948134
1271852 805484
1272468 323839
1272481 327493
1273272 145961
1274203 795573
1275025 626251
1275441 24175
1276392 470983
1276858 92473
1277287 67252
1277343 337117
1278277 822179
1279267 255181
1279739 203897
1280572 854502
1281427 469337
1281481 128203
1281929 310881
1282366 850746
1283027 947194
1283735 721802
1284440 753836
1285096 960779
1285549 492547
1286290 629959
1286292 846434
1287249 38507
1287719 928673
1287941 815717
1288941 990173
1289212 161648
1289836 417612
1290404 883003
1290417 536104
1290587 105315
1290833 963643
1291722 779776
1292465 93981
1292943 783245
1293122 157217
1293443 271890
1293607 522872
1293757 303317
1293932 339407
1294660 906441
1295081 206444
1295801 500532
1295839 499481
1296142 524727
1296333 955130
1296631 464061
1297382 135940
1298362 144292
1299331 149724
1299753 349559
1300339 371351
1300803 215482
1300848 635319
1301435 436582
1301971 782439
1302158 665249
1302316 132888
1302451 896416
1303304 263346
1303558 444161
1304109 31554
1304828 425922
1305397 619201
1305463 702379
1306206 651737
1306594 279428
1306759 682738
1307398 420456
1307761 178301
1308424 319623
1309289 145200
1309965 988329
1310177 492197
1310640 421278
1311290 234341
1311838 590221
1312641 310613
1313346 713153
1313529 242556
1313965 634034
1314279 248340
1314949 236125
1315867 520298
1316311 299890
1316749 759930
1317477 642702
1318215 879136
1318941 12252
1319864 160279
1320133 278730
1320185 113245
1320475 943215
1320684 607289
1320915 216512
1321480 963141
1322401 607542
1322465 193782
1322811 826794
1323671 831387
1323929 974052
1324452 84237
1324778 452567
1325281 138458
1326168 484685
1327106 793696
1327155 764592
1327454 815874
1327970 655818
1328856 960100
1329389 464091
1329448 524627
1330433 573898
1331371 2325
1332180 304236
1332643 735347
1332659 338471
1332721 506460
1332947 332384
1333172 284630
1333748 157909
1334169 206973
1334919 43581
1335099 489603
1335537 978140
1335996 437629
1336042 1706
1336138 679775
1336548 818260
1337487 251167
1337606 382967
1338402 750114
1338727 125627
1339394 358781
1340250 182673
1341115 496137
1341918 316203
1342406 281016
1342442 193563
1342486 168012
1343408 688630
1344083 635055
1344510 435236
1344687 430434
1345679 742380
1346227 850314
1346661 848436
1347204 690694
1348139 640112
1348332 574375
1348399 92648
1348976 183493
1349272 651881
1349319 681206
1349712 567455
1350216 302342
1350451 576333
1351062 962140
1351741 616616
1352143 68974
1352875 190997
1353047 38340
1353380 675675
1353747 976180
1354420 359654
1355225 231514
1355683 77033
1355796 514633
1356083 345861
1356571 245880
1356954 892196
1357075 870367
1358034 806174
1358476 66012
1359098 944805
1359676 250471
1359802 823953
1360496 777454
1360750 687139
1361688 548825
1362282 947071
1362651 133220
1362843 296127
1363438 465946
1363559 585206
1364224 878599
1364293 43304
1364895 118255
1364961 712285
1365272 643842
1365627 67346
1366549 752112
1367244 513927
1368093 718305
1368798 705268
1369684 921947
1370439 857213
1371229 197024
1371527 694039
1372474 410034
1373198 286006
1373261 4938
1373657 65201
1373690 779343
1374583 724918
1374952 643979
1375440 800598
1375898 920204
1375986 525073
1376845 173667
1377489 889579
1377610 204200
1378190 141263
1379010 494319
1379738 618812
1380278 644888
1380674 24645
1381042 883236
1381407 863462
1382282 599473
1382635 479453
1383628 371900
1383962 489135
1384191 388410
1384883 493565
1385817 426335
1386126 114094
1386678 443659
1387165 116230
1387438 605347
1387540 942780
1387758 597918
1387791 483489
1387820 491339
1388544 590317
1389316 199924
1390210 959766
1390647 659774
1391581 248633
1392156 115352
1393121 877779
1393892 614948
1394177 335795
1394956 286321
1395711 234479
1396368 541022
1396848 259023
1397822 814126
1397883 851557
1398577 334199
1398809 803683
1399424 854010
1400257 836441
1400695 56991
1400719 337285
1401416 309873
1401920 32028
1402512 272677
1402983 727058
1403851 152981
1404093 937877
1405086 609245
1405894 159358
1406766 288241
1407320 826457
1407808 36999
1408475 815159
1408991 61011
1409144 782302
1410023 478050
1410275 25944
1411051 500284
1411644 38403
1412149 629589
1412312 892256
1412645 752885
1413277 482305
1413515 957982
1413627 236476
1414269 357097
1415015 136818
1415975 666164
1416486 754313
1416906 24680
1417531 901520
1418070 818626
1418825 458076
1419407 900270
1419481 578869
1420318 223293
1420858 837022
1421727 371911
1422475 148616
1422894 679462
1423101 852042
1423693 368756
1424403 140556
1425051 990159
1425473 477934
1425522 439118
1425766 121612
1425797 406068
1426673 568006
1427276 128210
1427442 893574
1427538 345448
1428402 918401
1428510 712718
1428753 135889
1428876 832785
1429466 16433
1429469 634608
1430194 605716
1431033 997229
1431403 537234
1431547 362183
1431913 797045
1432292 946836
1433095 417233
1433962 626979
1434152 89924
298670477
