1315
210 224183
1194 521147
1845 347453
2363 502676
3353 734115
4272 439851
4826 977509
5386 54297
5396 750858
5934 919046
6509 602086
7421 639258
7637 985026
8373 4683
8853 629207
9426 801270
10335 98152
11326 569636
11670 983216
12011 15929
12268 153165
12765 142169
13171 302921
14054 49267
14617 385040
15510 23950
16179 537207
16833 335134
17220 333581
17886 408494
18180 84567
18722 604426
19069 251770
19354 315017
20069 922835
20666 570859
21290 252096
22011 800197
22054 150267
22946 764756
23912 350031
24305 984407
24393 166948
24902 632988
25842 310558
26480 103656
26976 897157
26989 621461
27601 190663
28129 573472
28679 522648
29161 523669
29223 339981
29534 72618
30099 445138
31051 127339
31805 470649
32802 457461
32852 377976
33622 114212
34308 76911
34894 433055
35432 754356
35955 9661
36725 300293
37266 407398
37961 783098
38841 518584
39656 887433
40245 104373
40312 854610
40732 893124
41375 911867
41575 496020
42248 612773
42546 694508
42724 327364
43472 876927
44418 795021
45391 971732
46273 503191
47261 314464
47653 150848
48418 29152
48534 244914
48807 703356
49112 258902
49800 626396
50685 100814
51163 520602
51864 453231
51982 722425
52239 948303
52407 37206
53280 316968
53972 610810
54457 436490
54459 22429
54479 473119
55476 872807
55586 963983
56256 847803
56388 328863
56716 157828
57539 971361
57932 186616
58840 76754
59438 715882
59567 536117
60435 666576
60695 217376
61346 416800
61731 988895
62643 176036
63005 153049
63879 385282
64358 976949
65154 176971
65726 43218
66612 816118
67084 601314
68002 415962
68693 907932
69453 153461
69929 659594
70015 423817
70550 439092
71192 956478
71920 226633
72492 978616
73149 378589
73699 84747
74318 994551
74548 115656
74924 915928
75535 398765
75772 230111
76543 364431
77130 778918
77915 756596
78731 199911
79538 867870
79887 511397
80470 103656
81342 829175
82164 663775
82378 877718
82938 158925
83046 40618
83256 851025
84020 718988
84592 84372
84632 314067
85428 607869
85693 22269
86033 923614
86259 890998
87164 177168
87839 588092
88353 430366
88561 425200
89191 101204
89395 267480
90208 692846
91002 849053
91243 787328
91760 452389
92342 963626
92973 471020
93066 37740
93984 118528
94646 85023
94719 366129
95124 67180
95717 257648
96394 982567
96677 969668
96875 15620
97804 570682
98191 946719
98580 462922
98601 775748
99555 731582
99886 218512
100872 791791
101047 145803
101513 589922
101858 336630
102292 319006
102893 637658
103556 705541
103668 260197
104618 996846
105507 522082
105590 689967
106532 711993
106610 987006
106880 651594
106950 62929
107084 649535
107590 323329
108119 884996
108634 683880
108650 98551
109349 187340
109609 532703
110407 401662
110754 532713
111052 146907
111356 133020
111471 456029
111991 678867
112150 123927
113139 212860
113227 642795
113722 809760
114710 739737
115387 442332
115804 412492
115855 786209
116250 809710
116467 93040
117187 116643
118041 712694
118113 943736
118309 835385
118554 215958
119209 712237
120168 29976
121027 194192
121100 112061
121451 664351
122116 355271
122673 157453
122892 498814
123306 387086
124226 619411
124454 595443
124836 186182
125352 829744
125748 214591
126348 322120
127125 525777
127795 991532
128046 379125
128216 511174
128994 304137
129094 124815
129724 348756
130192 575844
130353 827277
130737 982974
131737 921876
131918 528178
132384 248228
133168 187138
133520 565253
133986 409888
134929 194821
135700 222627
135845 679575
135955 194183
136869 894757
137800 389031
137899 694244
138001 587891
138694 453585
138697 465295
139046 760695
139587 964403
139624 79978
140248 524055
140580 531719
141430 348617
142109 86750
142745 624305
143379 503839
144358 867700
144959 624049
145383 741962
146338 625285
146490 454627
147483 410165
147792 416403
148789 647301
149541 440701
149947 223670
150456 269388
150817 989823
151148 367012
151936 628977
152248 265589
153053 429482
153783 872321
154521 33065
154956 184610
155210 665230
155686 73829
155964 750703
156302 97435
156838 242968
157216 408124
157304 570511
157905 293876
158178 423808
158746 424272
158849 763549
159086 37602
159428 140010
160072 179628
160879 190988
161045 406394
161978 651416
162423 91431
162561 485395
162604 585850
163126 467528
163643 684692
164063 913969
164770 29270
164872 48257
165229 182109
165549 731974
166448 459917
166675 189630
167323 476491
167354 534867
168322 209559
168989 835524
169612 720700
170321 443245
170359 964231
171274 767022
171383 27968
172383 440883
172721 491050
173267 200811
174104 554366
175039 275889
175421 38404
175838 581281
175989 453327
176566 42445
177453 113535
177786 115005
178372 827649
178536 353566
178928 189917
179647 849304
179884 392815
180749 645647
181194 764322
182124 757956
182156 291391
182623 507239
183619 767146
184509 595413
185488 152736
186237 593882
186722 991510
187397 186734
187409 538756
187532 972147
188046 415124
188206 857776
189198 658356
189966 725995
190582 34379
191514 479674
192431 156761
192971 815221
193336 119156
193648 302887
194116 53324
194821 22836
195589 649834
195785 762259
196007 860363
196961 850182
197035 457459
197439 693835
197776 951279
198456 781301
199435 789329
200136 274145
200585 765906
200988 545143
201199 954041
202083 951148
202634 873842
203387 507176
203952 306007
204806 478863
205643 564742
205647 483769
206241 135890
206468 333637
206871 301653
207249 905197
207928 395093
208889 482760
209592 203835
210486 964900
210735 84755
211001 962837
211520 747580
212044 218570
213023 230218
213832 239652
214558 770340
215542 277918
216102 28276
216886 896196
216981 86509
217447 544680
218128 225814
218179 545012
218226 103878
219195 470447
220049 280903
220086 132293
220296 977277
220310 757727
220348 208926
221260 463299
222162 819880
223079 918536
223897 711344
223965 469135
224248 430254
225044 252668
225806 94287
226202 46069
226660 420837
227215 193266
227683 26526
227892 859112
228743 869053
229181 331600
229479 132468
230039 509467
230763 648283
231174 535500
231417 906246
231949 655102
232471 325769
233017 669837
233754 170435
234613 495144
235472 48293
235865 499695
236562 980194
237143 174824
238104 793018
238342 856355
238768 888435
238885 149252
239731 269567
240287 392840
240580 905232
240990 92099
241962 176142
242042 900760
242518 610568
243085 617057
243305 356218
243756 562793
244599 979406
245516 678347
246275 30169
247275 900092
247920 729811
248759 480912
249517 517185
249680 559494
250563 789999
251417 792658
251930 34078
252042 929707
252321 37379
252707 526276
252951 725913
253301 499197
253828 60132
254752 862912
255635 936038
256030 277259
256351 233208
256550 634075
256884 836865
257251 537096
257412 711763
257822 504428
258745 202464
259220 77626
260034 744545
260450 864323
261068 97614
261277 402502
262080 207495
262147 557263
263096 812500
263926 56804
264791 939638
265237 632404
265291 36013
266052 164447
266223 457407
267132 623963
267848 792291
267906 291800
268782 110839
268862 723335
269857 572005
270400 392712
271389 188478
271625 619566
271737 6899
272678 345535
273631 213222
274354 711974
275082 608918
275785 547281
276308 556852
276818 165520
277410 952198
277620 959270
278104 438549
278126 453153
278256 729199
278605 896527
279453 778731
280189 949174
280841 512230
281725 613812
281884 712353
282798 272275
283116 949494
283163 91410
284072 241791
284622 807672
284771 204917
285016 104561
285678 962411
285897 586190
286055 382912
286295 735814
286307 526789
286700 178164
286838 302564
287189 804533
287675 646580
287814 27476
288372 606207
289042 446653
289946 271613
290085 982941
290381 857075
290465 138766
290764 952316
290972 9573
291767 494277
291836 949892
292569 551074
293162 788882
293920 957183
294220 274781
294822 552540
295498 200126
296439 556505
296784 291674
297379 729228
297971 346241
298170 180068
298846 476094
299766 857768
300281 339213
300752 799119
301384 192853
302122 571296
302660 557391
303616 167892
303960 825426
304067 983731
304430 794982
305202 735420
305501 399212
305607 637632
306046 33183
306888 145165
307855 885213
308348 246762
309063 718752
309536 664810
310435 324524
311315 403940
312011 713787
312740 922594
313020 615643
313215 768841
313786 47963
313937 694505
314097 436579
314633 220663
314652 536532
315399 704446
315888 152286
316560 172758
316675 533782
317248 449424
317883 735268
318253 256112
319092 736763
319210 589316
319952 774901
320723 132924
321498 521842
321571 701674
321854 718950
322667 605607
323008 883429
323011 158472
323066 754972
323425 411561
324030 796304
324221 297330
324984 908141
325920 927498
326907 284521
327393 822487
327870 243159
328819 727128
329734 270534
329941 63789
330930 542587
331454 639751
332146 474773
333017 311349
333747 379708
334447 949033
334466 217134
335004 631406
335705 20309
336095 13133
336583 721711
337258 436541
337992 458355
338355 744281
338407 460328
338974 768746
339761 619422
339847 435508
340263 990552
340656 873043
341002 222116
341298 543339
341853 980193
342186 863365
342591 926821
342807 267395
343711 745747
344610 106603
345241 683225
346060 396846
347011 387690
347960 176983
348843 9226
349666 903162
350564 313814
351527 373716
352128 675614
353068 317433
353526 975437
353767 595720
354706 191705
355078 614190
355286 956506
356073 719565
356363 256483
357034 659434
357478 775453
358038 329917
358460 35369
358855 226605
359094 990012
359750 291413
359820 195531
360601 110499
361385 334881
361975 59118
362086 690308
362973 309275
363543 377569
363874 90500
364782 75130
365539 656455
366094 800522
366734 504682
367443 21722
368234 641035
368506 134862
368845 40845
369088 432023
369428 947988
369772 121394
369962 21948
370676 539624
371546 616439
372450 64638
372977 427076
373109 231650
373155 429939
373893 632416
374265 583098
374728 974750
375278 608954
375671 352798
376053 577059
376915 397198
377695 389633
378146 406898
378712 370261
379353 491355
379411 132761
380019 512821
380576 581693
380653 24229
381552 738724
382488 823805
383188 86337
383892 954751
384263 493867
385114 124264
386014 20662
386540 436831
387148 735612
387951 150000
388647 801296
388931 821328
389913 644478
389990 583523
390968 25788
391370 873119
392100 963722
393071 325102
393330 906873
393816 813179
394118 804956
394409 252532
394569 682961
395548 591672
396214 573666
396666 696346
396677 510409
396940 136697
397142 751593
398097 283991
398516 952270
399035 461280
399407 710328
400142 33564
400280 268630
401148 524161
401987 841268
402987 802603
403065 644727
403234 973616
403982 287013
404401 361438
404645 483490
404868 639736
405739 330928
406472 714942
407280 931857
407566 395291
408151 757777
408309 353683
408574 175989
409024 727629
409794 456601
410017 961838
410102 478042
410428 833364
410806 462324
411181 271353
412149 543310
412502 940258
413239 311312
413875 333702
414163 835879
414487 921823
414619 238941
414742 836778
415404 783985
416329 309279
416620 927843
416860 950502
417583 315088
418100 326209
418280 917414
419091 629867
419487 490128
420236 634703
421194 717573
422165 157787
422302 757681
422635 624244
422657 34910
423480 810709
424188 848226
424393 996184
424766 933583
425461 591896
425807 611891
426082 584137
426185 676044
426558 192771
426892 693610
427078 129239
428002 297387
428129 209516
428857 966072
429174 71152
429831 117817
430192 509386
431162 336522
431932 371139
432014 292361
432794 366806
433624 763765
434071 72808
434221 793547
435050 333421
435761 787009
436237 492088
437097 639588
437862 180822
438840 987952
439774 817645
440138 813577
440891 692697
441868 749432
442179 781170
442969 195046
443612 639068
443719 334347
444375 630275
445192 601114
446110 738324
446821 367090
447076 482846
447742 324050
448328 704641
448521 217953
448924 85024
449792 651889
450433 328413
450607 250605
451030 847709
451162 710197
451893 894302
452607 658670
452705 881713
453409 259846
454080 271496
454170 232988
455079 96951
455679 519968
455976 641605
456329 129325
456607 781384
456802 729665
457359 217726
457880 255791
457933 865004
458534 584095
459523 899264
460189 936448
460231 727760
460740 19013
461309 583588
461772 809900
462119 985754
462722 587257
463652 264664
464409 719379
464901 721976
465230 298544
465856 841944
466014 703229
466486 107491
467462 124991
467683 811709
468568 314019
468661 896454
468970 166108
469014 280866
469697 680105
470255 667048
470997 508936
471132 161082
471540 562810
471837 671549
472298 466303
472505 396570
472971 66436
473451 501370
474423 659268
475028 991168
475097 208081
475438 300058
475761 788465
475906 560162
476686 708778
477611 221053
477904 676285
478300 160703
478406 861331
479087 536792
479358 671183
479961 955694
480449 294667
481071 640146
481769 120157
482075 132206
482321 386576
483302 727165
483522 844681
483762 844800
484239 11348
484493 553725
485262 727973
486220 55167
486759 548603
487292 959747
487728 132122
488401 46552
489025 177739
489726 617030
490543 383621
491458 242433
491574 872411
492377 529494
493341 72939
493777 195350
494563 744246
494805 684324
495618 530809
495720 166629
495878 966939
496683 166740
497196 151593
497251 681625
497344 597503
498080 94655
498866 962945
499130 285196
499160 497309
499323 384658
500023 922104
500360 618327
501252 298094
501961 70562
502787 93119
503704 346110
504303 48818
505159 199459
505170 335857
505661 213714
505749 526535
505816 180441
505924 321706
505965 206593
506532 660506
507387 578430
508364 115428
509300 420300
510058 957877
511007 123540
511316 983506
512257 777022
512593 931659
513456 558897
513579 910055
513767 411282
514403 173542
514587 64559
514912 132778
515334 582836
515452 631506
516248 79260
516613 46278
517572 54481
517852 795590
518563 577380
518655 716854
518753 452458
519368 706046
519663 783799
520179 972541
521147 372262
521586 672811
522386 685875
523366 704396
523629 107844
524578 560827
525094 43250
525142 201945
525179 968222
526138 428281
526334 596211
526713 301860
527038 181636
527148 273527
527697 195309
527971 145807
528859 438100
528966 399380
529273 236088
529809 112550
530159 16221
530323 485783
531219 6718
531615 295092
531660 266421
532560 904457
532739 245033
533468 709919
534013 88209
534718 917288
535338 698700
535394 165793
535866 760637
536557 109533
537386 639825
538031 34323
538065 219573
538360 462934
538439 589999
538809 906086
539609 341065
540502 461623
540676 664453
540727 551281
541134 801728
541228 95530
541802 531329
542719 231826
542749 934547
543491 124689
543688 493869
544022 414567
544820 612008
545311 555461
545953 48301
546240 91199
547113 846582
547167 326049
547343 589520
548075 872011
548776 15878
549109 758299
549827 661140
550242 493055
550311 965157
550613 85906
551396 177356
551941 450696
552319 243325
552495 328502
552613 638255
553446 931047
553505 890828
553567 800992
554402 94816
554665 503092
555043 987626
555211 478085
555914 926554
556280 353399
556832 938913
557341 311669
558014 513315
558556 635441
558946 652412
559533 68131
560125 623835
560662 308840
561000 264215
561075 472339
561366 612817
561956 332647
562903 612391
563609 506791
564443 829699
565359 764735
566098 849145
566649 247916
567602 681185
568296 459561
568773 434449
569083 785124
569089 274475
569355 827599
570276 277522
570350 903464
570984 851744
571895 321624
571986 948190
572574 629332
573201 285069
573389 740295
574225 263455
574829 309880
575521 516518
576331 620724
577068 678820
577917 272292
578574 434124
578959 854725
579709 738767
580342 274373
580514 675501
580743 738051
581376 304884
581781 300442
582457 304329
583237 80214
583337 359338
583574 868090
583621 965817
584618 529072
585487 103053
586115 314949
586454 392574
587353 29208
587465 43159
588043 527920
588774 633598
589500 547665
590160 26997
590499 698298
590962 786568
591359 364449
591369 590253
592264 881623
592429 16882
593336 402749
593598 920587
594431 662353
594539 546741
594787 75345
595413 640388
596185 599020
596903 576102
597852 650934
598465 90070
598607 397850
598871 888273
599600 755011
600016 186510
600286 964892
600909 416221
601594 760797
602135 497998
602168 824715
603109 957122
603194 466232
603682 940110
604574 844888
605383 767891
605693 947765
606640 612890
607406 574014
608077 919712
609016 352532
609088 641303
609864 348972
610358 629355
610531 488513
610583 616105
610965 252685
611357 850660
612102 608966
613067 373904
613416 365769
614137 437317
614146 186811
614401 346609
614996 670112
614998 971960
615765 863445
616760 934225
616836 928636
617261 795200
618074 49893
619056 324154
619061 719187
619309 381567
619331 743474
619882 199977
620541 241388
620866 710761
621228 837820
621486 791321
622146 317687
622550 891096
622843 197003
623396 680256
623654 121174
624589 24910
625068 797238
625838 332814
626363 564264
626614 535659
627006 377365
627513 777685
627524 319952
628092 310778
628653 364304
628670 409237
628899 187496
629356 99737
630281 867427
630381 816455
631182 775233
631963 808242
632175 883180
632283 106023
632306 647698
632753 222083
633205 90250
633306 556716
633415 613182
634235 174395
635091 254928
635323 396254
636173 45821
636887 782826
637372 351292
638363 240204
639296 891380
640275 871422
640595 181530
641492 279877
642454 801726
642601 504338
643252 967870
643423 918451
644023 150840
644317 844477
645163 34320
645619 460681
646366 824169
646675 39008
646904 242762
647625 426191
648081 265695
648938 444532
649402 515539
649799 585109
650218 276136
650232 22569
651088 429226
651103 170682
651183 54125
651991 55790
652251 31870
652715 802446
652988 865423
653440 694791
653730 626506
654146 58829
654302 857883
654949 469348
655611 501791
656566 75278
656668 260693
657377 179818
657463 760748
657626 421792
657830 504648
657946 754104
658930 210262
659651 965201
660634 528611
661010 362284
661614 690567
662463 180207
662725 85952
662772 234233
663177 691438
664050 426968
664792 524720
665765 815466
666510 217336
666553 434197
666683 854677
667136 979142
667371 900603
668251 595850
668691 380295
669443 515734
670431 403030
670513 893731
671087 528146
671372 855197
671978 466107
672908 135524
673260 416070
673828 704338
674694 743768
675593 832123
675705 889277
676052 638783
720589711
