5300
161 374097
1078 892089
1261 779186
2122 845268
2541 215601
2544 977601
3240 83098
4062 409185
4724 775093
4920 482394
5041 137584
5777 878924
6695 713357
7638 25502
7906 450935
8700 832634
8708 392999
8947 132588
9617 213172
10030 74696
10390 75088
10834 333868
10843 637713
11544 148431
12183 967938
12909 45723
13761 873557
14623 104022
15586 156253
15632 550488
16153 773891
16268 267792
16787 900700
17690 879099
17880 150917
18649 174595
19314 315557
19832 683936
20679 533801
20759 527152
21556 414440
22230 359154
22453 721273
23257 216325
23720 278586
23797 400583
23887 356600
24190 766737
24231 456254
24869 530246
25290 268001
26085 130449
26372 355938
26508 905958
26752 543275
27391 510756
27682 479097
28100 975105
28562 821932
28564 554803
29083 147818
29223 609628
29266 815681
29305 871243
30161 827285
30353 852212
30594 506785
30962 89983
31481 665499
31523 111628
31686 598649
32507 713073
33077 989039
33133 681123
33568 64743
34390 801233
34807 246580
35309 901467
35612 290004
36349 69823
37074 493374
37827 484843
38065 571118
38701 835458
39202 51313
39453 198580
40199 357787
40746 495947
40866 865525
41412 502283
42246 175730
42373 468428
43016 251866
43592 337370
43678 590224
43917 648591
44493 450402
45189 470867
46022 549659
46041 265729
46453 432133
47146 75352
47790 314766
48735 823326
49105 549129
49457 948192
49660 698630
50206 438735
50331 614181
51047 191420
52020 961077
52808 974891
52982 588788
53117 743595
53617 996974
54061 573877
54641 439295
55307 425574
55677 20341
56531 525680
56604 365201
57369 901793
58017 69293
58200 690118
58671 423164
58891 952249
59857 31332
60542 968272
60548 608815
60751 570900
60853 136188
61843 789411
62419 663337
62816 475196
63773 32916
64075 663699
64558 868946
65456 850966
66414 607914
66777 323491
66824 459027
67084 737180
67510 4380
68414 529240
69157 622153
70093 491094
70807 187768
70872 939887
71219 455198
71322 176135
71919 721476
72770 980258
73408 770660
74164 149503
74763 471124
75511 354946
76091 446518
76782 177308
76813 270998
76829 975571
77211 622555
77361 871949
77473 221239
77635 310693
78026 812705
78679 922784
79017 286921
79645 305980
80309 432820
80451 431259
80968 19600
81065 209716
81168 58860
81873 470785
82762 896924
82887 506863
83374 520852
83827 187668
84146 622664
84215 13272
84416 246962
85043 657863
86022 539977
86583 188043
87334 349020
87605 311297
87644 967221
88277 878828
89102 291812
89106 244027
89528 533579
90143 848022
90809 469776
91024 436487
91372 608946
91918 699219
92318 282971
92394 608944
92943 568743
93149 576282
93970 389196
94902 320500
95542 668779
96252 765259
96841 35293
97488 369423
97556 95728
97829 314478
98236 660084
99163 428433
99902 554535
100248 118351
101008 280456
101760 23555
102597 558497
103288 900926
104225 834127
105195 538651
105655 151307
105680 590727
106464 672918
106599 642496
106704 402498
106807 242394
107059 996572
107973 758266
108601 68863
108882 788248
109536 872074
110315 378421
110905 673274
110980 180328
111317 909121
111938 427057
112570 484698
113031 803969
113993 720298
114113 306103
115011 995479
115804 609805
116617 171889
116721 722464
116984 14722
117654 126315
118256 312148
118899 201638
119877 151200
120760 982189
120774 13165
120908 794893
121053 595127
121280 832949
121376 245662
121471 250803
121511 550644
122271 413774
122628 818475
122688 578522
122891 81625
123223 109169
124120 502256
124649 449145
125013 647799
125445 27226
126365 702412
126502 953242
126936 461791
127238 118067
127456 222656
127951 170169
128453 354525
128719 399528
129042 865099
129907 913246
130068 800027
131046 283221
131538 400791
132518 969062
133047 683489
133141 581753
133985 692412
134595 583811
134971 679996
135307 308734
135328 915316
136082 356998
137019 205739
137846 343851
138294 434648
138798 385321
138936 409575
139369 446539
139866 307187
140654 817013
140667 118591
141254 590178
141281 70680
141282 553659
141917 640751
142907 151003
143747 340335
144493 598430
144752 816566
145646 632518
146380 744100
146891 259863
147007 399804
147450 279622
148338 621588
148824 63337
148833 122428
148941 635642
149040 700916
150017 409636
150200 124988
150481 302988
150666 783071
151630 401291
151956 181385
152564 184839
153262 181262
153858 752513
154100 79044
154332 208695
154648 772198
155627 224047
156597 667461
156786 6581
157487 875332
158132 176625
159122 987945
159286 341344
159428 553203
160236 674625
160312 525870
161018 875783
161107 15066
161339 87147
161413 286794
162074 127417
162185 699190
162649 823117
162839 778767
163517 363183
163771 948665
164564 667013
164690 674481
165283 288607
165472 526225
166436 321939
166496 634564
166575 325655
166967 618510
167935 671482
168452 745050
168776 543023
169251 155843
169529 919130
169690 648342
169900 202540
170630 47222
170648 241848
171179 353012
172130 62825
172544 359434
172906 99788
173545 585232
173706 692457
173730 458385
174534 18605
174801 497181
174920 705446
175695 740984
176228 540421
176597 513320
176672 821862
177034 23206
177956 615810
178038 985169
178413 517453
178572 368660
179343 102635
180256 775374
181129 509472
181434 514686
181901 489097
182037 131967
182229 500597
182574 121761
182913 959119
183854 193060
183953 186254
184070 478302
184307 482038
184799 945412
185138 120496
185362 298423
185708 200219
186265 855232
187121 761239
187497 108740
187644 745263
187926 970893
188823 7848
189081 826505
189868 827947
189888 76547
190667 621657
191201 864683
192052 61748
193050 624899
193841 478792
194044 774107
194508 822086
195432 105671
195488 805106
196174 834177
196657 3010
196681 204327
197061 823568
197283 49168
198084 74755
198609 573446
199142 750135
199693 658737
200383 627283
201115 635114
201445 717924
201515 428522
201583 859969
202033 496360
202554 710272
202768 984540
203318 757555
203866 193148
204183 37893
204669 16250
204988 214239
205221 356111
205543 963818
206361 957013
206843 468232
207500 713274
208106 358584
208750 478483
209411 705964
210058 183490
210828 920748
211149 952932
211325 372284
211399 153393
211454 694639
211890 404399
212312 993079
212454 60853
213433 754476
213913 903961
214517 619566
214810 789891
215385 446893
215939 492736
216376 606304
216508 897643
216567 972779
217042 788889
217466 696125
218327 989333
219000 867689
219166 217163
219347 621502
219939 510662
220361 472656
221276 163481
221522 934430
221819 135728
221863 90030
222051 338170
222532 853542
222789 494213
223224 660938
223600 434077
224197 866729
225176 429451
225513 351173
225593 86561
225666 764006
226100 650379
226183 97822
226234 547284
227095 769002
227837 330940
228252 826670
229014 627087
229189 721888
229666 541844
230259 131347
231072 771947
231553 861542
231561 554024
231613 519819
232442 32803
233298 637418
233823 611354
234570 665257
235193 477269
235371 79098
236265 529121
236286 351359
236720 391666
237259 564009
237961 958548
238085 397948
238334 126424
238665 979893
238972 177423
239047 202453
239828 553
240259 754701
241141 15962
242114 481344
242499 534270
242532 495632
243496 927384
243643 247326
244574 115364
245495 376657
246188 676151
246608 768085
247238 728674
247979 361707
248565 408777
249417 827576
249843 518569
250742 872587
251115 322518
251378 554706
251860 906923
252284 921831
253242 459184
253491 815474
253949 924748
254417 971818
254987 761813
255509 255349
256297 838175
256452 124604
257116 797238
257604 997401
257670 928997
258328 49653
258863 15710
259686 123401
259783 451635
259874 525004
260162 928791
260792 574914
261431 202406
262001 463991
262074 818909
262376 486648
262430 782245
262992 82730
263925 969026
264543 161303
265056 41441
265651 204498
265885 648642
266370 787210
266975 661223
267764 543320
268306 55949
268810 614953
269506 267249
269606 472539
270503 564929
270837 586607
271396 390302
271866 192307
272368 5203
272396 782240
273293 924704
274156 428250
274416 260572
274868 764782
275291 120075
275320 684285
275826 17793
276071 651706
276338 63421
277313 997037
277736 928166
278385 905465
278428 26179
279207 883847
280090 554
281016 401334
281178 390964
282030 506322
282113 741564
282904 574106
283102 409798
283257 981711
283933 725292
284700 369868
285593 685863
285748 811675
286526 96386
287210 855509
287917 170455
288296 745129
288781 229217
288933 648506
289599 343391
290147 488511
290643 178040
290956 523317
291026 778599
291515 59551
291788 662532
292680 452372
292763 510846
293616 861671
294326 115521
294366 351039
294381 667543
295020 923334
295880 503867
296833 650829
297156 923012
297995 925952
298176 62579
298269 61014
298883 807772
299406 109950
299556 555335
300537 773768
301101 143295
301418 895767
301983 750150
302284 930289
302992 787197
303849 843432
303993 956482
304330 845329
305140 253718
305211 828798
305490 270092
305582 379214
306450 649508
307185 328810
307854 383117
308726 84290
308995 219001
309324 214902
310121 366680
310507 61837
310961 677654
311815 292421
312455 861349
313189 261003
313802 581774
314744 893068
315648 843264
315931 747372
316450 524440
317189 396107
317994 965462
318323 904211
318888 595071
319044 804397
319646 694227
320560 439355
321180 671110
321533 145494
321641 53169
322171 413871
322284 988823
322568 483590
323450 818253
323711 791174
324383 467657
325038 515150
325749 302585
326311 422644
326926 145143
327410 999473
327893 840825
328783 13583
329155 296430
330007 125780
330905 614677
331300 567438
331627 756807
332581 438167
333457 663073
334052 470732
334216 733208
334788 676944
334957 311478
334995 108643
335123 50628
335365 997553
336012 446114
336555 713485
336667 970361
336896 539772
337738 213521
337945 641132
338400 756519
338535 175479
338856 177875
339293 119632
339802 373941
340417 942418
341207 247519
341710 782716
342165 66956
342912 920598
343011 219886
343221 911144
343744 716860
344460 33283
345185 427824
345776 792630
346046 695375
346538 919662
346816 191087
347534 73710
348021 609567
348683 320424
348842 950760
349245 858536
349406 638616
350140 317204
350479 199109
350743 496581
351444 606876
351798 4771
352450 589832
352545 898231
352788 17673
352858 614179
353258 968023
353784 865191
354559 397772
355310 787989
355674 766733
355808 603745
356156 195597
356926 229148
357227 310538
358134 774112
359068 434830
359940 2085
360834 520512
361226 179236
361430 38739
362321 971465
362500 183198
362871 352315
363569 860321
364019 365941
364999 289711
365155 233936
365348 538906
365617 527869
366509 96365
367400 890358
367826 323049
368132 882679
368681 922097
368699 592794
368731 481341
369077 68343
369080 104229
369907 460412
370481 385210
370496 416724
371312 332271
371524 425182
372383 341164
372884 367357
373350 521572
373472 617467
373476 978572
373978 179679
374297 873510
374353 422026
375040 943653
375898 496542
376651 15304
376823 641170
377634 414442
378351 143513
379155 58144
379194 208141
380115 880079
380807 225391
381255 912695
381375 823596
382185 449130
382537 17486
382580 10175
382771 505878
383498 410257
383901 45402
384651 598493
384768 199064
384869 947334
385664 409597
386461 221579
386920 883402
387462 592286
387988 980178
388013 376032
388857 765154
389201 674492
390073 649765
390365 739397
391113 429115
391476 722373
392106 351381
392377 901821
393096 317501
393716 536004
393718 439776
394187 683750
394873 798468
395801 614479
395871 866111
396352 904691
396620 300061
397315 324268
398099 566532
399041 219357
399107 42879
400105 502580
400940 612379
401590 917250
402208 342097
402620 435509
402990 964692
403096 742035
403588 389549
403925 805803
404006 909740
404652 380937
405543 763339
405740 533110
406558 391560
406600 42437
407286 247477
407337 22514
407533 244211
407950 108236
408183 717689
409001 187940
409165 637528
409291 830070
409540 887267
409780 594855
410707 862293
411522 61553
411539 767575
411785 172348
412056 207443
412507 130915
412685 35146
413676 765809
414304 563364
414378 541336
414726 206608
415461 941397
416303 586220
416733 248153
417382 427910
418188 356574
418538 426086
419475 281448
419678 995645
419736 253182
420415 823223
421331 754450
421493 274172
422461 887158
422528 948599
423368 301525
423687 351354
424141 804864
424562 126305
424695 616804
425602 654876
426496 681833
427170 39401
428090 746360
428817 956482
428854 875501
429346 420622
430184 693709
431108 922625
431604 903008
432408 900914
432538 178940
433351 32143
433940 723245
434658 133745
435095 915803
435554 672498
436323 459711
436610 635469
436888 275795
437255 199084
437552 704761
438295 306272
438367 645804
438959 765526
439700 139733
440115 918453
440773 707006
441171 667896
441441 932277
442030 134484
442296 245386
442555 85729
442846 901051
443703 235860
444460 617952
444614 481598
444615 756982
445278 121594
445864 747414
446293 875846
447067 19628
447330 894212
448205 184731
449046 16207
449912 614693
450907 445652
451245 520204
451697 252191
452032 686292
452435 771559
452612 724017
453233 69658
453500 904345
453695 323418
454031 254342
454782 123122
455221 404779
455582 517780
456141 505236
456303 270582
457193 590417
457342 978425
457442 485649
457823 453651
458048 202779
458266 152974
458356 67764
458771 786230
459232 50011
459265 49065
460067 879837
460902 736818
461758 497671
462053 570739
462542 157796
463414 532407
463698 819654
464027 152248
464830 295198
465078 676985
466072 141146
467067 491777
467755 284344
468359 647268
468549 834368
469265 141783
469516 754916
469625 415074
470141 979059
471100 479339
471754 217616
471820 921882
472300 888161
472594 255136
473166 467768
473392 8604
473887 954751
474713 209569
475037 333737
475212 877512
476096 805460
476450 540817
477155 97549
477893 68036
477969 248660
478333 907625
478923 809748
479682 570265
480666 198529
480709 160254
481568 675261
481727 191186
482471 866469
482852 737212
483510 498584
484369 366850
484412 162079
484849 3422
485087 627577
486067 135842
486472 249724
486921 25119
487577 59510
488246 118965
488476 482069
488849 273172
489757 221891
490435 353831
490475 720616
491084 993148
491503 388563
491902 677563
492580 691738
492882 433314
493462 861079
493976 553345
494709 729197
495071 126901
495662 367717
496232 168200
496798 1854
496815 36948
497078 37034
497553 316231
498263 76758
498854 242807
499433 479449
500368 880982
500971 535107
501387 144894
502132 350857
502936 50379
503381 963986
504206 544730
504549 57171
505211 637163
505268 304884
506234 251275
507091 372124
507538 666308
507769 406405
508735 980655
509562 291143
510042 601567
510146 351031
510555 409992
511294 603925
511892 709787
512706 921234
513110 645150
513980 945078
514807 507616
515007 530406
515523 528162
516022 224020
516771 93884
517172 464619
517648 269254
518101 462596
519045 191512
519858 982783
520601 573113
520810 176394
521074 704106
521891 296808
521970 370864
522079 410852
522836 229950
523226 878564
523832 821701
523899 630254
524603 16478
525436 937950
525769 788282
526549 366619
526897 966653
526924 252289
526955 588341
527232 93173
527948 330710
528555 285773
528641 54672
528820 465626
529635 761323
529949 602449
530312 119211
530786 75108
530859 193680
531277 592012
532122 958856
532810 246099
533647 193228
534643 901906
535422 605975
535472 560228
536326 989365
536367 506869
536958 451818
537873 481457
538293 595015
538348 322815
539133 221563
539992 981251
540636 580941
541162 426768
541467 916869
541729 852666
541804 927391
542277 36664
542758 979707
542956 595318
543386 854307
544292 683388
544946 550211
545146 930163
546108 581654
546404 516120
547251 204970
547286 777155
547984 127059
548670 32003
549223 734192
549903 68857
550011 507520
550364 893531
550847 378002
551390 85042
552317 65817
553272 640547
553354 18119
554188 152911
554320 800300
554668 896625
554702 547343
554969 30278
555855 338288
556307 642300
556834 532125
557006 786082
557890 559013
558689 266710
559255 189650
559952 908008
560529 347757
561253 30893
561290 658890
561577 231262
562036 957586
562093 392798
562564 477869
562865 406518
563564 661411
564546 102807
564754 20942
564947 557435
565689 22274
566182 472340
567162 116324
567757 1211
568161 785235
569146 159916
569696 603057
570544 780791
571443 77104
572131 935697
572625 131817
572732 584887
573315 371615
573443 475441
573847 766190
574134 361643
574671 226128
575022 636523
575512 818125
575568 625679
576311 60134
577157 585987
577200 839720
577420 468386
577608 998831
578320 6813
578874 195800
579418 181917
579500 770816
579719 180269
580007 243090
580340 982588
581045 281626
581949 25037
582502 855873
582802 24492
583557 188402
583700 896163
584227 926086
585131 407920
585459 223854
585780 755503
586287 541264
587003 693226
587165 213930
587762 164613
588704 6294
588740 831292
588829 938035
589168 868864
589253 16250
589752 968955
590640 186019
590844 645534
591206 214937
591808 688549
592229 779140
593074 929866
593671 524833
594595 442523
595268 238120
595760 269104
596126 921357
596440 318480
597175 408650
597809 724385
597822 316720
598425 580253
598973 300011
599205 587592
599230 677424
599401 816608
600313 985406
600907 266358
601380 448401
602253 121631
602864 572643
603461 954981
603588 304523
604577 508200
605490 513182
605562 554179
605627 989848
606068 485651
606672 366967
606676 898937
606907 399382
606930 163200
607561 95177
607719 105671
608233 879146
608312 57010
609058 477274
609996 192834
610990 531340
611341 132621
611542 694603
612062 261515
612590 324584
613012 539207
613215 686720
613616 197870
613702 924013
614679 588615
615150 267718
615536 531221
616468 101318
616668 834808
617415 697731
617817 633473
618570 549621
619256 971794
619740 978148
620673 985257
621591 386755
622353 460954
622587 879245
623547 950696
623552 690369
624040 595616
624642 659625
624871 977605
625717 3268
626628 98572
627447 294055
627867 117974
628729 716431
629317 935766
629742 958841
630603 6141
631388 252267
632360 104264
632600 856368
633330 654180
634221 972833
634637 291479
635610 29647
635925 306253
636084 141000
636159 557324
636387 296806
637205 81118
637704 319590
637713 250307
638035 595703
638637 485001
639414 860452
639975 341898
640366 5971
640939 273711
641925 568989
642161 756352
642449 261247
642678 375339
643281 896808
643812 462171
644414 187436
644566 689756
644865 385424
645156 938674
645641 974341
646427 828185
647249 891160
647821 39363
648046 278615
648822 772191
649474 596101
650148 183880
650270 946018
650942 314967
651237 354615
651650 177463
652375 192004
652785 959414
652990 856251
653764 537941
654018 958123
654152 140143
654225 484442
654370 502615
654957 249148
655048 741746
655852 941457
656236 833115
656811 935866
657131 482492
657275 491502
657558 805416
657907 131743
658603 255111
659448 584220
659795 532974
660243 822676
660851 313143
661788 623405
662667 591366
663177 200723
663581 961022
664194 874508
664481 395874
665310 864448
665377 704584
665394 957455
665854 913890
666331 109465
666990 865680
667527 984694
668433 225302
669399 624449
669489 782338
669542 473795
670181 407421
670572 481835
670958 994170
671669 5941
671762 974655
672413 850671
672820 11944
672962 402021
672983 469016
673734 929856
673998 128772
674112 823391
674585 842420
674829 577125
674940 203750
675865 407763
676319 106558
676869 377251
677684 750729
678149 406435
679098 641031
679557 284343
679627 711486
680385 105360
680690 16164
680868 28892
681828 776034
682362 918671
683146 80701
683906 834801
684105 238540
684814 864258
685111 322888
685177 420067
685584 882723
685822 947849
686302 927941
686330 567533
686538 738203
687252 846084
687514 585526
687701 204826
688051 919525
688158 223632
688660 608296
689027 567097
689436 421997
690107 457501
690763 660796
691469 531942
692327 564455
692981 995369
693183 493044
693293 329089
693840 915347
694355 595022
694543 830629
695454 319657
695514 916191
696009 678382
696078 510829
696157 101011
696696 322257
697583 102186
698133 226142
698447 719972
698549 101414
698585 561788
699295 488810
699400 296093
699647 683865
700191 264519
700474 936912
700711 570380
701384 476188
702188 725975
702718 218987
703409 952985
704375 882938
704404 875137
704460 942741
705102 92353
705614 134069
706092 730394
706876 560442
707474 376117
708300 571946
708864 394067
709469 242311
710260 644612
711228 692648
712124 309919
712968 365187
713275 441602
714217 758633
714442 793867
714446 295200
714851 445707
715664 773150
716621 581172
717232 400531
717581 391499
717736 597676
718182 162269
718804 246433
719677 948033
719835 275216
720668 951592
721046 771492
721187 431905
721944 596290
722311 812419
722524 965634
722918 818144
723472 80832
724236 826562
724706 732736
724753 646788
725743 944325
725873 643844
726644 299341
727375 393369
728323 884925
728806 442935
729432 968056
730043 80958
730776 603866
731281 291341
731817 473442
732197 216498
732983 641258
733068 421670
733378 22165
734206 827732
735038 798579
735484 670878
735668 10994
736574 552818
736679 323554
736877 651465
737605 821202
738190 212987
739145 774757
739894 419555
739930 416550
740566 21434
740973 143060
741800 823582
742742 763106
743630 796567
743875 72524
744357 422945
744542 828036
745424 590757
746353 409316
746981 30640
747282 469350
747334 945307
748084 524124
748583 188035
748910 971776
749315 949181
749341 10199
749786 413810
750504 287129
750697 404975
751331 796003
751983 762036
752347 997730
753063 406568
753713 629883
753999 873809
754182 963441
755096 129607
755659 456801
756460 392251
757194 829804
757306 353751
758275 391867
759248 515593
759892 524080
760318 890081
760999 285767
761739 304769
761836 741700
762116 901543
762872 924075
763768 93639
764226 713886
764281 785032
765030 979069
765085 642314
765603 949837
765698 792001
766422 961779
767191 915680
767642 149587
768386 279579
768971 712694
769109 589306
769382 159948
769822 783996
770573 656257
771220 300724
771679 254114
772596 322136
773158 608572
773188 243218
773265 187186
773811 574737
774546 121677
774819 661172
775802 824956
775971 772290
776075 167096
776436 151406
777318 676889
777958 809373
778124 377110
778455 198336
778709 49939
779606 878770
779861 948766
780019 450541
780353 281318
780503 837650
781376 756929
782119 581289
782128 369471
782895 97234
783612 190779
784018 89850
784832 403362
785097 558425
785310 82056
785945 174740
786281 484676
786334 678052
786605 379072
787249 636302
788183 875771
788330 138782
789263 860665
790031 989461
790120 704988
790923 135269
791148 523963
791500 384286
792489 917129
793151 700994
793481 101621
794229 673437
795102 296465
795754 646502
795819 630639
796732 997153
797147 873563
797426 744525
797661 706314
798335 875558
799318 235749
800101 810942
800352 181656
801115 914994
801417 625528
802231 423191
802812 885136
803480 975375
803907 40856
803909 839071
804592 444819
805137 684819
805771 570886
805884 377491
806209 808402
806264 2731
806957 957486
807063 976766
807279 190845
807398 857256
808305 395305
809251 432028
810060 396731
810535 167840
811042 631589
811758 181564
812133 416223
813115 823301
813797 993495
814558 946983
815074 199915
815164 953847
815958 618504
816053 410092
816804 219375
817618 830695
817798 368512
817818 870124
818139 562882
818365 974748
818793 781302
819382 269159
820016 918544
820642 825382
821515 510707
822273 417292
822418 163397
822796 125698
823364 483663
823707 453962
823808 490445
824163 966002
824966 329474
825455 18954
826270 97383
827038 581174
827200 445441
827251 848556
828186 291688
828189 257801
828624 536507
828796 315215
828840 84144
829760 265531
830029 247952
830686 786990
830953 764264
831466 177072
831914 801707
832680 548050
833654 962922
834299 532896
834635 520043
835252 816770
835931 398992
836227 811616
836610 146495
837079 993475
837638 496575
838424 619391
839013 378711
839916 782807
840743 990637
841285 740798
842125 860125
842415 749030
842424 26638
842426 830516
843270 894
843988 340842
844606 258227
845569 276557
846250 16240
846940 737713
846973 77320
846998 46860
847563 106373
847954 169032
848041 465359
848273 667610
848929 53900
849071 110740
849530 15172
849817 88898
850102 997688
851058 765143
851768 179971
852658 786538
853078 828004
853735 247010
854143 925304
854550 833573
855419 251897
856250 671273
857166 160529
857994 999990
858671 49984
859261 978301
859306 303049
859536 49760
860065 467001
861000 84167
861807 776452
862533 966895
863279 693181
863535 960845
863942 795647
864431 912183
865163 507788
865453 212704
865819 123926
866476 259993
866840 33276
867817 141838
868719 247467
869035 622878
869248 884494
870089 748419
870571 700239
871545 366569
871805 631286
872411 880970
873035 968857
873332 434525
873977 34339
874302 654007
874839 106953
875498 36253
875644 481515
875645 391007
876417 887580
876554 828781
877531 412386
877954 252489
877961 617654
878665 793511
879252 685740
879466 335755
879915 86920
880382 854204
881085 409577
881828 980970
882761 557568
883071 644183
883464 36616
884046 839594
884332 906899
884558 353656
885524 965603
886283 402725
886687 646693
887520 620065
888022 254029
888740 129454
888762 865605
889297 126608
889959 524688
890152 71656
890571 63917
891542 20482
891836 274630
892372 240936
892476 96447
892583 200919
893056 203645
894034 139110
894294 176904
894781 980115
895280 685152
896266 57843
896541 817835
896553 103097
896694 934566
897402 94259
897850 134175
898766 259085
899381 919260
899872 221653
900496 398296
900877 751111
900968 82741
901571 569097
902168 907623
902644 696042
902713 929940
903656 472410
904297 482746
905260 549373
906118 392675
906479 446443
907072 980730
908045 878499
908721 724536
908763 804122
909471 343620
909703 162850
910592 699380
910777 713674
911650 304446
912165 647467
912622 425227
912854 501114
912960 686279
913037 819101
913254 431096
913823 357613
914513 712932
915120 904275
915741 738770
916705 627313
917478 815026
917604 812170
918031 73366
918908 39559
919167 364810
919375 743530
919787 869323
920416 6605
920766 730428
920984 906221
921154 979973
921871 21550
922808 835969
923351 107881
923952 908564
924295 534184
924316 237823
924577 911635
925226 265193
925859 464884
926432 221186
927016 355184
927722 602304
928283 182057
928357 495156
928358 931733
929288 935804
930093 39470
930885 327870
931180 335201
931720 621655
932073 785366
932290 673749
933121 951730
933670 164742
934376 193290
934710 580372
935116 322165
935337 137569
936093 298647
936123 475735
936779 233564
937183 351443
938122 805217
938737 519773
938758 672647
939733 219189
940444 886493
940780 467880
941079 820047
941982 959663
942056 282807
942316 430005
942647 163844
943042 704868
944001 451525
944561 233210
944740 332979
945095 560996
945683 48606
946277 67868
947085 721703
947952 913669
948809 396311
949646 954845
949808 125361
950500 225139
950878 806345
951345 520727
951375 659233
952273 147446
952387 120726
952739 877255
953705 53584
953709 743100
954539 800429
955472 898682
955880 647404
956266 963384
956517 262025
957333 948768
958162 868996
958257 390022
958801 294113
959114 956302
959872 192021
960395 12159
960695 715992
961173 228783
961464 844001
961857 366958
961880 781774
962614 689486
962825 127114
963490 212347
963692 12561
964483 690974
965315 86098
965631 126016
965854 202031
966356 872040
966551 140316
967121 178503
967290 758435
967294 816362
968036 747049
968456 392941
968641 599835
968774 737223
969263 206079
969694 749421
970251 21200
970828 309253
970933 948136
971465 903721
971489 834591
971954 407680
972179 24291
972726 741707
973224 831242
973781 343931
974042 44575
974213 542011
975153 321623
975333 439171
975528 822784
976363 343774
976647 300428
977386 531559
978159 488403
978250 427476
978315 274087
978877 520415
979017 483306
979388 174212
979559 386940
980436 296892
980687 932406
980967 585126
981015 654751
981554 691460
982216 345293
983176 559120
984161 228949
984955 460550
985608 384636
985680 64200
986290 907822
986716 106149
987707 186247
987991 853122
988061 745493
988088 763150
988204 504952
988405 654726
988470 513236
988568 927163
988617 511865
989193 577852
989256 116319
989770 855158
990474 847446
991307 293536
991583 149570
991657 726077
991679 374585
991776 55365
991829 471515
992599 408513
993189 95587
993953 731739
994512 878129
994998 569794
995358 196121
995418 254780
996187 620947
996720 864902
997389 485084
997856 124031
998605 644804
999472 212342
1000109 553090
1000499 368698
1001483 386345
1001533 124994
1002474 177934
1003470 501792
1003619 682666
1004382 507777
1004715 959947
1005607 85280
1005930 269584
1006196 474119
1006560 46486
1007204 523912
1008002 174068
1008905 77406
1009790 303329
1010173 449244
1010769 543207
1011086 836753
1011527 993695
1011542 336335
1011609 979383
1011766 805687
1011866 107111
1011924 300992
1012432 112582
1012602 836528
1012990 974473
1013018 820473
1013870 141086
1014436 739466
1014498 640239
1014970 901976
1015695 109253
1016358 541318
1016503 675026
1016713 968955
1016922 135634
1017585 410671
1018525 295994
1019130 108890
1019166 305144
1019463 712058
1020132 123903
1020218 205597
1020815 403716
1021486 953841
1021653 807393
1022622 809727
1023394 736213
1023457 982324
1023891 369637
1023902 668444
1024050 581502
1024905 741653
1025584 524994
1025724 479845
1026205 862891
1026739 175858
1027647 663736
1028408 786741
1028551 888784
1028797 476665
1029750 142659
1030637 391441
1031384 642393
1032259 681861
1033024 222462
1033779 286133
1034495 255859
1035413 809794
1036304 933933
1036496 272303
1036629 500998
1037445 317885
1038081 695899
1038394 723390
1038497 556232
1039061 786229
1040050 365977
1040425 267341
1041246 133832
1041353 105315
1041967 210237
1042781 425817
1043121 845469
1043337 588706
1044013 186497
1044274 220944
1044966 76419
1045179 622380
1045870 884597
1046299 148890
1046575 689537
1047108 457515
1047382 398065
1048281 557685
1048837 417319
1049790 275734
1049930 291087
1050019 815174
1050548 202473
1051438 261395
1051844 401484
1052060 721441
1052422 611713
1053030 336254
1053603 133600
1054575 163177
1055216 91524
1055405 553204
1056177 471345
1056940 180043
1057194 563903
1057843 820578
1058318 97583
1058995 268104
1059007 271660
1059483 793780
1059999 953861
1060604 292634
1061295 17289
1061973 597571
1062383 161471
1062993 583197
1063153 277953
1063782 180680
1064303 814901
1064667 288751
1065242 5989
1066157 600638
1067005 466331
1067086 107386
1068060 403936
1069019 179001
1069726 427100
1070250 509995
1070818 877315
1071506 860783
1072202 818447
1072795 138902
1073526 137748
1073807 632868
1073959 872531
1074214 105037
1074359 74284
1075231 606956
1075597 556340
1076372 841457
1077102 222991
1077655 53869
1078312 831579
1079246 146913
1080129 482952
1080505 895072
1080917 595139
1081184 510808
1081277 521283
1082151 284497
1082828 823256
1082987 677107
1083454 327971
1083549 830856
1084331 971226
1084655 795776
1085575 454692
1086259 387416
1087180 427757
1087301 327951
1087562 24988
1088119 358397
1088148 166723
1088617 613928
1089557 182905
1090498 880524
1090501 606002
1090585 371338
1091335 861332
1091403 173064
1092246 500951
1092610 937096
1092859 290722
1093041 34560
1093685 952017
1094277 955251
1095200 491115
1095646 70920
1096394 82231
1097013 390379
1097970 584265
1098187 431082
1098549 985891
1099140 271114
1099877 839877
1100505 146235
1101123 950079
1101373 328768
1102180 428479
1102403 411006
1103162 47179
1103849 135981
1104067 792287
1104353 50062
1105218 447051
1105839 27719
1106296 603793
1106583 468362
1107299 194140
1107729 34936
1108590 287095
1109300 347017
1110032 957898
1110289 941853
1110537 30464
1110814 748879
1111364 518610
1111635 14136
1112427 266452
1113170 48592
1113720 606690
1113984 282098
1114590 975001
1114982 68302
1115192 795594
1116019 274569
1116777 152580
1117563 730578
1118323 773674
1118337 124012
1118756 260338
1119498 615167
1120400 931962
1120513 218473
1121245 16432
1121860 195956
1122006 319210
1122441 888773
1123283 242726
1123732 606705
1123796 394794
1124773 298024
1125614 15075
1126275 777013
1126441 528164
1127147 492406
1127281 316475
1127765 426681
1127784 690833
1128429 252418
1128721 759452
1129348 914413
1129514 502917
1130014 547308
1130207 731538
1130668 608204
1131162 399124
1131742 635082
1131793 185340
1132224 929965
1132514 369281
1133294 995788
1133455 651781
1133689 270990
1134638 231237
1134876 978253
1135465 209311
1135590 445866
1135880 753629
1135897 136016
1136103 71244
1136224 729912
1136964 943464
1137507 731444
1138385 5413
1139317 259795
1139867 679201
1140560 158307
1141439 262660
1142116 70084
1142590 514248
1142657 759643
1142789 575797
1142941 713452
1143244 863000
1143701 302264
1143855 171123
1144474 440404
1144696 67758
1145507 499978
1146257 525767
1146454 418297
1146720 564485
1147307 42588
1147991 814917
1148227 509087
1148781 244598
1149105 833875
1150064 783337
1150213 353942
1150262 510365
1150544 983005
1150983 589387
1151842 483291
1152035 752538
1152244 420396
1153089 857821
1153400 613269
1154021 246110
1154678 350356
1155058 88722
1155787 376254
1156520 417055
1156826 79329
1157600 839198
1158085 564176
1158744 261711
1159320 274907
1159650 275165
1160559 395425
1160907 884044
1161644 544630
1162124 243618
1162536 978109
1162607 898789
1162930 335045
1163286 272364
1164191 521599
1164886 646353
1165603 579719
1166089 216680
1166466 83852
1166563 559277
1166664 175727
1167126 401583
1167809 142587
1168754 950537
1169753 207126
1170276 360265
1170897 64038
1171568 68702
1172024 356525
1172081 229682
1172793 652811
1172989 669746
1173174 394929
1173892 795066
1174430 521677
1175266 763779
1176168 917394
1176625 175610
1176630 823625
1177403 277863
1178352 152865
1178849 313176
1179842 208910
1180704 851326
1180979 821151
1181168 696736
1182161 781443
1182902 741591
1183177 503272
1183543 411870
1183931 666
1184861 780557
1185106 512558
1185544 220320
1185981 465899
1186513 934522
1187254 591022
1187913 850423
1188801 575977
1188905 523364
1189412 195225
1189973 354713
1190154 684856
1191013 181541
1191232 516546
1191712 859990
1192584 557262
1193238 670287
1193638 462617
1194057 371150
1194270 959778
1195087 800113
1195732 485176
1196402 556394
1196597 941348
1196834 226543
1197584 454994
1197653 506704
1198084 598157
1198216 936857
1198721 620390
1199189 995057
1199962 167077
1200894 901449
1201856 823129
1201977 6635
1202358 415239
1203064 15985
1203770 865805
1204227 562478
1205121 667974
1205674 966078
1205998 728037
1206947 358151
1207624 741244
1208130 648483
1208336 376907
1209036 651189
1209919 608448
1210161 811662
1210196 134738
1210690 188140
1211123 844928
1211628 707347
1211672 150900
1212459 890245
1213074 398677
1213995 982201
1214023 301623
1214112 675217
1215061 76732
1215709 556538
1216571 875707
1216587 138408
1217522 326344
1217907 126062
1217926 450655
1218033 67977
1218228 244207
1218886 303520
1218979 56165
1219180 688975
1219854 196449
1220216 503854
1220563 492985
1221196 735799
1221438 627477
1221906 842158
1222251 232587
1222485 429173
1223314 747540
1223943 580890
1224210 117639
1224663 181376
1225121 196843
1225666 491342
1225983 543317
1226564 195910
1227417 971080
1228260 878312
1228417 261710
1229311 772796
1229361 873064
1229500 658006
1230327 770198
1230622 977406
1230992 517434
1231361 389041
1232344 399564
1232535 367322
1233477 814143
1233580 659441
1233648 145426
1234076 831347
1234377 965024
1234623 65762
1234899 752048
1235189 232328
1235225 230182
1235314 774804
1235815 129882
1236543 636348
1236620 13703
1236955 668160
1237285 556632
1238238 954173
1238616 328770
1239075 279709
1239863 800834
1240125 744290
1241090 22463
1241271 377582
1241312 963697
1241419 793450
1241438 318443
1241519 949472
1241813 515160
1241901 510642
1242205 124645
1243067 551776
1243267 859506
1243500 130514
1244337 561905
1244764 593290
1244861 447685
1245366 746441
1246301 764570
1247119 224777
1247664 616346
1248074 914301
1248123 393576
1248790 750752
1249187 665770
1249433 174252
1249957 730789
1250203 230832
1250275 716589
1250649 134352
1251620 514054
1252402 184747
1252633 192194
1253367 200198
1254241 673420
1254875 699368
1255021 450183
1255096 808764
1255567 853547
1255986 521933
1256366 12425
1257259 380221
1257458 994096
1257618 532912
1257750 939702
1258460 44687
1259202 677267
1259297 351209
1259954 376465
1260508 502069
1261225 451091
1261241 686365
1261536 90711
1261591 758888
1261673 193047
1262605 825704
1263281 869980
1264154 874929
1264167 176018
1264237 240718
1264675 361695
1265454 191694
1266160 25099
1267098 661622
1267237 838397
1267439 3174
1267751 374934
1267785 528410
1267948 894543
1268424 835934
1268986 384563
1269025 375487
1269459 640949
1269567 732676
1270512 306498
1270872 300627
1270899 345608
1271568 134866
1271927 102496
1272137 562890
1272329 582289
1272364 286432
1272456 792751
1272861 574506
1273650 915426
1274352 936838
1274745 617268
1274797 155575
1275165 811059
1275538 623225
1276163 280084
1276495 558855
1277148 895447
1277575 161294
1278125 69884
1278993 205878
1279408 915438
1280325 182695
1281007 746961
1281449 159820
1282202 591200
1283201 550941
1283387 955987
1283590 26563
1283629 634389
1283699 489572
1283801 747146
1284547 322572
1284618 846542
1285508 270414
1286346 207543
1287048 819373
1287267 539887
1287938 546500
1288900 829163
1289347 791849
1289468 208775
1289910 107644
1290219 189875
1291104 679513
1291842 347584
1292125 809963
1292929 950801
1293323 772056
1293445 663352
1294230 971866
1294342 444748
1295100 799897
1295664 767818
1295691 400454
1296356 522215
1297028 642196
1297075 38808
1297491 923688
1298180 786505
1298244 460734
1298557 337447
1299185 137076
1299248 324020
1299417 609184
1299537 248419
1299630 732047
1299897 246963
1300083 69463
1300743 536542
1301659 791741
1302302 770133
1302952 839661
1303935 227418
1304917 394490
1305741 349249
1306481 936607
1307464 893088
1307545 279755
1308194 312447
1308374 660319
1308553 657668
1309002 169285
1309020 189964
1309141 914804
1309237 217790
1309568 250731
1310043 233551
1310493 322242
1310769 791967
1311052 788915
1311421 288906
1312124 20711
1312702 6317
1313395 102105
1314086 302460
1314602 287971
1315355 823488
1315959 106165
1316190 238217
1316600 635079
1317005 74539
1317534 942151
1318171 237187
1318977 844043
1319665 47220
1320580 134847
1320704 833815
1321383 234891
1321566 327066
1322170 858535
1322312 593011
1323294 184918
1323802 825133
1324125 609845
1324868 844455
1325038 332301
1325120 289048
1325672 362996
1326581 847665
1326586 786898
1326606 92460
1327209 52751
1327764 796591
1327914 830601
1328298 408870
1328945 960579
1329084 650853
1329766 467696
1330625 274409
1331187 925638
1331361 525710
1331736 9946
1332153 684701
1332282 727506
1332863 431304
1332930 358918
1333828 592369
1334540 916603
1335273 814912
1335305 674655
1335926 390588
1336299 456179
1336684 430104
1336947 677517
1337933 407622
1337994 207458
1338310 158505
1338450 824079
1338952 991998
1339667 555131
1340201 8361
1340951 539513
1341623 185169
1341851 342291
1341978 779349
1342445 274826
1343112 467271
1343760 778150
1344040 791355
1344724 704666
1344980 492046
1345487 975966
1345932 574972
1346696 899743
1346970 858473
1347507 860748
1348168 658265
1349024 994126
1349146 138830
1349183 787321
1349730 480799
1350221 683596
1350682 935375
1350875 687164
1351285 650026
1352231 847565
1353154 672226
1353420 203347
1353494 575065
1353875 48622
1354399 661559
1355180 810792
1355673 578866
1356392 282196
1357077 257164
1357342 564843
1357649 247817
1358376 118888
1358579 795298
1358730 653243
1358943 56213
1359845 995708
1360134 910249
1360852 358287
1361537 479292
1362047 374714
1362064 101677
1363016 184147
1363061 915544
1363205 644871
1363938 223438
1364887 803958
1365631 50589
1366099 994886
1367086 708378
1367989 508031
1368177 873650
1368537 618090
1368897 91330
1369287 327393
1369570 874972
1369945 772288
1370757 571022
1371433 353300
1371554 48506
1371810 457992
1372266 783295
1372889 282782
1373349 164987
1373683 887198
1374200 548652
1375107 683787
1375996 540502
1376031 646239
1376843 659864
1376971 984193
1377719 457663
1378047 609953
1378093 118573
1378767 393566
1378957 741489
1379118 992188
1379804 880729
1380727 249850
1380907 784275
1381671 342373
1381742 694709
1382567 391506
1383076 267362
1383942 30851
1384238 335936
1384971 898009
1385461 66378
1385675 752379
1386661 189177
1387211 49931
1388149 109920
1388374 779073
1389353 456823
1389619 572980
1389662 748027
1389772 705842
1390184 205480
1390629 948934
1391006 978640
1391587 664150
1392230 624387
1393162 678916
1393529 255582
1394072 819271
1394970 165302
1395118 141382
1395561 139979
1396390 59777
1397350 393794
1397527 192041
1397897 453183
1398569 115400
1399470 839158
1399765 828069
1400074 615905
1400999 232912
1401995 450280
1401997 973653
1402955 652306
1403093 47269
1403165 85057
1403763 250046
1404694 954059
1404779 961436
1405298 482809
1406032 391046
1406674 68888
1406826 797436
1407155 188107
1407788 328190
1407953 531565
1408913 854636
1409390 162686
1409564 781303
1410539 813791
1411270 361649
1411954 10385
1412825 852382
1413041 523800
1413490 784522
1413983 178141
1414586 644752
1415453 307742
1415822 402463
1415917 542967
1416908 446794
1417277 608191
1418163 427312
1418781 618887
1419023 504080
1419714 99509
1420703 63936
1421529 230168
1421861 464202
1422152 284757
1422576 746324
1423428 29280
1423852 858385
1424082 226683
1424303 850134
1425047 869612
1425768 275436
1426234 494292
1426918 159506
1427785 983338
1428416 724874
1428528 46474
1428617 416112
1428900 397968
1429449 637235
1429778 394952
1429941 158206
1430448 292874
1431159 154633
1431958 493662
1432498 411951
1432929 829545
1433382 846864
1433921 41897
1434899 74232
1435546 113159
1436298 742126
1436650 708932
1436689 43529
1437240 585263
1437917 534243
1438359 542038
1438514 728072
1439479 276102
1440165 84706
1441086 737856
1442050 216705
1442251 790652
1443074 940088
1443078 953992
1443628 397103
1444606 576189
1444612 993090
1444995 24843
1445352 839949
1445487 543901
1445928 694830
1446006 691278
1446086 369391
1446811 690833
1447485 623463
1447787 548054
1448264 584265
1448846 171707
1449665 196032
1449909 750832
1450464 838891
1451325 769947
1451831 520050
1452528 780992
1453215 850675
1453935 642316
1454355 380901
1454445 117567
1455385 216325
1455787 137624
1455973 40256
1456959 536177
1457031 502826
1457973 532944
1458037 239180
1458150 158327
1458797 10219
1459339 861141
1460141 871419
1460352 459866
1460848 812239
1461193 517579
1461577 916137
1462508 409767
1462868 288388
1463408 826202
1463502 826440
1464383 528534
1464782 720500
1465514 954942
1466410 816484
1467164 774760
1467714 936051
1468375 70821
1468901 472537
1469492 855201
1469575 63561
1470331 119442
1471022 979073
1471423 69858
1471482 310091
1472370 375497
1473295 964217
1473355 713754
1473915 973420
1474225 507068
1474824 520921
1475357 394853
1475565 180883
1476299 858445
1476994 439820
1477732 659191
1478349 934753
1479173 571769
1479660 365562
1480348 153149
1480983 518055
1481054 50923
1481921 341638
1482192 578178
1482454 408374
1482526 578206
1483144 80617
1483580 513658
1484225 174382
1484685 274566
1485063 277885
1485930 544554
1486030 90528
1486677 85914
1486932 369573
1487525 718445
1488319 950452
1488747 656423
1489147 420129
1489445 376700
1490275 369010
1490836 976742
1490989 1650
1491459 978330
1492263 208691
1493153 440301
1493681 399755
1494293 207440
1494482 199372
1494534 705055
1494834 47353
1495750 502154
1496258 701354
1497031 766444
1497685 719039
1498127 664960
1498745 352253
1499232 249355
1499569 605282
1500208 371825
1500621 607219
1501338 471546
1501817 18401
1502719 276327
1502800 352695
1503271 264408
1503379 331605
1504239 675485
1504292 665022
1504920 591630
1504948 272694
1505031 406888
1505814 152901
1506557 573749
1507322 415611
1508151 943171
1508897 794281
1509701 911547
1510101 794311
1511060 666471
1511564 80217
1512526 483419
1512614 363751
1512801 977170
1512926 675868
1513114 744026
1513921 6995
1514786 678391
1514804 435249
1515495 983596
1515815 644963
1516383 785328
1516386 291039
1516740 394912
1516746 745075
1517176 754427
1517713 572169
1517808 982915
1517905 690284
1518204 924718
1518953 444107
1519950 137324
1520214 497897
1521209 279294
1521217 224089
1521597 644524
1522342 778288
1523098 59114
1523572 735349
1524225 637665
1524405 400967
1525127 405359
1525784 587109
1526123 33410
1526259 289277
1527168 824103
1527681 790459
1528022 747097
1528088 316744
1528696 972822
1529291 210254
1530131 113322
1530352 865035
1531217 510805
1531402 924083
1531449 957335
1531825 103692
1532184 835902
1532791 349315
1533197 92381
1534176 494525
1534584 709771
1534944 553363
1535277 942687
1535335 470858
1535988 444844
1536102 687413
1537027 872950
1537628 37577
1538126 993795
1538393 983219
1538856 978781
1538890 526965
1539673 842694
1540090 833615
1540717 837484
1541713 856625
1542102 876999
1542745 650866
1542830 430327
1543576 86628
1543831 737305
1544227 984780
1545018 80926
1545889 331000
1546369 633279
1546939 641698
1547806 605792
1548205 970906
1548544 291703
1549125 36176
1549916 665945
1550902 221496
1551842 494966
1552520 378232
1552693 771454
1552967 242347
1553864 489204
1554659 326489
1555514 364125
1555770 774676
1556183 964483
1556811 679998
1557505 624265
1557636 852181
1558001 582043
1558876 625068
1558980 48698
1559561 121731
1560336 480956
1560650 25149
1560801 122248
1560912 152580
1561670 610877
1562091 551000
1562452 313130
1562458 735526
1562919 193832
1563660 87264
1564041 136332
1564377 997270
1564564 53422
1565462 258475
1565784 51520
1566503 101275
1566509 849466
1566768 32358
1567282 921682
1568191 132541
1568429 99001
1569051 769765
1569926 144360
1570926 296497
1571890 613867
1572054 522308
1572250 950903
1573045 75217
1573339 416353
1573661 264372
1574446 390648
1575108 965912
1575331 375168
1575796 366035
1576729 785153
1576848 993181
1577620 966111
1577652 445459
1578537 396501
1578856 684906
1579741 733169
1580256 495365
1580610 807954
1581552 174040
1581710 977130
1582237 430506
1582586 272974
1582677 636716
1583147 816466
1583857 264728
1584103 114436
1584705 315863
1585481 134097
1586327 495926
1586425 957256
1586807 993717
1587479 414857
1588160 798530
1588548 464110
1589002 28949
1589405 631424
1590398 878964
1591325 295201
1592099 116693
1592633 521238
1592788 941693
1593731 307760
1594055 827008
1594464 468817
1594797 516476
1595466 248393
1596369 284077
1596658 824854
1597618 462938
1598175 165588
1598378 677373
1599169 568763
1599710 470708
1600499 95629
1600938 702336
1601785 649485
1602342 788804
1602502 349871
1602565 213883
1603060 331149
1603682 608169
1603750 637831
1604382 996124
1604432 194551
1605344 499037
1605568 466869
1605668 566659
1606269 650462
1606731 293625
1607508 288019
1608064 491238
1608192 607526
1608436 553623
1609326 852001
1609725 829686
1610619 731286
1610998 213738
1611575 673495
1611878 657051
1612753 871220
1613744 821336
1614674 277681
1615402 684669
1615622 20706
1615909 32598
1616617 559501
1617506 301553
1618441 855076
1618453 269683
1619239 187870
1619627 355586
1620545 535542
1621220 264510
1621988 240655
1622103 9629
1623010 965150
1623458 57538
1624388 531265
1625342 874489
1626180 105862
1626593 856928
1626966 515235
1627582 183840
1627767 772091
1627984 542140
1628389 476197
1629359 153093
1629785 902395
1630013 18022
1630606 569851
1631390 104174
1631494 3518
1632212 672540
1632845 44793
1633718 442409
1634512 927206
1635080 787541
1635203 449943
1635950 692243
1636516 309276
1636786 631151
1637653 646925
1638385 780001
1639239 851097
1639670 800730
1639697 343668
1640358 803369
1640586 54612
1641461 759624
1642447 34253
1643420 724104
1643422 928855
1643633 877910
1644374 901207
1645331 761018
1645691 603371
1645911 929681
1646031 862338
1646578 216548
1647303 256199
1648122 781084
1648641 824898
1648927 749125
1649243 252476
1649659 707931
1649683 227162
1650592 879443
1650699 517774
1651269 522702
1651363 991539
1651967 84162
1652195 329793
1652799 211712
1652866 405011
1653214 466864
1653282 425270
1653491 353842
1654333 93641
1654593 838062
1654750 911737
1655052 895111
1655751 106038
1656526 930040
1657504 564609
1658108 520205
1659030 209910
1659922 744990
1660617 18140
1661217 27180
1661591 961575
1662439 561675
1662974 918467
1663161 768906
1663963 531408
1664786 432652
1665258 201355
1665873 870557
1666237 498472
1666905 938224
1667710 82613
1668547 482467
1669440 76862
1669448 458099
1670215 201932
1670349 205442
1670580 945031
1671209 123949
1671972 622085
1672537 93579
1673164 806029
1673716 731602
1674593 80346
1675308 139125
1676072 616286
1676130 230374
1676899 139461
1677661 523763
1678201 964314
1678936 866781
1679222 51806
1679803 77293
1679808 452486
1680151 670944
1681010 862622
1681621 775785
1682548 330995
1682778 907213
1682785 479019
1683254 528208
1683663 531610
1684041 299240
1684491 127726
1684776 5827
1685069 843113
1685455 888493
1686132 816411
1687011 28721
1687430 96317
1688255 810434
1688325 334486
1688581 552662
1689041 304039
1689934 366564
1690917 378506
1691707 638206
1692391 468333
1692540 304075
1692895 210287
1693243 484684
1693830 936760
1694031 883136
1694970 118864
1695322 907637
1695348 129952
1696291 365337
1696746 703978
1696849 793480
1697426 245136
1698141 686559
1699014 746560
1699651 299492
1699857 515852
1700305 260050
1700531 699290
1701374 738958
1701689 60914
1702344 824484
1702785 667995
1703697 201789
1703752 430428
1704050 959521
1704546 810496
1705077 995740
1705803 260020
1705865 204159
1706373 870668
1706448 373098
1707180 124843
1707725 83886
1708290 82568
1708694 537031
1709461 864215
1710422 769984
1710914 520395
1711873 427813
1712120 587610
1712407 472659
1713317 282476
1713718 972253
1714491 745524
1715258 527742
1716252 281
1716849 191593
1716981 224318
1717697 385387
1718451 691219
1718487 168087
1718724 829386
1718731 725959
1719372 271286
1720213 243688
1720523 59905
1721121 831331
1721952 566943
1722186 884975
1722431 499621
1722913 262895
1723717 399894
1724285 102379
1725073 155108
1725327 509776
1725691 357700
1726454 972249
1727300 743126
1728232 495001
1728821 38184
1728891 90292
1729662 863466
1730234 659814
1730373 434390
1730810 27186
1730863 783790
1731314 26281
1731431 513121
1731641 821456
1732021 991780
1732137 198530
1732573 568452
1733194 581706
1733719 449399
1734337 555001
1734873 308445
1735375 43948
1736234 77629
1736798 862490
1737466 751283
1737537 354330
1738081 295007
1738787 98354
1739107 588002
1739848 872289
1739877 511215
1740441 304186
1740481 193203
1741103 106859
1741627 901876
1741989 853164
1742883 392894
1743244 636461
1743746 452603
1744354 546700
1744508 324533
1745456 23918
1745934 538965
1746287 184534
1746662 187877
1747537 184347
1747614 47091
1747926 59422
1747983 750667
1748927 420227
1749802 490673
1749947 709866
1750772 698068
1751690 478462
1752543 867039
1753163 943124
1754096 112542
1754420 79515
1754505 286746
1755041 355619
1755699 183548
1755865 863697
1756673 385183
1757024 215431
1757715 439489
1758024 973931
1758764 569286
1759435 643819
1759906 179691
1760893 441428
1760954 443498
1761197 331061
1762193 210940
1762429 734057
1762808 74892
1763706 263557
1764270 333377
1764797 469215
1764865 233796
1765775 871595
1766209 409465
1767003 928747
1767246 662639
1767799 561135
1768334 260843
1769077 660584
1769603 905201
1770026 805642
1770965 450644
1771958 988673
1772874 895635
1773020 961482
1773697 155816
1774065 496352
1774112 899697
1774288 277850
1774422 36214
1774508 744543
1774804 823164
1775699 491422
1775803 371160
1775844 532493
1776001 76850
1776466 363182
1776594 173144
1777297 341808
1778029 914714
1778708 797093
1779516 870747
1780222 105681
1780509 891156
1780612 266095
1781570 583360
1781735 300084
1781789 956722
1782087 951958
1782325 745900
1782842 750596
1783361 410690
1784178 673962
1784563 283221
1784630 197223
1785026 156163
1786020 419938
1786577 460995
1786633 372529
1787132 461714
1787378 361036
1787849 575607
1788631 851159
1789246 244511
1790012 494189
1790506 312500
1791238 936760
1791355 996515
1791846 845904
1791870 64287
1791968 576938
1792308 864103
1793297 206555
1794088 549559
1794524 24185
1794699 514122
1794923 705081
1795447 651297
1796408 210347
1796655 545437
1796961 738364
1797662 308101
1798262 571936
1798391 975749
1799160 297378
1799956 549941
1800760 508890
1801567 416787
1801709 480512
1801822 422726
1801917 451106
1802491 385867
1803169 124035
1804062 999444
1804793 496461
1805280 878308
1805580 370893
1806242 443448
1806688 109600
1807321 825632
1807550 418083
1808501 469676
1809151 205657
1809474 81398
1809901 682351
1810403 601987
1810888 635022
1811820 573814
1812029 817699
1812097 755125
1812273 816356
1813037 344035
1813724 598933
1814027 509716
1814779 39268
1815095 273628
1815595 695108
1815718 671968
1816515 647626
1816559 479829
1817526 989820
1818383 511987
1818946 714115
1819196 358738
1819490 107645
1819977 45588
1820621 245027
1821122 913271
1821309 669820
1821570 30371
1822222 215988
1822347 420925
1822625 13937
1823588 473386
1823688 858335
1824536 941405
1824693 825766
1825537 804131
1826387 573534
1826443 894051
1826644 570809
1827629 167956
1828034 217115
1828158 972079
1828606 178778
1829182 298969
1829869 622628
1830665 732556
1831479 143040
1831566 622320
1831596 63589
1831789 897750
1831859 632562
1832263 405052
1832269 73232
1832359 710640
1832816 879102
1832896 522414
1833230 284281
1834191 950460
1834415 175465
1834636 985629
1835349 169256
1835707 35177
1836650 195614
1837289 206416
1837480 976804
1838033 836174
1838539 209652
1838540 878527
1839010 944481
1839209 1818
1839674 282721
1839775 302270
1840140 596452
1840150 145180
1840944 802178
1841701 562215
1842527 619059
1843503 489196
1844071 527094
1844922 660569
1845119 609609
1845927 294984
1846132 435074
1846867 513997
1847283 854247
1847378 168526
1848271 823705
1848594 501760
1849087 281161
1849152 436138
1849627 998445
1850088 892910
1850133 761023
1850732 220309
1851275 914220
1851435 898483
1852062 460845
1852971 225576
1853239 968809
1853349 495631
1854055 329551
1854450 177503
1855133 855508
1855587 462130
1855811 806078
1856565 954890
1856640 556270
1857501 477395
1858276 514911
1858644 386411
1859137 682426
1859602 823121
1860352 384828
1860678 704138
1860763 903936
1861524 166403
1861594 234542
1862077 671282
1863023 114191
1863330 498755
1864326 751525
1864636 203951
1865078 77861
1865699 126204
1866517 670288
1867218 192796
1867791 966957
1868422 86913
1868573 293053
1869357 902097
1870101 95605
1871013 556317
1871107 744902
1871459 580561
1872140 117289
1872249 541547
1873220 843913
1873336 593042
1873686 687652
1873698 746479
1873829 319998
1874112 820607
1874925 230823
1875817 767374
1876801 150863
1877165 653076
1877903 201985
1878126 511885
1878530 664275
1878972 430178
1879914 636938
1880648 370404
1880845 661994
1881630 238168
1881894 203173
1881988 228409
1882398 84881
1882546 226175
1883039 44823
1883358 980163
1884082 599998
1884141 127550
1884488 687268
1885304 96704
1885334 623102
1885348 644880
1885781 885632
1886646 983438
1887170 251366
1887705 747268
1888522 66102
1889418 473393
1889670 199751
1889902 816753
1890756 940849
1891320 175694
1891946 566684
1892890 386413
1893586 706157
1894197 570912
1894537 341211
1895182 753964
1895980 892406
1896700 779961
1897428 49006
1897845 355221
1898610 233683
1898747 676268
1899375 367236
1899732 975984
1900597 678342
1900961 45110
1901814 239484
1901945 96515
1902887 733458
1903444 37973
1904328 662394
1904773 876072
1905484 861991
1906140 125654
1906418 717945
1906633 303417
1907018 689193
1907394 453398
1907931 363256
1908391 997719
1909279 189373
1909985 995200
1910538 597387
1911250 273909
1911599 736422
1912493 905362
1913371 953130
1913971 433810
1914119 216537
1914522 57177
1914910 20519
1915474 817091
1915646 186472
1916065 467980
1916477 874727
1916652 360383
1917101 212032
1918027 164951
1918944 170431
1919084 718443
1919374 111042
1919890 234777
1920180 215426
1920388 317341
1920920 411229
1921807 518579
1921877 488648
1921901 918220
1922070 737839
1922423 295818
1923127 64428
1923443 301478
1924323 226761
1924606 487935
1925050 322147
1926023 156286
1926048 704932
1926825 842025
1927282 711114
1927675 396592
1928564 4016
1928603 512853
1929222 626207
1929553 59964
1929974 606660
1930546 997181
1931130 231325
1931820 623851
1932588 703271
1933271 572711
1933287 14765
1934010 606968
1935010 974061
1935519 858501
1935842 667648
1935850 379058
1936047 993309
1937029 821004
1937965 237030
1938522 557524
1938652 490693
1939483 526986
1939583 184402
1940224 630369
1940730 491224
1941709 83025
1941950 643196
1942488 291266
1942810 823916
1943759 143396
1944026 236978
1944597 811234
1945179 608995
1945729 909660
1945904 526762
1946556 904104
1946772 825879
1947429 529090
1948200 483288
1948441 857241
1949054 110083
1949569 717211
1950010 71011
1950774 779255
1951021 796476
1951733 238299
1952190 848239
1953083 79476
1953807 238722
1954126 358123
1954261 65032
1954773 96404
1955310 394078
1956283 979945
1957216 926231
1957236 721357
1957812 491834
1958412 69467
1959353 924609
1959374 845397
1960291 143091
1960906 936628
1961530 295480
1961643 775188
1962113 231051
1962125 195974
1962431 738304
1963149 639190
1963884 2686
1964645 324866
1965576 232129
1966294 858303
1966970 58903
1967132 834278
1967341 122286
1968119 242540
1969008 156893
1969800 778583
1970072 202366
1970082 432601
1970727 347115
1971151 837637
1971253 539594
1971421 791508
1971694 897278
1972413 927224
1973023 499693
1973912 736439
1973951 619834
1974117 572835
1974755 299562
1974763 154238
1975152 774630
1975782 595345
1976519 410391
1976823 254800
1977735 40319
1978721 951965
1978990 406772
1979313 423075
1979562 23892
1979718 639182
1979952 973317
1980503 933503
1981459 453565
1982344 460177
1983249 562900
1983831 492410
1984302 695042
1985301 250288
1985847 314670
1986159 45639
1987087 163585
1987999 381138
1988816 88173
1989624 212953
1989704 873448
1990484 208534
1990646 349602
1990998 603874
1991538 284843
1992241 932792
1992327 651733
1992868 156976
1993175 468362
1993501 219798
1993972 517342
1994693 28999
1994838 121589
1995226 770520
1995602 296681
1996385 826660
1997151 779536
1997450 822856
1998069 306141
1998363 310879
1998513 195100
1999024 840034
1999567 426517
1999631 953046
1999723 290627
2000681 824365
2001493 985601
2001833 443498
2002539 263332
2003197 809332
2003705 857460
2003816 464137
2004353 81246
2004789 758638
2004831 131849
2005408 969856
2006072 263986
2006302 399449
2007119 612806
2007428 799583
2007487 48249
2008477 317737
2008740 243618
2009078 231851
2009223 276633
2009898 538320
2010357 531636
2011254 707907
2011345 950600
2011797 855086
2012204 407154
2012776 149010
2012890 5965
2013812 876892
2014543 740366
2015232 909629
2015246 302183
2016016 189720
2016462 82748
2016870 895642
2016923 12125
2017360 846147
2017675 418706
2018524 695454
2019134 776693
2019802 73503
2020770 81021
2021678 569394
2022216 563242
2023160 209972
2023636 817279
2023907 966210
2024031 587331
2024412 201236
2024586 27575
2025087 616000
2025517 876476
2025789 321632
2025873 438116
2026358 729434
2027225 648183
2028017 99885
2028182 364261
2028355 732070
2028882 241146
2029275 705480
2029412 757610
2029772 276658
2030524 987413
2031388 778249
2031529 973943
2031879 469781
2032618 679312
2032677 883170
2033546 733732
2033753 341701
2034723 71684
2034727 212809
2034992 897464
2035391 210465
2035726 106489
2036381 217543
2036958 623470
2037941 687080
2038140 749347
2038756 580675
2039194 485280
2040004 411496
2040266 490746
2040891 293837
2041865 256578
2041869 577907
2042599 670598
2043083 390606
2043498 220275
2044287 180254
2045019 880857
2045314 899958
2045673 478263
2046258 391129
2047061 877455
2047653 113673
2047957 471178
2048628 5776
2049402 621834
2050310 324457
2051087 51606
2051968 414889
2052426 252979
2052675 661129
2053420 310341
2054167 229748
2055110 671403
2055524 686576
2056476 659058
2056627 143551
2057201 703165
2057700 215564
2058342 724248
2059146 840979
2059186 385124
2059900 45749
2060657 293109
2061346 898901
2062072 192017
2062761 748347
2063732 146476
2064651 901134
2064676 777517
2065389 829758
2065852 580594
2066808 946488
2067151 534360
2067614 794648
2067943 462406
2068480 835207
2068681 681187
2068705 98705
2069223 652554
2069726 828436
2070223 77167
2070378 785135
2070810 243936
2071450 923845
2071505 637797
2072239 569118
2073102 83389
2073234 181959
2073546 440301
2073774 358704
2074598 544451
2075400 193745
2075961 32199
2076196 359985
2076666 428374
2077049 736041
2077477 734226
2078362 823262
2078395 436931
2078400 647358
2078537 237407
2079311 90044
2079839 930364
2080538 317422
2080662 657296
2081137 394984
2082031 109990
2082216 532481
2083207 327977
2083448 91253
2084104 767421
2084201 82226
2084717 891871
2085163 967937
2085781 253126
2085952 716904
2086231 782827
2086951 159486
2087616 339474
2088090 462837
2088416 955514
2088864 574576
2089118 905498
2090052 585709
2090658 799954
2090924 794420
2091659 104688
2092233 618937
2093169 64567
2093708 851813
2093800 532411
2094130 564587
2094325 897073
2095229 585734
2095844 469809
2096213 223688
2096983 674637
2097903 263557
2098171 302541
2098440 174686
2099319 986833
2100035 320102
2100041 3079
2100215 961628
2101110 475899
2101243 179309
2101443 941934
2101968 403626
2102518 578982
2102565 637288
2103190 408632
2103726 587700
2104421 689807
2104527 416705
2104542 288717
2105042 367508
2105050 202540
2105618 529535
2106531 683910
2107348 771965
2108258 445808
2108412 490649
2109088 511557
2109154 376558
2109310 417409
2109993 599163
2110092 660936
2110302 755995
2110397 549113
2110647 135318
2110949 187441
2111736 925440
2111969 206333
2112158 98242
2112304 609807
2112607 231196
2112975 646573
2113593 45818
2114445 512628
2114521 275928
2114609 783937
2115353 230095
2115407 540911
2116389 629950
2116556 165213
2116844 610801
2117579 937783
2117848 328346
2118266 947034
2119115 941830
2119140 176381
2119848 950858
2120170 185368
2120370 314431
2121225 852624
2121326 807172
2122074 998167
2122191 33363
2122974 643918
2123592 397464
2123916 571901
2124266 228893
2124908 157641
2125588 309150
2126213 558457
2126444 195139
2126897 921552
2127104 946204
2127964 229054
2128568 650762
2128895 56408
2129508 466800
2129646 992807
2129680 113550
2130660 733689
2131378 588660
2131738 598110
2132275 740844
2132670 640582
2132949 288299
2133494 995268
2134118 757010
2134454 439692
2135431 628049
2135492 127090
2135762 771938
2136377 863532
2136628 943354
2137387 64381
2137534 60157
2137879 492013
2138867 563525
2139657 348762
2140148 829382
2140625 49879
2141437 203156
2141693 84313
2142366 16596
2143033 909897
2143483 436336
2144021 109521
2144989 279465
2145005 540852
2145180 392928
2145264 54035
2146054 940847
2146732 301374
2147102 762433
2147226 436775
2147986 452300
2148605 275420
2148828 486291
2149642 504540
2149814 692747
2150200 733984
2151095 979433
2151150 742335
2151732 548346
2152445 582415
2152928 486260
2153478 348823
2154343 301889
2155137 24947
2155755 614858
2156046 989816
2156811 639216
2157529 865594
2157906 471450
2158729 905067
2158761 291228
2159053 385602
2159719 77205
2160249 369356
2160367 340663
2160637 657821
2160945 160589
2161659 459776
2161674 178506
2161714 283703
2162449 485280
2163157 449475
2163815 87138
2164274 381282
2164308 857672
2164836 899195
2165315 504630
2166278 463207
2167228 375522
2167878 243447
2168637 961507
2169544 718517
2170541 755808
2171189 610224
2171566 634671
2172443 543770
2172658 753763
2173221 575848
2173858 169657
2174568 928649
2174709 694051
2174931 496646
2175878 983061
2176765 948679
2176804 98989
2177650 888740
2178067 330678
2178166 949796
2178823 855241
2179590 692856
2180553 658437
2181450 546094
2182334 2366
2182411 207595
2183013 459579
2183074 584364
2183117 71554
2183454 205080
2183874 866695
2184780 259084
2185718 482691
2186568 373457
2187489 118483
2187900 416663
2188331 197293
2188566 594345
2189449 164430
2189940 527153
2190129 183944
2190952 923899
2191261 665738
2191538 271211
2192311 526923
2193016 190653
2193286 456462
2193821 314105
2194088 578112
2194928 232907
2195216 103656
2195253 717707
2195688 852700
2195868 978890
2196475 530054
2196569 24566
2197075 873514
2197114 525666
2197300 730777
2197729 269698
2197778 353489
2197790 167577
2197946 249867
2198914 844024
2199902 451222
2200638 45154
2201447 902188
2202137 505458
2203066 396409
2203127 510742
2204035 781011
2204947 509253
2205769 546652
2205811 217494
2205843 178168
2205931 587498
2206630 777792
2207275 134333
2207368 745985
2207769 868034
2208482 986823
2209306 838428
2209738 642349
2209806 385804
2210768 952355
2211199 381464
2212138 36234
2212496 878487
2212661 171849
2213164 411963
2213305 751305
2214296 701161
2215084 159540
2215286 342280
2216280 558495
2216390 806295
2216762 29637
2216983 422908
2217508 524753
2218483 719005
2218711 771392
2218752 974354
2219198 265017
2220012 129611
2220629 244323
2220864 585882
2221357 66241
2222291 333022
2222803 46948
2223502 709119
2223969 332509
2224182 281772
2224882 823101
2225657 216581
2225980 548438
2226060 105439
2226141 938634
2226214 322504
2227157 496625
2227542 760790
2227793 301274
2228733 601572
2228768 929382
2228806 31253
2229329 389005
2229438 909371
2230116 704341
2230161 123469
2230871 220731
2231599 58461
2232138 370547
2232494 182160
2232968 212145
2233465 564132
2234184 122374
2234435 264357
2235059 55851
2235405 410448
2236318 474773
2237283 31864
2237825 34241
2237932 398451
2238557 734178
2239196 727525
2239517 432226
2240513 665754
2241202 839345
2241577 453575
2241674 441350
2242477 835493
2242841 389027
2243666 580807
2244176 788165
2244565 357781
2245186 189994
2245526 756548
2245553 698148
2246002 489973
2246739 559103
2246864 521654
2247269 909095
2247875 391666
2248804 7982
2248917 184829
2249434 630481
2250060 808809
2250843 963059
2251011 519472
2251830 470218
2252160 198298
2252708 408060
2252923 498053
2253061 713085
2254021 998915
2254352 636452
2255201 71995
2255646 474856
2255741 770891
2256729 715863
2257484 206507
2258328 289168
2258660 104146
2258938 769410
2259598 579034
2259676 672194
2259845 444105
2260102 510099
2260319 736502
2260554 417991
2261465 594656
2262061 524718
2262524 450045
2263019 385471
2263444 994051
2264018 640726
2264791 170681
2265640 916129
2266002 839287
2266659 220775
2266844 509281
2267629 999147
2267761 623782
2268735 68106
2268837 932154
2269528 31958
2269761 370607
2270598 819882
2270791 202557
2271603 191320
2272410 506875
2272752 992999
2273379 851659
2273491 276856
2274209 522403
2275096 483823
2275309 936982
2275943 561064
2276075 173668
2276899 699105
2277305 327700
2277950 351080
2278626 977257
2279264 69646
2279459 526708
2279934 439857
2280453 840984
2281241 930747
2282193 580788
2282695 523185
2282930 949907
2283870 727996
2284767 817617
2284770 626886
2285725 247315
2286532 791035
2286852 728330
2287190 520216
2288154 213409
2288814 124730
2288911 232399
2289902 234102
2290816 795626
2291071 312948
2291297 613074
2291443 141935
2291833 918488
2291913 219824
2292193 50388
2292947 329651
2293235 899329
2293850 74283
2293967 600657
2294669 47293
2294876 349127
2295338 303426
2295345 845488
2295804 305498
2296008 905463
2296435 460171
2297014 252566
2297381 976511
2297964 932175
2298039 451559
2298925 348802
2299684 507179
2299931 462400
2300705 397843
2301365 171903
2301379 922498
2301387 194685
2302194 373198
2302421 37733
2302710 386678
2303692 301413
2303985 321172
2304406 228321
2305107 345847
2305423 852593
2306282 895237
2306811 897396
2307687 867780
2308034 191829
2308240 961810
2308803 134907
2308908 717869
2309640 440630
2310453 546564
2310902 276309
2310945 218536
2311651 593969
2311743 39486
2311940 427694
2312123 966740
2313046 1025
2313806 925104
2314485 756096
2315269 760156
2316200 641381
2316916 65266
2316944 287375
2317353 956920
2318182 360694
2318596 736246
2319525 515215
2320255 156600
2321032 803609
2321049 599903
2321582 22186
2321596 49919
2321789 888723
2322433 411623
2323221 141188
2323933 912969
2324452 292560
2324850 89617
2325092 307447
2325196 214142
2325733 625985
2326697 72997
2327106 864942
2327782 687522
2328034 347685
2328374 244099
2328540 890842
2328990 638476
2329944 793300
2330074 979537
2330460 544991
2331022 881335
2331351 339560
2332346 316402
2332448 884869
2332711 142616
2332762 916973
2333472 399471
2334162 285517
2335079 546068
2335946 67194
2336882 107990
2337808 458261
2338379 390573
2339070 123716
2339119 903440
2339383 934676
2340110 707189
2340504 974424
2340721 739362
2340903 578762
2341684 521973
2342017 714765
2342378 848095
2342647 815780
2342976 242659
2343639 534881
2344327 545885
2344537 955601
2345386 339948
2346319 802061
2346716 732776
2346719 202242
2347662 34020
2348284 23227
2348444 428238
2348868 809172
2349317 457360
2349764 482861
2349818 706281
2350026 993555
2350374 196852
2350661 503136
2350947 126395
2351736 814651
2352089 509983
2352504 761830
2353209 151425
2353215 759954
2353324 948027
2354018 808361
2354301 211330
2355054 488857
2355391 256142
2355844 495185
2356595 592781
2356861 655923
2357637 124155
2357780 395882
2358662 409037
2358754 946014
2359304 342620
2359386 712864
2360368 892738
2361236 889499
2361801 904868
2362525 724642
2362863 128869
2363588 661191
2364227 524319
2364935 582306
2365058 762482
2365469 505490
2366289 170377
2366321 330033
2366756 518958
2367701 244082
2368061 261472
2368993 581957
2369709 33821
2370436 937264
2371414 650016
2372090 871109
2372217 717607
2372579 13817
2372717 635759
2373561 671976
2373954 300053
2374392 666825
2374564 817807
2375350 985141
2375586 724764
2375809 609497
2376184 428759
2376246 614980
2377029 835005
2377169 322863
2377832 281467
2377886 616078
2378860 134915
2379177 306715
2380095 719517
2380538 253767
2381046 362962
2381815 99307
2382605 278548
2382663 620032
2383329 288255
2383610 60151
2383656 170962
2383921 340714
2384295 293335
2385130 124504
2385159 908139
2386046 398270
2386339 930017
2387038 880391
2387901 684050
2388429 777590
2388759 213726
2388924 132747
2389899 256714
2390271 553221
2390764 189369
2391024 703942
2391424 783610
2391612 825238
2392568 274421
2393238 970599
2393701 450477
2394231 89021
2394727 832634
2395515 883335
2396443 74031
2397237 337257
2397334 551938
2397526 914647
2397899 563462
2398716 756214
2399680 926894
2399779 520963
2400193 903964
2400253 353971
2400495 686593
2400950 23432
2401751 613146
2402725 433686
2402778 290715
2403086 909213
2403777 88000
2403868 751725
2404341 83182
2404974 559845
2405781 124920
2406525 989191
2406844 411228
2407349 560827
2407913 95768
2408180 722748
2409056 345767
2409147 872543
2409589 754151
2409913 32572
2410868 464972
2411834 769215
2412706 499668
2413164 901507
2413575 847927
2413589 704591
2413752 526762
2414733 101196
2415158 730611
2415534 152460
2416197 979617
2416658 440969
2417061 779806
2417191 269349
2417759 591575
2418665 229102
2419509 820589
2419538 11461
2419831 61493
2419878 151443
2420816 905059
2421027 271374
2421687 443658
2422554 911944
2423340 32148
2423965 2536
2424145 156219
2424865 725664
2424878 797429
2425656 268740
2425982 311482
2426164 707824
2426920 320637
2427918 431973
2428753 97805
2428968 597230
2429595 896033
2429761 832432
2430266 33217
2430716 863658
2431559 605157
2431667 616945
2432152 255556
2432816 285042
2432855 545543
2432989 893434
2433038 267249
2433128 889253
2433818 894622
2434521 12160
2434625 389170
2434970 44364
2435769 667329
2436559 78206
2437543 779064
2437963 292413
2438438 565988
2438487 115743
2438680 138920
2439492 630606
2439974 207252
2440350 8833
2440794 340520
2440848 459928
2441185 869014
2441706 745848
2442686 228282
2443544 226159
2443931 741372
2444689 469064
2444914 986412
2445818 265603
2446395 924309
2446942 574190
2447641 734733
2448417 294022
2448960 842915
2449302 360469
2449385 533619
2450342 770919
2450719 65273
2451237 163550
2451917 639056
2452863 795149
2453220 705487
2453634 490279
2454210 961749
2454981 119645
2455254 971018
2455846 766490
2456183 185970
2457060 170326
2457307 997820
2458048 741363
2458703 692256
2458991 307681
2459870 563323
2460175 56880
2460536 837272
2461014 105879
2461713 414775
2462096 692985
2462539 64425
2462623 522995
2463571 32013
2463652 835192
2464369 419419
2464985 551402
2465644 507122
2465874 353775
2466735 268566
2467490 459787
2468259 619771
2468748 723256
2469715 904204
2470345 192380
2470742 247308
2471372 447678
2471758 914714
2472299 900784
2472590 249768
2473369 280383
2473859 815178
2474809 121064
2475801 838974
2476706 294221
2477158 299979
2477766 706872
2478583 815632
2479421 32793
2479635 818295
2479657 548737
2480405 746141
2480925 527397
2481738 994611
2482476 136872
2482935 326053
2483161 107897
2483527 374686
2483720 703299
2483822 226016
2484080 929791
2484657 833166
2485192 737845
2486089 439877
2486411 655264
2487091 731122
2487278 195789
2488142 595102
2488254 806922
2488587 600517
2489181 306619
2489465 738994
2489920 612377
2490690 980480
2490702 826999
2490743 195042
2491194 458425
2491349 270730
2492218 101472
2492772 337365
2493052 989741
2493849 284014
2493945 855376
2494015 466248
2494788 312612
2495451 356109
2496014 332312
2496820 7030
2497128 300102
2497195 248106
2498122 576600
2498496 118964
2498716 622340
2499339 912
2500027 20631
2500791 757157
2501154 109508
2501427 310837
2501773 17498
2501918 161690
2502774 597267
2503335 497162
2504177 93096
2504777 148370
2504811 747793
2505190 334377
2505378 273813
2506127 813961
2506297 73381
2506665 523917
2507137 656516
2507737 234244
2508597 951692
2508866 906774
2509609 960049
2510391 827912
2511217 171465
2511959 662139
2512574 654092
2512706 647755
2513632 604503
2514235 612259
2515139 111872
2515705 172524
2516263 972083
2516850 570250
2516890 840301
2517777 807052
2518081 617031
2518503 838680
2518641 373064
2519314 387406
2519570 793923
2519604 608335
2520381 178611
2520965 610661
2521795 670343
2522623 718269
2523577 790669
2524317 161164
2524775 339659
2524799 717200
2525248 24645
2525790 921595
2526675 823306
2526931 679616
2527223 923562
2528092 445121
2528605 828305
2529456 586830
2529611 448398
2529669 345528
2529707 157123
2529969 559102
2530033 183944
2530673 930768
2531278 674657
2531746 797094
2532060 968174
2532127 248166
2532665 81076
2533335 203833
2533626 327573
2533743 612039
2533823 578392
2534414 997569
2534973 482436
2535614 583379
2535711 46275
2536152 779871
2536524 715844
2536697 692685
2536705 364771
2536995 101642
2537897 941107
2538105 105512
2538461 192426
2539351 793841
2539388 48259
2540113 69893
2540963 608973
2541306 715440
2542015 122666
2542904 462185
2543652 418680
2543695 34393
2544644 140930
2544813 50546
2545691 311468
2546302 15817
2547094 57469
2547926 710470
2548142 262810
2548544 34709
2548643 539520
2549338 490654
2549678 831193
2550551 394800
2550791 647881
2551108 897690
2551236 603993
2551466 248561
2551932 56707
2552456 328570
2552680 214149
2553350 613987
2553927 264537
2554730 230338
2554953 924403
2555846 86637
2555900 845572
2556356 449107
2556867 647391
2557688 694693
2558574 934632
2558699 202258
2558787 440070
2559579 86089
2559882 650041
2560445 371362
2561267 407863
2561534 710916
2561567 364913
2562016 370148
2562853 326462
2563672 327217
2564353 96795
2564500 902640
2564627 184373
2565456 731514
2566141 933797
2567056 853535
2567642 967442
2568106 866045
2568945 228276
2569926 984893
2570829 733757
2571705 675289
2572273 843521
2572443 705265
2573160 778107
2573758 770411
2574148 162687
2574396 704346
2575069 958161
2575909 752394
2576158 793642
2576883 239329
2577281 805323
2577370 993714
2577645 790182
2578313 320614
2578531 123366
2578596 342777
2579183 514850
2579839 938360
2580686 581167
2581395 879205
2582013 464571
2582614 241570
2583045 176046
2583469 334509
2584137 465975
2584772 980245
2585529 320858
2585975 715752
2586790 785570
2587071 361334
2587779 59469
2588086 411248
2588408 872055
2588976 682921
2589101 211542
2589164 885189
2589600 112277
2590061 865698
2590705 757152
2591427 803904
2591702 291301
2591768 220398
2592268 402725
2592323 273650
2592574 290675
2593332 589252
2593589 217246
2593648 809710
2594501 865878
2594780 30308
2594936 777076
2595289 596403
2595902 214139
2596224 216765
2596844 75232
2597529 523587
2597781 779062
2598612 476611
2598649 685162
2598884 629654
2598954 960121
2599633 545142
2599675 589303
2600222 536464
2601173 164482
2601211 794380
2602170 229185
2602401 49908
2602515 497844
2602539 167014
2603209 23028
2603701 415418
2604534 532401
2604909 983765
2605623 869313
2605839 688895
2606478 42509
2607252 138647
2607996 555706
2608889 737434
2609359 89914
2609368 690192
2609377 57364
2609695 861374
2609986 965770
2610934 841995
2611223 178743
2612212 972666
2612911 665317
708665925
