5768
344 36492
688 546535
1124 28282
2029 296429
2427 751605
2957 343579
3714 995132
3983 845695
4881 779518
5110 984831
6098 217553
7007 848854
7621 945236
8577 476742
8846 90868
9097 236195
10079 940514
10224 968021
10498 646348
10659 121341
10963 555975
11083 434483
12047 650947
12902 97056
12914 391608
13067 21896
13712 661325
14478 624981
15077 990382
15634 852880
16419 164127
16594 697459
16965 753701
17634 801082
18061 183524
18346 81916
18403 817610
19234 942982
19370 861778
19973 818123
20651 565504
21156 15823
22057 148939
22419 887266
22434 303636
22904 905521
23750 851853
24319 518578
24578 471070
24824 325072
25217 477757
25721 927586
26362 720754
27194 741064
27944 350895
28748 301053
28955 152702
29564 761363
29773 649193
30445 758978
31241 486279
31276 154199
31346 200189
32074 306497
32968 794383
33215 524515
33236 836898
33951 638893
34650 427591
35153 159819
35473 864363
36015 264243
36886 888968
37485 695593
37792 510627
38035 856867
38564 708456
39366 162963
40210 198736
40419 556531
40479 915775
40934 550891
41233 444576
41287 587470
41433 229144
42281 413618
42476 34839
42894 718704
43196 371682
43998 228378
44375 419351
45065 610993
45274 933904
45332 641507
46318 176231
46528 927305
47033 676224
47362 551473
47968 908199
48199 978915
48817 54171
49814 242249
50658 653072
51500 207994
52130 946669
52590 825214
52830 511481
53347 881347
53671 13588
54075 721999
54332 222478
54954 644931
55310 45331
55762 898918
56540 656785
56586 220069
57389 700535
57807 795237
57825 853329
58554 686088
59440 848821
60025 280707
60473 281441
61145 78640
61440 777086
62152 543487
62364 776259
63279 326579
63447 311555
63486 296160
63701 40069
64352 883516
65279 740551
65804 503459
66294 653274
67259 256968
67826 979864
67844 87607
68148 950659
68561 184131
69157 820300
69512 309059
69582 421393
69801 761898
70422 351364
70567 892523
71166 549231
72021 488683
72854 717468
73242 262118
73690 263017
74330 250439
74360 758335
75313 713865
75898 990388
76706 117673
77227 540582
77300 650048
78296 803047
78909 390940
79713 661586
80239 459724
80351 62488
80363 626058
80717 501501
81180 724721
82075 590603
83026 84009
83064 765168
83988 6715
84303 815242
85148 781421
86035 846691
86173 659276
87016 175772
87726 765331
88171 167546
88982 811186
89029 261628
90001 930918
90894 986557
91370 351726
92108 222251
92408 73674
92676 792049
92932 296885
93886 328454
94066 519513
95003 536659
95501 850762
95813 28392
96232 605563
96937 253326
97266 98375
97444 513541
97617 710662
98576 487388
98593 339567
98808 942961
99698 450907
99811 42536
100428 914274
100691 748049
100853 466887
101346 550887
102242 702428
102458 454329
103205 113024
103437 204880
103655 786500
104587 896952
105372 529552
105585 894566
106577 892529
107477 796803
107726 435484
108342 993608
109175 44228
109272 336033
110008 87686
110740 669785
111653 490043
111699 757354
111996 214186
112499 832257
112690 429994
113321 104725
113811 893768
114080 446194
115071 825326
115563 170570
115871 558403
115999 528864
116235 885034
116399 788249
116761 887643
117378 705632
117858 915972
118020 167841
118588 777980
118927 350617
119671 940096
120242 324514
121203 809489
121909 89924
122433 523957
122941 556940
123657 383501
124531 784475
124622 246339
125355 565517
126093 597262
126154 139898
126619 787808
126816 38142
127631 727836
128486 902997
129431 777498
129966 426475
130679 648656
131154 464409
131394 592773
131615 228484
132438 688386
132978 570177
133317 687635
134069 976291
134209 719101
134880 900158
135609 633206
136462 871372
137074 208134
138050 864845
138374 116196
138628 209543
139270 999382
139571 905710
140521 85429
140612 933560
141351 846119
142270 714246
143202 790111
143711 642486
144334 690127
144798 491343
145351 171593
146156 27324
146325 291931
147276 102868
148071 610212
148347 330836
148888 34647
148906 995413
149792 444772
150230 603548
150276 679955
150915 892197
151760 563392
152006 777007
152222 368477
152433 705400
153033 849251
153082 56721
153430 415068
154142 291426
155091 751061
155691 307418
156307 411172
156702 308037
157296 547268
157607 671612
157781 243811
158250 12081
158570 918395
159248 978256
159442 511348
160339 825093
160677 829890
160692 974842
161142 528593
161206 560546
161210 570391
161752 496839
162375 957280
163355 442916
163392 524631
164364 128841
164673 758420
165223 396047
165348 402777
165384 574649
165393 992787
166235 783435
166954 206353
167265 932695
167997 836227
168997 474206
169345 49573
169521 108436
169527 519547
170505 428524
170650 216530
171086 303838
171347 13895
171788 579360
171827 948154
172558 141618
172771 543904
172986 959804
173297 206744
173893 593604
174755 255659
175605 715629
176365 386370
177095 895633
177503 821562
177625 833494
177976 813125
178050 406340
178658 744823
179047 821264
179132 533709
179782 103951
179854 336244
180639 890196
181553 460424
181922 890549
182503 124282
183131 600175
183449 161602
183657 583603
184076 550180
184626 341298
185347 287293
186301 597935
186863 11382
187139 952884
187174 43546
187638 604728
187816 720081
187995 930686
188647 32179
189500 862056
190433 684802
191131 440836
191216 97952
191835 674634
191980 850417
192339 792713
192919 746140
193222 500274
193977 641142
194144 727983
194345 937592
195304 611371
195793 696311
196185 52665
196978 692950
197882 753535
198352 722655
198526 227079
198824 243752
199163 79156
199527 911696
199703 512882
200113 927736
200197 422564
200243 421010
200900 217473
201610 513879
202346 404987
202447 198401
202632 114547
202851 848265
202966 218409
203368 112803
203870 750172
204622 835589
204894 855671
205321 907988
205894 203633
206133 938086
206904 299620
207835 265102
208347 194050
208359 132260
208656 433703
209439 146071
209802 441098
210359 403053
211065 103704
211648 942665
212538 152780
213362 947971
213502 543743
213688 439631
214050 444427
214388 427698
215256 510114
215845 803697
215856 33834
216670 744170
217528 883511
218326 874531
218682 262401
219643 305063
219776 520027
219916 520413
220250 650203
220644 414569
220920 895944
221741 622735
221763 641479
222242 915446
222929 856804
223721 730202
224605 373350
225307 593476
225822 894429
226747 521251
227227 821191
227419 904793
228175 334001
228765 213802
228776 384717
229389 348548
229885 684695
230368 592820
230811 971544
230923 660963
231302 479229
231817 66766
232195 666323
232898 749481
233207 489940
234092 916874
234175 675868
234208 294832
234448 803064
235259 841217
235574 683678
235595 381103
235917 441569
236291 933040
236429 120235
236538 655347
237102 52821
237327 58202
237450 606300
238270 996146
238708 397926
239076 163698
239508 471898
240404 703590
241169 584421
241615 674154
241956 453467
241982 148976
242384 141380
242541 183277
242976 41895
243626 60690
243961 579563
244429 128244
245395 347021
246024 775176
246710 706121
247301 374487
248229 358800
248881 643654
249052 237026
249437 325821
249801 59226
250123 90440
250730 171121
251280 81172
251972 152602
252966 494236
252986 298433
253510 677076
253878 501720
254746 992009
255195 478339
256071 895142
256872 239547
257703 640528
258255 566717
259017 863924
259676 462442
260310 942779
260665 774640
261503 514994
262460 596553
262657 210430
263234 588271
263238 449071
263739 773065
263842 850861
263913 667058
264207 995976
264852 801912
265345 810045
265635 181338
265789 932711
266395 23964
266399 160445
266852 288079
267278 913601
268252 930127
268392 116076
268481 470844
268945 755236
269710 168765
270506 666524
271291 800830
271826 313185
271976 886242
272149 583185
272160 84708
272377 555337
272895 377351
273559 931524
273811 979508
274237 79742
274286 908570
274786 808343
275026 583534
275222 832517
275863 160965
276107 116281
276157 326093
276732 690703
277500 241668
277709 208345
278688 605829
278715 874399
278964 221781
279728 933540
280568 995558
281061 709967
281386 415072
282039 870363
282887 627976
283721 244242
284682 845764
285341 895298
286278 236840
287159 902165
287495 322011
288025 380093
288801 989868
288900 408526
289390 955006
290229 606977
290510 159428
291154 630379
291980 716054
292980 1727
293090 149862
293976 944023
294030 612994
294451 997153
295000 194858
295492 534702
296155 35162
297140 220926
297385 838980
298351 285178
299023 101080
299951 388867
300182 147935
300958 340014
301063 261796
301172 541534
301917 788992
302296 620144
303078 134455
303254 685002
303523 552402
303591 551649
303771 330413
303992 414997
304482 639448
304487 244760
304647 874314
304905 734390
305128 396135
305739 876619
306625 398414
306728 314840
306958 408047
307328 437190
308251 595410
308336 764898
309191 371036
310073 308158
310492 963786
311017 761710
311223 362308
312022 328432
312282 284727
312331 497168
313305 918290
313368 868709
313925 236002
314914 252683
314946 729525
315274 95675
316226 902618
316373 970404
317061 546194
317669 724106
318401 426133
318656 12575
318742 366387
318974 405443
319762 583569
320234 150943
320560 452161
321202 331519
321421 271347
321868 288999
322125 571329
322367 207408
322750 221282
323501 699655
323806 92813
324006 142752
324606 925907
325294 516244
325912 863735
326501 571406
326595 823381
327250 216494
327657 125831
327781 770051
328252 351433
328281 209846
328702 906036
329134 373681
329650 401856
329709 109107
330607 35955
331568 979348
332094 589913
332783 171192
333421 190354
333523 365044
333631 361995
334575 552788
335135 460885
335448 570716
336447 149833
337117 594241
337248 768687
337996 415715
338082 224043
338710 475514
339609 765885
340280 642440
340303 666516
340795 833175
341751 363586
342235 136238
342549 463252
342590 319660
343435 756358
343799 378296
344468 859486
344738 625889
345670 127608
346000 126140
346948 908977
347806 298892
348114 510854
348399 720569
348420 570340
348928 697868
349800 195093
349829 43378
350626 803473
351292 191688
352016 897651
352930 968346
353553 208328
354483 397408
355446 511152
355804 822136
356228 220099
356484 286555
357447 100886
357772 822257
357905 957296
358022 241690
358405 346716
358413 120940
359040 646713
359269 263140
360017 171661
360601 849447
360768 900108
361244 166587
361928 735379
362578 235901
362921 440448
363000 189748
363508 86002
364076 20242
364478 974406
364973 650341
365020 636398
365611 920824
366042 987208
366084 373079
366498 932716
366643 284237
367220 91914
368037 396876
368833 265456
369426 952185
369851 974373
370332 97161
370571 873216
370687 743756
370909 165757
371424 673415
372088 108051
372803 213070
372956 325270
373499 29149
374471 394347
375307 171981
376254 588776
377036 294029
377100 269394
377292 675932
377584 200600
378345 701467
378994 224187
379887 119597
380437 62710
381148 265629
381495 228931
382050 63619
382166 843456
383006 648314
383744 799076
384164 357936
384609 513734
385242 242344
385419 98232
386004 469878
386689 190025
387167 495782
387999 95690
388438 343789
389111 447800
389236 417353
389749 403406
390286 859330
390952 410272
391163 855599
391222 514434
391727 568167
392260 820483
392520 393180
392778 103206
392807 299930
393016 835730
393890 4988
394224 333135
394760 907268
394862 827907
395000 193026
395099 470070
395153 925250
395607 476173
396375 649517
396397 760207
397276 73465
397447 963318
397703 622744
397848 586706
398832 326611
399362 438312
400310 935488
401239 206296
401396 493583
401620 757040
401937 138549
402204 818247
402599 568679
403117 276562
403513 70735
404379 374845
405091 748805
405591 148290
406269 706773
406731 742753
407588 522495
407710 58480
407994 928689
408559 296112
409059 676306
409570 839232
409724 816207
409907 229272
410759 547794
411395 592784
411662 585106
412087 552937
412866 788094
413112 501403
413490 494305
414366 751084
414504 181261
414670 149801
414723 590563
414887 608720
415095 836266
415806 347149
416766 215351
416789 305555
417756 896682
418484 332807
419179 19015
419358 136943
419695 165800
420538 695052
420908 503394
420965 283842
421424 196459
421793 798955
422397 125254
423116 721082
424106 443023
424780 543417
425154 819464
426117 657619
426990 562732
427916 545826
428701 34572
428722 425769
429158 196529
430081 124741
430673 47462
431389 211793
431879 687801
432039 935188
432201 870427
433155 439498
434095 36492
434828 526201
435281 767148
436230 563858
436932 988983
437739 512361
438271 10599
438842 432316
439687 479749
439777 317272
439937 694935
440288 617864
440806 70683
441392 843158
441837 410782
442363 735320
442768 18605
443532 373753
443911 645447
444711 241198
445284 122594
446239 852505
446788 86059
447011 607263
447729 492350
447770 199627
448226 227845
449152 632435
449744 743953
450266 459453
450362 677115
450623 736056
451154 329772
451407 36137
451507 823292
451849 121516
452659 521097
453435 765758
453814 512098
454638 637659
454941 778415
455793 223583
456717 22002
457166 418101
457818 451887
457859 762359
458162 506928
459121 418941
459242 623004
459723 581964
460080 192851
460786 452964
461078 788604
461872 106598
462029 972393
462884 92908
463664 863670
464589 931259
464658 636940
464736 959949
465144 667379
465152 596478
465579 205658
466264 932328
466556 677599
466655 203971
467467 599964
468395 758613
469270 100621
469971 82843
470767 957814
471019 193310
471835 994891
471964 20931
472130 775045
472327 385286
472478 709593
473273 518284
474218 277982
474640 921397
475425 437144
476101 654728
476128 461727
476201 277656
476335 240640
476549 821660
477044 518320
477368 216258
478098 267702
478706 64123
478890 785392
479464 587103
480428 57199
480802 392090
480917 799224
481659 910685
482526 563104
483220 294816
483835 885231
484158 476818
484881 541922
484949 972040
485110 113150
485419 568913
486286 437672
486921 753219
487785 611732
488121 340348
488162 381397
488516 449762
488671 394583
488681 301042
488842 842275
489574 752235
490501 797416
491306 322182
491794 110567
492022 157080
492487 997300
493079 74836
493444 467927
493470 823070
494051 687623
494126 574239
494719 147395
494725 32550
495193 843690
496138 973001
496332 712146
496462 473571
497349 946482
497978 658745
498363 409597
498936 152425
499644 296371
499940 572370
500211 52943
500849 761822
501721 23512
502710 135994
503059 701418
503293 162953
503844 968078
504625 907902
504756 408491
504824 456520
505705 486026
505826 81247
506734 661731
506742 469471
507138 944990
507226 662727
507724 177426
508165 916388
508188 136551
508998 23590
509733 803709
509862 150205
510774 620937
511132 794663
511754 187826
512140 923314
512911 263763
513594 676298
513814 222612
514811 77383
515500 583021
516170 750950
516252 442862
516996 111852
517697 502995
518459 252520
518884 913221
519531 621437
519758 55282
520680 70764
521610 363839
522501 597429
522594 16194
522721 924458
523218 456936
523420 959405
523736 923490
523802 719423
524799 69309
525321 14181
525870 563839
526140 191098
526611 448992
527544 199322
528039 646616
528918 652731
529559 36993
530272 480442
530921 585303
531711 682099
532271 729137
532832 571105
533018 813474
533939 200681
534871 994976
535012 186626
535786 71598
536190 814379
536970 304315
537292 615359
538108 233727
538978 298431
539279 559485
539678 274115
540199 645386
540585 543706
541054 826061
541212 102029
541534 348383
542339 389345
542445 377457
543174 462504
543227 725975
544189 717774
545164 674834
545556 499839
546538 111306
546614 764851
546989 928947
547787 306251
548751 812805
548967 36330
549857 201582
550812 628675
550817 130957
551599 629327
552126 365232
552444 541449
552803 382654
553476 665188
554010 694923
554499 826462
554944 634395
555847 591802
556210 181367
557129 341418
557880 730200
558306 688399
558415 120480
559232 312444
559801 700089
560002 485564
560356 157152
561033 287800
561587 171869
562312 648187
562727 338799
562779 948060
562966 179758
563392 621474
563903 448132
564598 478657
565327 640452
565890 767162
566265 25002
566577 179452
567015 139765
567172 877936
567731 478677
568108 369316
568120 517172
568789 194205
569483 837603
570144 760973
570288 784123
571288 364714
571974 299625
572843 526159
573727 617947
574550 765710
575453 747808
576317 840327
576471 894409
576975 148358
577805 560102
578297 897512
578323 412735
578671 507077
579240 424880
580145 582477
580698 80386
580924 943410
581623 552276
581733 29163
582627 749291
582786 969810
583479 872803
584253 958073
584749 462337
585304 753120
586157 836857
586304 273838
586306 7631
586994 755840
587066 345467
587862 577101
587999 405326
588530 688027
589053 306625
590045 106143
590515 298396
591184 442432
591764 855914
592316 70318
592566 59546
593443 410612
594064 583708
594886 77849
595571 164768
596329 217274
596651 796079
597588 737624
597659 694744
598299 36719
598354 679610
599307 384818
599477 173205
600205 278198
600664 260492
600832 724049
601581 495711
601961 475874
602496 916632
603210 472847
603633 631932
603769 607928
604582 282426
605269 148243
606070 634433
606999 861239
607781 61440
608681 605162
609224 64582
609457 711740
609678 182533
610390 302717
610887 383533
611747 212563
612268 659699
612784 335761
613114 848857
613460 360858
614446 893313
614538 250454
614617 827048
615006 164078
615527 593761
616239 931904
616612 519149
617495 208110
617530 502028
618003 579546
618257 821951
619203 443123
620132 303985
621073 71613
621288 942415
622080 783550
622452 356589
623290 833697
623666 664704
624172 689965
624479 326240
625400 170377
626106 621797
626137 47373
626793 802647
627688 790372
628586 282068
628722 25314
629408 571408
629659 398583
629882 440467
630715 496445
631224 522160
632033 370382
632545 580288
633189 802836
633647 96051
634454 659607
634519 960360
634888 767262
635591 577503
635920 374331
636166 614107
636178 564232
636378 941417
636509 570230
636624 800509
636943 618692
637344 333467
637743 700219
638049 345998
638538 697505
638711 79670
639210 606302
639825 278050
639933 499857
640780 938656
641418 668476
641512 685315
641833 747403
642777 443390
643566 372291
643818 6041
643913 283752
644000 735042
644577 55779
645334 192185
645811 774619
646076 373737
646351 91003
646731 857770
647445 933494
647852 417184
648020 280019
648856 451071
649158 323681
649801 124114
649952 519686
650174 61270
651113 631410
652043 320592
653024 6741
653042 324303
653908 588409
654473 36693
655011 701591
655101 571069
655478 69430
655938 123123
656207 57986
656997 808505
657216 966651
657503 447480
657763 307491
658272 743005
659210 570792
660208 934135
661061 950537
661372 826365
661661 543309
662366 486510
662636 559885
663321 613754
663611 678693
664547 854806
665375 664379
665659 304107
665904 94141
666596 697181
667411 986503
668191 733707
668618 329845
669609 487093
670247 410412
670777 521254
671652 613231
671748 696764
671944 926976
672632 224849
673244 217572
673891 508712
674569 353552
674881 66999
675683 872668
676536 411388
676612 971890
677538 698643
677893 810722
678328 744179
679141 159488
679663 859661
680583 117829
680692 884587
681430 670297
682015 529748
682765 591779
683629 239805
683639 193690
683916 931133
684493 949669
684673 155613
685408 332230
685723 851521
686672 319609
687026 504672
687567 261533
688243 148340
688874 599203
689257 258199
690080 389379
691022 670831
691437 687903
692102 262521
692217 492391
692749 726712
692892 883572
693640 510416
693711 638912
694641 707602
694868 995418
695728 998487
696064 559854
696281 24237
697063 538191
697879 412015
698330 784518
698494 228944
699292 134497
699610 797212
700208 829538
701036 397753
701154 838371
701450 362272
701523 482864
701916 593458
702169 992113
702307 610315
703284 397377
703661 779844
703902 763683
704016 761736
704220 603443
704510 584668
705046 742099
705252 955758
705444 997258
705756 577224
706076 329490
706895 799876
707801 466829
708353 605959
709197 3571
710147 436451
710941 634913
711153 840680
711939 839447
712058 181214
712555 150008
712735 920369
713652 356542
714588 279174
714953 431687
714984 337475
715003 895889
715644 192373
715860 26435
716230 408878
716233 402925
716654 360626
716703 200954
716993 89490
717003 3808
717578 638640
717716 548868
717914 299113
718187 73219
718360 425644
718824 262766
719094 504760
719976 324752
720646 546214
720959 705930
721025 962625
721533 198607
722523 511123
723159 191226
723943 989107
724291 284406
724759 858276
725466 6600
725908 294473
726273 79443
726811 743909
726862 146417
727118 719360
727241 939717
727582 710792
728284 754471
729184 762364
729919 186585
730070 509439
730294 432801
731073 506114
731453 852030
731817 571202
732612 105231
732615 635909
732906 549142
733607 454435
734384 529012
734510 490962
735173 363803
735559 859208
736104 798811
736199 267117
737013 851723
737838 599991
738185 551217
738494 994520
739064 666152
739837 688785
740308 889663
740830 645890
741090 753048
741910 401632
742843 259322
743490 261696
744214 98349
745209 684608
746073 842184
746561 901898
746781 318577
747438 645357
747786 612048
748176 239544
748670 839972
748757 410675
749530 771591
749768 665361
750431 258271
751223 765271
751963 255913
752790 917245
753628 146695
753656 93370
754197 454160
754555 845206
755188 515684
755663 474729
755697 96460
756045 951282
756321 842339
756674 482816
757597 100521
758244 603068
758308 880217
758638 403353
758682 74483
759415 774279
759417 908283
759543 279271
759906 80281
760612 677661
761544 895507
762301 80883
763109 129243
763648 771646
764460 143681
765321 457972
766151 503808
766990 389189
767096 751501
767582 297549
767618 119785
767724 87835
768372 317664
768417 992267
769144 78808
769658 337491
770331 357910
770918 684943
771290 717137
771487 204429
772167 167131
772396 378245
772426 304611
773297 966420
773461 231382
773793 474850
773868 392881
774024 77882
774392 745858
774667 891608
775014 854396
775418 399945
775530 953500
775887 264571
775941 456501
776153 482877
776443 340979
776965 982269
777276 150679
777716 927715
777978 470957
778418 215703
778717 469530
778822 880654
778932 923808
779554 440742
780086 406924
780265 207419
780861 387852
781819 303833
782059 972911
782580 712251
783434 101209
783927 131433
784275 450048
784466 560520
785433 748476
785702 773101
786360 501118
786483 259862
786490 85789
786756 901662
786971 485867
787382 50719
788123 898584
788875 724850
788967 432781
789756 255141
790061 638512
790775 81719
791411 854687
792359 98166
793304 72570
793832 642818
794619 415336
795468 31079
796106 576768
796724 318748
797673 637576
797741 176884
798604 174860
799482 807089
799982 51026
800118 239548
800522 656178
800684 877310
800975 616759
801916 485540
801979 588591
802526 866870
802932 726667
803199 819623
803547 14597
803716 309291
804214 799671
804399 792747
805028 550841
805550 730912
806276 469323
806840 250271
807619 312735
808549 859114
809377 920888
810089 97642
810945 288590
811919 563564
812407 974794
812464 597283
812943 447717
813831 789585
814492 855528
814965 825140
815259 181712
815427 507282
816109 827274
816319 859150
816841 139977
817003 184034
817157 156958
818157 80488
818246 961782
818445 633547
818777 207915
818862 820593
818937 760182
819453 454869
820006 336077
820362 653690
820384 312027
820866 850612
821599 815821
822510 140308
822514 935803
823055 128430
823875 504032
823972 721350
824492 319173
824643 280239
825055 932602
825508 733054
826380 453615
826970 859358
827862 31666
828550 677205
828845 811806
829330 964136
829899 94603
830876 526973
831799 843462
832686 769000
833195 661992
833805 696226
834048 233511
834271 656046
834571 917992
835568 409003
835885 43273
836206 187233
836701 514113
836802 390792
837672 875673
837743 455989
838014 587184
838753 923223
839285 984058
839471 996312
839565 872385
839730 212142
840551 378760
840884 46750
841293 626772
842149 516980
842768 495910
843096 517812
843436 608477
843753 501958
844193 567951
844916 415883
845175 403747
845495 232857
845505 120878
846008 307884
846917 971463
847192 773091
847586 338238
848198 608133
848719 822922
848729 234921
848910 917820
849170 349135
849377 672939
849477 307440
850253 252758
850694 815543
851383 201413
851458 861327
852078 713096
852390 189193
853202 304462
853435 830188
854282 251009
854664 214289
854779 279413
854962 143916
855133 596995
855418 537213
856403 4968
857368 979772
857718 113269
858635 644353
859289 408842
859899 799957
860863 654870
861655 321952
862642 136582
862809 733749
862966 909003
863549 470918
864344 943910
864966 923336
865951 685499
866883 317701
867231 564716
867612 323005
868140 131548
868870 642343
869639 348168
870390 222419
870613 725997
871482 938388
872401 565199
872924 231996
873035 234631
873760 643064
874590 203569
874718 336887
875652 844893
875697 124987
876222 264707
876591 137571
877370 437792
877798 778382
878412 574324
878974 117202
879205 316925
879437 384647
879899 464915
880484 164191
880526 332298
880891 706276
881888 999381
882215 500095
882612 473472
883282 551580
883322 704471
883878 735235
884441 637917
884894 473655
884945 73216
885381 780761
885937 803463
886324 831627
887271 876096
887288 834834
887534 904669
888358 940052
888664 22587
888819 591409
888880 199088
889494 999627
890007 155528
890059 50689
890781 711332
891481 751921
891866 286172
892024 363154
893008 221277
893995 922955
894973 627215
895219 57398
895695 556478
895842 351569
895855 584522
896210 957090
896500 469242
896848 642030
897565 947776
897987 848511
898936 946232
899179 847695
899373 830243
900111 782066
900983 152235
901249 486290
901295 52743
901682 906239
902297 19080
902525 749127
902600 639543
903328 616439
904201 438503
904328 503647
904868 219268
905172 9083
905426 61640
905622 886636
906551 269216
906885 350008
907075 79757
907877 155186
908148 270712
908539 574925
909282 498612
909287 73198
910244 597092
910312 794771
911052 305896
911435 801364
912091 314850
912381 154163
912918 360685
913632 846933
914207 804864
914604 967823
914652 158932
915347 652275
915647 517020
916469 140116
917248 572354
918209 138484
918446 546947
918592 997324
919168 974000
919332 671202
919886 627325
920569 878550
921465 862793
921968 314127
922166 431097
922340 770941
922722 849692
923609 542878
924420 235254
925140 268387
925512 323372
925569 129514
926338 995796
926712 908252
927118 228241
927752 918551
928351 491288
928800 162219
929766 490774
929961 685080
930473 319472
931015 184365
931654 934429
932511 85040
933065 166004
933436 478841
934252 846697
934278 743283
934643 969504
935060 609033
935944 36527
936772 138300
937083 749679
938011 528457
938264 90673
938834 341604
939619 327729
939923 472145
940815 564597
940984 229432
941809 195948
942522 241852
943429 98071
943732 997433
944577 718363
944718 54407
945565 789523
945812 197009
945858 742190
946171 6169
947167 583416
947513 50866
947890 84688
948431 231331
948772 242719
949401 16344
949521 395
949707 373876
950033 482628
950851 643298
951537 73965
951870 640857
952557 237175
952989 366729
953586 788926
954498 642633
954522 936747
954600 846248
954985 229087
955114 697453
955225 793950
955575 268519
956390 127735
956779 461138
956847 452817
957774 342479
958399 882170
958999 89549
959758 946694
960118 61750
960443 708275
961347 775110
961448 935397
962292 786269
963195 872650
963913 364498
964446 641034
964489 701551
965219 965158
966105 35600
966913 298024
967520 736885
967570 49271
968221 836697
968763 172788
969715 984192
970323 796974
970520 679324
970815 693152
970996 676610
971026 260440
971519 56144
972144 735170
972797 195465
973692 406116
974465 608990
974582 157395
974781 840070
975368 16305
975927 744580
976225 350955
977218 437764
978119 159755
978584 4600
978707 880517
979625 968706
980114 767767
980408 41616
981341 268462
981400 494891
981947 544377
982936 422363
983690 121951
984113 522343
984472 81818
984642 158450
985275 654291
985566 7084
986236 475773
986425 973097
987187 43869
987751 476340
987899 322102
987948 427771
988589 701594
989208 546168
989907 51238
989957 113675
990369 626453
990469 307073
991190 751371
991484 578025
991937 178454
992402 277243
992651 56683
992751 20175
993037 274131
993923 238372
994075 476462
994262 815325
995019 813789
995802 24650
996647 90983
996807 691449
996868 227338
996955 320922
997491 391165
997720 62646
997933 860289
998230 946830
998459 491031
999267 923314
999949 395128
1000190 486226
1001022 68893
1001899 83407
1002450 513872
1003184 987184
1004092 17251
1004568 641187
1005091 924160
1005984 841872
1006511 536593
1007103 343333
1007656 801453
1008633 616918
1009622 509134
1010264 309696
1011127 846265
1011224 565163
1011749 787698
1012204 309075
1012917 211968
1013073 937402
1013772 431489
1014492 447713
1014667 822646
1015006 331329
1015962 460838
1016442 291811
1016954 242071
1017906 468163
1018546 893663
1018821 301672
1019421 465329
1019853 575818
1019867 575210
1020771 938942
1021687 269641
1022385 388208
1023018 361629
1023901 66879
1024467 93544
1025060 453573
1025097 490281
1025193 655472
1025990 425647
1026034 482639
1026962 610673
1027748 223173
1028279 431966
1029205 501788
1029782 126152
1030487 403567
1031184 360461
1031573 691665
1031780 762530
1032441 614619
1032680 801372
1033611 920255
1034126 892737
1035062 858050
1036030 928804
1036851 964660
1037733 684186
1038716 788639
1038979 160781
1039406 476481
1040050 421912
1040598 857912
1041559 995567
1042235 46995
1042660 528696
1043539 484973
1043753 135746
1044714 100358
1044938 702246
1045037 609178
1045527 419176
1045885 827881
1046725 973779
1046734 194002
1046960 854019
1047338 623864
1047437 999180
1048217 574854
1048702 441812
1049394 737
1049610 995004
1049623 961321
1050611 531876
1051371 921080
1051911 81695
1052656 692960
1052974 866891
1053790 291340
1054376 43720
1055187 911315
1055358 706963
1055853 206425
1056838 100948
1057161 250519
1058015 349742
1058385 972047
1058637 608070
1059444 355814
1060003 392920
1060505 29095
1060734 706391
1060797 919791
1061098 394615
1061251 665928
1062175 244473
1062448 686457
1063281 625231
1063913 189736
1064524 669544
1064689 679813
1065639 891376
1065805 565094
1066696 977614
1067381 759881
1068221 60471
1069215 854710
1069587 506457
1070227 658186
1070506 680340
1071280 925469
1071775 942484
1072540 767530
1073434 912941
1073729 38313
1074606 840096
1075184 363385
1076145 96662
1076690 354988
1077637 554786
1077931 267147
1078924 154863
1079127 714967
1079523 64721
1079836 479545
1079985 798329
1080762 549568
1081364 605493
1082121 22799
1083118 427113
1083693 544957
1083723 314479
1084590 706469
1084780 74639
1085763 482972
1085834 609407
1086667 308395
1086988 83179
1087469 455878
1088239 445314
1088660 301515
1088809 787810
1089604 565703
1090355 580386
1091184 303440
1091727 249410
1092523 725432
1092790 639646
1093789 550624
1094126 431543
1094307 599258
1094625 360348
1094653 953328
1094821 959735
1095631 827197
1095681 597260
1095744 721413
1095821 846341
1095865 476996
1096507 82741
1096666 859942
1097615 525855
1098369 626929
1098911 755369
1099889 51726
1100429 164777
1100528 765404
1100971 379796
1101706 989272
1101875 932279
1102509 52592
1103136 24162
1103957 125717
1104726 949247
1105528 919954
1106021 952088
1106208 779743
1106728 114371
1107159 385497
1107986 140776
1108065 95694
1108494 341231
1109240 202620
1109256 586344
1109445 789671
1109813 442188
1110404 854449
1110590 175706
1110978 954634
1111229 197326
1111609 113990
1111954 754162
1112046 486689
1113011 514706
1113161 36804
1113685 858301
1114143 145691
1114462 773905
1115221 78331
1115684 391851
1116351 928324
1117204 593041
1117417 50109
1118384 707804
1118844 962849
1119200 93320
1119903 242782
1120791 786834
1121472 938983
1122284 62255
1123257 37109
1124227 730553
1125204 372708
1125309 777279
1126133 263609
1126389 400564
1126500 205498
1126805 918562
1127475 985198
1127866 3495
1128604 331425
1129596 977308
1129917 90608
1130428 465282
1130482 874205
1130514 212541
1131500 395331
1131582 169931
1131981 987525
1132207 960818
1132657 938953
1133451 359071
1133995 147155
1134514 455518
1134740 39323
1134965 80943
1135713 327189
1136001 758604
1136032 909746
1136946 429386
1137797 454715
1138297 737877
1138304 182472
1138477 340210
1139139 518097
1139223 458387
1139760 647501
1140641 961731
1140904 895778
1141057 15312
1141358 160758
1142039 195296
1142562 655849
1143537 813159
1144220 108105
1144468 522002
1145113 4918
1145613 428037
1146325 259403
1147306 375092
1148161 107874
1148706 695070
1149256 157217
1149571 615342
1150462 604984
1150891 294723
1151458 872640
1151972 164573
1152838 439677
1153278 656276
1154121 248252
1154564 354370
1155200 524243
1156104 124535
1156552 165428
1156690 227890
1157099 452403
1157994 978100
1158889 298814
1159401 734149
1159875 185973
1160821 482756
1161520 661096
1162093 695264
1162837 16333
1163130 372420
1163342 679935
1163856 382338
1164197 934643
1164653 358927
1165617 828903
1166417 317428
1166583 117184
1167248 975187
1167695 502308
1168455 545881
1169188 715241
1169421 948352
1170177 82028
1170830 898503
1170833 143332
1171434 970214
1172118 873767
1172333 260968
1173322 300061
1173577 430681
1173613 848756
1174523 267789
1174875 197917
1175219 942540
1175404 965740
1176082 977002
1176593 654021
1177382 382745
1177801 406022
1178077 81588
1178124 949592
1178902 794560
1179489 527715
1180004 524464
1180732 956048
1181582 856924
1181831 752228
1181953 157084
1182728 967551
1183537 428817
1183624 732906
1184600 454437
1185333 878312
1185555 9480
1186361 679489
1187315 235150
1188273 18387
1189060 788401
1190037 944389
1190579 78042
1191111 945638
1191259 708516
1192053 922601
1193026 852652
1193928 665438
1193937 349980
1194923 581132
1195586 902205
1196454 708145
1197338 192028
1198201 336936
1198414 557102
1198735 600965
1199008 778505
1199666 924691
1200178 699962
1200934 328206
1201404 100565
1201974 717582
1202041 398600
1202910 323723
1203408 653779
1203904 927659
1204043 829930
1204165 124545
1204487 177301
1204530 565252
1204996 819727
1205439 598891
1206090 129730
1206724 211662
1207281 539676
1207901 342265
1208252 746696
1209175 34152
1209622 853393
1210018 321782
1210296 760979
1210708 257764
1210975 962358
1211106 255239
1211819 759742
1211888 619356
1212719 164419
1213402 185280
1214135 908217
1215047 65152
1215393 798541
1215516 150237
1216372 939727
1216503 172187
1217499 248683
1218009 797989
1218398 741340
1219152 972520
1219468 714814
1220343 160450
1221307 55037
1221330 592583
1221757 533490
1222403 214397
1222857 610240
1223504 181161
1224157 701159
1225010 606661
1225051 150142
1225513 143756
1225555 655520
1226270 770441
1226740 54614
1227630 439516
1227636 499542
1227870 72351
1228320 877612
1228756 613990
1229609 64212
1230017 297511
1230338 745540
1230591 927451
1231079 615155
1231549 92776
1232478 276805
1233208 625568
1233873 488128
1234114 732771
1234879 277298
1235591 999091
1235668 995322
1236117 451978
1236224 227851
1236356 803559
1236542 344619
1236886 384056
1236991 640350
1237183 208396
1237706 207753
1238590 137630
1239035 891238
1239596 527104
1239619 769064
1240051 242136
1240090 122333
1240461 384802
1241101 996143
1241136 684227
1241544 196252
1242170 889727
1242928 896369
1243921 871193
1244559 942063
1244652 525995
1244999 975960
1245434 984418
1246224 255847
1246239 604817
1246492 702780
1246559 552022
1247326 988880
1247505 466726
1247825 883965
1248312 730353
1248682 993240
1249637 251898
1249892 393524
1249930 452225
1250038 467812
1250259 844091
1250277 260463
1250939 431791
1251901 247775
1252757 234695
1252938 982214
1252963 747392
1253923 97022
1254368 457783
1254510 89868
1254544 762337
1255056 248591
1255381 348142
1256028 470539
1256847 180530
1257432 468301
1257564 712759
1258519 553800
1259482 543943
1259652 111670
1260136 440866
1260901 136295
1261149 628294
1261456 277704
1261492 562291
1262232 314358
1262906 636706
1263049 774296
1263496 80061
1263857 905562
1264347 101306
1264781 286299
1265365 738334
1266289 113485
1267070 946171
1267789 912921
1267933 654971
1267954 278729
1268496 521610
1268882 126074
1269663 385691
1269931 4704
1270158 382138
1271055 694932
1271983 539355
1272544 600238
1273236 285328
1273798 46904
1274518 403007
1274794 393108
1275046 698379
1275585 356161
1275692 426677
1276454 55197
1276858 122445
1277160 205432
1277470 770102
1277857 773323
1278754 159899
1279706 975273
1280120 88598
1280662 820471
1281260 924157
1281901 8227
1282280 603172
1283271 338456
1283454 157082
1283913 626519
1284714 766329
1284955 419959
1285514 654573
1285901 113892
1286666 264264
1287651 155574
1287991 987018
1288242 887652
1288744 545108
1288923 271095
1289221 526489
1289757 62488
1290153 781371
1290459 262217
1290807 646503
1291555 105053
1291985 692091
1292681 182321
1292869 938270
1293110 263528
1293599 427638
1294335 587878
1295097 747672
1295973 624819
1296729 933543
1297233 504428
1297243 900312
1297722 220848
1298217 455812
1298227 210483
1298932 852725
1299147 125141
1299239 780997
1299638 459314
1299918 759050
1300284 882426
1300956 841764
1301527 513351
1301868 769617
1302466 706135
1303049 858906
1303557 177389
1303975 302362
1304805 872493
1304891 521423
1305503 936110
1306170 919324
1306782 95000
1306799 370583
1307297 912891
1307469 626811
1308080 553879
1308180 190679
1308905 620042
1308954 567229
1309784 683154
1310579 419949
1310990 18440
1310994 86272
1311653 657764
1311877 570564
1311977 119251
1312097 470531
1312270 492714
1312755 525946
1313026 888063
1313792 633117
1314327 134012
1315262 737159
1315909 681352
1316257 60547
1316805 702545
1316820 475559
1317794 210043
1317825 240452
1318340 650442
1319039 606054
1319060 769494
1319850 959993
1320517 767019
1320838 156407
1321727 598816
1322567 697282
1322756 832656
1323231 473338
1324126 949445
1324233 35629
1324748 424498
1325335 672013
1325881 181953
1326100 964273
1326897 396292
1327613 546370
1327940 330160
1328675 471264
1329672 629837
1330282 456280
1330669 801387
1330998 224433
1331687 595135
1332521 999569
1332608 609880
1333430 519729
1333824 820165
1334046 357782
1334244 519370
1334333 169416
1335152 614246
1336148 53065
1337048 542284
1337298 829015
1337458 481505
1337999 12674
1338890 50159
1339745 541307
1339969 659626
1340927 198545
1341840 35026
1341927 539900
1342854 760336
1343188 397076
1343212 529418
1343975 862766
1344568 896022
1344783 947648
1345378 7958
1345908 334837
1346250 483920
1347057 833031
1347278 475866
1348014 472967
1348140 655404
1348914 39556
1349769 641820
1350039 103107
1350385 531456
1350790 977417
1351770 868021
1352362 320318
1352700 590410
1352811 803888
1352995 964395
1353512 643633
1353619 608265
1354094 496086
1354388 545388
1355019 257104
1355550 175697
1356461 59831
1356839 959005
1357215 83276
1357978 163537
1357988 747914
1358251 251812
1358387 314654
1358698 177294
1359173 699040
1359396 268868
1360286 903063
1360448 128226
1361366 40169
1361503 879754
1362364 114221
1363197 796788
1363305 307926
1364175 597093
1364213 115783
1364682 565686
1364806 452271
1365493 823953
1366325 285336
1366969 486226
1367348 633559
1367643 601070
1368562 687868
1369465 819094
1369688 973363
1370550 895006
1370561 637471
1371520 388222
1371857 55761
1372502 155767
1372868 24559
1373327 371674
1373707 797730
1373737 418730
1374579 536500
1375080 435078
1375385 828868
1375397 402839
1375758 346587
1376161 913038
1376789 966185
1377347 605119
1378113 657757
1378139 821028
1378906 999072
1379154 230050
1379397 910183
1379782 380555
1380618 126205
1380965 614117
1381180 73593
1381487 506340
1382130 3844
1382215 345815
1383018 687489
1383051 332641
1383863 207247
1384505 473576
1384615 622193
1385155 469430
1385669 14381
1386213 733363
1386246 322390
1387173 589212
1387619 621701
1388319 42910
1388686 727
1389311 165959
1390259 926037
1390864 278044
1391108 659815
1392080 491887
1392499 263911
1392636 414788
1393209 807831
1394033 470112
1394480 577142
1394800 858233
1395203 131208
1395655 91233
1396548 249451
1397014 63766
1397239 49143
1397646 792694
1397916 722799
1398520 353022
1398637 181566
1399637 580450
1400127 565324
1401102 987757
1401348 658422
1401911 982204
1402335 940801
1402414 555666
1402519 677731
1402570 648341
1402886 555654
1403548 135020
1404007 767381
1404427 4694
1404606 801478
1405571 963492
1405608 391540
1406021 958007
1406411 435315
1406915 253211
1407679 260651
1408404 411369
1408763 723832
1409300 31485
1409574 234503
1409684 282325
1409956 153685
1410118 161924
1410690 874253
1410782 297076
1411085 582363
1411670 631402
1412304 533250
1413097 97177
1413675 994805
1413981 13426
1414087 540633
1414578 539847
1415104 636244
1415343 983478
1415350 619074
1416237 626019
1416544 45144
1417145 526253
1417167 536389
1417647 539391
1418374 21853
1418994 102277
1419441 288266
1419554 348055
1420482 861911
1421152 627937
1421737 334326
1422149 169120
1422576 690237
1422689 816104
1423371 388364
1423877 989992
1424587 495192
1425422 614905
1425458 424787
1426219 214028
1426336 729064
1426393 811728
1427002 750094
1427586 955869
1428522 438097
1428795 45728
1428875 434042
1429140 938253
1429411 14176
1430185 590235
1431020 19301
1431263 937949
1431699 45905
1431947 282794
1432657 873028
1433395 499538
1433550 639675
1433632 99279
1433684 773349
1433855 465056
1433982 882865
1434729 770746
1434820 141309
1435252 679011
1435834 417381
1436772 762604
1436899 403403
1437030 37837
1437975 116540
1438308 391749
1438650 946581
1439629 671531
1439803 434609
1440602 894896
1441496 344913
1442223 881347
1442844 242135
1443344 181693
1443380 994883
1443381 749573
1444168 7799
1444668 490847
1445070 779943
1445279 497704
1446207 942134
1447060 277182
1448060 8060
1448384 132813
1448801 413136
1449515 495638
1449955 209040
1450012 265951
1450989 27411
1451224 413844
1451235 191640
1451716 956215
1452241 939147
1453026 757638
1453374 625166
1453894 755903
1454270 133270
1454542 816344
1454848 959005
1455482 971827
1455568 537432
1456114 454067
1456934 171867
1457237 480694
1457289 781784
1457975 246686
1458433 633284
1459412 466542
1460165 197970
1460436 10564
1460663 250501
1460855 365104
1461321 719782
1462084 59489
1462805 377244
1463203 363929
1463696 825519
1464020 436606
1464363 220996
1464480 610390
1465110 68152
1465591 159763
1466485 273168
1467055 817757
1467667 67301
1468296 935538
1469055 659487
1469731 321710
1469909 885894
1470464 958817
1471104 444706
1471647 812336
1471666 421924
1471917 198771
1472735 250115
1472746 849101
1473737 773755
1473992 51099
1474416 105881
1475363 77854
1475783 12622
1476189 95671
1476436 964004
1476559 109049
1477172 246871
1477263 873859
1478123 888979
1478738 329563
1479517 76520
1480004 490755
1480225 22448
1480547 650782
1480650 490345
1481515 766238
1481868 692803
1482555 172304
1483220 787553
1484013 554794
1484875 965885
1485186 591131
1485393 525054
1485786 666327
1486152 830519
1487067 893547
1487555 853579
1488370 12650
1488821 591457
1489720 945400
1490092 526711
1490723 628288
1491079 683989
1491106 56630
1491908 824662
1492082 538441
1492966 373067
1493333 216853
1494142 715938
1494305 34610
1494794 852637
1495420 64157
1496100 331639
1496406 422645
1496713 11342
1497027 100471
1497560 453140
1498211 867999
1499125 107155
1500023 196424
1500401 418968
1500484 885181
1500999 615013
1501881 202434
1502079 525916
1502457 901111
1503143 788186
1503882 331795
1504561 759140
1505150 917693
1505699 415449
1505877 703605
1506244 668516
1506727 556484
1507144 610290
1507743 710321
1508528 278611
1509503 600449
1510001 491053
1510672 756794
1510778 684808
1511543 798884
1512503 856964
1512557 437205
1512841 628535
1513625 223976
1514192 537078
1515054 493365
1516041 997243
1516372 80138
1516850 578109
1517049 983796
1517433 217950
1518246 844686
1518812 222205
1518919 94398
1519351 980395
1519704 134762
1520099 389143
1520190 397640
1520988 486792
1521527 447208
1521735 580536
1521814 809693
1522356 792067
1522410 170710
1523324 228318
1523650 32286
1524355 185899
1524822 894407
1525235 29939
1525664 565879
1526029 203640
1526785 231588
1526842 733446
1527511 564334
1527898 63185
1528868 737863
1529260 308294
1529546 15114
1530323 324331
1531205 281272
1531908 661066
1532680 468318
1532713 636593
1533087 539517
1533815 355414
1534504 715925
1535362 356696
1535862 889261
1536293 692590
1537003 205770
1537728 159008
1537971 669642
1538055 938404
1538396 589578
1538599 799711
1538966 558303
1539579 391817
1540102 623438
1540739 687588
1541133 456161
1541252 583136
1542116 283120
1542541 995364
1543266 530735
1543590 365108
1543912 634223
1544398 941184
1545184 431421
1545600 609713
1546121 958866
1546795 419840
1546821 803054
1547205 523590
1547588 504540
1548436 93284
1548899 982291
1549594 904039
1550022 505305
1550057 535667
1550437 689564
1550924 688336
1551138 530474
1551175 950309
1551937 838810
1552746 115621
1553011 430775
1553543 191879
1554441 580512
1554881 107220
1555851 661491
1556250 571309
1556721 646189
1557292 710418
1557491 471562
1557719 31567
1557899 42726
1558435 883984
1558505 637216
1559371 420291
1559605 932669
1560234 901095
1560602 534427
1561176 531486
1561918 663559
1562169 712416
1562797 506674
1563165 860564
1563623 863820
1564043 50181
1564402 159933
1564968 19852
1565574 922150
1566327 599843
1566512 96183
1567157 281239
1567987 209607
1568513 975221
1569059 458603
1569247 383380
1569989 709281
1570100 444810
1570419 560953
1571414 512034
1572414 805278
1573140 646506
1573641 461448
1574261 445665
1574549 176624
1575178 978383
1575566 526442
1576009 696308
1576990 967427
1577643 767192
1577725 608616
1578577 456786
1579100 84727
1579984 152334
1579988 528483
1580002 229024
1580109 659126
1580498 382196
1581409 826525
1582109 38272
1582489 435325
1582708 535973
1583004 297226
1583693 282881
1584287 636740
1584621 146784
1585406 459510
1586148 787116
1586745 816383
1586794 766878
1587648 829185
1588463 144073
1588928 939053
1589586 787521
1590193 848120
1590866 738430
1591396 313248
1592245 494529
1592824 27149
1593314 392461
1593862 305183
1594409 297202
1595342 603254
1595698 620215
1595924 253888
1596227 972220
1596750 986089
1596856 719811
1596929 343665
1597579 738900
1597946 446040
1598274 36339
1598521 646075
1599337 446368
1599782 866351
1600149 710369
1600328 859513
1600422 962750
1600538 603469
1600559 770473
1600933 247282
1601326 415846
1602063 254311
1602742 65489
1603221 243042
1603277 104539
1603885 177449
1604526 140411
1605261 250714
1605431 793046
1606188 39319
1606313 162074
1607075 802725
1608072 59913
1609057 386506
1609683 72622
1609909 280125
1610462 910066
1611317 625178
1611644 113181
1612101 693709
1612369 944177
1613042 659246
1613636 295838
1614206 135094
1614308 812051
1614673 691584
1615629 489556
1616171 130513
1616186 374648
1616384 665800
1616946 482658
1617925 869233
1618262 639806
1618362 517459
1619358 823171
1619653 953935
1619903 779096
1620526 86001
1620992 463309
1621381 989388
1621636 741274
1622098 342679
1622760 998461
1623557 445698
1624184 894795
1624894 909564
1624921 866422
1625239 377939
1625596 549866
1626051 311750
1626452 310815
1627409 558100
1627562 613940
1627780 870626
1628302 671190
1628490 452581
1629489 274680
1629666 900261
1630421 423977
1631407 238512
1631497 694864
1632332 403100
1633123 775867
1633769 200863
1634623 152833
1634895 540993
1635883 636850
1636004 125782
1636564 556865
1637185 386679
1637433 922924
1637698 58750
1638532 360156
1638879 292238
1639328 774214
1640121 631745
1640746 63508
1641608 92020
1641699 476243
1641796 804380
1642494 776697
1642646 882947
1643107 955422
1643436 318784
1644125 531492
1644986 292287
1645606 398960
1646334 929890
1646548 233573
1646797 517514
1647270 280345
1648086 859773
1648587 440033
1649049 450907
1649866 981437
1650433 956743
1650857 833992
1651029 289665
1651620 193067
1652153 527443
1652658 987679
1652933 266228
1653075 958094
1653157 759441
1653376 378539
1654153 498708
1654518 904457
1655288 318515
1655901 290906
1656123 198012
1656403 472037
1656971 231285
1657594 173853
1657933 663173
1658639 16074
1659600 139841
1659647 266415
1660338 682778
1661232 185526
1662181 488739
1662708 632473
1663504 165716
1663935 758376
1663965 354288
1664305 398034
1664386 360029
1664539 907449
1664625 695330
1664980 150071
1665218 587093
1665311 166353
1665786 677866
1666761 546268
1667397 479983
1667862 53415
1668718 522728
1669496 547878
1669823 987405
1670328 730447
1670591 326937
1671067 220960
1671729 639461
1671799 828486
1671887 16475
1672852 569018
1673503 704178
1673850 667798
1674799 50760
1674911 412499
1674973 351615
1675527 705182
1676258 68842
1676647 322623
1677247 458240
1677470 846760
1677864 277374
1678788 174533
1679711 386856
1680682 922780
1681202 454960
1682172 353527
1683027 108811
1683806 993756
1684160 633005
1685033 29893
1685815 36978
1686282 742929
1686731 835417
1687615 929921
1687750 205370
1688587 311477
1689274 740843
1690216 842668
1690367 642228
1690411 184512
1690752 983802
1691586 723922
1692320 176920
1692787 724786
1693675 191595
1694105 346038
1694381 766602
1694828 637260
1695191 667853
1695326 848614
1695387 948996
1695722 692117
1696486 689736
1697371 205172
1697754 111850
1697811 905398
1698684 714954
1698843 541206
1699389 804203
1700103 250840
1700686 992285
1701587 116948
1701852 300597
1702533 518053
1703487 705162
1704444 768640
1705188 412650
1705956 749131
1706253 794421
1706275 540362
1707127 972931
1707431 626244
1707716 412012
1708002 144301
1708145 966303
1708370 405991
1708797 400412
1709015 89043
1709147 712279
1709175 229681
1710066 213370
1710605 156672
1711077 208448
1711642 799156
1712302 300600
1713212 106775
1713590 687911
1714079 432514
1714133 931669
1714855 237524
1715492 852472
1716064 65687
1716458 386320
1716552 791517
1717154 444146
1717730 358955
1718064 737355
1718403 827086
1718753 818156
1719685 413163
1720362 53438
1721307 717115
1721386 248973
1722184 461455
1722758 920902
1723408 210652
1723725 748395
1724042 858015
1724277 225655
1725198 364165
1725225 867810
1725845 705286
1726166 582031
1726625 454114
1726910 125744
1727089 15631
1727543 238602
1728465 905136
1728942 288733
1729658 413086
1730160 88192
1730656 169931
1731363 735251
1731624 373830
1731942 778258
1732102 763657
1732846 422965
1732906 51424
1733205 189971
1734175 272489
1734409 641004
1734702 231748
1735242 708738
1736121 587607
1736418 232043
1737010 624302
1737277 93636
1737445 275549
1738147 945591
1739062 302798
1739956 128280
1740558 661006
1741439 469127
1741691 775147
1741853 494427
1742765 849564
1743488 493863
1743839 393453
1744810 337101
1745291 694963
1746195 224073
1746613 568708
1747368 553450
1748299 870138
1748570 741813
1748859 315782
1748887 199115
1749550 101898
1749696 209793
1750093 645446
1750715 354237
1751321 799864
1752227 502855
1752531 573628
1752944 705364
1753604 557953
1754203 378431
1755075 389863
1755420 372202
1755499 338244
1755762 450001
1756351 936387
1756988 257662
1757225 768160
1757706 302293
1758115 259689
1758788 203516
1758910 804691
1759871 766457
1759915 621394
1760745 965425
1761724 920947
1762597 779263
1762868 795835
1763342 664272
1763743 945427
1764742 449533
1765602 606275
1766089 746633
1766342 888947
1766387 18536
1766624 922100
1767114 211169
1767897 211706
1768150 574004
1769136 867531
1769948 280285
1770342 72293
1770485 399133
1771430 45596
1772302 642072
1773258 776511
1774070 969968
1774974 146912
1775642 630046
1776311 743009
1776601 142243
1777007 4181
1777190 25800
1777929 502415
1778085 292535
1779081 526370
1779208 82824
1779388 371193
1779741 852806
1780220 302580
1780745 159542
1781364 81016
1782250 629531
1782715 809849
1783351 149973
1783409 170173
1783622 228417
1784608 261905
1784722 902912
1785011 488052
1785543 947853
1786354 2642
1786902 254552
1787833 793420
1788724 633934
1789563 579478
1789587 696575
1789676 834190
1789964 919215
1790102 346039
1790577 703375
1791243 622754
1792209 341480
1792716 430704
1793542 262037
1794018 272610
1794652 531878
1795405 367780
1795700 206413
1796294 315721
1797047 550557
1797948 311495
1797982 11024
1798450 42827
1799162 667870
1800156 660369
1800683 164674
1801368 635947
1801756 750081
1802637 978694
1803074 779413
1803758 670314
1804054 454800
1804636 3901
1805521 696927
1805628 648429
1806452 610007
1806554 924745
1807305 661307
1807404 275201
1808145 191857
1808293 858095
1809082 472758
1809475 748013
1809732 831508
1809735 652299
1809937 775119
1810223 752191
1810654 124420
1810968 68502
1811189 517366
1811695 692056
1811775 946832
1812480 34685
1813195 649192
1813276 776092
1813663 289277
1814272 55870
1815131 457360
1815396 460768
1815690 93047
1816682 366125
1817286 272661
1818140 260072
1818737 442948
1819314 829912
1820227 332306
1821072 469766
1821321 331228
1821675 794908
1822178 169004
1822276 38084
1822308 537615
1822574 346894
1823087 718859
1823106 744662
1824039 611009
1824621 375070
1825103 22427
1825115 131233
1825594 944309
1825895 170288
1826402 882765
1826773 611089
1826991 48121
1827389 314918
1827829 737739
1827896 593352
1828851 624850
1829089 676032
1829629 962227
1830189 858673
1830756 475208
1831645 258740
1831727 413616
1832684 155109
1833289 770435
1834240 341812
1835031 245278
1835536 396660
1835761 617691
1836642 47182
1837578 667022
1837878 213076
1837917 545237
1837918 985249
1838203 726932
1839136 374179
1839354 901109
1839469 463447
1839635 904031
1840591 694348
1841166 503006
1841592 722354
1842342 574657
1842420 858589
1842663 685385
1842675 806698
1842885 297987
1843813 918241
1844747 521977
1845630 827796
1846614 310478
1847248 275936
1847902 199473
1848578 274257
1848795 882073
1848860 104960
1849056 164223
1849571 249513
1850381 422886
1850735 942729
1851321 904144
1852257 89803
1853012 102682
1853974 776716
1854016 545072
1854858 248453
1855759 241999
1856373 476400
1856657 829370
1856908 245011
1857881 85775
1857908 952931
1858553 268650
1858665 923074
1859299 105006
1859736 534027
1859933 618080
1860532 184286
1861117 521835
1861591 150567
1862196 235800
1862598 196882
1863530 363167
1863608 356906
1863887 173489
1864653 861036
1865538 484950
1865810 709630
1866034 546289
1866508 754684
1866885 672700
1867316 373354
1867856 280575
1868802 350243
1869218 759921
1870144 389782
1870158 669837
1870917 878320
1871846 809658
1872442 319981
1872805 790735
1873736 887526
1873850 724981
1874173 237411
1874928 288258
1875432 901642
1875891 38078
1876536 510610
1876790 743861
1877562 666650
1878520 781785
1878544 173022
1879313 952164
1879603 694849
1879788 262791
1879815 310607
1880023 97177
1880777 433083
1880815 346177
1880997 395950
1881380 344386
1882379 622153
1882709 59204
1882880 495699
1883394 993826
1883947 77500
1884639 871062
1885045 673729
1885751 391496
1886289 493965
1886937 669922
1887833 26288
1887840 512535
1888070 214207
1888580 504792
1888726 744176
1888932 332898
1889111 405919
1889312 598128
1889646 240170
1889921 865471
1890481 902153
1890976 932773
1891400 899061
1892322 754140
1892854 102778
1893723 341429
1894117 100181
1894534 661364
1894923 52168
1895728 669190
1896472 349137
1896987 163647
1897500 423698
1898341 627434
1899033 768029
1899534 989264
1900449 192326
1900770 761664
1901049 684194
1901636 116894
1902613 730010
1902943 2751
1903146 449040
1903329 600217
1903373 129010
1904117 144181
1904555 568580
1904881 532777
1905801 885778
1905997 813697
1906955 889093
1907643 136215
1907729 554210
1908574 244915
1909379 313543
1910327 290213
1911060 361439
1911916 154779
1912396 33510
1913371 900734
1913631 103677
1914196 991587
1914329 909824
1914766 821570
1914799 719778
1915437 832143
1915997 457766
1916826 38875
1917444 499521
1917687 388966
1918608 350916
1919061 38616
1919492 978082
1919856 515284
1920677 906210
1920980 606915
1921312 841286
1922162 456926
1923054 249679
1923892 594928
1924311 273949
1924769 557807
1924883 483638
1925127 555397
1925132 416600
1925237 817825
1925405 871204
1925462 62547
1925906 378226
1926433 211353
1927152 629952
1927163 160670
1927857 874509
1927898 946568
1928143 550216
1928209 947617
1929039 310504
1929198 357140
1929680 187900
1929822 212804
1930136 373256
1930917 873516
1931091 597283
1931910 648377
1932112 404980
1932589 451441
1933506 649831
1933609 108505
1934234 864876
1934648 674380
1935507 339198
1935980 525704
1936654 729038
1937473 281094
1938063 500470
1938345 362509
1938429 357202
1939058 841589
1939622 316414
1940253 80405
1940915 169147
1941401 88223
1942393 575800
1943261 957588
1943988 404248
1944035 409356
1944302 128639
1944627 407867
1945411 834450
1945971 266501
1946292 37571
1946854 413877
1946920 185017
1947343 332066
1947821 577880
1948498 567059
1949179 361602
1949440 8308
1949691 263159
1950461 488523
1951453 484719
1952310 129790
1952771 953341
1952812 811501
1953794 355211
1954634 760079
1955017 396960
1955641 724832
1956416 165745
1957329 274234
1958042 477996
1958717 560008
1959363 268705
1960065 709797
1960623 866580
1960918 21821
1961759 638773
1961994 675129
1962061 373780
1962396 722367
1962571 148173
1963050 120931
1963430 839110
1964115 825815
1964175 932097
1964538 330995
1965154 199918
1965800 939477
1966203 946842
1966559 887950
1966646 712795
1967513 788478
1967803 361879
1968201 458372
1968670 224286
1968762 455986
1969536 411156
1969859 155046
1970308 816220
1970693 347325
1970697 905021
1971481 910319
1971673 556648
1972468 234908
1973250 558828
1973456 216109
1974280 556654
1975065 756397
1975361 234501
1975815 766277
1976038 280269
1976057 909255
1976978 586356
1977299 935026
1977487 80297
1977946 707250
1978399 127174
1978690 411964
1979115 247286
1979387 811714
1979395 357309
1980373 806735
1981256 924296
1982191 124950
1982259 18153
1983068 408444
1983781 830397
1984010 958407
1984409 194717
1984815 163706
1985800 462403
1986220 973785
1986830 562217
1987595 943935
1988049 218125
1989042 708665
1989078 823333
1989304 845239
1989920 637025
1990061 318987
1990724 70448
1991333 301410
1991872 721868
1992498 892314
1992886 448259
1993188 271569
1993360 735981
1993440 259012
1993878 521701
1994154 9022
1994186 362010
1994624 499087
1994901 743588
1995243 799879
1995389 491732
1996127 599391
1996288 586049
1996295 456722
1996625 924855
1996883 587393
1997053 582205
1997553 5000
1998018 516042
1998934 55574
1999188 135691
1999496 356686
2000469 486841
2000979 467198
2001860 966454
2002790 634079
2003454 735738
2003576 498055
2004456 145398
2004748 590290
2005456 894542
2005970 555161
2006698 378472
2006823 746317
2007061 522865
2007547 285711
2007593 998867
2007680 206339
2008321 140814
2008591 81429
2009061 809560
2009997 599182
2010948 578867
2011776 471497
2012694 498183
2013503 762437
2013742 166579
2014248 233558
2014762 997093
2015269 140155
2015891 942247
2016391 283214
2016762 524371
2017278 885395
2017546 652205
2018311 493379
2018813 207603
2018964 877382
2018995 961666
2019398 465265
2019735 569671
2019953 433736
2020284 544312
2020672 873301
2020676 504773
2021675 738078
2022118 408406
2022744 775082
2023155 932804
2023219 73230
2023939 566255
2024016 188040
2024839 269020
2024911 461746
2024935 477111
2025118 556904
2025718 131686
2026510 979380
2027156 292658
2027826 128594
2028706 985322
2029642 44935
2030344 600893
2030879 379581
2031229 464324
2031657 34120
2032250 977963
2032746 461611
2033250 725946
2033331 870469
2034260 722353
2035222 216506
2035799 162214
2036211 561700
2037200 282783
2038022 163251
2038590 757696
2039357 274422
2039510 467097
2039947 607836
2040837 43096
2041706 790920
2042239 916406
2043220 354201
2044148 892502
2044700 740301
2045140 261812
2045843 472938
2046738 38556
2047419 794136
2048022 811546
2048931 979695
2049663 541289
2050454 426084
2050889 368383
2051564 760846
2052485 371453
2052486 807498
2052682 195763
2053326 725006
2054040 792454
2054956 334013
2054989 947765
2054994 656221
2055837 294905
2056196 259113
2057079 736585
2057599 953043
2058520 793169
2059481 701782
2059975 417970
2060556 897913
2060728 491100
2061584 719276
2062380 236998
2063352 315056
2063564 725579
2064162 817100
2065154 541993
2065877 993673
2066320 796953
2066821 470770
2066858 828359
2066979 841403
2067879 38107
2068849 954483
2069836 506812
2070141 149855
2070978 87663
2071403 663266
2071423 375537
2072221 808323
2072771 146694
2073006 602330
2073647 445231
2074379 710700
2075289 314368
2075976 559566
2076020 243743
2076644 543451
2077644 673116
2078197 869803
2079069 299660
2079766 974873
2080684 232962
2081564 389394
2081783 740191
2082301 784920
2083126 735844
2083841 503124
2084823 199810
2085268 259735
2085932 495932
2086065 165837
2087000 265405
2087943 176630
2088164 824549
2088922 336189
2089234 68200
2090043 332290
2090603 629113
2090935 833060
2091617 468345
2092242 836334
2092377 282209
2092414 125969
2092572 514419
2093268 614329
2093718 61566
2093882 784307
2094256 406409
2094728 998421
2095181 20340
2095309 403847
2095355 56639
2096070 593516
2096394 791290
2096888 893588
2097270 433144
2098238 814667
2098329 723083
2098861 874084
2099220 448852
2099599 207690
2099859 461185
2100049 47165
2100361 616801
2100475 954938
2101386 934516
2102309 395535
2102459 215517
2103030 320385
2103455 447012
2104368 291569
2105013 130844
2105757 150333
2105978 616452
2106778 815886
2107757 115244
2108437 603919
2109080 759391
2109721 409485
2110444 976280
2111251 810517
2111274 387190
2111613 46282
2111669 695310
2112417 345136
2112986 583949
2113617 176868
2113921 717155
2114817 380726
2115027 624909
2115615 202885
2116147 621252
2116829 837315
2117015 453054
2117175 76867
2117737 517260
2117909 909300
2118537 131628
2118812 863832
2119624 830297
2120446 572172
2120854 18519
2121232 68434
2122155 277885
2122699 690763
2123288 114125
2123561 39442
2123965 262787
2124292 625924
2124991 298247
2125630 4260
2125681 237566
2126377 901957
2127063 879290
2127135 748285
2127951 840374
2128181 731690
2128917 805469
2129444 870052
2129836 306817
2130028 669947
2130708 539673
2130754 509747
2130775 234132
2130875 368294
2130974 785656
2131813 546730
2132345 758471
2132834 223677
2133470 972163
2134405 13561
2134420 432416
2134973 627809
2135107 837037
2136101 333602
2136482 848988
2136563 134125
2137186 850950
2137635 301857
2137904 87086
2138377 654915
2139011 185460
2139893 705746
2140286 7692
2141214 998227
2141459 159933
2142386 173607
2143241 970206
2144211 649274
2144683 2338
2144969 978
2145051 708557
2145151 799554
2145870 724847
2145888 221481
2146527 1968
2146940 452368
2147037 378442
2147162 837793
2147888 892220
2148518 521251
2149345 108936
2149469 460919
2149901 130133
2149956 292032
2150788 457100
2150905 522429
2151164 919113
2152046 247487
2152189 735088
2152862 324328
2153730 891692
2153854 456798
2154781 321769
2155495 253664
2155592 485349
2155801 456832
2156537 761208
2156969 230325
2157671 392486
2157908 274374
2158688 329791
2158899 601954
2159274 650325
2159339 421869
2159971 535863
2160622 728066
2161277 688502
2161980 296913
2162034 482028
2162568 811807
2163551 348473
2164515 797888
2164710 203619
2165671 449300
2166216 954997
2166713 551335
2166803 819822
2167491 73163
2167544 574845
2168277 641556
2168635 81718
2169193 82161
2169729 835041
2169980 14630
2170979 351527
2171314 196516
2172257 688398
2172281 98451
2172647 519212
2172761 695509
2172872 655473
2173560 413029
2174145 712172
2174523 204035
2174930 20399
2175892 508963
2176316 91664
2176522 571584
2177375 764377
2177723 641014
2178176 588445
2178429 781250
2178744 251040
2179147 391430
2179373 233710
2179527 224311
2179711 657505
2180543 11566
2181229 797960
2182044 382137
2182590 414684
2182837 779492
2183826 244189
2184015 987771
2184507 185525
2184949 262145
2185333 912528
2185767 738369
2186035 711228
2186699 427779
2186798 820475
2187040 629643
2187892 240000
2188327 951341
2189192 721710
2189562 666209
2190047 355695
2190101 349622
2190950 371406
2191742 865313
2192493 337674
2192908 362243
2193332 188878
2193999 401672
2194324 784671
2194989 240275
2195489 183310
2196463 752744
2197272 882069
2197925 403762
2197956 70178
2198184 274351
2198261 528693
2198356 302457
2198672 501957
2198885 626243
2199632 769160
2200029 504566
2200381 463659
2200533 716142
2201118 299430
2201942 348402
2201964 728242
2202108 995718
2202452 328085
2203054 197498
2203979 737779
2204074 753829
2205021 917159
2205545 173908
2206214 967283
2206336 188626
2206424 594537
2206942 710967
2207792 749382
2208040 528411
2208680 154482
2209135 262699
2209346 237492
2209874 809808
2210185 513289
2210664 507977
2210836 444737
2210892 738731
2211422 543661
2212005 496267
2212798 926819
2212978 427109
2213084 868846
2213831 271519
2214040 775074
2214173 464660
2214802 781294
2214829 822080
2215043 803045
2215707 799369
2216454 953731
2216808 685192
2217591 696474
2218047 961480
2218373 576218
2219361 446294
2219935 237449
2220108 446575
2220803 305522
2221467 814207
2221535 495582
2221940 592229
2222537 175051
2222980 25230
2223380 723830
2224246 429002
2224779 643477
2224956 358391
2225072 839082
2225317 175868
2226282 701741
2226355 826203
2227073 434308
2227593 294507
2228160 199695
2228712 958682
2229355 370568
2230257 900677
2231015 728906
2231330 198649
2232165 145402
2233117 493620
2233441 473965
2233816 132125
2233974 260143
2234767 335663
2234892 71839
2235471 549206
2236436 99183
2237096 701302
2238083 597045
2238857 688922
2239603 5715
2240298 7045
2240878 18345
2241405 39118
2242375 206755
2242502 492770
2243367 233774
2244269 912822
2244856 882610
2244963 209529
2245027 833877
2245764 621223
2246109 312855
2246739 617146
2247424 834731
2247971 530146
2248582 198701
2249078 556516
2249234 860701
2250086 915641
2250131 219703
2251071 996146
2251865 436354
2251898 284451
2252375 129744
2253147 680889
2254090 535671
2254479 655474
2254844 169742
2255623 241455
2256073 680719
2256133 171071
2256223 454973
2256594 530364
2256807 160022
2257115 628456
2257354 251435
2257496 332261
2258102 362833
2258681 948253
2258826 648666
2259347 286523
2260242 470610
2260682 149701
2261445 213197
2261912 985088
2262810 815047
2263214 424053
2263432 115390
2264024 736777
2264464 764729
2265418 172447
2265880 868235
2265945 463612
2266128 342304
2266922 608530
2267567 358278
2267952 928195
2268091 109327
2268585 570636
2269390 202122
2270145 400791
2270345 65930
2270877 110770
2271497 535409
2271906 661988
2272149 237998
2272553 29422
2272677 115321
2273111 914723
2273598 228147
2274059 133456
2274132 399950
2274749 86128
2275567 60093
2276330 372042
2276370 199119
2277363 766205
2277893 16345
2278386 712243
2279014 328459
2279568 715942
2279942 463742
2280019 330529
2281019 632211
2281679 208957
2281914 654770
2282723 920007
2282988 701704
2283134 431328
2284126 753081
2284917 428275
2285475 892405
2285518 260442
2286450 615338
2287003 474847
2287070 613649
2287584 509925
2287974 646033
2288699 100693
2289097 360090
2289374 695304
2289975 481561
2290789 922859
2291068 285581
2291692 928138
2292451 420939
2292487 590359
2293431 151106
2293622 939952
2294190 950765
2295007 572698
2295058 810442
2295989 984621
2296938 604522
2297348 683820
2298009 692637
2298059 580265
2298476 180192
2298690 903775
2298915 594647
2299550 882609
2299883 436617
2300701 115029
2301398 901501
2302137 204932
2303018 525871
2303891 233626
2304230 801690
2304351 32079
2304539 913031
2305018 45169
2305118 643719
2305516 722300
2306211 910384
2306275 63580
2306300 46074
2306903 685096
2307502 47168
2307737 244380
2308423 437264
2309332 77679
2309376 753402
2310005 644504
2310978 118239
2311213 111555
2311505 563487
2311607 425685
2312011 509044
2312821 409653
2313459 818265
2314138 378903
2314950 300184
2315904 665706
2316474 871510
2316532 184898
2317530 3991
2318184 819035
2318795 165451
2319164 14348
2319971 476308
2320439 668394
2320452 698612
2321444 209517
2321750 422172
2322019 872411
2322297 936523
2322745 331107
2323308 431405
2324221 98278
2325204 768256
2325393 797462
2326064 996150
2326983 513016
2327112 974925
2327496 426466
2328089 48868
2328677 655822
2328908 895888
2329772 530521
2330200 6222
2330919 556256
2331232 446737
2331259 883274
2331685 550274
2332210 127425
2332618 567990
2332653 959059
2333648 737034
2334510 17506
2335387 698659
2335619 413247
2335976 164748
2336610 354548
2337120 873192
2338083 749245
2338207 66759
2339072 507353
2339879 188016
2340069 218036
2340108 820357
2340235 174566
2340376 725849
2341287 892212
2342069 530987
2342088 129645
2342276 83581
2343017 432953
2343974 274205
2344507 959291
2344932 699024
2345121 743199
2346041 283552
2346414 443982
2346422 292845
2347106 525416
2348011 647448
2348856 169609
2349184 820397
2350175 457798
2350764 680687
2351099 187793
2351205 112875
2352077 222212
2352562 220885
2353423 236038
2354419 951688
2355349 580802
2356059 497033
2356158 846832
2356744 204083
2357716 720055
2358628 498234
2359003 71764
2359017 705126
2359448 983934
2359788 13811
2359846 149170
2359924 683111
2360712 425539
2361572 584421
2361906 214828
2362614 631283
2363428 784091
2364171 330429
2364630 234265
2365230 554292
2365249 541419
2365468 322178
2366205 936955
2366815 415021
2367744 90269
2368439 359930
2369409 403280
2369707 191916
2369820 275661
2370369 154793
2371198 453587
2371778 522336
2371967 398351
2372794 988101
2373384 48088
2373975 854394
2374645 427805
2374886 461860
2375080 674312
2375381 326000
2375630 340847
2376622 884815
2376942 149958
2377680 662299
2378643 699755
2379594 707688
2380033 823039
2380043 894742
2380201 300942
2381058 386369
2381304 100874
2381687 810177
2382486 722729
2382558 823219
2382733 40200
2383360 698913
2384259 690203
2385088 997864
2385660 10963
2386554 625899
2387073 907693
2387546 124387
2388477 937639
2389309 345190
2390301 90675
2391273 302416
2391747 373174
2392309 173502
2393023 526975
2393667 874943
2394353 604131
2395002 760204
2395042 718911
2395668 323289
2396123 719117
2396337 618639
2397131 114700
2397865 514026
2398404 404602
2399195 917713
2399615 363866
2399831 622283
2399929 897861
2400549 405069
2401473 318963
2401597 235416
2402419 652575
2403249 770879
2403554 271924
2403930 546904
2404798 357089
2405792 90630
2406649 859291
2407638 460504
2408399 122566
2408652 172780
2409172 267445
2410022 96509
2410612 226934
2411451 389884
2411469 748491
2412131 785942
2412262 992745
2412725 429035
2412776 772654
2413260 284172
2413895 568621
2414515 905982
2415168 953609
2415717 665798
2415836 506811
2416606 368427
2416969 900317
2417219 917144
2417694 658581
2418284 627921
2418378 556543
2418945 451024
2419936 232110
2420543 78054
2420796 401277
2421500 931765
2422354 800772
2423009 111046
2423730 51133
2424405 210911
2425281 21613
2425358 444228
2425695 85205
2426401 405863
2426622 710713
2426798 181212
2427400 518957
2427410 965596
2428180 117777
2428838 677696
2428933 94184
2429484 585311
2429920 333579
2430071 120842
2430381 309304
2430596 221311
2431180 456788
2431376 132842
2432074 278095
2432893 631835
2433337 648169
2433592 341720
2434349 688315
2435109 916814
2435282 594975
2435531 690424
2435914 108540
2436639 659439
2436954 193872
2437270 842590
2437878 688123
2438100 366927
2439011 749554
2439564 964425
2439930 859216
2440321 578743
2440631 49587
2440672 807126
2441503 113399
2441686 178357
2442051 751579
2442563 814955
2442734 252139
2442951 50600
2443948 563099
2444252 125892
2445067 95637
2445995 377190
2446855 90053
2447739 456329
2447918 556306
2448550 259667
2449218 75329
2449931 323959
2450845 267409
2450882 529557
2451477 71798
2451598 156762
2452160 438983
2452361 177268
2453083 487034
2453353 987844
2453739 346573
2454727 928607
2454869 201081
2455017 506329
2455266 808504
2456003 638416
2456963 383489
2457493 791409
2458484 840282
2458799 60493
2459116 696876
2459121 965323
2459984 679092
2460548 254627
2460707 674465
2460826 952122
2461371 512804
2461571 172423
2462378 760985
2462604 727165
2462967 77622
2463301 682995
2463922 592530
2463929 196564
2464243 796716
2464296 479963
2465081 506757
2465554 751629
2465646 121544
2466295 127296
2466767 184314
2467597 82353
2468215 991512
2468944 688154
2469337 170180
2470311 109260
2470488 640077
2470624 221961
2470644 957276
2471014 110995
2471822 867476
2472525 828203
2472553 841365
2472786 917703
2473688 915611
2473848 461994
2474539 688474
2475394 826013
2476297 111876
2476577 362940
2477573 6775
2477663 997609
2478538 330612
2479230 387403
2479421 923626
2480153 914801
2480979 112549
2481265 84172
2481526 847448
2481889 107635
2481981 551396
2482468 532610
2482954 240946
2483479 492383
2484438 944116
2484871 165349
2485234 486367
2485886 458179
2486080 637410
2486278 880515
2486875 155569
2487639 691164
2487829 567226
2488384 780002
2488750 558388
2489485 264887
2489836 532219
2490092 189474
2490830 23578
2490939 953194
2491799 542479
2491952 720649
2492063 127469
2492908 194793
2493889 528732
2494387 495039
2494963 905895
2495700 242610
2496422 964120
2496897 743870
2497716 281115
2497967 720617
2498232 617396
2498872 192249
2499580 608165
2500109 890053
2500709 544333
2500993 733348
2501515 283986
2501720 546228
2502624 197863
2503013 76610
2503151 631502
2503254 709257
2503257 209634
2504045 316833
2504596 986550
2504864 281609
2505045 770548
2505874 939838
2506275 536063
2506285 659063
2506287 690024
2506731 204635
2507325 231159
2507948 274206
2507999 123326
2508592 249410
2509025 528802
2509974 599418
2510229 594869
2510567 149780
2511404 711067
2512301 248466
2512919 143300
2513391 985397
2513479 735575
2514192 931099
2514704 431943
2515154 84294
2516080 205778
2517018 492099
2517967 12615
2518420 365121
2519274 331363
2519282 886577
2519782 695313
2519817 163240
2519916 103741
2520196 167748
2520654 304976
2521441 495424
2521882 976648
2522406 292187
2522911 684087
2523386 137273
2524311 508292
2524979 625427
2525298 769344
2525799 347156
2525911 136695
2525974 527303
2526065 247097
2526748 147652
2527546 347510
2528438 407294
2529436 553712
2530399 663974
2531165 870864
2531458 655226
2531723 744283
2532173 583835
2532826 271733
2532938 28770
2533310 609414
2534091 936654
2534438 486803
2534751 946563
2535013 167571
2535584 606518
2535592 117059
2536261 305307
2536612 850966
2537298 498950
2537511 843770
2537712 928753
2538489 14024
2539353 942298
2539830 752038
2540750 798752
2540804 567683
2541440 156785
2542108 53055
2542739 512605
2543115 514108
2543662 436617
2543700 91789
2544409 533847
2544960 994498
2545785 373215
2546055 905303
2546256 697630
2547227 549036
2547768 755354
2547970 891810
2548865 804137
2548913 548764
2549328 410979
2550291 459597
2551050 223813
2552035 291427
2552233 49796
2553127 335743
2553985 321333
2554299 857283
2555215 174740
2555296 379250
2555313 941902
2555808 935283
2556145 609372
2557071 631093
2557897 949613
2557989 572482
2558484 112574
2558666 158099
2558885 915447
2559419 528793
2559990 780941
2560613 828907
2561290 548293
2561901 895534
2562007 138031
2562588 645931
2563423 310146
2564208 819613
2564932 211703
2565608 909989
2565765 728721
2565872 765713
2565935 896418
2566187 17730
2566668 808430
2567262 691237
2568082 378187
2569057 978519
2569730 838241
2570365 555357
2571177 858095
2571765 892167
2571883 28700
2572506 211836
2572841 789089
2573635 358218
2574593 828894
2575006 714087
2575296 58514
2575579 962834
2576147 631741
2576832 630749
2577214 98623
2578142 24828
2578306 253508
2578988 700138
2579013 244249
2579199 144531
2579372 853056
2580109 763497
2580583 703011
2581448 673431
2581601 807424
2582001 2662
2582602 649896
2583339 555460
2584145 73981
2584510 642532
2584681 715872
2585565 13742
2586537 438397
2586662 461863
2587081 360960
2587590 545076
2587970 14246
2588013 446457
2588793 229764
2589586 443794
2590236 507345
2590603 365332
2591482 269526
2591742 300302
2591901 559855
2592852 293015
2593242 595561
2594067 62001
2594356 572398
2594938 412936
2595685 147101
2596531 694700
2597348 607725
2597539 410555
2598094 283683
2598425 820988
2598479 364972
2599311 132863
2599953 52441
2600039 821975
2600348 132142
2601117 724366
2601402 573385
2602085 473571
2602446 747192
2602677 711307
2603401 560301
2604047 584950
2604097 333715
2604749 625948
2605260 933727
2605818 191677
2606117 447563
2607017 195730
2607097 754190
2607537 112871
2607865 867241
2608640 783761
2609493 423184
2609528 600053
2609961 634859
2610211 78977
2610618 512080
2611517 365498
2611765 234242
2612004 50006
2612490 597381
2613294 79343
2613669 531836
2614319 666492
2614663 68515
2615020 169242
2615815 557421
2616246 255912
2616748 831641
2616890 970144
2617890 274927
2618393 96624
2618644 101820
2619374 28487
2620165 442553
2620846 209040
2621386 146158
2621674 411593
2621848 149540
2622553 70594
2623399 776008
2624333 495164
2624600 803373
2625526 9480
2625949 525461
2626900 726196
2627217 801046
2627508 440474
2627519 450366
2628232 512276
2629033 24653
2629954 30860
2630817 945203
2631189 514694
2632088 983712
2632477 274005
2633360 600146
2633402 568701
2633680 202316
2633933 609319
2633980 688609
2634906 917695
2635548 576008
2636328 843524
2636732 678697
2637096 913259
2637159 408751
2637545 368336
2638507 134779
2639389 208314
2640232 594609
2640952 15404
2641088 781708
2641441 289677
2641603 708105
2641814 144140
2642714 748738
2642875 547932
2643145 449207
2643237 569445
2643944 24919
2644542 86345
2644551 349849
2644723 823322
2645308 407884
2645575 245267
2646423 634639
2646717 66970
2647268 419298
2648011 211110
2648347 598857
2649052 855992
2649581 477960
2650216 357341
2650693 47891
2651407 354887
2652018 285043
2652622 374969
2652636 927216
2652863 448385
2653481 225762
2653602 923887
2653962 736518
2654311 738208
2655302 132515
2655692 26225
2655841 305470
2655877 946353
2656830 726555
2657211 617028
2657374 629149
2658362 530945
2658638 958814
2658840 571966
2658965 602925
2659716 114927
2659797 100287
2660530 472423
2660834 613491
2661232 289023
2662161 601307
2663085 128832
2663110 649423
2663805 93453
2664699 204418
2665135 436732
2665352 877323
2665385 924802
2666279 284321
2666328 931985
2666494 258534
2666826 454658
2666931 146577
2667232 353584
2667437 790133
2667556 18224
2667744 485409
2667941 794222
2668274 626852
2668409 870476
2669095 367110
2669279 688381
2669323 999656
2669978 623500
2670509 956958
2670811 218892
2671380 566466
2671883 805584
2672302 695383
2673024 155781
2673273 134762
2673992 908488
2674680 955412
2675215 512714
2675463 905299
2675536 476466
2675975 712824
2676090 234569
2676878 457038
2677567 585965
2678105 81464
2678664 461779
2678737 885726
2679681 559819
2680270 330125
2680868 999201
2681599 220313
2682309 53996
2682455 693307
2682656 969024
2682819 79332
2683266 702164
2683540 649150
2684404 802644
2684558 354785
2685022 488444
2685271 984227
2685375 921494
2685513 882730
2686350 647838
2687185 620410
2687438 326097
2687515 849185
2687895 802651
2688577 406537
2689043 604325
2689840 485725
2690657 301903
2691398 364344
2691920 411375
2692727 534563
2692873 740244
2693128 918829
2693500 415845
2694048 510222
2695006 931868
2695437 940318
2695716 322750
2696627 949057
2696987 526719
2697003 286431
2697106 300276
2697473 354059
2698009 477650
2698888 207035
2699298 409734
2699750 524139
2699920 751121
2700281 767332
2701236 769590
2702038 274519
2702759 521182
2702868 335431
2703782 506798
2704754 672364
2705297 87763
2705697 666505
2706689 964251
2707407 527920
2708388 567324
2708675 211905
2709191 940863
2709331 914498
2710179 59071
2710401 339417
2710921 864992
2711740 327012
2712703 332268
2713635 773951
2714180 2017
2715135 727285
2715768 754491
2716599 534544
2716651 959467
2717478 36126
2717630 389347
2717812 46317
2718671 492640
2719460 964146
2719717 382143
2720438 875352
2721216 400132
2721680 524358
2722110 682599
2722678 420343
2723473 184079
2723994 88179
2724560 418928
2725120 344692
2726043 842471
2726231 345789
2727205 93045
2727538 835099
2728400 757233
2728783 422906
2728993 407213
2729371 997494
2730357 947460
2730594 415010
2731371 78288
2732034 556388
2732508 501700
2732733 756837
2733348 884165
2734139 139464
2734188 68992
2734984 671357
2735096 743735
2735989 864886
2736901 403313
2737135 745291
2737603 479035
2738404 701381
2738679 620836
2739046 519081
2739286 472706
2740034 303590
2740711 105177
2741066 783449
2741480 535600
2742299 515725
2743147 81841
2744029 16594
2744243 517966
2744276 128502
2745019 56408
2745057 957566
2745774 93294
2745880 922780
2745886 649396
2746518 931721
2746580 19643
2746883 434296
2747449 168542
2747509 100997
2747554 910994
2748337 110609
2748855 240355
2749503 347075
2749619 628624
2750142 836173
2750183 587210
2750901 362334
2750924 868501
2751304 241311
2751425 498024
2751987 97922
2752699 220331
2753675 54662
2754386 645970
2754489 777024
2755459 71855
2755483 682861
2756470 223295
2756647 651319
2756929 881295
2757360 100100
2758284 490683
2759098 498386
2759923 243478
2760396 215956
2761253 301325
2761979 166458
2762317 985765
2763169 485308
2764110 546974
2764524 515334
2764646 985270
2764882 430435
2765076 840183
2765312 652714
2766056 656389
2766485 29234
2766836 605270
2767648 896846
2768349 293308
2768486 801597
2768860 874043
2769641 248915
2769924 426294
2770660 699299
2770905 603539
2771007 201707
2771419 774879
2772000 643782
2772164 307406
2772620 293704
2772921 115932
2773144 8878
2773490 662132
2773781 270007
2774024 139377
2774520 434112
2775170 145779
2775538 606043
2776481 434532
2776526 525555
2776880 499450
2777041 42036
2777390 450013
2777431 32451
2777455 329673
2777745 842814
2778273 736109
2778360 342991
2778572 644245
2779322 572860
2779891 750977
2780609 95981
2780769 256030
2781168 551133
2781555 150646
2781845 182332
2782679 330559
2782731 953602
2783180 181385
2783822 54866
2784770 761239
2784984 905352
2785113 751643
2785316 670399
2785779 56306
2786693 35737
2787034 906997
2787154 220807
2787447 520421
2787466 445255
2788434 740620
2789225 221517
2790005 696936
2790720 608096
2790866 401008
2791431 445527
2791509 923938
2792424 968684
2793230 476800
2793836 213775
2794042 81782
2794518 790953
2795028 966110
2795604 999103
2795738 627042
2795967 769146
2796766 595576
2797014 289871
2797167 885984
2797758 584909
2798187 981735
2798464 5821
2799445 397446
2799465 804137
2800262 864655
2800716 180343
2801586 770840
2802319 456189
2802634 91428
2802944 294405
2803667 755820
2803895 386434
2804676 715431
2805236 225430
2806010 636286
2806151 556940
2806773 868743
2807491 537693
2808179 528093
2808747 342708
2809170 675378
2810023 564680
2810618 619965
2810961 61656
2811422 29480
2812080 895223
2812557 765383
2813512 762995
2813973 381406
2814679 996195
2814946 578613
2815797 733881
2816783 110222
2817208 193824
2818166 644490
2818886 698713
2819556 847568
2820542 348652
2820781 151874
2821714 291734
2821926 555547
2822744 214725
2823627 525427
2823651 519099
2823846 597393
2824058 653239
2824864 148739
2824890 303931
2824900 711017
2825097 177650
2825315 333324
2825334 55612
2825975 987461
2826451 158990
2826550 734778
2826680 973810
2826730 822983
2827113 607851
2827810 752699
2828118 209476
2828203 42336
2828529 865163
2829456 394345
2829471 826354
2829583 548305
2830519 520450
2831421 686946
2831850 919329
2832727 783476
2833518 704574
2833934 608916
2834593 102090
2835530 172835
2836054 58075
2836754 783263
2837352 62088
2837358 655521
2838251 768922
2838685 303098
2839411 74092
2839433 731747
2840051 953333
2840606 253249
2841571 875496
2841738 834691
2842048 320293
2842115 919409
2842669 557502
2842970 257279
2843290 761804
2843547 723466
2844547 490999
2845339 826595
2845497 417404
2846491 93489
2847318 972347
2848004 22033
2848500 508722
2848646 625886
2848826 376409
2849573 606216
2850076 770441
2850841 244100
2851820 397482
2852107 496222
2852355 663313
2853230 248609
2853713 645127
2854024 720901
2854064 866044
2854301 855739
2854589 230615
2855387 287743
2855722 950599
2856403 391802
2857379 133426
2857765 303118
2858375 679462
2859151 55420
2859992 622717
2860114 290330
2860223 726968
2860241 556699
2860429 534890
2861094 712056
2861195 17092
2861979 927596
2862291 316194
2862345 689408
2862728 679456
2863026 327302
2863180 263265
2863769 702277
2863786 777067
381911974
