5977
244 824707
437 268767
445 807298
1124 317316
1624 250157
1820 694193
2584 279705
3205 906997
3422 595073
3809 698995
3937 790619
4615 920955
5077 886484
5931 804039
6797 393637
7060 675986
7653 739302
8253 949886
8561 494199
9485 526153
9907 234522
10820 759317
11382 265244
12186 983415
12442 323198
13095 478234
13887 259932
14389 299300
14463 801925
15029 376699
15036 707581
16033 838727
16102 773434
16504 919495
17150 903028
17500 129586
18173 457061
19027 277496
19922 174080
20146 978792
21146 109214
21581 692069
22325 212611
22550 249803
23318 912703
24096 802705
24873 395405
25598 290327
26589 762043
26930 788888
27813 701408
27875 576398
28571 503949
29350 192549
29663 224162
29917 662506
30572 847061
30663 221194
31111 746464
31688 675757
32604 47100
33048 218748
33563 740065
33809 417014
34292 281314
34770 660756
35523 337236
36226 540643
36594 499093
37558 725280
37949 512344
38150 948816
38397 851073
38640 709737
38847 973150
39161 720910
39255 274324
39457 692893
40338 329506
40919 392346
41520 670399
41567 133632
42071 695456
42153 632073
42381 327776
42718 23285
43068 171840
43620 725335
44230 270016
44917 210994
45553 444946
46404 779583
46933 530598
47605 115418
48259 39080
48324 727304
49183 286022
49712 400985
50200 600312
50971 994203
51970 426851
52008 153896
52156 566097
52871 242511
53200 912891
54130 900883
54593 404505
55462 143052
55846 235465
56747 635767
57341 28260
57645 566324
58158 667545
58693 495320
59359 903926
59740 427418
60157 207365
60738 2369
61352 51239
61801 915661
62172 418356
62818 802380
63654 187924
64388 710351
64530 899787
64996 89629
65220 6426
66202 888268
66794 288712
67010 686791
67731 103800
67747 433398
68738 807883
68917 20712
68934 72681
69682 397296
70301 783889
71251 874289
72051 649960
72302 357058
72697 711381
73017 336243
73056 476776
73370 115435
74299 346866
74782 941423
75373 693324
75455 424521
75876 300859
75999 609088
76062 529988
76766 828833
77119 381788
78031 964592
78343 953691
78634 194806
78755 209755
79390 845448
79533 220005
80400 531004
81215 613973
81874 430366
82605 449816
83370 459929
84155 98208
84445 435789
85007 149679
85335 415667
86224 59402
86827 828069
87171 270557
87943 776640
88026 590969
88339 270714
88392 442233
88501 385777
89151 982679
89163 725448
90040 569689
90967 116069
91503 539672
92096 800265
93012 125461
93177 284947
93936 182492
94352 347745
94488 731408
94903 399398
95462 556769
96195 121235
96842 207710
97637 131495
98140 419907
98737 79555
99027 372979
99563 231286
99577 756014
100561 736609
101277 647421
101281 969255
101455 353970
101460 292529
101840 34018
102038 139809
102061 650812
102866 272652
103668 895947
103681 853651
104036 954131
104210 170694
104770 488538
105326 897237
105688 980905
106203 973463
107020 481254
107866 926152
107931 29324
108701 473379
109523 933913
109761 381534
110177 659380
110772 419885
111338 439835
111957 901736
112946 943032
113277 833517
113415 655746
113481 537402
114459 343335
115008 694015
115981 231565
116205 481313
116737 161139
117286 913948
117902 772592
118592 502698
119131 321373
119788 180430
119990 70419
120928 369385
121450 35128
122313 232284
123047 204099
123502 469290
123848 877525
124677 230650
125156 547747
125960 521661
126407 260129
126985 360720
127187 987326
127768 360767
128192 545130
128574 801839
128764 265280
129234 915781
129750 752851
129795 227359
130315 137290
130807 761993
131427 544205
131778 570768
132621 447061
133591 739771
134478 482788
135066 918253
135696 397598
136106 264860
136464 102072
136691 427219
136885 803443
137257 959229
138192 214370
138599 72317
139000 551568
139420 992815
140185 400138
140277 580714
140353 449675
141240 408948
141274 637408
142037 426551
142494 797665
142743 496340
142918 955608
143084 767743
143506 805021
144101 701114
144914 815541
145832 166833
146317 347941
146626 614709
147384 594304
148371 946941
148456 561478
149195 854688
150132 391990
150818 439225
151248 898544
151415 271708
151571 130921
151759 671560
152591 114708
153092 229289
153836 409940
154752 807144
154918 762020
155278 302878
155702 978284
155762 178650
156336 633751
156892 743470
157720 862256
158608 213140
159207 303391
160194 247589
161119 349863
161966 955583
162612 45101
163079 901018
163564 911950
163699 809031
164400 748315
164615 815570
165496 369205
165665 273195
165902 274182
166461 97636
167016 100901
167189 785231
167869 244687
168374 527639
168919 97750
169105 885498
169452 795083
170277 882585
170682 51312
170845 898484
171455 137430
172088 357387
172810 35734
173383 271702
173997 529467
174423 527728
174720 461615
175706 779536
176359 95192
176808 394322
176827 660450
177469 147839
178259 727234
178930 241478
179772 790000
180364 475768
180387 656846
180617 910589
181561 951956
181854 107192
182442 169084
182508 133492
182922 446411
183815 543887
184545 396779
184678 697026
184883 375039
185052 250439
185798 934250
185817 298938
186250 409854
186916 834626
187167 573567
187664 793600
188379 23814
188525 625474
189318 820517
190019 224371
190636 745674
190777 120625
190890 282730
191230 176839
191249 957372
191363 615223
191735 566252
192683 301298
193546 192036
193730 40965
194030 304774
194854 655870
195214 656799
195748 686686
196501 775988
196588 271655
196971 793440
197952 285174
198263 516275
199253 129665
199267 968876
199499 635243
199647 471528
200069 20433
200814 353998
201428 963372
202118 507534
202926 849250
203245 412664
204152 558719
204759 590515
205537 815804
205947 581426
206639 810961
207051 588494
207278 421673
208183 62052
208307 338158
209179 225884
209293 316754
210089 185119
210139 433168
210330 159346
210750 941825
210927 978720
211211 174256
211575 375196
211730 863077
211936 140840
212200 856823
212322 112615
213276 519885
213551 710567
213925 7730
214168 612897
214425 840197
215071 177400
215241 976763
215737 548540
216502 460447
216586 579913
217096 843709
217862 604147
218693 609278
219481 242091
220282 886918
220889 655071
221339 993724
221926 888174
222791 699554
222999 713816
223693 238253
224347 950274
224506 359450
225235 748374
225930 121311
226885 153009
227062 73249
227562 340075
228476 159476
228817 615710
229628 679760
229929 975789
230673 64937
231638 736537
231722 861856
231776 21400
232185 811654
232614 900895
232742 970117
232906 849640
233752 963441
234426 874543
234789 235187
235649 5640
236479 144713
236918 550388
237897 361370
238643 426763
239467 34242
240294 483827
241010 902146
241359 787524
241764 335258
242447 233591
242661 933035
243266 864497
243595 303919
244302 685
244488 992654
244731 646864
244984 776019
245469 35305
245508 26682
246266 606736
246420 606909
246862 682219
247157 435126
247563 747555
247765 66596
248364 816663
249134 100762
249339 998466
249527 348953
250108 317789
250604 480210
251161 152271
251225 203340
252106 353427
252910 978397
252917 188568
253449 429571
253868 523060
254249 732475
254631 981787
254709 654661
255214 515271
255348 108048
255790 248366
256420 583012
256763 791700
256931 44794
257240 296485
257491 478670
258027 848741
258320 222020
258714 292277
259631 914801
260438 217708
260921 536547
261655 717584
262530 28551
263530 747193
264199 39252
264922 882174
265796 873259
265820 212204
266582 565126
266904 344739
267411 92845
267612 566253
268461 86335
268781 533149
269040 700491
269160 597055
269917 42856
269955 296571
270268 152065
271159 730491
271203 281640
272155 156167
272393 289985
272570 585012
272990 765987
273103 87636
273588 177355
273844 829993
274165 354378
274288 974712
274833 83467
275149 313706
275322 248032
275488 35233
276075 609582
276260 307208
276343 742947
277259 375325
277262 309769
277612 308613
277931 319979
278294 617589
279182 589348
279720 648341
280441 804347
281158 247211
281698 312827
282094 517617
282612 300469
283085 862048
283957 602405
284405 276536
284475 761585
285239 109087
286073 23249
286880 677780
287105 396095
287423 543081
287519 950452
287737 497139
288100 336545
288959 295404
289318 301729
290248 877247
290910 299779
291376 450717
292016 176091
292363 966419
292962 574584
293135 156929
293304 930462
294267 270056
294845 558472
295141 503674
295633 995992
295896 40301
296490 109722
296661 834822
296854 508989
297150 860712
298024 566094
298257 35136
299200 463298
300194 955650
300511 655910
300922 819534
301299 659104
301894 395971
302565 755772
303366 235175
303958 677681
304711 969661
305347 679842
306172 90589
306849 925194
307449 530235
307946 592338
308794 131557
309110 607522
309825 34866
310638 562677
310675 470077
311537 367395
312374 589611
312722 775957
313532 427638
314122 93475
314244 344200
314449 768567
314994 335507
315698 451310
316560 318478
316692 842095
316886 251842
317645 702736
318412 203530
319379 307446
320049 194082
320685 92387
321644 820035
322149 95557
322582 750535
323078 28488
323659 13253
324190 596912
324237 399548
325227 252604
325834 783781
326746 157503
327406 224551
327476 12797
328431 237238
328611 18243
328834 438404
328854 452607
329205 394489
329622 109417
330289 944809
330897 961905
331152 535480
331615 746757
332137 849703
332867 316689
333643 63712
333646 926789
334435 79028
334704 655036
335672 755024
336371 129677
336402 685851
336717 181551
337665 325049
338361 783963
338707 766944
339209 148335
339504 346949
340491 477455
341109 106206
341402 691392
341565 728435
342416 458492
342842 703876
343045 478853
343877 335736
343901 982394
344327 169712
344411 124431
345280 758148
345630 837306
346419 387992
347317 585249
347764 198250
348144 20192
348891 468838
349799 858511
349898 899612
349993 991276
350634 985256
351025 521112
351948 682483
352369 955423
352802 912797
353619 918212
354018 453620
354780 142186
355235 183630
355315 269187
355698 22580
356119 535406
356431 967531
356942 63282
357187 251406
357411 361852
357704 369356
358335 246645
359320 624533
359900 939323
360797 131570
361226 307343
361493 226343
361832 465797
362246 672668
362398 57642
362412 498465
362782 836033
363705 44443
363787 919462
364125 531448
364607 52046
365532 951123
365745 763978
365992 565428
366131 612709
366922 810232
367758 81348
367892 113325
368246 32119
368574 474323
369329 985087
370271 530877
370892 379901
371887 857969
372758 967497
373308 628003
373579 852051
373909 35059
374464 417980
375300 738958
375884 786950
376719 924697
377627 353959
377795 151092
378532 717509
378723 810466
379252 45131
379446 315372
379771 79833
380502 474818
381016 484430
381988 88368
382175 777805
382567 632719
382653 295869
382888 568181
383084 4818
383971 716088
384637 561855
385238 899695
385322 614908
385463 801650
386146 847502
386779 980856
387103 38145
387997 225060
388425 892786
389277 468
389482 671227
390384 261659
391250 973278
391412 276565
392036 701040
392526 254052
393363 710597
393515 566350
394226 47842
395151 715825
395950 121213
396715 644305
396976 820117
397914 487505
398436 115507
398575 595689
398695 941535
399563 442865
400507 988992
401455 800493
402308 634310
402812 791818
402995 552159
403606 328095
403618 519519
404578 173490
405212 896475
405553 469823
406017 930540
406522 970251
407308 922619
408091 76858
408890 751629
409588 518804
409988 570823
410411 658655
410759 524960
411275 423897
411529 921302
411579 166617
412088 566470
413043 316479
413271 389938
414122 727875
414392 242627
414618 797794
414642 140551
415580 860926
416534 847150
416536 356790
417399 917672
417904 949705
418282 861909
418706 132323
418963 179581
419673 722260
420355 840003
421234 45284
422101 618164
422260 904106
423243 814785
423722 994763
424126 183290
424189 638309
424260 466171
424373 75043
424848 668850
425589 562224
426241 336273
426400 681375
426408 367373
426574 344939
427526 968429
428144 998938
429071 14592
429074 621835
429378 175166
430068 653015
430944 343773
431696 942149
432603 280216
433014 433980
433736 784923
434319 856277
435039 947194
435272 562849
435324 966173
436052 428742
436393 659199
436528 163079
437469 45330
437629 605496
437863 709939
437971 95100
438316 364273
438598 981099
439155 883379
439395 86958
439940 574752
440427 306653
440555 725459
440624 776291
440953 984006
440966 657877
441166 191350
441975 651460
442057 315924
442650 20323
443377 545025
444262 554955
444677 51890
445539 358918
446184 48117
446488 478197
446501 347919
447296 146229
448097 33177
448826 52471
449516 888149
450056 591466
450349 204922
451322 692879
451969 65089
452853 77739
453153 433325
453443 65322
454137 457407
454444 422364
454445 175778
455212 405221
455670 248209
455879 742273
456463 457503
456883 873488
457881 431856
458868 650416
459183 556772
460087 562306
460995 203829
461135 792858
461978 162751
462898 695195
463879 939679
464348 253068
464588 833557
464985 597934
465922 349549
466690 779429
466966 491949
467140 779696
467456 888887
467498 130303
467867 764368
468825 666837
468989 480628
469259 284669
470036 323377
470039 824903
470729 610175
471137 315921
471491 446789
471894 647022
472096 932095
472886 575724
473628 310976
474398 534700
474795 19934
474894 346056
475149 731201
475516 228348
476146 523383
477055 70469
477632 481709
477703 967872
478358 94415
478480 675127
478851 369152
479045 337018
479863 131425
480850 684431
480880 201717
481688 191958
482026 468055
482185 185675
482278 440238
483222 149559
483282 623558
483730 793057
484026 319242
484569 34819
484784 395915
485107 291277
485121 204028
485245 310510
485321 13586
486195 778926
486301 728870
486753 491546
486759 703638
486912 741083
487872 704322
487914 433010
488499 984589
488510 339809
488637 282267
488894 90089
489109 254765
489381 554615
490076 709416
490766 933895
491016 745350
491235 170983
491532 824686
491997 94349
492013 502718
492478 535756
493231 25795
493598 545708
493722 558846
494327 955971
495035 921529
495287 854528
496270 940448
497096 274306
497317 16503
497502 396689
498375 265603
499091 847898
499496 618718
499610 231120
499645 65364
500582 417708
500974 128770
501001 964757
501348 554706
501699 89725
501742 429537
502233 614907
502349 767351
503344 134149
504133 213961
504502 575721
505395 205805
506042 504110
506159 977714
506807 685542
507274 542860
507741 157204
508263 750921
508289 172133
509223 911273
509805 539459
510685 306254
511191 394371
512190 505946
512796 348990
513670 151845
514263 7982
514294 222712
514298 59994
514330 654809
514644 832574
514841 811047
515152 573520
515384 896108
516129 350235
516669 906004
516720 299393
516920 236550
517731 838073
518195 887853
519194 495548
519854 612661
520770 202822
521117 114626
521655 977444
522341 816480
523005 245426
523533 458956
523749 985476
524717 98063
525150 623477
525581 604443
526120 693036
526941 80235
527028 618432
527696 266819
527770 242055
528281 406569
528464 251704
528876 883298
529762 737004
530552 992560
531483 413312
532422 891315
533188 877519
533720 927148
534257 287623
534757 266973
535111 409931
535984 13492
536350 731183
537119 369383
537969 346313
538030 104543
538958 521139
539398 244733
539671 344173
539864 624809
540638 907998
541573 191099
542365 176789
542422 272683
542511 773451
542554 781659
542689 297614
543030 451968
543543 128967
543956 175957
544187 511749
544858 394518
545531 524192
545774 660855
545901 232338
546319 688462
546679 864974
547523 425963
548486 25615
548906 473193
549574 923087
549821 515014
550569 525568
551062 508357
551811 570381
552357 955521
552817 171873
553691 378649
554179 28558
554737 431544
555148 626946
555745 755702
556062 830890
556620 470654
557620 697709
557901 908774
558247 613287
558790 490386
559472 945055
559596 499766
560301 983267
560505 420719
560709 515840
561646 693632
562275 207879
563245 916729
563595 188751
563645 456363
563703 913488
563747 994207
564651 849550
565477 369731
565684 596034
566169 50408
566369 70270
566825 376641
567813 33737
568621 557566
569048 424998
569836 700090
569981 540287
570398 147030
571165 379745
571663 593937
572452 927655
573080 909810
573959 534555
574447 303817
574884 145525
575735 426488
575769 372983
576435 191744
577338 339024
577685 598774
578523 302458
578966 429135
579202 17679
579422 530145
579649 441457
580624 353751
581159 84114
581539 454958
582244 778581
582881 93567
583266 970738
583639 626036
583897 760141
584031 959041
584711 260340
585561 936997
585670 714543
585896 253040
586602 297698
587256 574832
587658 897203
588637 388161
589186 557046
589485 686596
590337 317116
590409 621113
590552 475745
590736 949881
590781 72028
590941 353559
591346 367976
591717 204127
592477 296734
593060 379533
593601 894751
593944 313400
594869 715583
595418 882446
595672 74732
596406 483832
596825 655826
597294 115513
597865 905608
598489 517682
598720 937640
599622 68421
600530 551975
600809 121075
601703 678119
602291 498481
603016 201754
603381 183085
603772 606137
603829 788416
604258 668428
604559 900972
605360 112496
605745 663675
605764 836723
606358 618142
607198 502276
607576 948155
608064 902829
608783 874883
609529 25209
610200 613732
610386 165610
611130 131614
611583 464603
611844 49337
612325 350637
612373 690234
612568 557728
613178 619627
613416 438797
614169 525584
614672 886861
615343 318894
615709 180242
615933 21654
616814 791483
617564 48084
618135 620717
618856 381873
619835 910731
620539 740565
620909 890394
621402 564435
622074 933555
622255 550704
623105 889866
623794 576995
623822 450775
623917 232342
624882 107506
625432 910900
625658 314779
626165 265855
627097 561163
628079 839195
628324 120504
629081 97353
629573 203460
629592 372329
630355 43082
630619 440745
631223 176456
631651 112660
632013 944981
632433 136479
632526 927730
633060 245485
633328 417295
634254 954063
634412 226964
635231 607758
635626 577693
635995 392510
636811 336663
637167 429702
637391 524434
638029 569805
638975 165284
639622 113914
639663 647002
639677 457331
640661 366336
641524 450560
642139 188873
642683 237555
643244 310539
643724 869620
644311 234776
644367 438807
645036 978682
645072 563311
645590 677475
645931 500752
646603 533469
646704 327783
647063 47047
647842 873375
647940 468133
647966 805956
648113 199828
649059 335402
649246 526439
649429 127775
650240 585401
650440 106695
650482 244280
650729 234024
651323 527097
651777 73957
652450 663930
653200 951205
653858 287259
654137 544629
654803 974180
655618 3399
655935 448972
655988 444166
656849 898023
657437 685788
658211 75810
658693 58661
659535 152000
659730 469377
659880 652669
660638 748612
661063 158833
661799 402849
662786 205720
663720 224362
663794 281005
663956 342982
664669 172201
664953 383544
665732 188123
665750 777777
666718 75106
666994 662618
667329 765004
667857 675420
668448 102455
669254 879702
669352 189042
670139 272583
670511 899709
670633 508206
671098 884305
671209 797358
671721 68396
672126 186618
672612 853343
672826 950241
672893 533411
673283 951988
673414 611706
674306 435740
674540 646214
675383 575784
675681 43318
676236 331250
676673 383040
677334 664570
677505 670036
678078 749324
678642 279818
679395 504523
679454 611807
680041 123898
680520 11951
680631 556706
680782 536704
681152 372053
681517 696803
681876 937784
682063 566415
682464 853227
682497 682596
682926 122579
683295 761943
683825 140604
684191 280854
684626 47102
684865 756054
684969 133228
685330 618535
685997 376656
686147 213694
687135 984693
687815 432655
688705 129480
689550 196195
689806 260835
690538 323205
690809 628923
691285 429748
691873 568346
692602 798600
692683 127406
693670 507472
694242 736851
694302 286902
695198 69280
695634 269340
695916 232946
696583 165846
697218 95277
697637 456737
698068 400129
699044 306126
699594 24537
699706 874825
699986 887991
700937 741055
701784 237499
702347 429777
703335 736792
703360 946356
704120 649246
705107 842387
706079 729589
707017 51829
707345 872794
708229 232944
709153 246756
710110 303042
710416 641525
710594 990763
710629 291247
710962 97227
711293 837927
712088 990183
712199 805538
713191 230839
714118 433191
714759 112570
714860 918708
715022 547584
715251 593057
716013 829336
716193 821080
716880 335659
717840 309955
717930 937505
718371 225881
719267 629692
719375 47114
720205 229767
721094 457020
722090 434210
722468 393158
723094 904965
723729 879274
724299 682023
724782 653028
725541 662745
725983 290152
726443 421032
727145 970567
727736 905619
728295 792592
729026 595833
729805 501471
729827 458613
730678 115727
730864 535330
731383 581348
731906 497085
732331 295012
732867 517859
733565 366173
733590 442346
734057 287930
734058 189715
734749 416103
735368 374139
736211 852036
736388 263915
736407 257568
736885 427897
737708 682963
738660 303696
738876 635176
739431 678087
739562 766732
740387 525290
741190 464871
741279 431361
742086 672145
742737 905585
743722 834814
744116 249506
745011 128359
745157 162472
746056 507946
746427 982456
747299 488240
747679 31381
747849 403011
748668 250131
748717 599612
749615 590715
750284 813954
750810 170018
751379 310957
752254 508204
752947 870107
753163 907933
753173 264727
753607 244483
754515 805403
754565 842112
754790 339612
755160 574446
755641 997910
755975 340393
756512 304282
757487 611656
758063 595950
758677 490355
759088 966253
759512 132407
760291 223125
760563 522368
761217 440965
762025 128287
762881 399592
762901 278714
763315 695958
763343 121474
764291 32938
764973 738668
765826 278880
765970 580004
766893 529597
767239 559479
768196 831706
768668 559571
768756 611411
769483 526920
770444 809312
771420 467894
772200 174258
772918 844852
772951 38133
773853 825924
774397 295046
774602 408838
775509 140678
775730 795203
776682 365619
777402 12679
777983 388031
778195 962843
778824 12658
778912 679759
779274 886570
780131 581605
780879 537039
781026 898833
781598 990082
781624 923196
782273 690784
782774 419236
783237 813586
784220 347468
785113 917944
786019 767626
787016 766461
787074 1640
788004 215638
788322 381769
788815 627009
789024 735979
789950 194289
789978 117698
790182 402051
790916 833357
791353 859629
792041 273236
792109 810693
793070 764423
793556 866971
793921 288547
794519 602683
794924 342874
794983 613318
795903 521122
796216 306155
796312 607096
797106 487760
797579 956018
798424 826532
798899 743579
799594 325388
800331 908993
800740 166617
800978 662190
801710 822829
801751 43864
802279 932757
802729 685049
802908 298721
803301 945349
803630 601410
804518 712033
804844 852519
805748 914696
806293 477751
806463 828884
806548 684248
806633 449875
806814 345203
807184 79586
807614 792360
807913 31377
808499 74187
808870 450172
809170 460508
809393 723752
809434 600296
809499 123334
810407 633481
811324 242224
812239 545434
813095 654799
813382 19441
813460 312637
813942 818304
814559 342620
814851 52081
815159 93512
815710 676746
816691 368050
816848 802001
817366 331184
818163 6364
818835 630076
819534 326292
819577 411330
819799 364359
820542 66236
821478 744307
822188 607548
822547 533677
822644 23319
822791 17594
823665 695929
824398 59685
824439 934833
824448 614647
825014 321905
825226 247921
825618 848041
826484 769837
827133 289252
827135 643665
828118 154102
828827 251647
829495 184809
829735 371036
830516 879660
830846 930271
831132 440960
831670 471342
832516 480944
832868 260015
833046 632007
833386 118532
834029 427274
834758 282178
835109 419618
835729 149932
836605 14535
837291 679521
838112 803047
838754 628118
839174 101107
839636 377680
840609 429155
841230 672897
841970 782692
842650 275578
842781 16366
843400 861649
844389 353523
844996 423081
845022 956152
845158 885294
846017 631470
846992 636688
847240 500258
847765 650602
848718 345405
849020 155121
849364 38178
849671 850529
850571 294404
851381 961637
852287 920759
852620 521054
853531 507487
853937 464915
854770 860578
855421 267738
855920 749893
856310 419160
856550 208530
857432 113560
858002 610905
858453 541355
858696 734561
859506 950369
860395 659550
861157 919100
861317 339627
862258 70713
862382 970109
862589 830651
862898 585497
863840 415407
863947 560276
864443 943231
864492 320691
865227 700970
866102 387479
866301 706388
866407 468153
867147 893578
867700 172640
868501 690038
869071 594874
869689 628684
870427 657625
871364 302398
871856 568690
872246 752519
872950 479071
873184 479173
873328 355307
873566 605050
874394 616809
875049 239128
875118 349582
875907 389875
876246 152805
876691 532416
876780 882104
877301 759412
877533 220022
877875 914517
877984 11108
878162 393612
878822 472238
879690 52337
879917 831153
880663 336005
881623 566251
882036 652570
882198 430886
882547 251725
883137 738100
883264 26431
884196 921864
884843 863131
885386 201811
885796 386772
885834 891442
885923 593870
886729 559925
887242 59987
887254 287592
887324 921686
888195 940668
888964 937580
889405 767181
889594 963071
889858 219553
890543 975374
890971 299407
891242 116812
891589 281744
891654 808751
891690 132513
892003 622304
892667 603191
893024 734569
893743 696332
894686 875771
895224 924904
895507 490974
896357 658737
896655 249621
897601 555090
898171 505786
898777 217030
899168 927827
899199 697856
899521 976188
900296 631778
900728 254571
900988 544070
901775 925721
902065 939186
902916 698789
903628 214147
904421 99504
904581 289816
904596 690136
905338 394046
906106 716888
906325 986946
906658 668935
906762 77398
907007 948195
907020 178793
907283 198619
907842 565206
908244 428464
908576 901400
909462 125009
909495 135547
909899 87213
910689 923912
910737 424879
911264 259501
912158 623564
912978 429824
913444 542974
914037 846101
914493 892604
914924 926001
915535 379172
916007 251157
916398 406617
916740 253030
917283 166580
917622 159928
918314 631479
918537 340144
918583 943689
919456 374970
919465 296905
919816 530468
920498 276793
921294 354155
921763 952703
922113 272171
923081 288179
923851 542310
924782 863900
925343 359263
925552 530197
926472 690551
926961 142435
927636 820079
927972 874322
928217 80479
928600 511360
929293 805232
929561 4450
930266 694594
930563 198809
930770 856252
931428 716429
932072 59413
932546 582769
933104 615221
933873 213567
934105 80040
934476 778996
935002 888078
935968 188685
936920 382248
937335 698120
938031 681869
938909 961738
939384 800889
939396 82809
939971 132987
940498 998408
940543 845770
940887 493907
941412 679420
941662 463310
942101 128803
943043 390493
943210 818100
943345 348596
944033 357418
944617 394285
945475 31663
945589 626250
945687 180982
946201 610092
947127 71074
947617 195608
948106 58891
948838 940175
949644 874901
950602 386436
950836 858229
951722 661351
952698 59745
953363 928050
954201 906784
954283 723834
954969 342266
955685 473129
956627 687892
957312 61555
957784 41584
958062 70016
958634 570304
959087 869521
959256 52666
960000 146670
960928 84561
961841 111305
962284 673167
962976 478868
963689 947299
964685 665522
965119 601770
965541 762043
966472 287809
967258 550510
967848 65954
967924 959179
968718 363568
969686 437769
970594 474636
970656 487509
970725 26203
970766 645037
971517 120191
972496 262807
972886 633568
973288 739181
973514 409999
973643 400270
973787 408349
974484 224325
974931 432208
975735 922416
976500 375369
977128 613045
977797 684225
978465 688929
979256 855670
979377 196340
979574 881352
979794 901014
980672 1394
980846 539587
981344 574668
981588 505258
981603 298434
982171 228766
982441 177003
983018 969226
983061 222648
983415 845628
983584 578645
984285 839980
984615 123409
985200 798956
985609 760806
986120 705041
986346 69534
987320 382489
987418 564252
987584 235491
987736 901542
988053 967705
988125 227155
988203 672417
989007 851552
989895 743354
990071 166108
990368 148372
991264 267786
991893 789987
991973 80894
992526 219022
992809 457744
993286 338382
993596 912312
994338 737033
995066 358685
995544 163587
995866 230802
996510 637487
997178 85941
997206 892053
998010 539110
998271 941713
999064 342592
999864 243309
999948 236149
1000636 910381
1001306 336272
1001315 805105
1001382 871010
1001407 791979
1001607 457367
1002052 659709
1002296 621056
1002455 932224
1002511 948594
1003213 243427
1003711 151318
1004123 347024
1004368 31823
1005014 580784
1005330 897685
1005399 577504
1005879 526046
1006766 577085
1007461 930375
1007681 898526
1008615 351715
1009514 745533
1010480 974149
1011446 838777
1011704 877412
1011908 540310
1012056 506020
1012944 423533
1013076 821431
1013729 661373
1014662 808500
1014936 790204
1015772 184793
1015945 645708
1016198 89289
1016755 438979
1017685 307023
1018626 324232
1018778 827289
1019276 176334
1019304 37559
1019425 125289
1019736 931124
1020254 332805
1020354 638426
1021073 190880
1021623 29913
1021939 528452
1022165 450288
1022390 611152
1022980 514699
1023667 451433
1024169 912919
1025056 394010
1025678 238729
1026564 29250
1027561 116551
1028441 293873
1028769 838796
1029588 771938
1030318 56614
1030948 864464
1031881 606698
1032707 844511
1033416 395888
1034356 171109
1035060 969056
1035267 553530
1035805 101204
1036043 636373
1036670 310388
1037159 656825
1037235 544447
1037783 826068
1037977 83314
1038837 473057
1039503 376441
1040203 906073
1040333 269162
1041009 334742
1041341 995608
1041796 571122
1042365 805133
1042818 130185
1042925 713635
1043010 728295
1043545 736895
1044239 293143
1044395 8141
1045050 650781
1045678 138422
1045838 213407
1046230 283812
1046929 292724
1047537 346079
1048150 913677
1048441 349617
1048788 114032
1049358 701953
1049711 259177
1050513 417399
1051164 758697
1051539 821209
1052385 128219
1053042 300499
1053352 811546
1054023 777079
1054971 495367
1055611 635225
1055992 749746
1056521 596777
1056896 814164
1057112 864857
1057454 475885
1058401 660157
1058563 347950
1058666 325692
1059020 305299
1059407 558288
1060136 405946
1060545 143442
1061088 125116
1061638 18984
1061716 446090
1062358 322195
1063223 825826
1063889 195959
1064323 497142
1065307 658411
1066020 640993
1066383 940193
1066421 781808
1066529 343223
1066678 957763
1067246 782189
1068181 836733
1068690 293754
1068712 357306
1068954 729343
1069357 271936
1069694 216970
1070479 827900
1071385 29792
1071953 87508
1072224 57379
1072653 77369
1072701 473924
1073370 468556
1074010 147518
1074104 16264
1074661 839580
1075211 922998
1075914 218925
1076300 866256
1076745 1255
1076908 497340
1077685 76770
1077816 626015
1078528 779193
1079493 81846
1080438 586582
1080474 572784
1081183 997502
1081944 33696
1082791 997956
1083600 363788
1084094 716316
1084765 347502
1085036 575147
1085612 283469
1085879 496171
1086549 199767
1087154 755435
1088059 337552
1088228 835808
1089132 267309
1089413 371705
1090150 36896
1090400 491766
1090529 939255
1090768 999734
1091654 135048
1092473 277134
1093303 455755
1093672 110074
1094025 360484
1094532 248138
1095497 158589
1096081 513330
1096756 781076
1097634 418183
1098078 476019
1099023 261556
1099027 626478
1099601 151944
1100135 223057
1100263 126106
1100965 83627
1101362 126855
1101979 154434
1102765 964240
1102882 502118
1103130 840393
1103738 314179
1104268 778377
1104706 219736
1105613 201426
1105849 669873
1106290 593664
1106796 211075
1107197 907317
1108098 281106
1108473 892430
1109185 669671
1109503 117777
1109716 130717
1110077 32034
1110156 197265
1110571 2190
1111289 930083
1112142 55329
1112854 38042
1113547 907774
1114336 431392
1115084 756810
1115874 749927
1116774 682958
1117439 718977
1117626 485586
1118277 141805
1119031 357511
1119100 331210
1119777 500610
1119833 266341
1119872 262041
1120108 555018
1120277 28713
1120373 536312
1120514 434642
1121306 225740
1122240 347292
1122558 904048
1123030 52831
1123608 796733
1124602 52528
1125327 946815
1126155 761848
1126955 218280
1127889 958968
1127922 150064
1128090 725850
1129032 81107
1129670 967242
1129855 423741
1130632 683725
1131462 751809
1132267 873692
1132923 523700
1132935 960879
1133799 858912
1134387 184177
1135044 700837
1135995 832132
1136148 12624
1136469 77655
1136706 462730
1137469 137961
1137754 527299
1138533 343458
1138542 920626
1139452 847131
1140097 8246
1141042 715787
1141279 999664
1142134 157466
1142744 829171
1142957 715765
1143250 91182
1144186 542146
1144910 332476
1145723 502436
1146386 101783
1147313 985637
1147464 807129
1148409 103673
1148956 980627
1149159 579352
1149726 375766
1149902 377154
1150302 295492
1150544 395889
1150968 642473
1151932 692615
1152049 899332
1152545 773344
1153335 655342
1153440 511412
1153968 313763
1154214 748955
1154582 255914
1154728 161888
1155233 440850
1155660 598889
1156133 428300
1157015 430279
1157903 116639
1158253 142190
1159073 512569
1159716 362557
1160420 16323
1160876 730115
1161071 418481
1161828 332454
1162171 779918
1162740 859742
1163458 310327
1163753 296445
1163757 225091
1164486 678416
1164736 239490
1164850 611537
1165236 867249
1165820 58995
1166109 223621
1166876 519792
1167050 292509
1167498 136101
1168069 737659
1168919 764829
1169301 48351
1169366 336329
1169840 540839
1170346 852753
1170454 275792
1171061 887247
1171740 276317
1172703 372919
1173266 598181
1173846 550323
1174373 426812
1175269 670244
1175878 149678
1176312 847266
1176758 313464
1177570 719591
1177819 511666
1178083 585485
1178721 317712
1179054 620960
1179131 220992
1179435 215361
1180262 148569
1181245 230547
1181748 952378
1182697 480468
1182758 83221
1182921 704383
1183599 199893
1183923 609883
1184122 310093
1184433 334169
1184508 199262
1185092 411677
1185685 681680
1186468 509771
1187266 662992
1187517 349617
1188297 440833
1189257 918901
1189742 631616
1190389 432070
1190517 462699
1191395 603351
1191440 153827
1191462 184252
1192351 830102
1192725 876240
1193022 522958
1193593 455625
1194106 571275
1194554 699304
1194644 300695
1195357 718618
1195694 722164
1196663 272875
1197614 670562
1197795 312466
1198041 885367
1198984 446260
1199307 536071
1200054 180514
1200369 385670
1200371 80591
1200976 603697
1201400 653854
1202310 136267
1202358 586564
1203262 202879
1203734 936876
1204355 192204
1205077 621206
1206077 537480
1206413 799073
1207250 925642
1207719 327821
1208134 187624
1208784 805329
1209649 285436
1209806 573715
1209859 621748
1210078 916390
1210924 178670
1211071 136483
1211340 324533
1211696 572850
1212661 929891
1212985 330104
1213340 447252
1213905 759855
1214880 222222
1215522 193380
1216083 64907
1216881 129993
1216927 271713
1217176 634408
1217841 435931
1218055 106492
1218359 476453
1219271 390098
1219818 298082
1220323 744263
1221225 852398
1221542 9176
1221949 165864
1222751 172038
1223008 92318
1223851 771450
1224732 677144
1225165 382228
1226025 886281
1226193 53385
1226819 608645
1227082 65303
1227827 368062
1227896 648181
1228611 832931
1229458 547032
1229467 964852
1229540 275337
1229760 862318
1230585 898286
1231339 949957
1232176 537171
1232476 624615
1233323 575542
1233974 880301
1234130 77996
1234138 642766
1234346 444760
1235307 34713
1235851 955203
1235928 295328
1236619 513200
1236653 726842
1236793 365576
1237577 653223
1238031 391811
1238116 786032
1238821 4757
1239338 269215
1239742 129145
1240412 697978
1240753 228909
1241594 618168
1242144 157868
1242711 397916
1243665 371148
1243953 822335
1244058 222578
1244556 779112
1244616 534219
1244923 230219
1245079 134503
1245189 709228
1245859 782657
1246117 592955
1246541 139343
1246891 912420
1247360 892070
1247985 429014
1248840 573488
1249171 736404
1249902 473147
1249961 917743
1250485 637691
1250907 809963
1250980 537902
1251034 79048
1251377 891086
1252056 550212
1252605 651200
1252676 906838
1253455 560008
1254004 837860
1254891 212060
1255884 886257
1256031 784457
1256931 945107
1257793 844957
1257992 327646
1258143 709496
1258192 322137
1258974 464352
1259156 128894
1259340 668048
1259392 841639
1260059 799214
1260572 983672
1260866 160541
1261267 851898
1261344 925181
1261777 338347
1262702 933446
1263020 514062
1263126 244762
1264037 569631
1264192 356238
1265099 687865
1265180 595958
1265197 127190
1265533 812029
1265682 746481
1266558 627300
1266569 592710
1266683 364282
1267308 636226
1267426 314563
1267732 982953
1267828 159510
1268538 638203
1268878 885853
1269774 811279
1269831 926542
1270618 496493
1271262 296888
1271487 70779
1272168 352115
1272434 852646
1272964 40488
1273091 194266
1273573 244522
1273821 632408
1274764 138174
1275386 380684
1276012 617954
1276271 178728
1276343 532551
1276639 416774
1277087 839928
1277505 82312
1278199 162010
1278558 623574
1278901 51103
1279841 158516
1280500 625794
1280724 413006
1280817 749403
1281329 775584
1281467 222041
1282017 235205
1282609 883180
1282917 864460
1283112 975568
1283432 223552
1284265 558444
1284672 381709
1285606 899248
1285793 757485
1286273 861289
1287073 56583
1287383 351058
1288283 38940
1289211 343579
1289262 889822
1289994 922298
1290982 424083
1291614 138946
1292426 772546
1292505 998302
1292832 600173
1293727 621460
1294354 918071
1295110 171900
1295376 807249
1295682 615942
1296314 623510
1296713 231717
1297147 974676
1298044 625791
1298414 671714
1298545 762211
1298562 547139
1298838 227410
1298913 538077
1299230 284571
1299582 590943
1299741 945868
1300203 416539
1300608 896242
1300979 639017
1301367 833799
1302208 801556
1302379 291391
1302429 145133
1303230 281058
1303543 636100
1304184 258957
1304497 793264
1305235 441328
1306113 949461
1306564 275189
1307211 258974
1307802 313024
1308162 356738
1308917 535625
1309201 176763
1309816 841822
1310623 494410
1311368 516905
1311678 89094
1312326 777885
1313235 152338
1314208 409209
1314739 733982
1315258 395953
1315567 544024
1315747 751500
1316642 407950
1317404 79741
1318209 778911
1318920 222897
1319107 741980
1320037 233978
1320523 920549
1321396 480697
1321555 705200
1321948 97560
1322294 345317
1322377 228021
1322731 189198
1323429 909144
1323747 239872
1324081 563887
1324640 165959
1324727 376406
1325458 282114
1326160 46449
1327008 735524
1327215 273249
1327986 889059
1328578 633161
1329202 48249
1330029 574545
1330848 758417
1331024 144227
1331274 126889
1331962 26852
1332620 44750
1333338 519547
1333788 257174
1334043 410340
1334316 70086
1335275 130171
1335748 773519
1336697 809915
1337467 58975
1338434 650976
1339000 416422
1339339 403513
1340280 549749
1340912 747003
1341800 343334
1342121 611922
1342441 139428
1342508 229312
1343257 282672
1343955 816895
1344264 685964
1344286 937068
1344767 52137
1345465 398634
1346127 707962
1346255 638759
1346964 467283
1347047 809732
1347125 740156
1347807 391216
1348299 397104
1348736 48468
1349280 488621
1349595 621981
1350136 988716
1350296 299649
1350831 204520
1351813 973619
1352452 682298
1353078 773661
1353735 970007
1353905 813680
1353996 701632
1354163 45565
1354409 672443
1354604 244574
1355169 462999
1356119 554323
1357070 990177
1357352 672491
1357363 961910
1357450 71356
1358180 54481
1358399 787908
1358449 866425
1359320 598337
1359971 352036
1360217 665568
1360356 128582
1361152 984786
1361672 58043
1361823 899723
1361937 793247
1362011 723420
1362638 679860
1363485 201679
1363636 106148
1363971 31424
1363996 1153
1364164 414040
1365095 632531
1365653 661430
1366433 898473
1367217 627359
1368073 82385
1368766 684609
1368768 988004
1369010 417108
1369284 890158
1370084 776095
1370169 34891
1370681 529832
1371109 444296
1371495 585999
1372137 946057
1373027 727404
1373405 77483
1373614 569661
1374356 534462
1374688 831785
1375618 36510
1375906 912941
1375967 970860
1376143 974481
1377083 430402
1377877 539063
1378218 39390
1378450 106831
1379210 617483
1380156 118913
1380273 323369
1380904 686896
1381217 339301
1382081 380770
1382418 387738
1383337 737714
1384212 501178
1385109 782300
1385588 189173
1385652 580720
1386037 707423
1386729 42875
1387298 521316
1387323 34079
1388293 541341
1389102 453999
1389310 866197
1390266 453050
1390315 176836
1391181 3125
1391788 514656
1391973 318552
1392273 92761
1392350 121549
1392826 85173
1393216 128272
1394216 526141
1394303 291372
1395070 890863
1395613 33734
1396537 950881
1397072 884889
1397806 75995
1398269 368020
1398944 775203
1399068 782614
1399356 815367
1400313 438887
1400507 339749
1401149 481269
1401499 589172
1401949 92713
1402933 341707
1403285 22889
1403334 840820
1403572 304486
1404176 764716
1405051 516589
1405221 299131
1405596 511053
1406012 243978
1406641 336096
1406800 549025
1407641 865546
1408395 732070
1409242 110014
1410157 526553
1410860 390946
1411283 937652
1411795 209105
1412322 993193
1412649 842283
1412911 411409
1413537 161302
1414520 650172
1415121 205597
1415125 14939
1415855 525682
1415928 557831
1416380 230349
1416415 934027
1416632 520568
1417090 594469
1418062 952873
1418308 983579
1418981 8715
1419137 635598
1419975 46275
1420401 134641
1421243 747515
1421897 205278
1422740 676760
1423679 242420
1424178 123476
1424314 787018
1425022 82080
1426020 557958
1426982 949225
1426987 663309
1427847 90932
1428580 669186
1429227 933474
1430209 874962
1430958 565883
1431436 112996
1432327 231549
1433318 839377
1433862 618623
1434655 500986
1435546 702094
1436082 867439
1436560 773000
1437003 534081
1437370 675046
1437943 784284
1438820 939090
1439383 192643
1440103 905958
1440984 559833
1441192 430036
1441982 698114
1442662 382043
1442982 900989
1443502 875659
1444299 774365
1444449 861292
1444578 854241
1444672 258514
1445584 78613
1446000 98544
1446779 129883
1447381 800039
1447956 922262
1448660 616314
1449033 290814
1449499 525073
1450427 724293
1450585 951210
1450633 935800
1451041 118198
1452005 715348
1452157 305151
1452940 116683
1453483 123547
1453636 948897
1453839 660037
1454578 300702
1454876 487031
1455714 764632
1456058 91366
1456931 327896
1457882 854309
1457962 791750
1458550 154423
1458739 992705
1458845 490358
1459101 497346
1459872 359091
1460478 266548
1460900 96119
1461554 178152
1462106 417538
1463048 112184
1463731 181673
1463962 274680
1464101 908170
1464479 300088
1465406 787951
1465721 889973
1466278 443331
1466933 653096
1467305 878957
1467726 591924
1467948 805266
1467986 197113
1468712 890856
1469091 269041
1469353 791218
1470028 534103
1470423 615474
1470458 224185
1470848 472324
1471360 964887
1471937 664275
1472600 272050
1473358 420741
1474032 378602
1474607 122464
1474985 719565
1475397 770036
1476084 130914
1476173 687053
1477057 474159
1477247 384555
1478028 795489
1478183 150495
1478462 821764
1479268 733135
1479711 325521
1479931 642825
1480148 899133
1480167 134644
1480202 851613
1480979 996915
1481755 90549
1482420 985414
1482786 662178
1482815 324484
1483120 965918
1483136 610174
1483849 346243
1484783 730484
1485562 374014
1485726 894134
1486570 79666
1487277 379714
1487855 841996
1488034 692644
1488793 508584
1489724 599079
1490684 264286
1491134 364413
1491847 169270
1492446 896621
1493025 90810
1493039 919364
1493507 852686
1494498 24676
1494634 798005
1495159 355993
1495285 6957
1495468 740120
1496081 743813
1496498 202443
1497149 249323
1497666 412047
1498646 434498
1498742 835600
1499158 7311
1500026 366346
1500756 497527
1501671 300752
1502286 89796
1502321 566653
1503062 780335
1503846 244886
1504154 727400
1504181 350707
1504922 107086
1505667 658634
1506543 565315
1507213 842154
1507803 790798
1508605 92176
1508712 122004
1508754 715321
1509225 211475
1510114 635413
1510590 562457
1510945 917893
1511504 228535
1511988 721334
1512597 895308
1513554 583512
1513618 629934
1514141 749052
1514694 931943
1515582 211102
1516282 534715
1517265 824546
1517381 594514
1517854 899346
1517985 805275
1518157 382739
1518838 339120
1519167 538255
1519708 227598
1519763 420999
1520304 686762
1521226 883037
1521865 333130
1521999 524428
1522330 679975
1522440 711356
1523123 187883
1523368 949708
1523656 18767
1524466 685738
1524664 377689
1524861 391215
1524916 81949
1525824 951597
1526416 253837
1527037 979273
1527392 982644
1527437 736618
1527740 657210
1527927 803165
1528868 305870
1529530 485803
1529717 979545
1530285 443777
1531155 436446
1531284 686927
1532241 605986
1533228 688496
1533550 692364
1534242 600507
1534671 807749
1535402 105742
1536282 958651
1537117 924767
1537425 177233
1537457 239117
1538058 89334
1538120 258671
1538761 44792
1539202 919644
1539238 588816
1540024 555560
1540399 634117
1540947 802687
1541719 313047
1541874 69113
1542769 793934
1543405 269535
1544032 969311
1544201 850995
1544985 316993
1545190 282012
1545914 551382
1546400 361482
1546894 329095
1547244 619216
1547785 996981
1547901 57851
1548353 362450
1548564 132083
1549243 425992
1550151 980173
1550157 953330
1550389 309430
1551198 617442
1551700 426685
1551839 396712
1552145 547362
1552647 500510
1553418 287839
1553504 608631
1554259 873615
1554706 592157
1554910 250338
1554931 615985
1555322 228887
1556063 864411
1556778 395017
1556831 292698
1557231 562864
1557427 48447
1558373 494756
1559022 188067
1559659 169962
1560261 685715
1560545 874851
1561002 469676
1561732 875667
1562079 845933
1562965 503679
1563696 560160
1564283 128660
1564941 604110
1565130 416288
1566005 948242
1566336 872285
1566346 430193
1567133 520140
1567517 680387
1568109 483477
1568856 877217
1569829 171580
1570325 814824
1571093 404563
1571944 118668
1572881 907718
1573150 824170
1573368 39881
1573449 398715
1574343 703611
1575252 856946
1575308 376185
1575737 281892
1576137 911551
1576689 935122
1576806 486839
1577168 20402
1577752 475439
1578050 551753
1578219 570149
1579173 637614
1580029 228020
1580675 934032
1581386 149771
1582124 904129
1582840 333256
1583458 857997
1583832 558825
1583881 622607
1584773 717917
1585268 629368
1586230 593093
1586515 990608
1586838 227285
1587481 965524
1588061 500183
1588303 333697
1588924 565139
1589311 726782
1590054 187688
1590489 589303
1591078 242867
1591501 768124
1591560 463011
1592004 411294
1592382 598059
1592804 644881
1593659 87656
1593953 61285
1594127 988861
1594283 266087
1594442 177688
1595042 614352
1595446 890111
1595998 406552
1596825 559968
1597290 843767
1597514 579104
1598217 491598
1598992 665063
1599439 589286
1599904 62409
1599905 623436
1600376 769165
1601137 810038
1601979 2178
1602877 575356
1603021 902468
1603710 922634
1604384 70974
1604583 159940
1605478 110707
1606241 415620
1606866 46063
1607144 891088
1607944 461197
1608181 386477
1608353 304244
1609018 540612
1609062 112664
1609904 173344
1610879 150487
1611061 464760
1611337 42378
1612289 483968
1612724 774824
1613092 165803
1614041 180672
1614953 854421
1615664 878764
1616317 577677
1616324 83687
1616711 298396
1616814 880254
1616885 880403
1617507 147214
1617652 390980
1618582 368803
1619416 350368
1620287 213723
1621105 75494
1621406 661176
1622091 639591
1622610 347828
1623600 601019
1624034 940291
1624328 253096
1624586 393339
1624769 938866
1625000 901434
1625299 221028
1625798 906737
1626692 640521
1627134 342572
1627582 160098
1627676 320936
1628221 791008
1628387 539879
1629117 767442
1629557 570509
1630534 945583
1631210 834110
1631247 35431
1631365 534527
1631826 760205
1632280 440976
1632723 645173
1633539 674528
1633992 867560
1634035 280657
1634391 211092
1634574 402410
1634971 317324
1635749 634413
1636599 444902
1637007 209884
1637658 79668
1638237 381541
1638334 187103
1639004 979088
1639611 910766
1640254 696992
1640869 844586
1641430 325341
1641529 669530
1641740 70584
1642610 57891
1642815 302752
1642996 742615
1643880 830885
1644645 245355
1644657 133745
1645421 487572
1646412 553869
1646626 693352
1647447 56251
1648417 467888
1649169 680002
1649723 415562
1650009 689559
1650357 5813
1650850 676778
1651676 118763
1651770 838710
1652477 394239
1653074 969859
1653127 276065
1653229 818282
1653489 945136
1654166 823218
1655151 236865
1655550 828515
1656028 244434
1656971 747320
1657052 261493
1657522 331165
1658044 16663
1658050 598993
1658634 144697
1659134 593262
1659962 446121
1660084 771868
1660275 59492
1661129 244528
1661150 145382
1661316 617213
1661796 744261
1662372 228584
1662717 395903
1662795 770108
1663186 513321
1663757 836733
1663833 85864
1664200 399364
1664892 956094
1665024 558187
1665333 24478
1665469 921859
1665884 400703
1666152 625908
1666321 124991
1667243 233122
1667488 936961
1668439 561656
1669021 282401
1669417 656435
1669555 260263
1669736 908016
1670053 242671
1670467 863786
1671093 594047
1671519 986609
1671611 62231
1672136 537778
1672232 979475
1673218 651323
1673504 367752
1673732 8639
1674216 785716
1674383 350585
1674616 729850
1674646 518719
1674707 238231
1675177 614458
1676041 768995
1676733 571868
1676772 216435
1677404 217504
1678377 222751
1679209 907112
1679934 279772
1680914 569703
1681428 989660
1681438 646686
1681748 183528
1682232 791630
1682279 464230
1682750 526548
1683644 716592
1684287 845355
1684960 600745
1685741 85826
1685766 988262
1685829 286370
1686706 124609
1686744 760443
1687711 705298
1687973 489136
1688831 941186
1689754 670888
1690676 798428
1691601 916481
1692259 110877
1692303 878947
1692306 498842
1693284 137695
1693856 172489
1694468 820931
1695089 801799
1695615 411017
1696204 593185
1696685 730842
1697651 186059
1697665 718438
1698242 667718
1698506 717889
1698968 36498
1699250 106827
1699261 624590
1699455 304370
1700406 218098
1700805 10719
1701103 811695
1701342 602055
1701880 498046
1702739 84353
1703206 156984
1703763 62583
1704452 304681
1704628 370669
1705169 389719
1705437 644283
1706290 416589
1706399 278168
1706622 487101
1706925 996144
1707227 70141
1708051 820659
1708856 286005
1708867 682328
1709335 168169
1709590 521907
1710015 741906
1710377 364031
1710802 559254
1711696 806393
1712640 944221
1713032 492130
1714003 361233
1714243 309213
1715100 434164
1715562 336159
1716275 867659
1716436 21669
1716609 616512
1716988 190818
1717965 339347
1718257 815569
1718806 232577
1719255 719293
1720241 819454
1721204 524196
1721415 661255
1722111 257874
1722939 822888
1723192 382034
1723952 251492
1724222 988247
1724754 233573
1725695 56088
1725768 435575
1726555 219918
1726673 175463
1726712 845653
1727481 919875
1728124 309782
1728645 299058
1729300 555679
1729424 412234
1730265 261659
1730950 707993
1731687 543019
1732070 571446
1732454 353927
1732726 466748
1733099 828952
1733561 54854
1734245 886710
1734664 639864
1735243 924769
1736024 46350
1736745 463632
1737504 82804
1738056 68987
1738367 915341
1739048 116874
1740019 297766
1740554 742231
1740730 384109
1740924 30443
1741326 846172
1741983 795693
1742621 786412
1743528 326391
1743751 786738
1743926 916578
1744104 231544
1744247 949084
1744450 224137
1744609 652642
1745139 627470
1745352 451966
1746178 500906
1746908 280634
1747679 662677
1748006 985149
1748168 804363
1748615 633349
1748914 51790
1749825 29405
1750618 800174
1751059 31198
1751662 220116
1752504 992560
1752987 60562
1753766 227951
1754502 938271
1755182 148015
1755668 874044
1755791 699261
1756286 436306
1757103 32709
1757256 727649
1757683 63313
1758563 407693
1759198 66985
1759427 817075
1759886 458321
1760405 903245
1760859 822765
1761832 738499
1762680 466708
1762847 675485
1763262 890830
1763750 309611
1764340 260160
1764678 897151
1764960 248863
1765939 299238
1766480 43027
1767036 794300
1767681 2098
1767853 474103
1768023 17228
1768618 417278
1769269 622342
1769793 545904
1770443 215363
1770871 675000
1771751 868416
1771989 619845
1772259 278817
1772608 785303
1772978 291614
1773678 683883
1774085 585776
1774454 104158
1775454 550434
1776098 477966
1776230 489614
1776606 695438
1776720 166436
1777715 814695
1778313 176567
1778670 145535
1779183 8746
1779326 785132
1779988 648017
1780102 570605
1780497 935405
1781069 217330
1781991 356439
1782398 827072
1782744 761003
1783269 481540
1783305 564045
1783724 34270
1784126 763373
1784944 648277
1785206 299921
1785317 852565
1785871 640968
1786174 77423
1786646 979268
1787202 163992
1787372 198041
1787660 239691
1787838 91029
1788528 487299
1788683 454380
1789169 417010
1789339 729773
1790080 475258
1790578 434160
1790961 648227
1791199 759157
1792056 692316
1792759 369597
1792905 13161
1793155 704428
1793434 991327
1793787 380545
1794461 379397
1794539 10624
1795005 972102
1795797 614799
1796454 605747
1797341 514949
1798316 543862
1798443 527738
1799411 778144
1800247 266136
1801103 368301
1801159 345407
1801167 457166
1801936 179613
1802456 801601
1802614 221134
1803054 638101
1803503 237200
1803626 264922
1803860 400371
1803944 993590
1803982 782258
1804529 127431
1805504 917718
1805982 191742
1806862 922034
1807242 678760
1807593 330120
1808098 238651
1808769 506409
1809221 327461
1809534 354103
1810073 868389
1810820 175192
1811344 959574
1811626 111619
1812232 58654
1812275 996072
1812696 131786
1813560 644048
1814478 827523
1814936 941274
1815328 498285
1815688 903945
1815740 254348
1816522 147807
1817353 956477
1817469 756944
1817634 644954
1817714 489534
1817846 337218
1818728 978719
1819518 18150
1819637 732879
1820029 656234
1820172 273209
1820202 215375
1821065 869375
1821965 703810
1822946 758276
1823369 482701
1823893 776443
1824673 287006
1824724 576501
1825393 542833
1825995 984655
1826114 854901
1826962 746221
1827558 227102
1827717 651782
1828471 817406
1828745 954359
1829579 713797
1829663 938931
1830584 383823
1830679 693706
1830716 529903
1831070 544957
1832031 51065
1832844 839004
1833647 471434
1834227 493807
1834563 531841
1835373 775754
1835376 886742
1835871 566297
1836255 983916
1836510 547230
1837369 898180
1838261 657911
1838270 442937
1838864 222719
1839590 723583
1839600 636151
1840480 835426
1840536 105036
1840568 667208
1840989 190809
1841620 869897
1841839 974728
1842035 149065
1842449 671680
1843208 801472
1843602 925378
1844512 455451
1845384 389670
1846009 952229
1846047 189361
1846065 87378
1846716 245403
1847380 649034
1848156 952140
1848571 341587
1848690 223340
1849019 865850
1849752 436020
1850482 940363
1851076 82358
1851585 395184
1852494 673822
1852920 714763
1853136 774171
1853555 671561
1854197 509069
1854585 182969
1854956 741722
1855061 787266
1855266 92960
1855974 573704
1856302 61522
1856327 898819
1856708 644242
1856854 727420
1857319 870485
1858083 465567
1858566 198836
1859098 805095
1859929 318025
1860261 251682
1860604 875675
1860996 37054
1861102 823181
1862015 347443
1862428 388671
1863420 908041
1864197 58383
1864947 335780
1865907 882700
1866546 612096
1866610 966514
1867289 209040
1868110 376699
1868932 861341
1869467 33208
1870454 12170
1870517 647683
1871178 686317
1871524 681354
1872088 913527
1872155 830406
1872196 815988
1872293 764012
1873270 497637
1873619 547678
1874587 746406
1874675 134440
1874933 646366
1875415 584607
1876172 83312
1876320 444785
1877239 597113
1877909 246000
1878415 895727
1879108 569122
1879577 792483
1880264 327896
1880393 173302
1881059 121563
1881984 406925
1882196 383292
1883127 945916
1883793 359829
1884381 856180
1884522 678497
1885222 637633
1885353 638586
1885365 511567
1885952 256224
1886493 203838
1887425 789280
1888305 116718
1888403 896612
1888436 150515
1889023 674586
1889793 796707
1890786 509281
1891459 83018
1891930 999049
1892062 435296
1892988 32459
1893804 725155
1894199 699786
1894488 587620
1894802 221977
1895064 385646
1895982 354826
1896857 781373
1897205 950332
1897813 851221
1898241 128280
1899135 690433
1899772 852702
1900731 39863
1901597 864799
1902099 538867
1902672 69064
1903375 537482
1903993 377301
1904323 616450
1904909 994430
1905165 391140
1905362 820383
1905882 130705
1906251 796232
1906736 460931
1907176 991454
1907356 597754
1907462 175015
1907753 332913
1907829 872286
1907900 438576
1908464 859257
1908901 401100
1909776 190180
1910570 864675
1910860 125082
1911701 73077
1912107 421911
1912199 623835
1912839 381864
1912978 189096
1913882 334079
1914003 797300
1914401 322411
1914519 355927
1914733 773463
1915109 428437
1915542 872435
1916179 227218
1916223 478677
1916459 945599
1916481 183978
1916557 756609
1917432 63912
1918037 770250
1918342 258930
1918370 956586
1918901 478153
1919714 526797
1920588 573828
1921219 473712
1921267 57024
1921757 410017
1922056 377276
1922286 36841
1922317 239871
1922982 322804
1923407 85832
1923534 997668
1923717 430416
1923832 647004
1924272 54675
1925109 647942
1925439 538018
1926101 985059
1926597 574865
1926771 932917
1926801 13610
1927584 338008
1928101 153212
1928122 388745
1928704 704507
1929237 326273
1929816 820911
1930741 209190
1930943 179015
1931859 36044
1932419 724310
1933158 849663
1933856 5108
1934589 577003
1934625 837341
1934697 987045
1935565 380964
1935830 68089
1936408 680700
1936713 772949
1936722 531191
1937708 798222
1937737 989918
1937841 939349
1938181 833930
1938638 937984
1939531 689335
1939755 452672
1940412 91654
1940987 782624
1941041 429397
1941832 937103
1942280 11867
1942925 593060
1943422 37056
1943756 995313
1944333 310953
1944576 134364
1944625 34412
1944845 781194
1945761 724063
1945835 876108
1945864 333346
1946351 481378
1946943 561825
1947044 250740
1947859 323950
1948341 349193
1948690 451619
1949639 876116
1949877 738848
1950314 739360
1950974 450611
1951713 883157
1952143 380106
1952860 302090
1952900 912325
1953591 998437
1953767 8514
1953827 846278
1954415 219940
1955031 452
1955247 983775
1955360 604428
1955778 618058
1956621 89822
1956792 84925
1956830 896145
1957571 317680
1957666 271435
1958372 258486
1958894 609609
1959031 482144
1959942 209907
1960099 101135
1960626 775342
1961489 393225
1962004 698656
1962322 333915
1962661 18386
1963439 54868
1964228 568272
1965093 39590
1965241 138066
1965498 811271
1966432 69006
1967367 840693
1967549 66004
1967809 9930
1968311 437439
1968616 663959
1969288 994974
1970056 983160
1970200 234159
1970304 86761
1971148 326913
1971265 47657
1971328 148702
1972233 165035
1973164 119429
1973294 914114
1974044 351744
1974661 983930
1975506 860620
1976150 394604
1976475 703431
1976607 585090
1976883 920321
1976913 66651
1977157 383383
1977784 744804
1978406 587010
1978708 138017
1979471 264716
1979997 882651
1980192 171987
1981103 942545
1981508 738708
1982350 246389
1982614 422333
1983264 742157
1983658 651113
1984442 425479
1984857 775893
1985210 133050
1985701 332750
1986401 281482
1987259 289227
1987909 792771
1988238 422030
1989124 247169
1989363 894225
1990079 114814
1990483 52554
1991087 385694
1991536 284152
1991801 664774
1992386 200569
1992468 126070
1993263 200085
1993546 388621
1993719 768565
1993786 323179
1993832 418237
1994722 703599
1995120 753602
1995143 288224
1996102 36739
1996967 568981
1997293 271877
1997514 167252
1997810 976366
1998272 443228
1998659 931673
1998682 109908
1998742 692952
1999391 25850
2000153 993670
2000949 12407
2001302 468894
2001339 460517
2001850 342589
2002136 92697
2002840 142452
2002935 57488
2003878 938881
2004690 228401
2004986 464655
2005864 870907
2006531 211037
2006857 65846
2007823 37268
2008536 997856
2009400 537754
2009973 987100
2010029 956537
2010366 497020
2010524 879523
2011362 700477
2011680 984449
2012618 965656
2013342 620896
2013892 12260
2013927 931370
2014358 744855
2014771 86336
2015657 805915
2016252 588247
2016664 776044
2017458 184103
2017503 243297
2017789 50539
2018544 980230
2018825 193039
2018868 5203
2019329 311165
2020032 130431
2020220 145627
2020535 836227
2020889 827950
2021370 911603
2021734 723872
2022141 615197
2022477 852048
2023477 633001
2024303 722932
2024836 167249
2025242 649355
2026229 176754
2026798 650454
2027013 264044
2027562 907814
2027807 476404
2027844 772632
2028442 944893
2028751 886638
2029293 14366
2029988 353273
2030481 924639
2031262 967688
2032051 678576
2032848 166529
2033772 424233
2034344 236573
2035267 843252
2035598 114822
2036415 378769
2037271 183273
2037616 256083
2037869 435549
2038580 547660
2038749 259673
2039422 790177
2039855 544384
2040213 736853
2040447 206656
2040541 958381
2040721 314613
2041123 114651
2041861 179695
2042706 123972
2042870 92018
2042966 528047
2043642 673590
2043766 94604
2044646 542083
2045264 232700
2045830 196462
2045868 317620
2046380 586955
2047150 347613
2047917 924471
2048689 337501
2049681 873629
2049888 349404
2050348 236977
2051230 777751
2051997 951757
2052637 628389
2053189 389091
2053516 203078
2054329 421362
2054436 353968
2055255 713049
2055473 513332
2055965 157890
2056075 237648
2056230 532233
2056286 670915
2056785 904461
2056922 431066
2057244 294831
2058035 460428
2058707 282575
2059353 917918
2059425 306157
2060242 617425
2060737 301948
2060993 948292
2061505 750465
2062026 618974
2062147 920687
2063064 156402
2063607 429120
2064017 598704
2064477 792035
2065426 57369
2065516 778698
2066027 238051
2066279 57003
2066571 350675
2067083 559275
2068020 518223
2068978 225783
2069959 805722
2070094 778593
2070812 923146
2071003 865990
2071335 988560
2071471 667817
2072145 828419
2072918 945955
2073838 75945
2074449 390949
2075016 852244
2075905 830263
2076816 409252
2077045 525918
2077655 586432
2077971 418214
2078593 470225
2078619 955471
2078622 8930
2078864 886799
2078975 368373
2079362 106465
2080031 412429
2080277 50463
2080981 628286
2081876 294624
2082402 508993
2082607 629586
2083036 411239
2084009 59648
2084515 742271
2084706 779090
2085032 784377
2085038 271613
2085343 153542
2085922 854052
2086362 339439
2086877 106617
2087315 198518
2087578 747393
2088428 687396
2089150 877942
2089870 6731
2090088 487175
2090971 726207
2091707 525548
2091844 206987
2091966 714747
2092063 832408
2092112 590236
2092396 491424
2092851 9349
2093425 480344
2093427 52586
2094248 814012
2094847 707101
2095491 7414
2095904 420649
2096352 862245
2096882 290915
2097854 284786
2098168 243906
2098703 525412
2098838 430152
2099070 660664
2099909 653232
2100611 965921
2101470 674847
2101914 492765
2102196 877851
2102805 218266
2103409 228063
2103462 761801
2104461 875286
2105220 794991
2105430 276268
2106350 602446
2107230 900893
2107853 481253
2108792 293201
2109747 89688
2109830 256661
2110328 345921
2110707 276216
2111616 641283
2112337 982393
2112999 819143
2113885 254617
2114558 584450
2114827 656580
2115375 570072
2115954 234813
2116471 910851
2116495 167696
2117193 84568
2117461 244613
2118124 135222
2118851 527011
2119714 89964
2119896 219660
2120009 100882
2120758 907217
2120975 23240
2121821 675910
2122689 723144
2123278 750664
2124068 475843
2124997 81500
2125826 226250
2126309 821174
2126892 307822
2127604 873962
2128108 383630
2128309 664114
2128997 990229
2129917 557718
2130472 865692
2130653 270386
2130912 929971
2131042 353554
2131759 409212
2132363 983537
2132364 785906
2132550 828387
2132626 824215
2132659 288533
2133181 630529
2133998 97690
2134862 538913
2134967 76208
2135475 416701
2135505 937173
2136389 456173
2136410 834221
2136605 722817
2137501 943051
2137964 329520
2138115 950501
2138569 649293
2138695 32415
2138954 842172
2139302 671338
2140107 360383
2140208 209359
2140648 897885
2141466 713653
2142156 158920
2142419 342749
2142487 340837
2142745 323601
2143494 940082
2144346 809031
2144774 929976
2145722 904800
2146111 682368
2146654 170752
2147178 212261
2147820 286682
2148442 444021
2148666 656399
2149601 632035
2149957 156553
2150475 524258
2150531 623859
2150681 47138
2151116 442911
2151547 333643
2151861 842501
2152067 529757
2152818 343793
2153157 387994
2153422 966668
2153629 165074
2154182 247440
2155112 443554
2155289 890427
2155512 4915
2156066 639074
2156912 696732
2157361 614209
2157373 282272
2157818 691429
2158404 469518
2158982 218665
2159518 378584
2159874 256151
2160431 360438
2161173 465918
2161902 981400
2162463 336810
2162881 230027
2163437 124898
2163473 804986
2164445 357494
2165385 104925
2166332 271743
2166386 534114
2166422 48397
2166601 527249
2166714 742356
2167625 543035
2167665 48218
2168144 670215
2169005 66
2169585 12224
2169718 963414
2169948 155069
2170243 285733
2170565 245518
2171065 749330
2171707 417111
2172024 62168
2172290 781785
2172704 727105
2173301 137544
2174258 56135
2174562 578840
2175346 644260
2176106 503357
2176291 35492
2176693 51298
2177209 617567
2177309 302174
2177731 839877
2178173 55815
2178248 547232
2178306 992313
2178531 148374
2178955 997747
2179638 761068
2180579 784989
2181518 298898
2182357 653180
2182728 122568
2183624 356338
2184154 54480
2184400 965361
2184736 27890
2185504 60490
2186367 764655
2186672 707161
2186701 42454
2187608 771064
2188206 870689
2188779 928355
2189025 393377
2189050 192890
2189374 599124
2189700 246409
2190579 121450
2191014 596924
2191441 256409
2191814 799784
2191937 570683
2192688 353039
2193208 503166
2193391 915648
2194328 542304
2194910 415835
2195268 285161
2195617 546709
2195817 197924
2196179 704246
2196816 527864
2197000 67568
2197269 661017
2197889 543262
2198656 688464
2199093 721997
2199488 830104
2199611 317480
2199631 693876
2200407 232917
2200527 131060
2200939 671561
2200963 501010
2201737 635930
2201745 954564
2202468 416187
2202699 265287
2203228 138961
2203891 361083
2204537 756584
2205188 827621
2205788 544347
2206479 587700
2207253 676215
2207774 930009
2208759 458668
2208767 217160
2209743 941487
2209949 713273
2210639 397196
2211312 761497
2211325 526454
2211427 34497
2211888 292083
2212160 627626
2213045 707659
2213213 329232
2213389 869794
2213738 22002
2214162 352644
2214580 800154
2214771 595594
2215447 406875
2215719 608562
2216506 354657
2216752 632598
2217272 421818
2218055 848390
2218664 802475
2219642 229139
2220415 284390
2220916 991406
2221724 300153
2222624 357587
2223033 591571
2223471 854590
2224259 844222
2224701 68239
2225263 583107
2226008 729955
2226024 934702
2226677 859424
2226819 860209
2226826 745384
2226994 645104
2226998 239456
2227293 762490
2228114 497544
2229030 631082
2229071 303128
2229659 515081
2229820 46292
2230505 502304
2230997 589506
2231324 225066
2232308 178642
2233179 536275
2233362 586024
2233860 982332
2234781 779192
2235032 967758
2235893 236489
2236549 812479
2236748 477437
2237478 73491
2238259 742639
2238959 637358
2239865 279738
2240274 486339
2240471 907538
2241326 249557
2242098 645694
2242437 453552
2242728 548050
2243122 941252
2243709 959020
2244569 882479
2244704 955357
2245666 764342
2246360 988203
2246606 882178
2247135 244139
2247269 513689
2248176 183301
2248322 224401
2249287 316780
2249618 631306
2250411 560837
2250444 8717
2250922 115459
2251434 12343
2251622 37637
2252024 585900
2252816 565724
2252898 416133
2253472 398398
2254201 636872
2255185 994511
2255389 257991
2256273 798436
2256605 367638
2256995 666970
2257084 694085
2257817 717461
2258224 695437
2258692 72970
2259479 596066
2260435 580709
2261056 99420
2261229 120034
2261518 797684
2261972 776502
2262836 685141
2263198 664534
2263737 716331
2264355 334876
2264400 721128
2265202 419150
2265970 379333
2266039 208400
2266664 763225
2267528 34702
2267826 890185
2268721 991688
2269564 39101
2270531 359730
2270858 97678
2271646 983467
2271926 1699
2272881 836424
2273516 617071
2274104 161239
2274808 132756
2275690 897985
2276622 57882
2277559 787742
2278045 205518
2278992 89716
2279575 396698
2280198 961709
2280920 830271
2281683 183219
2281710 99161
2282447 301335
2282677 927211
2283587 703789
2284567 974750
2285244 713790
2285683 883511
2285902 425497
2285982 358544
2286954 940894
2287319 337882
2287656 186891
2288487 358277
2289152 64883
2289575 901333
2290397 543166
2290821 926538
2291004 486912
2291026 75646
2291350 922456
2291815 984671
2292191 919131
2292886 142910
2293688 119567
2294475 398465
2295195 861672
2295471 246232
2296398 125230
2296876 836916
2297360 933587
2297744 907665
2298134 632347
2298623 164368
2298866 723506
2299208 680453
2299306 769974
2300271 737406
2300404 714587
2300838 323513
2301608 511263
2301888 970368
2302859 187909
2303416 522273
2303933 213167
2304597 426515
2304773 819366
2305528 876148
2305917 476713
2306914 204667
2307225 429717
2307936 478078
2308752 960451
2309480 695480
2310247 82673
2310991 556848
2311928 845089
2311991 202939
2312883 835615
2313622 966084
2314497 68020
2315194 208619
2315525 100491
2316196 388264
2316917 594280
2317152 625675
2317361 675734
2317947 367145
2318650 864845
2318668 340472
2319262 211949
2319510 704741
2319847 668931
2320344 659503
2320447 77859
2320736 761856
2321182 507889
2321616 889214
2321755 209190
2321991 611725
2322646 443617
2323422 768975
2324097 439349
2324449 446214
2325363 442544
2325611 313410
2326097 34221
2326884 534102
2327182 288332
2327848 53603
2328526 523372
2329207 104010
2329375 921933
2329762 517237
2330556 304982
2331311 244524
2331593 147749
2332251 956820
2332464 143334
2333340 999686
2333808 900845
2334685 978319
2334822 437549
2334978 347200
2335584 458321
2335814 429226
2335987 981743
2336870 342426
2337866 158773
2338667 202297
2338800 159115
2339551 957162
2340260 30918
2341190 353624
2341496 818204
2341539 991405
2341922 816867
2342406 821605
2343315 136389
2343327 479033
2344135 440384
2344959 565608
2345624 580674
2346337 347625
2346885 977617
2347094 520822
2347998 258757
2348262 480364
2348538 983195
2349037 787592
2349152 698011
2349673 82744
2350114 835298
2350868 931412
2351800 781751
2352704 170857
2353212 171355
2353421 318837
2353946 294388
2353989 719363
2354433 786259
2354596 26356
2355472 25378
2355863 39131
2356448 257737
2356742 395070
2357184 379345
2357195 425964
2357746 823288
2357888 312021
2357950 33511
2358259 885999
2358291 716584
2358385 590081
2358807 924412
2359788 802619
2360125 427426
2360922 487615
2361560 153325
2362472 926917
2362671 755198
2363631 889030
2364363 731054
2365022 296492
2365973 336734
2366610 80373
2366700 746760
2367612 805516
2368588 331320
2369267 691436
2369451 897312
2369567 998156
2370319 679325
2371277 994059
2371460 844937
2371634 175871
2371922 28246
2372406 644235
2373364 730751
2374018 812225
2374097 628216
2374184 969994
2375003 102566
2375550 607139
2376090 968416
2376130 245255
2377100 84048
2377524 322618
2377689 30752
2377693 122362
2378005 59672
2378146 774917
2378720 673817
2378875 58351
2379604 116923
2380320 736594
2381108 855905
2381590 537422
2382218 612216
2383060 828269
2383571 540701
2383639 592364
2383869 791791
2384565 413869
2384686 267839
2384776 846914
2385483 765001
2385563 382791
2385574 606091
2386155 938670
2386874 119699
2387370 672178
2387891 280564
2388697 378925
2389300 226755
2389361 435383
2389537 670420
2389908 43349
2390272 617505
2390717 62257
2391540 164277
2392470 192305
2393200 972440
2394101 210978
2394558 808433
2395420 30850
2395453 906445
2396019 981562
2396532 267216
2396801 823543
2397654 672412
2398437 694946
2399108 592828
2399668 788823
2400523 887944
2400789 18491
2401210 730609
2401615 854822
2401649 41280
2402116 878673
2402729 355937
2402969 350991
2403856 249806
2404461 298447
2404741 428475
2404804 333964
2404977 454799
2405798 370087
2406253 401150
2406682 472102
2407510 558951
2408459 320127
2408546 314521
2408671 54501
2409444 404788
2410390 803404
2411356 882105
2411945 647816
2412677 110513
2413099 554078
2413867 340504
2414434 253696
2414608 509833
2414885 60628
2415400 263449
2415720 26464
2415953 749421
2416223 124642
2416317 94486
2416842 997848
2417046 331810
2417049 37181
2417675 734063
2417830 900712
2417937 23385
2418473 394352
2419278 997098
2419661 133064
2420201 86629
2420873 34662
2421715 382279
2422145 140911
2423093 873389
2423511 822473
2424125 628155
2424625 773185
2425317 673652
2425679 808658
2426667 655865
2427369 559550
2428098 519963
2428802 983093
2429251 359691
2429638 338711
2430310 571898
2430510 882395
2430767 500611
2431372 178506
2431486 13325
2432206 704533
2432351 642208
2433334 599021
2434330 61494
2434424 53039
2434913 428532
2435093 305430
2435221 796678
2436123 533040
2436147 493047
2436550 39076
2437124 224900
2437500 761221
2437534 164037
2437821 740048
2438092 833841
2438521 231626
2438924 884014
2439878 968813
2440833 752423
2440967 555434
2441958 610748
2442814 9814
2443001 557532
2443069 433477
2443539 769971
2444070 420203
2444732 409220
2445651 562135
2446418 634389
2446910 106384
2446995 542011
2447056 885799
2447158 198437
2447861 983930
2447987 314021
2448238 199490
2448240 847351
2448738 161277
2448894 876484
2449480 837447
2450229 364726
2450900 121117
2451801 638039
2452252 922086
2453215 21975
2454137 60774
2454458 699014
2454973 697641
2455062 285953
2455509 796193
2456395 388567
2456497 353241
2457090 27206
2457688 709392
2457941 603957
2458692 742046
2458774 74225
2459438 379702
2459637 214652
2460262 931748
2460963 322864
2461862 980218
2462643 969028
2463193 574450
2463479 717916
2463981 118354
2464399 94089
2464880 841306
2465470 884252
2466125 693169
2466407 145314
2466470 243660
2467019 370718
2467122 601310
2467347 743790
2467757 524309
2468699 991522
2469672 111171
2470215 635928
2470822 118001
2471570 953052
2472298 999953
2473090 893629
2473475 22133
2473910 265001
2474199 933917
2474364 470379
2474621 669798
2474963 90017
2475586 554008
2476585 59204
2476980 529910
2477757 504896
2478103 294628
2478845 650950
2479386 2157
2479799 325540
2480779 253694
2481169 629617
2481695 939889
2482347 565370
2483187 78805
2483510 5621
2483837 486950
2484634 807160
2485417 861362
2486384 853515
2486930 627534
2487235 738780
2487955 462478
2488157 483399
2488861 338186
2489483 862263
2490338 343549
2490681 429049
2491549 961000
2492197 796052
2492845 517117
2493484 931792
2494298 518950
2495091 609844
2495727 641382
2496511 920790
2496567 506215
2496647 592395
2497155 385270
2497479 187543
2497933 401760
2498274 278968
2498944 511368
2499203 62296
2500044 517214
2500966 762736
2501811 922809
2502731 275769
2503531 175995
2503534 274223
2503790 81831
2504652 773096
2505400 88649
2505490 491742
2506242 439813
2506329 185529
2506606 630246
2506818 174371
2506823 700191
2507660 561732
2508237 777651
2509067 254239
2509245 999921
2509813 601469
2510624 636
2511136 67546
2512089 88849
2512481 852441
2512964 587281
2513326 492034
2513841 72411
2514812 445672
2514854 672123
2515188 399906
2515400 480691
2515515 524849
2516382 891582
2517146 819366
2517616 208676
2517721 312589
2518234 882164
2519075 198128
2519666 731033
2520257 742730
2520445 3838
2520635 263111
2521150 832407
2521873 906014
2521897 393161
2522447 244220
2522456 938430
2523425 283468
2524083 265523
2524991 79086
2525551 267083
2526195 30004
2526997 592408
2527004 171075
2527790 209592
2528263 73035
2528394 700193
2528450 424244
2529252 432890
2529974 143439
2530238 219341
2530567 757916
2531446 878208
2532128 306005
2533064 624837
2533880 5599
2534786 936657
2535594 287282
2536572 94633
2536605 86803
2537074 407529
2537079 380223
2537694 767672
2538536 35342
2538640 472774
2538880 864482
2539384 482054
2539890 575067
2540837 392133
2541056 70218
2541558 748009
2542168 617779
2542266 633612
2542290 762465
2543143 288006
2543819 104024
2544744 416303
2544875 658016
2545290 814096
2546130 374342
2546312 108350
2547220 482780
2547513 145610
2548222 556068
2548942 540958
2549073 974002
2549134 628555
2549782 278906
2550304 203642
2550994 586544
2551704 725297
2552350 159896
2552376 577480
2552892 937795
2553813 442034
2554547 858246
2555362 916907
2555416 383901
2556126 656635
2556833 108992
2557296 661234
2558237 3742
2558575 430112
2559078 521039
2559129 252905
2559861 790770
2560530 448169
2561133 67132
2561986 638676
2562638 23167
2563378 573915
2563845 745924
2563924 971472
2564242 456413
2565146 165772
2565692 379277
2565939 314696
2566525 871282
2567080 283459
2567864 449505
2568145 242747
2568270 815209
2569194 251827
2569967 622852
2570874 131705
2570998 992545
2571941 649430
2572149 235080
2572413 961241
2573070 173416
2573381 227782
2574308 367221
2574482 75180
2574752 631077
2575150 721232
2575764 659114
2576211 999338
2576766 789464
2577622 389899
2577647 970002
2578207 414582
2578716 138485
2578957 611533
2579306 927521
2579407 690880
2580005 732795
2580988 449720
2581886 673596
2582093 618268
2582660 637010
2583373 329437
2584298 386253
2584875 446632
2585007 449906
2585599 846225
2585960 246492
2586356 619504
2586703 594210
2587232 845824
2587985 294532
2588154 112055
2588932 139728
2588981 441469
2589847 152724
2590134 685348
2590415 757725
2590723 792793
2590848 491223
2591382 14834
2591537 391815
2591665 426106
2592350 863461
2592636 953833
2593490 778261
2593580 695465
2594079 77240
2594842 469843
2594925 681231
2595267 157199
2595669 433419
2596177 206422
2596838 653925
2597068 468817
2597438 259966
2598131 239478
2598417 868496
2598522 29710
2599391 781268
2600357 344223
2600877 700914
2601015 29476
2601809 58364
2601911 436398
2602296 730786
2603015 519089
2603899 248252
2604092 846013
2604468 100896
2605070 320387
2606058 309626
2606889 749287
2606989 302924
2607843 937171
2608674 984075
2609261 179716
2610176 466752
2610473 767057
2610748 723411
2611730 149833
2612147 55427
2613073 902409
2613398 140071
2613654 744514
2614555 589933
2615502 116441
2615898 164293
2616342 503139
2617170 718738
2617506 142550
2618293 75165
2618789 912999
2619735 887154
2620144 318261
2620879 55680
2621290 750962
2621414 428270
2621555 764450
2622182 365426
2622981 293175
2623623 488596
2624340 620807
2624943 372051
2625364 970089
2626179 350679
2626761 181640
2626848 408169
2627731 125290
2628336 12188
2628784 822336
2629558 187189
2630260 952455
2630678 717280
2631620 839522
2632519 996759
2633255 79771
2634058 60550
2634333 860565
2634409 918555
2634515 839996
2635052 531254
2636033 769545
2636069 399296
2637046 312485
2637962 20789
2638867 454178
2639323 492196
2639990 468351
2640451 813156
2641420 793128
2642302 135286
2642980 508845
2643148 754035
2643963 125142
2644150 257552
2644195 635827
2645087 846462
2645304 721222
2646069 188868
2646281 348281
2646878 330892
2646928 96923
2647791 980423
2648599 776970
2649193 187181
2649554 332285
2649821 834544
2650038 63252
2650740 114065
2651338 855358
2651341 36396
2651764 38161
2651912 339314
2652816 24162
2652930 592065
2652965 812827
2653844 745077
2653854 95917
2654659 818455
2655188 824335
2655258 340429
2655743 480990
2656155 339196
2656360 303691
2656391 865765
2657113 510918
2657888 333355
2658174 751635
2658450 915148
2658540 682528
2658910 491215
2658972 340066
2659804 402004
2660125 696563
2660733 343676
2660889 793454
2660926 620255
2661025 748088
2661335 56602
2661546 18442
2661967 785948
2662698 954593
2662913 314043
2663696 856825
2664317 970225
2664374 919395
2665133 736306
2665447 499466
2665804 604166
2666410 806245
2666438 200659
2667400 504514
2667993 509504
2668285 813500
2668300 242852
2669019 499965
2669182 333223
2669205 191308
2669409 277690
2669445 961005
2669606 51289
2670322 216145
2671192 600181
2671487 186212
2672190 35231
2672852 273440
2673569 406452
2673573 581044
2674113 609080
2674979 941877
2675770 352888
2676197 47402
2676800 566685
2677044 586582
2677506 402508
2678048 710930
2678894 992887
2679080 766521
2679861 793025
2680683 485315
2681174 748310
2681179 702969
2681301 808141
2681350 463932
2682045 427027
2682860 724364
2683611 644752
2684038 675532
2684109 957265
2685010 394779
2685947 567571
2686240 593265
2686671 137322
2687648 154366
2688277 683595
2689144 502906
2689484 2817
2690017 56708
2690291 408247
2691019 946722
2691610 309697
2692080 493287
2693012 652264
2693247 938553
2693572 571269
2694217 124471
2694265 757974
2695241 417912
2695337 48593
2696103 755645
2696359 355066
2696673 700357
2697008 238960
2697740 505122
2698354 920154
2698726 293837
2699312 701792
2699983 46399
2700818 241879
2701000 309203
2701914 7484
2702132 621709
2702856 234097
2703112 251306
2703539 819393
2703750 854175
2704122 917854
2704144 945479
2704486 262109
2704823 926167
2705067 424073
2705557 43142
2705560 785156
2705749 961505
2706096 392446
2706569 636729
2707240 455131
2707746 485042
2707817 340973
2708598 35690
2709280 291550
2709503 256307
2710253 779484
2710962 824744
2711774 682484
2712459 831695
2712777 296379
2712989 249340
2713114 607145
2713332 966664
2713682 847357
2714546 853992
2715412 905934
2716234 430784
2716511 195750
2716615 321428
2717504 225101
2717798 234538
2718417 66514
2718588 631850
2718632 452696
2718727 162823
2719096 212772
2719404 179177
2719543 105248
2720349 701868
2720698 140317
2721464 584011
2722401 948838
2722557 476891
2723280 54442
2724243 452460
2724793 801605
2725763 330257
2725810 34268
2726183 338826
2726219 869513
2727161 832388
2727694 587104
2728273 742417
2729010 242263
2729059 42708
2729704 322768
2729736 891260
2730495 217502
2730913 357566
2730975 171856
2731053 258292
2731550 904583
2731671 470456
2731964 381322
2732158 997429
2732643 330171
2733539 323289
2733740 259586
2734105 356266
2734346 539175
2734767 208570
2735360 690185
2735570 369641
2736355 443477
2736365 228839
2736601 34264
2737401 906343
2737906 831594
2738721 247897
2739277 182939
2739467 918301
2740151 40288
2740509 826891
2741114 660857
2741986 968372
2742893 738960
2743861 629660
2744300 973150
2744340 782514
2744950 581634
2745175 965181
2745916 151341
2746380 976709
2746686 363002
2746867 180626
2747506 197707
2748328 706850
2748916 339491
2749579 166407
2750159 180013
2751057 665486
2751932 750518
2752653 573059
2752679 572415
2753678 946812
2754402 685063
2755196 45351
2755765 712605
2756540 733431
2757326 787932
2757573 445616
2758122 382630
2758893 953418
2759237 54925
2759949 12657
2760283 881994
2760848 327356
2761239 701277
2762012 463767
2762868 339527
2763328 896004
2764116 69990
2764702 18787
2764821 107311
2765741 727956
2766303 486103
2766664 539825
2767611 258879
2768465 179128
2768967 567952
2768997 906456
2769573 13976
2770030 511041
2770499 735335
2771300 697650
2771711 407158
2771731 668479
2772476 808480
2773282 541768
2773625 295596
2773738 295765
2774382 604624
2774409 523624
2775084 438871
2775437 561339
2776123 368352
2776678 295927
2776709 564578
2777667 87911
2777837 301014
2778361 573847
2778425 917761
2778809 864303
2779206 127268
2779565 902667
2780258 720516
2781194 557549
2781707 159714
2782562 196385
2783505 319289
2783852 305000
2783970 985583
2784403 388836
2784900 245433
2785875 175952
2786076 255500
2786594 756173
2787490 247514
2787550 631274
2787826 811466
2788692 45765
2789644 368940
2789836 817142
2789882 815162
2790047 871024
2790927 681261
2791216 672885
2791461 647090
2791846 217307
2792524 538734
2792587 921886
2793045 198024
2793948 706518
2794192 658263
2794874 677232
2795102 285003
2795686 961940
2796278 732803
2796423 481988
2796703 78211
2796982 847100
2797611 926502
2798463 38876
2798953 931063
2799575 949001
2800241 858074
2800632 595960
2801537 575623
2802086 14474
2802599 728263
2803387 889188
2803976 897815
2804349 951973
2805272 220549
2805786 298204
2806718 726132
2807479 778692
2808206 479443
2808376 419424
2808790 481071
2809027 395776
2809745 928842
2810315 902249
2810754 681083
2811020 761048
2811433 752816
2811904 20656
2812218 939573
2813147 761384
2813977 767966
2814652 54503
2815476 225166
2815688 62670
2816602 764488
2817290 862399
2817908 694869
2818679 236868
2819425 321519
2819628 255341
2820000 856683
2820839 963527
2821407 396154
2821422 352908
2822256 168212
2822793 373067
2823180 67737
2823287 681065
2823835 783452
2824552 491822
2824556 223777
2825445 692636
2826060 718194
2826255 813527
2826707 889134
2827702 338605
2827779 56513
2828091 233770
2828191 360428
2828592 562081
2829070 349145
2829208 728435
2829739 699509
2830093 487177
2830580 353161
2831105 703511
2831571 415569
2831814 913068
2831819 194852
2832284 23800
2832413 65285
2832957 924648
2833656 467356
2834132 769471
2834623 487153
2835304 131619
2835961 847319
2836951 793866
2837319 883091
2838140 278025
2838237 872478
2838906 986625
2839623 423643
2840504 246796
2841235 65665
2842183 8847
2842909 366585
2843754 252203
2844207 568501
2844525 449543
2844800 2376
2844839 52231
2845371 636713
2845848 732347
2845855 233725
2846596 751761
2847279 183110
2847419 31466
2848344 928020
2848736 991230
2848856 103161
2849585 770538
2850401 58912
2851009 36080
2851079 305918
2851445 910612
2851887 181177
2852689 434547
2853266 806693
2853620 819414
2853885 963626
2853938 4867
2854291 33345
2854935 236537
2855399 653983
2856047 618392
2856246 626991
2856586 582278
2856622 863433
2857062 477033
2857157 634787
2858090 325102
2858682 904668
2859615 559674
2860523 246326
2861316 292748
2861877 896470
2862364 51482
2862962 797890
2863561 36126
2864018 859915
2864961 848745
2865644 149333
2866425 967981
2866878 827573
2867359 115297
2867865 648803
2868077 235959
2868545 399598
2868937 448195
2869411 354149
2869499 767098
2869672 251745
2870355 94349
2870825 526246
2871016 99003
2871571 570405
2872437 300404
2872665 621977
2873576 719115
2874076 410441
2874440 591729
2874792 829567
2874863 283832
2875837 839314
2876660 511840
2876883 572500
2877561 629103
2878122 682429
2878463 895471
2878815 839637
2879252 302684
2880014 879682
2880407 802718
2880810 786305
2881264 961553
2882204 82124
2882271 802103
2882958 387133
2883735 856554
2883845 639396
2884064 482163
2884269 93653
2884769 327846
2885724 39212
2886463 270960
2887443 758988
2888231 477298
2888234 779619
2888397 245164
2888605 742547
2889495 474260
2890259 973918
2890990 862240
2891183 127315
2891911 581245
2892051 417907
2892447 933452
2892949 446297
2893054 488475
2893428 383616
2893678 242073
2894553 392510
2895467 584082
2896256 84360
2896867 760271
2897150 146948
2897176 824534
2897446 503023
2898121 769777
2899100 574284
2899743 168624
2900707 742200
2901629 686623
2902306 446828
2903079 226349
2903643 933530
2903698 694968
2903904 176375
2904175 953013
2904596 587003
2904787 817404
2905485 12140
2905911 63336
2906157 610096
2906563 226499
2906860 884511
2907147 858997
2907530 777330
2908220 284377
2909057 31952
2909585 417530
2910411 777628
2910601 54428
2910900 740333
2910972 777396
2911729 190529
2911997 561465
2912118 540972
2912381 877180
2912491 225764
2912802 934116
2913544 407600
2914485 55182
2915106 859867
2915715 203022
2915880 647782
2916801 202527
2917149 26069
2917522 23970
2918386 624857
2919304 197117
2920029 981040
2920086 254055
2920396 623972
2920612 717409
2920796 326135
2921181 297310
2921652 329163
2922069 102231
2923041 890775
2923327 707399
2923608 694750
2924507 724241
2924859 828705
2925534 152544
2926086 108985
2926156 710540
2926935 314339
2927238 398947
2927671 469284
2927814 19255
2927831 218750
2928783 755365
2929769 514572
2930742 116822
2930912 596873
2931887 718847
2931969 362660
2932880 111986
2933253 164833
2933649 810800
2934335 514494
2934518 380735
2934561 480747
2934955 397275
2935052 676861
2935675 333704
2936430 14596
2936437 74673
2936643 432875
2936849 475395
2936914 370572
2937306 887186
2938277 730703
2938574 148089
2938997 340194
2939912 844431
2940099 309453
2940948 752484
2941947 471933
2942126 690826
2942269 956241
2942391 594804
2943064 757181
2943518 100150
2943905 515405
2944904 872662
2945342 177248
2945394 504231
2945593 516679
2945693 26456
2946169 242210
2946183 890318
2946665 494484
2946707 474383
2947233 256918
2947441 584229
2947923 962900
2948210 973853
2949160 472453
2949372 555617
2949532 478024
2950517 638261
2951082 145484
2951241 437046
2951308 844537
2951858 438808
2952772 636261
2953496 906094
2953864 255149
2954603 92220
2955535 447550
2955723 746983
2955906 530806
2956864 31905
2957708 722739
2958279 820166
2958711 129200
2959187 719706
2959450 999015
2959913 789775
2960707 190092
2961136 407749
2961820 772677
2962105 530876
2962726 735762
2963233 855739
2963382 482900
2964190 214597
2964556 766450
2964721 466971
2965610 372050
2966157 848201
2966372 170078
2966566 148055
2967259 304965
2967567 725023
2968289 140355
2968332 67425
2968881 381736
479081830
