3730
508 103126
727 677337
1161 838517
1513 155326
1622 555889
2329 745789
2350 365140
2526 820748
2930 44068
3783 481973
4296 612056
5275 445477
5761 684692
5766 196952
6693 807776
7620 111920
8604 932084
8871 442321
9855 298693
10709 784330
10715 414084
10928 95622
11315 572041
11323 989116
11667 998484
11869 103962
12339 142134
12864 931538
13163 249697
14117 891504
14789 809034
15348 379276
16080 177518
16803 299891
17590 656066
17652 571017
18032 239960
18743 44346
19219 999498
19465 850955
20109 740044
20265 715267
20931 319055
20940 554116
21231 434910
21654 319883
22622 567928
22729 688739
23661 505053
24439 548298
24703 414925
25161 79579
25297 405475
25384 1231
26380 876132
27102 730026
27627 505285
27965 903507
28017 324480
28443 728333
29410 156657
29455 62740
29864 377816
30018 107911
30945 166312
31595 795413
32035 117167
32659 770943
33442 585833
33748 372497
33874 264918
34473 33737
34483 49141
34639 361546
34758 998230
34760 819634
35339 581335
35641 164995
35890 568089
36629 231924
36895 647780
37779 32071
38777 281831
38880 966418
39751 519348
39858 868317
40139 464113
40511 655738
41039 752430
41172 757800
42017 661337
42713 486421
43362 872863
43871 432904
44801 275119
44846 28894
45275 143947
45983 791250
46263 892017
46940 923839
47834 254536
48046 403438
48543 977778
48725 146375
49383 123956
49611 922189
50249 480742
50289 108419
50952 533447
51683 352484
51869 248208
51937 347684
52111 108749
53039 2751
53909 390368
54651 483789
55031 457875
55044 378922
55324 589268
55865 206198
56223 752785
57085 881650
57196 402212
57442 903754
57511 52348
58160 673257
58736 68019
59438 453469
59794 983187
59875 605093
60109 862190
60913 583945
61636 16335
62067 12047
62945 471697
62985 76673
63507 860764
64405 473786
64811 998746
65214 94564
65665 596972
65798 957540
66738 60326
67583 208512
68013 990442
68344 352097
68478 75056
69368 682483
69734 894041
70575 786752
70791 266170
71632 733309
71822 199746
72409 221633
72552 27061
72571 873969
73405 484972
74026 366932
74155 71034
74568 735375
74825 7118
74978 931316
75777 761946
76249 959600
76415 448753
77220 447833
78205 353764
78911 598468
79799 561234
79944 89134
80141 194476
80365 565132
80809 124526
80989 730526
81521 224754
82093 30837
83093 759008
83486 715700
83967 261603
84744 777146
85145 767692
85524 268403
86375 83922
87352 73689
87508 921396
87731 802114
88026 748645
88714 480034
89155 945691
89362 388935
90289 458751
91154 453112
91665 461213
92145 69953
92841 400889
93158 213350
93937 155309
94810 882906
94813 358046
95617 819996
96557 621105
97465 731495
98165 998420
98670 430079
98773 667656
99303 347403
99700 964025
100262 71199
100880 284297
101290 963213
102065 646922
102190 913879
102492 10977
102511 282873
102825 879307
103586 201909
103893 633294
104359 405656
104985 332125
105134 540130
106031 798947
106377 621230
106470 917581
107276 952528
108036 715634
108350 11743
109222 568313
110176 323313
110200 790651
110735 880220
111063 664965
111750 907695
111836 444143
111900 359176
111988 992127
112746 53134
113537 80346
114051 182042
114845 86640
115053 592646
115486 848468
116041 903657
116309 502134
117071 537031
117764 600732
118382 979874
118786 7339
119659 81779
120194 656467
120660 37204
121443 207609
121629 978724
122057 932430
122553 143073
122622 421473
123220 686531
123252 658907
123790 590060
123815 858119
124223 294549
124579 30566
125377 769944
125579 939539
125626 913736
126605 897557
127070 403681
127907 525181
128685 17758
129111 878284
129415 768262
130132 75622
130825 495842
131121 175326
131607 447941
131891 488260
132514 223602
133054 123644
133599 391118
133681 435199
134282 625584
134730 9857
134943 406165
135567 422281
135723 106574
136203 428310
137039 828603
137995 544075
138338 344216
139023 971421
139784 504941
140318 371497
140822 595805
141104 622619
142004 169973
142521 924200
142692 725986
143477 276350
143574 367452
143688 554003
144567 509779
144918 520256
145631 661837
145834 48321
146127 788866
146238 801812
146968 296862
147118 150440
148071 347376
148875 954695
149356 423986
150072 877510
150482 66216
150574 114488
150605 729548
151444 701340
151498 804148
152426 390095
153273 698660
154181 38849
154709 487901
155485 677987
156483 16462
156922 337795
156986 492839
157638 37034
158012 91052
158808 584302
159110 604713
159683 7430
160360 763094
160820 832301
160966 863230
161712 115807
162559 190504
163511 584263
164500 751804
164693 511357
164710 463429
165189 531134
165791 814130
166455 672117
167099 461983
167143 868992
167726 769683
168547 111603
168853 48147
169649 129046
170193 101143
170512 253731
171502 378368
172262 578664
173198 457606
173562 346024
174115 855255
174705 830760
175514 102319
175832 638891
175866 342198
176138 521524
176909 142808
177692 384425
178507 331693
178946 1522
179792 240466
180695 617873
181082 259440
181486 729703
181587 807523
182510 99672
182713 9239
183700 424829
184149 551883
184931 153282
185747 153201
186183 282932
186584 735687
187213 76346
187426 73976
188392 299169
188811 841574
188859 573003
189543 971965
189550 732953
189906 255869
190584 815171
190905 379778
191043 34860
191463 972645
192239 409966
192893 708513
193661 806123
193801 219824
194312 583337
195239 315233
195755 307446
196526 427861
197469 996027
197837 718991
198543 623871
199365 949107
200351 643018
201180 38759
201818 412482
202445 582290
202621 334097
202870 333667
203456 57855
204089 111516
204939 576273
204984 446183
205618 196420
206545 43148
206999 570592
207124 679390
207759 110265
208712 827191
209432 351708
210251 73269
210534 573180
211239 572899
211809 787618
212148 558460
212590 115652
213452 234978
214003 295534
214971 582129
215711 738516
216335 774276
216879 582380
217503 866715
218155 271102
219037 369705
220000 593907
220534 99600
220895 588785
221829 175250
221916 218971
222092 123083
222248 52753
223183 271127
223705 205813
224335 932987
224717 471587
224941 506218
225116 999002
226024 600705
226175 807114
227000 582124
227545 820063
227721 272412
227994 98691
228839 225164
229196 736748
229525 862778
229574 43642
230325 725471
230381 579879
231252 660580
232182 192982
232716 71869
233093 387276
233128 335431
233684 700891
234485 788756
235369 140593
235602 222480
236083 255988
236193 79683
237116 727256
237792 984805
238343 745357
239087 136823
239320 384654
240293 679856
241177 46789
241617 768699
242405 688681
242450 952513
243304 67684
243829 107534
244513 244377
245189 439674
245224 413513
246166 277668
246968 561984
247633 716813
248123 311692
248789 206305
248818 835574
248910 370029
249781 721131
250216 455587
250586 672340
251237 804340
251358 772239
251897 975527
252288 136257
252909 445860
252991 435563
253368 163350
254345 742830
255115 787326
255506 552685
256220 119945
257096 43173
257674 860918
257807 580599
258211 883067
258872 34746
259035 613497
259181 348627
259217 506774
259857 146994
260824 432529
261283 269354
261569 759356
262240 487690
262323 254646
263071 988486
263510 61653
264193 677276
264663 67257
265583 281604
265615 396471
266022 365030
266096 116274
266295 630463
266672 146550
266687 51819
266910 604309
267407 831592
267425 795168
268361 751965
269052 308671
269497 394440
270279 428343
270816 405711
270963 354249
271089 426279
271167 177548
271226 922139
271499 396579
272498 627599
272514 686977
272600 598137
272710 61143
272937 617521
273586 792343
274402 535722
274628 235308
274744 10820
275121 946148
276009 904454
276561 351049
276825 357811
277517 170605
277792 601119
278732 901270
279227 872452
279848 524016
280111 444817
280557 140340
281379 260249
282118 968167
282531 356661
282810 962183
283494 619451
283677 450199
284064 84463
284201 622974
284958 355592
285075 434498
286030 5952
286606 120089
287589 849935
287845 772542
288447 18572
288958 789722
289126 24603
289213 946879
290066 288112
290383 749592
290571 95911
291445 191830
291768 249368
291968 312468
292634 898297
293445 537499
293917 343851
294681 919894
295128 733338
295259 947950
295502 463113
296046 522174
296606 989639
297565 437156
297910 820026
298425 959719
298564 766353
298998 250831
299195 109509
299809 601920
300060 233126
300394 198245
300755 46747
301624 157121
302020 779507
302692 74488
303011 702139
303017 22619
303642 807262
304373 101388
304505 423396
304600 721345
305592 775426
306508 272655
306598 220956
307460 941756
308046 633848
308869 386758
309305 619332
310230 843574
310445 782320
310642 901541
311082 886847
311885 16045
312000 540020
312570 99648
313290 336061
314099 334162
315020 565917
315893 278561
316213 117589
317022 582540
317643 726649
317704 300803
318322 986775
318886 718376
319704 5522
320019 213187
320173 214011
320857 565329
321823 946814
322823 688433
323550 774334
324472 213232
325419 563418
326068 61381
326861 593688
327170 778136
327498 644715
328123 858942
329052 772767
329884 712615
330313 299750
331033 773712
331044 510030
331175 61453
331231 336796
331863 459453
332453 702829
333199 936009
334017 910202
334270 608391
334941 661459
335692 949150
336597 240153
337086 535832
337642 187762
337938 117513
338297 468534
339050 219041
339903 602374
340504 222330
341236 574869
341288 495374
341867 705896
342503 953407
342642 705836
343266 501839
343706 944815
344465 974019
344569 199854
344989 48656
345746 754026
346180 663890
346836 708440
347317 178890
347466 490585
347525 384943
348171 411143
348886 449670
348902 45570
349184 580578
349231 788510
349625 567615
350427 706107
350980 834950
351948 641161
352098 760715
352504 106203
353467 514954
353501 975946
353706 461337
354047 850263
354304 70105
354545 131681
355015 524834
355670 635127
356116 449730
356729 309423
357298 985198
357687 266515
358038 503755
358280 695042
358417 858821
359389 994240
359496 893872
359556 795677
360069 558658
360368 18483
360660 134304
361627 339740
362583 873468
362618 187546
362628 757567
363468 314256
364257 47612
364578 565512
365424 979502
365958 393974
366733 604043
367543 184113
367544 398135
367677 160477
368314 436911
369291 756775
369627 837065
370174 652728
370918 579472
371018 940290
371028 612107
371609 908712
372068 521786
372466 917875
373241 455084
373253 99993
374158 761684
374502 943437
374610 973799
375473 6484
376075 508704
376714 586838
376972 643400
377456 142668
378217 807570
378346 22347
379281 31409
379289 954946
379780 702178
380378 957956
381160 361270
381494 994747
382135 865076
382394 932019
382673 178585
383666 850849
384550 453738
384910 568514
385525 917796
386393 772873
386631 454051
387085 461611
387186 108853
387242 879814
387550 853486
387913 953277
388900 335010
389457 957199
389766 513356
389913 183585
390487 136786
390752 142867
391219 30631
391892 909291
392665 589383
393249 495813
394226 933508
394701 918499
394770 231513
394940 411844
395487 353517
395931 867941
396740 653593
397261 646502
397338 904258
398044 342920
398504 78467
399411 344991
399601 421408
399666 746853
400234 696591
400724 59758
401009 590756
401466 635199
401528 403308
402481 423082
402707 490842
402984 231580
403110 867947
403212 952232
404047 830626
404693 504928
404810 39823
405107 398419
405118 51223
405548 827032
406472 258101
407057 571658
407652 945621
407864 922690
408109 127553
408208 531185
408560 23103
409381 231091
410087 666165
410883 806815
411174 549549
411375 955759
411871 279399
412105 280261
412292 303518
412431 733034
413261 679516
413844 717908
414646 826247
415224 288218
415523 686850
416095 175361
416264 174135
417043 379936
417253 70729
417568 602765
418002 89040
418787 810461
419024 112747
419865 613462
420661 188804
421610 274020
421798 34783
422476 877055
423229 174587
423265 231111
424065 386470
424328 255247
424886 234239
425335 75308
425703 279558
425978 212523
426110 978445
426308 829520
426990 780408
427601 823161
428084 719168
428418 449273
428943 506890
429673 60115
429909 313011
430455 949953
431252 763484
432191 137619
432354 34132
433145 427224
433772 483699
434034 788443
434155 807777
435094 883284
435417 986979
435967 127665
436434 550674
437335 777873
438326 251572
438364 647313
438384 342082
438461 852238
439261 650249
440036 438536
440444 82223
440571 356388
440827 287033
441081 115156
441587 950253
441884 300332
441956 451760
442779 566390
442796 250350
443525 941854
443868 924722
444845 942553
445645 455837
446509 61139
446839 763545
447272 207683
447902 952760
448252 390185
448587 356537
449410 788176
449659 623432
449998 976823
450975 584115
451914 218553
452430 940268
452681 133747
453246 146841
453914 156307
454303 135464
455213 256774
456097 280934
456319 623910
456845 40758
457444 57144
457917 228346
458883 113341
459712 388142
459969 120061
460187 117542
460799 27110
461095 31710
461369 18944
461925 366077
462137 26090
462867 626897
463096 236405
463617 873611
463770 95620
464657 76086
465112 289674
465538 728830
466051 196899
466712 403871
467278 147018
467792 705389
468655 968001
469068 72901
469341 572715
470128 659202
470630 223253
470653 329914
471482 740805
471602 27761
472079 751739
473076 225876
473406 422337
474303 114218
474808 824423
475626 903634
476187 930959
476343 877273
477055 999998
477776 137231
477790 391056
478399 628235
479285 531396
479644 203097
480345 423051
481296 162178
481644 695275
482311 454807
482937 605558
483071 672667
483260 609707
483528 274060
484350 232095
484638 666348
485235 249973
486101 581052
486586 950189
487373 768237
487465 145071
487501 27052
488060 257730
488081 391123
488369 219580
488382 853049
489220 477121
490179 487291
490280 591282
490671 597817
490676 138199
490686 646447
490825 99421
491150 217327
492145 923779
492501 410238
493311 708187
494061 258706
494109 788870
495044 675315
495076 5850
495913 921624
496106 570431
496370 296867
496551 926659
496674 956613
496911 507433
497182 740530
497564 638051
498099 902289
498704 366879
499470 509406
499566 309656
500270 283045
500837 723572
501229 44103
501402 542206
502315 327063
502772 970427
503310 923219
504023 77584
504687 669512
505448 414363
506086 54589
506106 96749
506476 509440
507204 539850
507487 524046
508299 4576
509008 911945
509998 647106
510003 861892
510455 225258
511414 963425
511581 917070
512242 717134
513173 743371
513438 83962
513569 178854
514238 685584
514656 20081
515482 496472
516097 512855
516503 70552
517141 471343
517170 279048
517277 639748
517863 499139
517944 344165
518774 916998
519740 326696
520635 203665
521374 141520
521981 938096
522418 862217
522478 541697
523283 850287
524203 905224
524649 526262
525090 33586
525492 576671
526063 512832
526647 650364
526799 295618
526950 58097
527456 287552
527584 944208
527732 74067
528348 744252
528729 507884
528952 808060
529754 454604
530091 501874
530510 516052
531483 607619
532219 79955
533173 761118
533295 743621
533589 884575
534009 205427
534408 367699
534972 461801
535797 673478
536555 122106
537467 529492
538402 378231
538526 837978
539365 994195
539575 315639
540411 709289
541026 277460
541403 526727
542237 631115
542863 342804
542894 815416
543565 501827
544198 187146
545129 421920
545995 192040
546534 782576
547418 653825
548220 440619
548266 306548
548949 788366
549805 270009
550689 14629
551184 37611
551795 599765
552652 994505
553386 933958
554167 923480
554803 48889
554806 575411
555797 706618
556604 477221
557358 406652
557720 48738
558439 904290
558964 91832
559009 780539
559398 849581
560314 831709
560492 821230
560756 273100
561756 458855
562588 985339
562639 344025
563300 911982
563484 456949
564016 645010
564411 891719
565192 523374
565742 727518
566516 783396
567161 696623
568110 747691
568192 646160
568316 704374
569002 687683
569806 332448
570793 913476
571487 710993
572280 520592
573123 775017
573587 812098
574445 746115
574780 291752
575687 527010
576169 296821
576807 734402
577243 882691
577813 442865
577980 748546
578067 468816
578353 55044
578368 685373
579137 168836
579140 289460
580121 457229
580122 280207
581112 898938
581670 454113
582077 506516
582652 277396
583440 25482
583568 255527
584404 116293
584608 994245
584945 583151
585294 491654
585859 32818
586693 305885
586956 373432
587652 38204
588281 160829
588327 352238
588581 659619
588751 354710
589439 961469
589850 797447
590796 141651
590895 683882
591589 120828
591734 997011
592291 664340
592375 793964
592406 393495
592649 634437
593541 300335
594352 862426
594602 199874
595161 517894
595383 455238
596327 677544
596654 343413
597335 563207
597917 311890
598676 312721
599026 502627
599648 932666
600338 908905
600524 12116
601373 978195
601699 546729
602218 688642
602982 700981
603004 388327
604004 661903
604810 548681
605725 410172
605803 645865
606283 918901
606727 889523
607309 226876
608141 463148
608920 650047
608946 941189
609331 220971
609467 866658
609552 517843
610085 967509
611075 200571
611168 802982
611918 345350
612641 453209
613197 205500
613697 20336
614166 24805
615143 473523
615617 790925
616271 414237
616693 333769
616863 132417
617595 21079
617909 354818
618607 750088
618976 20908
619228 666471
619928 427172
620223 436741
621216 552954
621752 687769
622530 399089
622703 636181
623074 359520
623705 976242
624298 628908
624731 381419
624996 126731
625913 805737
626013 91044
626056 307956
626978 582096
627693 338673
628148 891499
628595 37699
628827 908094
629787 847417
630463 97405
631436 1155
631809 564399
632554 105243
632637 814075
633400 148559
633991 935495
634724 157111
634940 75184
635615 923478
636104 451466
636400 320914
637039 846210
637223 355092
637884 943516
637967 540712
638335 54889
638730 610572
639727 96939
639791 370461
640070 340832
640579 586669
640877 501728
641641 307853
642462 964503
642962 593106
642998 770184
643304 642355
643849 49981
644793 894255
645663 695190
646188 937913
646780 783447
647384 673085
648297 133839
649121 250161
650067 761406
650103 945991
650430 53165
650636 272802
651153 628888
651457 398851
652027 267752
652499 40972
652553 752610
652776 418538
653139 26801
653190 632837
653735 276398
653772 555586
654629 296680
655167 441373
656077 484388
656429 79255
657213 661611
657904 156976
658626 621207
658696 529840
659101 295154
659813 210202
659993 290698
660345 869305
660801 133727
661168 893920
661300 791527
661882 154229
662212 67277
663076 937283
663906 161614
664013 438249
664246 614971
664763 638853
665731 113501
666463 44806
666642 705788
666972 799784
667234 575845
667893 790775
668466 476757
669153 729448
669478 652621
670217 214398
670434 502309
670694 683237
671685 844364
672585 240469
673241 571914
673427 201760
673629 884237
674613 634056
675600 926263
676326 189945
676625 59841
677546 717052
678104 209286
678143 764593
678999 351580
679860 733566
680173 994453
680646 241665
681318 532101
681584 6863
681640 503358
682134 656606
682933 803596
683612 712817
684240 360044
684635 488232
684969 220649
685556 634705
686033 841571
686473 255405
687292 789017
688004 692188
688018 402006
688574 362952
689248 691021
689435 933712
690003 8341
690365 105567
690818 444929
691620 440420
691676 557065
692647 608642
693638 270338
693661 11950
693804 456549
694792 447331
694856 598235
695408 206005
696191 6935
696219 330283
696773 977425
697745 553641
698504 955431
698990 759860
699065 482905
699569 914193
700139 653450
700527 343027
701068 835024
701761 15746
701774 205798
701800 593707
702568 12002
702948 900609
703449 465935
704435 582308
704495 215145
704798 177549
705592 374957
705737 397193
706425 565347
706870 527899
707383 378001
707888 406850
708103 894737
708807 953452
709698 733040
710418 982789
710732 730902
710862 364011
711316 491974
712282 237150
712407 893859
713276 954757
713693 691286
714218 898509
714982 178421
715120 567253
715143 599871
715791 131505
715958 629098
716290 951982
716776 379611
717614 506519
717653 987336
717777 95958
717835 247276
717896 384889
718492 966971
718714 915461
719329 582049
719517 530793
719907 602446
720492 636384
720857 82626
721618 79564
722356 356744
722470 458066
722590 240347
723564 90289
723692 735341
724282 199925
724654 248411
725441 431369
725879 801097
726019 945331
726313 731829
726538 430160
727186 751963
727799 907361
728095 143935
728669 378265
729513 213198
730286 920043
731051 566210
731835 215621
732133 658422
732641 703632
733546 727699
734325 586072
735200 611125
736050 98442
736727 970276
737472 215130
737885 489979
738551 300521
739243 120243
740109 64487
740764 613530
741041 602188
741062 646359
741952 886922
742587 794487
743280 77659
743573 223038
743936 150127
744867 968318
744991 311322
745573 883319
746524 173176
746996 146353
747642 506083
748381 802070
748431 855822
748464 549591
748991 216251
749528 403188
750309 793555
750478 235404
750485 978534
750887 978468
751050 772193
751803 347237
752489 890179
752681 324474
752862 475708
753033 198917
753284 975741
753707 420221
753946 174422
754123 286872
755024 896502
755157 308501
755674 327062
755908 1305
756310 390377
756659 668449
757443 615628
758162 193425
758699 291618
759694 10991
760289 542366
760868 680808
761310 53325
761873 424977
762111 528280
762880 638748
763615 333651
763941 321017
764269 516662
764837 813602
765837 498563
766014 279212
766217 848053
766862 756108
766904 385090
767492 22172
768242 295795
769205 552537
770068 621462
770536 142177
770541 747929
771024 233561
771052 8915
771386 110128
771762 372107
772156 187048
772697 982761
773554 752109
773714 663171
774223 249764
774910 997612
774995 267186
775423 936445
775643 10434
776366 915007
776778 996518
777008 414579
777554 741421
778266 939632
778677 965894
779376 122306
779638 36225
779649 627798
780051 503893
780542 332628
781488 268984
781984 9292
782158 992086
783158 364186
783459 924733
784046 558665
785012 933132
785489 72002
786247 614758
786946 192662
787461 867439
788419 903839
788873 653044
789101 505961
789158 649157
789162 971541
789511 73883
789798 790075
790127 922256
791117 104245
791195 867217
791230 412978
791541 331935
791704 271014
792249 719794
792470 828186
792566 881358
792743 131111
793049 936209
793951 811445
794100 24726
794443 356048
795141 822497
795271 138153
795869 302493
795948 794868
796901 634481
797715 77967
797962 298281
798748 147476
799500 706305
800440 561805
801033 453463
801961 614841
802915 775008
803446 495764
804016 600748
804949 60843
805934 632305
806242 366920
806677 795138
807289 781497
807321 138640
807983 164276
808109 542201
809066 455627
809702 677031
809810 513515
810422 144728
810991 179564
811520 713839
811572 927972
812497 273691
812952 706240
813036 556310
813167 979002
813560 909257
814024 147255
814726 978789
814861 787108
815843 420818
816532 53681
816728 56533
817196 737020
817633 163223
817907 298731
818417 180183
818969 353673
819234 604888
820160 438724
820717 673767
820790 442762
820987 50229
821596 456738
822279 335553
823195 161310
823608 845062
824479 565954
824641 784180
825466 781771
825651 367873
825720 893189
826663 417917
827657 728023
828417 933273
829154 123540
829513 509694
829724 842643
829877 360225
830069 214597
830468 319286
831012 391669
831392 616556
831594 574463
831857 220599
832761 359175
833317 874597
833469 617076
834224 595710
834322 283880
835164 462650
835722 816982
836534 882203
837525 397596
838237 883892
838768 455467
838922 290296
839016 388381
839503 119773
840120 843548
840482 191218
841432 79416
841543 624717
841995 349312
842407 745502
843127 565919
843596 659646
844059 973737
844813 277064
845547 860531
846467 985831
846696 854513
847291 371773
848054 111599
848779 28026
849522 740433
850344 775680
851263 517528
851318 509962
851841 805143
852590 151143
853079 56777
853899 990032
854167 133107
854337 810026
854554 25389
854560 781715
855311 970878
856185 761986
856936 344979
857685 798343
858373 863133
859155 120689
859404 113587
860085 488870
860535 939011
860918 536397
861887 160061
862156 269851
862469 539100
863238 726255
863611 604330
864036 105959
864683 456045
865308 136355
865559 1477
866187 840021
866502 68023
867047 623948
867482 442852
867976 709375
868659 597045
869214 592669
869935 725111
870096 933885
870979 874531
871586 332297
871763 824076
872701 827022
872872 826115
873194 860154
873730 708839
874171 678409
874806 468654
875750 814926
876341 79230
876653 337779
877271 88080
877695 223841
877748 268825
877841 559587
878677 169530
879335 992418
879708 90310
880557 304200
881028 451338
881840 447554
882585 554503
882918 811703
883544 342367
884206 292488
884698 121481
885320 14369
885723 358276
886025 32250
886328 883903
886658 637245
887507 591407
887678 915031
887881 899046
888093 510588
888540 479002
889407 585792
890252 52759
890679 472606
891156 378779
891387 980780
892287 133293
892503 874648
892690 572775
893072 778035
893077 490936
893434 507899
894336 396939
894706 939225
895002 972612
895779 684000
896675 567152
897401 264622
898218 427841
898808 24831
898845 802911
899620 225266
900429 399322
901117 613474
901165 345372
901682 566385
902181 337013
902453 956098
902536 800637
903418 80356
904401 859453
905148 83668
905794 853385
906720 928514
907505 282610
907766 544023
908360 863866
908932 337338
909158 968264
909766 238978
910489 92561
911335 374232
911362 295003
911464 819503
912438 233465
912680 441034
912703 82214
913662 233094
913715 613483
914232 195367
914576 910528
915354 4747
916043 217097
916086 432981
916193 804847
916388 633431
917346 283898
918036 994171
918703 823652
919224 516458
919751 900816
920356 236798
920469 419971
920789 410558
921156 731141
921344 584292
921859 13165
922357 101737
922431 755723
922442 166799
922715 383636
922814 906106
923626 52742
924464 424842
924727 144784
925301 245597
925679 616947
926635 362579
927215 866984
927382 309209
927981 516532
928966 524134
929209 852833
929841 496563
930441 986844
931220 164850
931494 568217
931649 257286
932370 422954
933103 805970
933246 261450
933448 825323
934187 806530
935128 873465
935768 290799
936463 263006
937010 921780
937840 416211
938668 735519
938811 843901
939418 351957
939825 694972
940400 244836
940560 8733
941082 424605
941352 312850
941621 11805
941662 466062
941766 170845
942056 575501
942775 364225
943610 546988
943712 684862
944485 401218
945071 186281
945592 160537
945912 396860
946794 162863
947156 810480
947605 191991
947800 775841
947886 160657
947988 817823
948364 523430
948904 769022
949787 789048
950568 696233
950820 55879
951733 228980
952333 726727
952357 879788
953048 378777
953313 254107
954028 450126
954506 429441
955078 193458
955092 540581
955357 540481
955415 717427
955906 197393
955976 631253
956397 416059
956932 571123
957715 233798
957902 560299
957986 743073
958424 61044
959276 627913
959288 223176
959494 360536
959752 247828
960322 537871
960997 44670
961509 867525
962079 498348
962994 562574
963716 768179
964424 61077
965424 166924
966061 81452
966227 841431
966302 935706
966495 57846
967031 683311
967532 578686
968306 97273
968834 468143
969312 389394
970176 190699
971064 871005
971511 136872
972133 73836
972467 544520
972684 647106
973481 26169
974051 637996
974806 689721
974922 786735
975535 674333
975683 791294
976596 885631
976630 815529
977117 226716
977224 66056
977543 997767
977769 388185
977972 49086
977973 939719
978302 299215
978422 671432
978943 299126
979183 101379
980179 324813
980536 4315
981364 737346
981879 386578
982379 301169
982761 971835
983188 96910
984109 768585
984228 951394
985074 960793
985318 718264
985793 284133
986096 895954
986945 744926
987594 949285
987653 492495
988314 141059
988414 308164
989388 349767
990109 810548
990756 685996
991171 678545
991865 266156
992394 480037
992818 513881
992904 201681
993714 654194
993763 403775
994626 83452
994922 212959
995645 866415
996340 587598
996970 205486
997430 519303
998002 265513
998955 605781
999130 621470
1000088 821583
1000640 1365
1001267 141613
1001942 145754
1002194 754527
1002416 451130
1003047 811989
1003386 360010
1004125 613692
1004545 206564
1005158 534998
1005277 65837
1005290 484409
1005826 928558
1006252 414781
1006750 97309
1007248 492804
1007704 520151
1008086 209519
1008318 360061
1009130 156257
1009927 409077
1010595 732981
1011227 76487
1011441 640387
1012348 120151
1012979 800695
1013790 412284
1014626 74238
1014934 966037
1015284 486723
1015812 263964
1015876 602396
1016280 184626
1016713 924574
1017292 949208
1017811 778006
1018781 458657
1018949 43044
1019873 970095
1020169 202117
1020241 825824
1020590 891189
1021119 801699
1021362 98971
1021995 966101
1022938 804329
1023206 192894
1023808 716552
1024752 501247
1025414 799493
1026306 962256
1026855 285856
1027681 60794
1027907 357847
1028409 323284
1028478 45389
1029307 702942
1030030 472702
1030540 790274
1031319 536513
1032049 72674
1032527 165396
1033244 715850
1034182 278119
1034255 188607
1035152 887298
1035199 313915
1036051 85258
1036101 833506
1036120 940716
1036713 71023
1037366 635786
1037735 457275
1037815 252551
1038238 310295
1038361 390298
1038884 979272
1039546 257796
1040259 451074
1040911 206261
1041095 162390
1041800 56122
1042644 748592
1042904 43610
1043448 950827
1043611 237680
1044152 789319
1045061 551703
1045453 889890
1046026 452913
1046710 409103
1046831 822262
1047739 983513
1048653 952160
1049561 903243
1050196 391806
1050788 481835
1051736 322436
1052266 585519
1052402 928454
1053149 494069
1053891 491517
1054553 521375
1055110 162736
1056082 537018
1056751 946662
1056921 768727
1057902 948953
1058325 37087
1058393 610795
1059043 778399
1059184 750492
1060184 866747
1060254 131303
1060280 656291
1060408 737426
1061072 99850
1061739 200789
1062689 495220
1063020 70374
1063735 84948
1064045 668294
1065041 902896
1066021 102768
1066827 488786
1067558 253226
1068462 277284
1068631 658949
1068777 607114
1069542 399794
1069892 885002
1070555 749922
1071158 70930
1071850 673906
1072577 322052
1073117 51432
1073716 540155
1073853 114452
1074799 63502
1074854 968919
1074858 54079
1075804 353850
1076030 179980
1076063 456662
1076653 278095
1077211 33670
1077767 687502
1078380 368634
1078470 735501
1078744 58650
1078799 235916
1079095 150168
1079925 781856
1080691 314513
1081635 763669
1082333 827666
1083067 548123
1083502 424817
1084079 180877
1084162 595336
1085057 239385
1085094 978935
1085875 187828
1086578 133070
1087075 398000
1087134 297133
1087559 606130
1088233 497100
1088973 56051
1089674 367967
1089838 333772
1090164 777996
1091150 89233
1091695 455964
1092339 139786
1093151 313796
1094057 939656
1094477 823397
1094902 274742
1095169 355035
1095978 143582
1096002 293251
1096017 5662
1096066 228862
1096471 626790
1096709 136773
1097094 578339
1097760 574289
1098111 597073
1099053 433451
1099384 861911
1100071 985824
1100496 781399
1100934 941505
1101565 19256
1101578 926239
1102448 238284
1102795 102434
1103512 108103
1104360 240036
1105254 82767
1106169 546606
1106241 292643
1107071 119997
1107517 50648
1107876 584635
1108556 348526
1109136 568854
1109699 965748
1110653 698126
1110979 278321
1111882 850651
1112703 110261
1113483 286871
1114254 920395
1114611 327197
1114613 239175
1114619 236166
1115360 875371
1115527 980396
1116315 635081
1116676 581186
1116742 422978
1117344 314268
1118208 121659
1118577 820170
1119274 918746
1120009 86989
1120277 49083
1120350 188460
1120814 306457
1121166 397794
1122001 550751
1122428 212667
1122490 158950
1123396 806078
1123943 308180
1123966 244593
1124915 494559
1125396 118845
1126255 161288
1126726 166302
1127211 326011
1127746 516942
1128672 784037
1129620 200228
1130542 16738
1130694 460080
1130749 181935
1130852 147008
1131793 177587
1132177 310579
1132780 391717
1133694 170899
1134018 810684
1134988 925790
1135555 334186
1136297 474759
1136838 200878
1136879 843477
1137236 271598
1137466 580204
1138113 904666
1138201 945098
1138533 280132
1138851 216398
1139231 64439
1139587 895148
1139897 897128
1139942 955881
1140636 423232
1141368 954831
1141512 279890
1141888 538281
1142774 33734
1142850 22769
1143364 699226
1143537 879372
1143850 56910
1144408 458657
1144644 938079
1144944 108776
1145668 854879
1145930 46924
1146245 11155
1146731 552408
1146873 595539
1147059 782717
1147713 890376
1148022 374027
1148850 268624
1149679 706937
1149871 259866
1150566 567440
1151153 744755
1151794 457587
1151981 52965
1152701 620424
1152760 952952
1152941 430974
1153913 260965
1154687 101192
1155057 458162
1155174 503460
1155511 171662
1156409 542082
1156610 182438
1157311 518009
1157692 668325
1158277 522836
1159161 430651
1159507 650391
1159908 906641
1160242 425465
1160600 201568
1161546 265554
1161794 145308
1162213 191053
1163186 648954
1163680 952623
1164227 74096
1165037 599531
1165150 584712
1165154 553401
1166090 610857
1166538 15290
1167109 659985
1167556 158656
1168281 256797
1169173 443822
1169259 205682
1170073 376068
1170980 247141
1171725 754224
1172240 590856
1172377 690630
1172625 812915
1173165 842980
1173699 942458
1174141 299460
1174189 535791
1174247 887824
1174556 250458
1175232 869411
1175861 819868
1175921 328136
1176777 847274
1177736 365447
1178144 503476
1178396 989559
1178690 443907
1178893 431336
1178896 809428
1178917 118524
1179832 887063
1180310 512185
1180720 173419
1181585 229654
1182264 963267
1182435 315286
1182844 702776
1183119 807418
1183819 736735
1184730 491882
1185552 368854
1186215 746761
1186815 548024
1186897 590128
1187061 92654
1187467 481108
1187709 10479
1188395 906227
1188638 767572
1189608 717763
1190132 445305
1190718 689838
1191716 822496
1192541 17854
1193350 211118
1193430 343434
1194071 945944
1194096 993660
1194863 719030
1195775 267100
1196256 452087
1197190 563715
1197590 626263
1198173 606776
1198886 709523
1199016 49900
1199802 302169
1200102 240752
1200641 144168
1200670 81388
1201385 518338
1201941 157080
1202268 741765
1203185 953983
1203576 705058
1204469 571049
1204565 580653
1204941 959272
1204998 627362
1205449 523205
1205792 607601
1205996 683369
1206594 651204
1206882 942596
1207220 728260
1208065 874269
1208699 852247
1209578 376673
1210257 902459
1210870 312527
1211475 892513
1211661 13914
1212433 497978
1212836 511304
1213663 469594
1214137 29209
1214776 117753
1215702 514424
1216588 676648
1217200 64528
1217490 887639
1218182 600789
1218901 872756
1218908 503319
1219008 312014
1219655 217311
1219862 450901
1220741 868893
1221676 884484
1222017 544770
1222639 812071
1223293 799959
1223882 120397
1224212 494228
1225037 881974
1225538 387291
1226170 648215
1226877 999480
1227585 99113
1227916 559232
1228092 176869
1228107 495233
1228114 543108
1228894 198656
1229798 839870
1230350 14838
1230688 984016
1231670 363445
1232183 918989
1232344 998805
1232507 680626
1232886 997403
1233468 143195
1233956 275249
1234149 638937
1234483 418252
1235426 276741
1235803 249875
1236511 663210
1236719 649060
1236735 706926
1237402 649513
1238366 272183
1238818 363465
1238957 67617
1239954 356202
1240062 504840
1240350 355270
1241230 531391
1242081 432773
1243003 920218
1243144 877255
1243625 745543
1244159 756838
1244895 986038
1245834 546951
1246101 709539
1246441 435529
1247370 92526
1247562 860774
1247770 138610
1248530 938780
1248754 456345
1249357 654639
1250242 607255
1250371 60525
1251243 381874
1251806 49024
1252741 464927
1253310 850200
1253619 419123
1254362 530475
1254538 347818
1255056 443168
1255176 541477
1256070 37383
1256495 838872
1256907 553218
1257174 602726
1257665 289389
1257951 480560
1258665 26276
1259593 24623
1259892 694752
1260829 589845
1261574 128977
1262303 693586
1263219 713579
1264069 951077
1264417 761239
1264942 602030
1265092 183259
1265183 975091
1265440 893320
1266167 781274
1267073 644266
1267520 622076
1267758 880936
1267993 250058
1268164 150704
1268578 70279
1269297 893230
1269520 964445
1269677 242645
1270228 99103
1271001 832649
1271418 619276
1272273 727464
1272987 344429
1273636 497332
1274507 642767
1275322 377621
1276158 623980
1276267 535940
1276803 733405
1277537 727892
1277760 916948
1278365 79483
1279254 219717
1280233 227081
1280793 455662
1281022 62853
1281767 671063
1282173 3843
1282183 310609
1282943 192778
1282988 843084
1283067 839952
1283210 18210
1283711 79459
1283980 567637
1284168 927954
1284593 243147
1284688 37704
1285053 551474
1285074 785867
1285211 706373
1285772 280959
1286089 163219
1286776 612922
1287239 10080
1287338 691598
1287732 262238
1288609 235582
1289189 616023
1289503 657623
1290101 930868
1290386 413526
1290841 557370
1290947 700531
1291166 654067
1292013 592777
1292045 553001
1292538 58797
1293335 684157
1293458 586652
1294241 928154
1294614 97042
1295557 274672
1296549 454669
1297150 567785
1297935 968608
1297948 978097
1298618 56513
1298964 112712
1299413 44894
1299765 520939
1300548 753502
1300578 611413
1301354 143741
1301594 604095
1302187 593854
1302529 47496
1302573 711262
1302592 467388
1303288 4620
1304169 135878
1304472 884116
1304743 227941
1305546 856645
1305912 873333
1306131 909493
1306144 987959
1306431 96631
1307216 178270
1307464 710012
1308440 235446
1308475 41527
1309325 801119
1309407 149570
1309724 476733
1309739 851232
1310250 174682
1310701 111892
1311398 94622
1311790 878419
1311865 190017
1312069 921501
1312856 814093
1313314 545130
1313989 40812
1314502 805794
1314888 130831
1315476 403087
1315825 782426
1316652 486060
1317627 172910
1318074 173472
1318542 350732
1319279 724051
1320245 875681
1320742 539075
1321606 901538
1321940 633441
1322663 386727
1323428 75031
1324185 133998
1324684 812248
1325491 637932
1325669 193534
1326001 799110
1326969 987187
1327477 165150
1327498 713761
1327873 58953
1328442 101820
1329066 187062
1329366 202955
1329929 618644
1330494 239185
1331141 905391
1332112 349936
1332849 889244
1333677 168869
1333733 94704
1334372 532346
1334775 851621
1334798 872468
1335775 592016
1336473 342229
1337409 253910
1337464 925162
1337853 69401
1337879 100240
1338216 884561
1338757 643130
1339447 69928
1339996 706341
1340391 337194
1340455 785685
1341275 60020
1341528 569356
1341567 43593
1341599 759190
1341656 773512
1342479 615209
1342486 81142
1342948 817293
1343181 877899
1343250 214480
1343904 71816
1344175 368115
1344385 696497
1344481 991955
1345453 686325
1345464 155200
1346171 814047
1346909 958550
1347407 330301
1347687 157322
1347738 631547
1348574 934072
1348981 501901
1349029 567952
1349253 963259
1349471 354532
1350036 263078
1350686 629137
1351576 748946
1352270 130842
1352603 701118
1352713 748555
1353572 403156
1354040 210838
1355008 770373
1356007 658604
1356365 372528
1356906 580404
1357256 246123
1357332 949144
1357913 833245
1358019 412191
1358417 752560
1359017 12394
1359492 673280
1360454 552414
1361171 80449
1361830 279199
1362376 974560
1363166 19084
1363307 178328
1364135 959135
1364609 869198
1365444 739728
1366175 954815
1367011 368105
1367560 181854
1367998 994493
1368996 134102
1369803 4514
1370257 882660
1371030 919581
1371496 414877
1371714 565043
1372266 368639
1372351 770239
1372460 205625
1373270 288648
1373753 602673
1374257 817315
1374467 897575
1375074 269605
1375479 779126
1375534 648478
1375792 466147
1376549 81418
1376998 439731
1377858 762530
1378622 341519
1379507 362484
1380390 757518
1381173 401726
1381275 802097
1382171 569398
1382877 480043
1383521 274502
1383792 724946
1384342 300950
1384890 657035
1385754 459536
1386660 98198
1387413 858759
1387754 442352
1388552 488011
1389519 185645
1389946 990730
1390711 738236
1391473 117679
1391564 769766
1392075 128738
1392680 686984
1393006 466778
1393674 973030
1394349 272980
1395063 646219
1395293 634483
1395664 595675
1396022 309871
1396472 458102
1397119 852584
1397207 978407
1397392 670885
1397514 153995
1397852 150616
1398382 558624
1398780 81921
1399332 576931
1400248 769580
1400340 378374
1400517 298416
1400630 222435
1401060 87499
1401830 373737
1402793 134130
1403204 509024
1404042 508551
1404307 193348
1404488 63707
1405331 538919
1406083 686705
1406668 382507
1406862 912289
1407475 332729
1408158 176261
1408274 250837
1409086 166040
1409333 315782
1409603 990980
1410264 9864
1410286 873459
1410789 256462
1411327 397088
1412289 638108
1412583 839297
1412679 490650
1412918 228682
1413141 19811
1413989 982765
1414955 604194
1415398 741021
1415600 762467
1415895 132897
1416215 79586
1416863 743140
1417517 106588
1418120 32048
1418619 284350
1418962 444784
1419402 827128
1419803 346194
1420005 202830
1420928 390067
1421653 66735
1422184 693464
1422686 399841
1423085 127868
1423784 55750
1424707 660480
1424714 38351
1424815 520895
1425187 262317
1426100 492151
1426480 194740
1426541 943086
1427445 828299
1428044 48120
1428104 521120
1428406 883229
1428582 642768
1429245 279337
1429451 922385
1429683 518424
1430002 151959
1430117 761032
1430904 263834
1431101 799786
1431575 370860
1432497 672142
1433206 728974
1433329 56583
1434084 539075
1434478 47077
1434966 707958
1435231 319074
1435842 969983
1436584 278145
1437201 337084
1437511 444115
1437840 963325
1438179 865166
1438715 86068
1438751 991598
1438784 450697
1439754 689514
1440378 747558
1441315 754676
1441867 452378
1442138 373916
1442201 239644
1443174 494903
1444028 427413
1444703 10487
1444797 587081
1445413 408519
1445447 428525
1445860 228521
1446569 339141
1446760 641154
1447298 779374
1447826 341700
1447864 297200
1448757 127779
1449694 210219
1450091 137577
1450837 966370
1451501 920201
1452127 958879
1452833 841853
1453576 792294
1454319 988472
1455242 56400
1455269 262671
1455386 23608
1456034 235793
1456441 743244
1457403 654201
1458141 9041
1458373 559776
1459328 333407
1459421 143690
1459966 196022
1460591 534293
1461236 36826
1461698 961621
1461762 164787
1462299 309410
1462484 675901
1462948 979631
1463031 332221
1463519 668710
1464375 988944
1464888 246234
1465408 266891
1465957 869427
1466840 85200
1467684 473632
1468291 105249
1468529 898507
1468694 833792
1469196 755212
1469695 719540
1470460 498021
1471347 616846
1472130 821773
1472301 888317
1472352 495051
1473116 938645
1474106 837169
1474291 57810
1474666 766414
1475301 425789
1476002 358893
1476114 989550
1476263 690633
1476993 349882
1477226 103621
1477704 872200
1478160 673276
1478261 440828
1478725 196731
1478853 687589
1479038 563032
1479155 335672
1479238 191824
1479840 692248
1480603 782221
1481258 354724
1481885 284511
1482467 21506
1483135 401105
1483357 645986
1484275 442032
1484549 177862
1484609 804288
1484689 274529
1485014 609932
1485154 182729
1485618 757218
1485776 678522
1485916 843493
1486781 909554
1487314 316259
1488026 715378
1488616 858083
1489585 913481
1490217 800172
1490920 723397
1491493 467235
1492218 446567
1493152 359669
1493731 858207
1494668 694514
1495059 517289
1495542 143485
1496507 8720
1496804 313989
1497727 723989
1497833 46788
1498078 219249
1498157 418696
1499067 182400
1499493 449598
1500192 759279
1501116 342970
1501564 912937
1502056 749508
1502502 551228
1502739 846618
1503512 695182
1504366 218054
1504846 162831
1505566 928037
1505771 582736
1505863 991267
1506104 977107
1506541 447129
1506665 210309
1506890 45283
1507108 358423
1507138 755833
1507727 174030
1508415 118076
1509001 800249
1509415 479566
1510359 582577
1511161 14002
1511605 420507
1511753 846152
1512250 76028
1512459 297117
1513403 527871
1513498 297512
1513811 409570
1513911 513391
1514420 606741
1514496 939996
1514622 684675
1515077 137876
1515467 977112
1515784 412141
1516408 571224
1517229 338233
1518115 496600
1518753 932714
1519028 150132
1519640 107651
1520209 278126
1520699 765090
1520914 214559
1521015 189738
1521053 63220
1521905 794987
1522007 706737
1522971 786819
1523493 242767
1524004 882257
1524702 556096
1525153 978207
1525192 167700
1525403 658435
1525448 256791
1526100 798841
1526403 985219
1527246 620013
1527848 558801
1528016 97868
1528917 647999
1529555 703606
1530209 249607
1531179 78095
1531700 513994
1532683 113161
1533609 323212
1534572 471262
1535235 872775
1535797 595202
1536096 94589
1536817 689415
1536875 757827
1537269 654053
1537326 61463
1537353 711645
1538072 540561
1538971 720131
1539927 160362
1540718 561024
1541055 23686
1541273 837803
1542247 431578
1542570 29753
1543270 411360
1543644 154658
1544298 352785
1544906 831777
1545038 726413
1545408 803505
1545590 817383
1546037 231808
1546746 160092
1546984 207079
1547430 336266
1547568 125891
1547673 282472
1547810 503964
1548438 381996
1548569 336184
1548575 507815
1549012 745672
1549282 622641
1550108 584137
1550512 562729
1550650 689199
1551099 185441
1551312 284798
1552077 796920
1552577 40043
1552694 611599
1552760 80203
1553199 216241
1553259 993134
1553993 903818
1554305 893571
1555094 67630
1555999 498909
1556658 71271
1557058 631346
1557934 77990
1557972 183470
1558024 584762
1558358 626788
1558947 51961
1559521 901115
1560385 193486
1560574 770642
1561532 296345
1561972 126545
1562134 715103
1562364 975036
1562849 758595
1562936 127733
1563436 660784
1564356 477126
1564546 913970
1564874 490778
1565190 413208
1565746 146293
1566002 995033
1566123 656850
1566805 324255
1567608 183891
1568091 7141
1569042 859046
1569573 634399
1569662 838741
1570444 490491
1570861 898274
1570921 50544
1571830 510647
1572206 360926
1572379 561325
1572882 813066
1573660 115114
1573895 140371
1574571 666974
1575548 676478
1576346 186112
1576759 685235
1577706 657677
1577907 674926
1577935 139158
1578384 487314
1578656 672367
1579459 682102
1579817 617563
1579948 773592
1580282 675057
1580923 575117
1581301 200172
1581704 577727
1581916 650123
1582216 137608
1582779 276343
1582949 454137
1583421 95100
1583435 698829
1584108 692521
1584549 829732
1585530 61671
1586000 901631
1586908 508156
1587187 378994
1587966 577717
1588710 797733
1589659 489781
1590642 90663
1590948 911273
1591274 846544
1591808 5018
1592090 913070
1592888 812594
1593770 633913
1594148 637009
1594373 82248
1595372 714930
1596024 640602
1596338 996246
1596910 796356
1597152 771716
1597164 425515
1597784 773298
1598098 676296
1598663 819187
1598979 828968
1599609 462420
1600404 481456
1600885 418787
1601410 287018
1601702 146922
1602286 755619
1602304 258144
1602347 819834
1602876 520063
1603156 23351
1603781 578845
1604526 425099
1604968 928145
1605935 115156
1606371 428791
1606535 193814
1606613 662311
1607500 155942
1607746 379442
1607953 400350
1608514 604877
1609147 88379
1609246 979032
1609518 407669
1609826 831699
1610195 290260
1611091 70849
1611374 885791
1611514 993085
1611586 275630
1611754 827906
1611843 281575
1612224 659445
1612326 823867
1612967 158907
1613271 532015
1613878 946298
1614615 766361
1615193 456465
1615336 916189
1615723 595787
1616288 878165
1617283 659605
1617888 105372
1618075 203169
1618613 158133
1618975 945999
1619080 924676
1619739 181977
1620083 490933
1620280 537051
1620337 484982
1621247 49138
1622191 940675
1623040 588311
1623842 46698
1623947 634152
1624160 884512
1625060 415171
1625395 220191
1625936 180108
1626147 293817
1627128 689927
1627393 142702
1628231 181584
1628468 962269
1628938 41194
1628951 581483
1629924 500713
1630879 715864
1631444 240670
1631932 839162
1632630 519358
1633003 205502
1633616 761740
1633708 476642
1634537 651512
1634661 736133
1634873 468790
1635517 740157
1635599 939040
1635967 163034
1636937 80521
1637020 544010
1637084 577370
1637400 576016
1638277 223687
1638755 959211
1639293 387831
1640005 886898
1640532 266323
1641125 608388
1641899 782412
1641987 836245
1642763 757206
1643528 133712
1644091 825230
1644535 115249
1644896 360793
1644961 539738
1645919 143687
1646242 450951
1646606 909226
1647251 868778
1647507 453721
1647802 242293
1647939 235625
1648334 479574
1648644 669449
1649002 342509
1649990 412697
1650191 483037
1650976 730769
1651417 506162
1652048 20406
1652737 151970
1653399 908075
1654101 816325
1654408 73854
1654934 97515
1655288 62535
1655752 377975
1656335 369748
1657105 342390
1657279 185257
1657282 131743
1657475 301210
1658402 411199
1659232 997929
1659621 750461
1659735 238630
1659870 270512
1660004 471416
1660580 265660
1660586 654159
1660969 189685
1661356 30233
1661584 400471
1662164 807699
1663079 22281
1663989 248354
1664432 543855
1665182 731752
1665704 641748
1665954 44329
1666405 978096
1667183 786608
1667419 240572
1668305 880019
1668918 505249
1669479 366108
1670016 70052
1670603 54301
1671434 34490
1671677 111245
1672279 790625
1673021 408715
1673128 966396
1673338 458932
1673463 657118
1674461 472930
1674520 891298
1674907 815479
1675907 589505
1676761 983885
1676971 518740
1677299 570598
1677856 100949
1678581 488022
1679055 532702
1679754 883511
1679845 576407
1680453 320119
1680946 508744
1681720 764287
1681814 186843
1682489 115088
1682827 258812
1683678 264402
1683762 773312
1684273 847160
1684467 170583
1685043 19897
1685895 847833
1686307 491424
1686740 454734
1687677 709239
1688424 721525
1689416 936108
1689441 227837
1690348 38789
1691173 329069
1691326 639744
1692192 513135
1693009 99403
1693060 681692
1693599 237204
1694293 319571
1695168 781547
1695844 482518
1696565 132980
1696915 32338
1697303 13394
1697802 933199
1698196 444481
1698679 832356
1698975 427879
1699305 827801
1699392 245311
1700084 743958
1700190 952890
1700556 309165
1701271 364567
1701356 764213
1702302 366300
1702304 887109
1702853 632573
1703410 780864
1703596 422330
1703792 619576
1704469 789864
1704791 128897
1704815 364241
1705250 354263
1705567 671340
1706333 607672
1706752 537784
1707095 159995
1707865 667245
1708071 361711
1708655 254115
1709000 778777
1709703 935241
1710255 47198
1710693 868891
1711049 817399
1711152 556298
1712007 757076
1712664 866025
1712774 903588
1713607 519657
1714354 132229
1715149 334741
1715848 991458
1716509 920490
1716532 876684
1716776 152119
1717027 439611
1717247 57059
1717273 748501
1718223 8286
1718760 665340
1719090 778940
1719348 57739
1720234 591858
1720887 877552
1721726 462513
1721753 739505
1722098 475485
1722766 723945
1723700 706942
1724288 494018
1724306 357945
1724553 829568
1725311 826305
1725818 702146
1726303 109257
1726420 387530
1726716 416352
1727534 44441
1727808 415716
1728214 98759
1728730 304039
1728888 400580
1729120 879426
1729585 691825
1729610 379774
1730608 212655
1731142 424151
1731930 904669
1732496 597715
1732910 824316
1733304 594314
1733959 962082
1734396 355954
1735149 291637
1735344 519592
1736030 600363
1736862 647655
1737664 149869
1738490 879658
1739117 772804
1739632 45821
1739982 406322
1740821 786968
1741114 489280
1741221 392204
1742078 408985
1742807 1369
1743012 6226
1743619 320106
1743931 395001
1744040 712921
1744381 207984
1744595 499722
1744986 867648
1745866 285254
1746598 252985
1746709 596148
1747242 173394
1747613 314759
1748543 549780
1749047 210290
1749225 288714
1749538 749470
1750151 266179
1750762 47
1751152 496684
1751218 682353
1751253 277187
1751545 372957
1751878 802575
1752155 254861
1752559 975367
1752779 408933
1753155 554734
1754058 735836
1754653 362821
1755435 299105
1755972 687188
1756711 927948
1757428 398957
1758122 310096
1758279 696774
1759262 312047
1759765 450732
1760666 139302
1761107 463694
1761438 432361
1762231 940792
1763102 2804
1763822 360010
1763922 544494
1764858 694581
1765693 719274
1766339 7257
1767075 525898
1767852 88342
1768459 652930
1768936 103742
1769440 206132
1770140 943323
1770418 890190
1771389 194454
1771646 571893
1772297 139335
1772989 859655
1773274 146153
1774032 288720
1774826 472252
1774981 142720
1775411 517706
1775684 153634
1776651 925495
1777570 140683
1777886 141435
1777998 829463
1778198 451173
1778479 303674
1778713 289843
1779062 819478
1779757 513741
1780052 171645
1780894 349512
1781570 644006
1781616 381
1781979 467821
1782722 882638
1782917 475425
1783470 927341
1783773 114385
1784375 220306
1785258 44060
1785520 230382
1785526 565326
1785571 605901
1786287 579378
1786840 158305
1787290 495047
1788234 313417
1788693 745267
1788964 477048
1789597 417240
1789995 83535
1790539 512239
1790695 306450
1790886 981254
1791509 798952
1791596 648367
1792219 514514
1792532 592020
1792630 471808
1792787 840539
1793593 727055
1794400 445798
1795219 90910
1796133 411242
1796342 342414
1796858 593280
1797524 734470
1798422 95167
1798868 349703
1799796 302777
1800657 855033
1800973 58386
1801872 497140
1802269 993077
1802396 667343
1802998 463479
1803549 708697
1803687 92033
1804499 433583
1805286 434778
1805828 322827
1806675 537914
1807661 350041
1807795 465173
1808738 995187
1808776 492845
1809592 160022
1810554 332122
1811285 583836
1811750 991728
1812386 622474
1812618 369892
1813021 304717
1813303 602448
1813615 853554
1814081 275467
1815008 146445
1815513 887241
1815808 455480
1816026 4326
1816991 332849
1817259 215474
1817433 732140
1818007 894891
1818370 384866
1819350 617853
1820147 184580
1820830 440132
1821547 895749
1821829 514150
1822364 748908
1822554 543944
1822764 704867
1823356 655696
1823692 428464
1824244 643459
1824246 794710
1824854 510417
1825307 649970
1825700 542483
1826274 870527
1827256 456504
1827638 25965
1828375 437123
1828664 416477
1829363 150729
1830046 190949
1830779 369801
1831286 166322
1832149 968212
1832737 740457
1833657 276431
1834344 931604
1834923 385569
1835684 919132
1836504 418752
1836530 982044
1837383 846828
1837769 204617
1838180 394497
1838392 553615
1839388 825056
1839663 639731
1840496 188076
1841134 581790
1841457 300201
1841910 699880
1842345 778714
1842637 972684
1843014 424989
1843699 273645
1844066 486129
1844425 589391
1845306 656273
1845957 879630
1846829 288954
1846871 408832
1847263 406506
1847818 327041
1848385 570311
1849266 774104
1849352 726179
1850084 169493
1850597 682504
1851398 157958
1851676 935713
1852463 556439
1852541 737214
1852637 596050
1853470 119675
1853866 991305
1854165 374294
1854961 510460
1855894 931924
1856228 416056
131916998
