3320
899 839563
964 542367
1400 387727
2276 33930
2732 726515
3694 391394
4522 3020
5513 235432
5714 851122
5893 995513
6752 53677
7475 249929
8019 499917
8304 294005
8516 222107
9429 698222
9629 400949
10368 162610
10514 845809
11049 152524
11806 587866
12636 925048
12783 106128
13311 934338
13994 787547
14125 102052
14850 967294
15005 239430
15173 500046
15719 543380
16220 643139
16507 308372
16913 422371
17529 958970
18117 690749
18631 426401
19288 365171
19980 893901
20049 476256
21034 179386
21477 469755
22382 487848
23074 512831
24010 192172
24884 78061
25632 268907
26310 398690
27171 924227
27185 816687
27934 107882
28430 939767
28470 443129
28895 218382
29080 633237
29452 685979
30185 269582
30691 403412
30908 490929
31373 394815
31744 950714
32441 565127
33290 439788
33435 633890
33906 297086
34805 198908
35458 795239
36235 601933
37223 795353
37323 57843
37361 834377
37946 315853
38346 337952
39011 502582
39266 330962
39326 61337
39838 288301
40673 364409
40823 168378
41652 160263
42423 314814
42894 175216
43058 958599
43751 611705
44477 2082
44504 116175
44576 302115
45043 719054
45472 143617
45855 872779
46712 422648
46909 42310
47172 361987
47295 975533
47352 734665
47984 371029
48739 752950
49205 531527
49807 985678
50182 477429
50985 905203
51777 991229
52407 916015
52765 979642
53644 477359
54083 495212
54937 432718
55932 97375
56410 187213
57131 469275
57657 566492
58112 713810
58197 407882
58840 295837
59674 655215
60328 541445
60687 291125
61411 944195
61725 709286
62310 914047
62343 307911
62664 404700
62947 319994
63496 532853
63618 21113
64315 997575
64367 201969
64829 897804
65576 326123
66424 444852
67028 671863
67848 256645
67916 877269
68380 735070
68915 889637
69037 453517
69468 997339
69655 125391
70026 623020
70590 766617
70872 368468
71132 862930
71161 145833
71766 519495
72193 294654
72948 12161
73123 549352
73862 552129
74295 714519
75246 615516
75279 472318
75339 313300
76057 772301
76175 742454
76541 635578
77108 973527
77280 394254
77513 593254
77994 837820
78640 141131
79608 46828
79996 183858
80648 718761
81604 510412
81839 86435
82752 816661
82930 956928
83181 702884
84003 37103
84444 231133
84758 570688
85120 80110
85752 699450
86470 335294
87156 972235
87810 239871
87985 74025
88729 856708
89222 323205
89404 23129
89825 556197
90107 242091
90948 184507
91048 665086
91858 950461
92479 141272
92481 325821
92858 339528
92875 581112
93852 612115
94516 983096
95328 836414
95549 647763
96203 650857
96479 12324
97404 802035
97434 331597
97748 425198
97836 695328
98520 30462
99181 188437
99434 615517
100252 390836
101061 314731
101410 717511
102257 232318
103053 967367
104049 913308
104722 306876
105268 42526
105745 222949
106285 520322
107154 849010
107375 929153
108273 619391
109020 969863
109257 64144
109553 689064
109779 586304
109800 227576
110163 958484
110659 291208
111217 684864
111677 653959
112612 875512
113367 511982
113679 711982
114503 627288
115195 367867
115567 123887
116027 554038
116683 102785
117107 126600
117371 87325
117831 799608
118799 520599
119439 195582
119649 721166
120613 629397
121062 493265
121191 533909
121399 17521
122188 106957
122842 768553
122901 74427
123576 995116
124110 6251
124667 218803
125007 287022
125153 231576
125601 913868
126314 519459
126796 862721
126946 140976
127106 500566
128070 111721
128572 509470
128992 88571
129312 105431
130256 666427
130567 569941
131452 955753
131767 796008
132164 338701
132741 654953
133285 34261
133674 609947
134634 998746
134789 923206
135134 224095
136056 673134
136641 282607
137103 801626
137768 60217
138274 322742
138838 241377
139834 494078
140786 864361
141637 674900
142166 981566
142385 913593
143030 564689
143396 979610
143811 505782
144607 767804
145004 634976
145908 326388
146442 568249
147108 488709
147723 220112
148403 149380
148449 209473
149285 41475
149449 442491
150289 359444
150502 330252
150630 218093
151445 403028
152080 909006
152749 40155
153083 788199
153462 884273
153466 667798
153489 356600
153613 245142
154209 690714
155000 716569
155526 671906
156130 559241
156131 867114
156874 927434
157499 356156
157972 849491
158747 770043
159420 726728
159875 360770
160417 673692
160910 985342
161122 236364
161706 244379
162366 790424
163187 512579
163242 434553
163914 219969
164736 540521
164906 194218
165475 618693
165708 910244
166394 582552
166438 915857
166800 815976
166853 885809
167101 907361
167435 57593
168117 906080
168278 289623
168785 271526
169035 187908
169867 239528
169970 158639
170111 774348
171015 645578
171344 261735
171898 248122
172569 249381
172655 207333
173379 401323
174354 360096
174390 699909
175032 38130
175290 713058
175353 774973
175416 605681
176167 921892
176205 46585
177093 430972
177346 530388
178276 154286
178724 714667
179284 661302
179958 628716
180622 975711
180717 509785
180863 833902
180878 306783
181379 550998
182152 98823
182179 100525
182895 57303
182944 762950
182995 479322
183844 145122
184195 501355
184803 725485
184955 345719
185463 881887
185993 983970
186316 326685
187007 296324
187054 935417
187981 30956
187998 860004
188116 252453
188333 132987
188363 577579
189084 296418
189516 861038
190462 634329
191436 85616
192232 878366
192651 492339
193531 237511
194324 871188
194351 699773
194910 748279
195288 400270
195616 818350
196505 707693
197485 155917
197556 431322
198127 135788
198785 848911
199043 718866
199549 536500
199826 74327
200129 339552
200423 376078
201263 282069
202072 846083
202181 341805
203069 142141
203428 9415
204418 356999
204923 217556
205340 645520
205655 898182
206307 807982
206984 370672
207156 973353
208155 875404
208927 251020
209766 552410
210658 564849
210815 624612
211414 569030
211641 513002
211833 278192
212286 618740
212687 16781
213555 740622
214435 736684
215299 477333
215458 523466
216218 498683
216358 862545
216673 250596
217015 60775
217722 393814
218100 795772
218690 839072
218917 284520
219204 18062
219963 308713
220396 243004
220692 402499
220964 778540
221516 878098
222042 846081
222975 542904
223545 388226
223932 707465
224856 146709
224919 838604
225595 142050
225769 81656
225926 406321
226527 277563
227069 834257
228030 35976
228682 67486
229051 743564
229646 453006
229696 256241
230406 693357
231368 196132
231609 126768
232363 938467
233207 228486
233599 673838
234416 534194
234826 5830
235361 615292
235813 895474
236450 230323
236752 434204
236884 951362
237031 516820
237892 296753
238051 589193
238853 506181
239321 774091
239460 784407
240412 425206
241084 84610
241139 481110
241715 45372
242145 976706
242284 615108
242941 457835
243484 585333
244289 27122
244731 574438
245587 104687
246204 624525
246921 140609
247921 488101
248776 611346
249021 638075
249423 780910
249444 2966
250112 61348
250244 604962
251021 978514
251435 766821
252062 392447
252092 845698
252766 778141
252971 133982
253770 41197
253837 275502
254605 372171
254952 884549
255112 294773
255908 930857
256189 2171
256541 713510
256542 681239
256988 327754
257671 647386
257876 605854
258067 276038
258740 740251
258798 540655
259608 864332
259651 122662
260202 989956
261157 540305
261256 461464
262144 595844
262351 609103
262836 526210
262909 266704
262928 819082
263789 561536
264053 184470
264097 345761
264326 923111
264436 870800
265288 392208
266252 395312
266579 750681
267313 650454
268194 588711
269020 457750
269841 861580
270052 634917
270949 710255
271227 416806
271933 910831
272630 23306
273139 878845
274116 777800
275009 862321
275107 279100
275697 395560
276679 467004
277651 194926
278413 805464
278739 676923
279667 679069
280268 479624
280739 902358
281664 515965
281879 627236
282300 443797
282323 334480
282941 474001
282998 232502
283647 865312
284476 852801
284730 884379
285565 823990
286216 685641
286617 9639
287530 790487
288173 393301
289139 704185
290009 516405
290993 253167
291356 562576
291414 132623
291658 939607
291845 723294
292533 343373
292930 275626
293715 903407
294248 458750
295008 351863
295045 540556
295825 901412
296419 978906
296660 631232
297337 182122
297373 327281
297982 976793
298142 140304
298802 604231
299691 10568
299989 602398
300016 151958
300144 243271
300504 938074
301499 739397
301795 25844
302490 401923
303327 218512
303926 92332
304397 474608
305218 485381
306150 210308
306411 98710
306746 342872
307264 816650
308254 968711
308705 512180
309401 711118
309924 762238
310671 13641
311191 375454
311315 990385
311321 552940
312177 205742
312278 373195
312374 122930
312965 11960
313421 911010
313776 74096
314542 921576
315235 598857
315685 718182
315697 203274
316357 457181
316452 519072
316719 806241
316994 641885
317352 348577
318063 569881
318412 613097
318816 55847
319569 605804
319665 638136
319878 520554
320716 813864
320794 663844
321545 66324
321852 394860
322576 629876
322723 67916
323537 601574
323695 863217
323737 769485
324720 972683
325078 931720
325820 435057
326206 217553
326659 878191
327205 119480
328003 719999
328628 651953
328797 75151
329278 266057
329714 448431
329923 254015
330105 813344
330507 317972
331006 41114
331453 348451
331505 354314
331921 896481
332885 902231
333791 244237
334295 250730
335084 698636
336041 707103
336213 513481
336381 78773
337231 337871
337239 529396
337280 931014
338224 337810
338756 80641
339050 95930
339157 592030
339472 192766
339622 996894
339939 128449
340507 706993
341354 51091
341741 859356
342630 458410
343556 202379
344144 108713
345005 788199
345979 512223
346769 450604
347515 782974
348228 566824
349132 352971
349730 237764
350039 80917
350722 745283
350914 745227
351469 790479
351586 488741
351805 42435
352587 474852
353582 290694
353639 710244
354234 865954
354440 944126
354478 826362
354824 49521
355767 676232
355891 318547
356751 601464
357123 113531
357719 923270
358717 242741
359475 529106
360103 538186
360694 378146
360798 155069
360956 649867
361306 464637
361856 110077
362825 913287
363523 109563
364477 63903
364514 44980
365232 29321
366058 461330
366356 944484
366885 400363
367061 35562
367196 688040
367286 894915
368077 764941
368473 320110
369007 283728
369889 283086
370471 494359
370764 360391
370906 551474
371640 803729
371962 375711
372171 188601
372651 24553
372858 25272
372908 63413
373222 479797
373729 425081
374258 463186
374483 468670
375401 915353
375666 50709
375991 4816
376435 149343
376908 945427
377491 938415
377620 383610
377874 801080
378773 590680
379062 416992
379509 703152
380474 515024
380980 585571
381571 864749
381635 961614
381710 470154
382012 831176
382961 339476
383002 674541
383305 123887
383811 662708
384393 571922
384661 768062
385495 280826
385882 136643
386377 130542
386975 503066
387906 839736
388440 420213
388474 48634
388937 497284
389449 149379
389790 600110
389834 592795
389846 906921
390268 985985
390803 417804
391159 894729
391342 569086
391438 134797
391880 235243
392259 100461
392784 803772
393220 416624
394177 270688
395154 381317
395373 983996
395649 712796
396238 974488
396561 958221
396679 190606
397477 380408
397846 240417
398221 40062
398808 121214
399102 652571
399916 373511
400719 790426
400957 749561
401773 309802
402075 691066
403065 971096
403330 936912
403672 81453
403951 608273
404587 312867
404765 124150
405363 140735
405681 975659
406477 831958
406576 60587
407460 824230
408266 22690
409201 385041
409728 23216
410008 809057
410283 859332
410321 761656
410484 27347
411332 732510
412269 280304
412704 644425
413391 246700
414150 199231
414792 459718
415253 916494
416192 206388
416872 841495
417481 323584
417770 993776
418402 831559
418537 515645
418549 317017
418874 933003
419843 664537
420081 407141
420821 650996
421076 32456
421499 810630
422379 33531
422938 784926
423694 559121
424371 169030
425267 173052
425835 973990
425992 797151
426764 629603
427330 361853
427405 141178
427657 761907
427987 80143
428525 639159
429514 989431
429825 822042
430012 778833
430768 27163
431433 822696
432402 281294
433241 940612
433740 39495
434069 774644
434131 842192
434771 286342
435297 338208
435899 853584
436708 323537
437148 963043
437363 59342
437990 636410
438364 512459
439254 407064
439792 264348
440603 518027
441591 252054
442133 762137
442290 784466
443149 856581
443402 792730
443946 934385
444609 291439
444653 58876
444771 206823
445170 776985
445754 326401
446693 726825
447313 397226
447758 122799
448260 96345
449176 873308
449785 176107
450656 306959
450658 915344
451358 343715
451654 299143
451839 369192
452789 275911
453554 18380
454148 532128
454351 612157
455088 432637
455993 273086
456231 792023
456981 215675
457052 539134
457869 359569
458804 871
459043 713111
459934 70604
459968 450793
460517 512936
460959 281427
461438 707604
462203 388454
463007 933424
463649 630217
464483 783838
464887 183522
465015 5324
465299 180758
465757 802250
465954 718616
466719 921862
467688 237256
468463 612595
468765 105213
469343 885169
470012 182135
470963 364477
471945 576219
472621 277642
473318 276315
473846 97635
474546 350468
474966 985532
475352 792128
475686 270478
476356 296982
477215 38632
477514 633636
477762 873464
478183 994261
478939 179878
479498 627915
479619 808271
480380 565935
480956 632139
481133 467484
481921 782771
482829 448665
483361 111775
483890 677305
484873 60355
485411 808888
485702 868587
486470 303723
487357 232064
487989 564698
488948 930211
489839 328073
490033 136958
490844 618512
491245 900324
491301 616668
491690 805489
491803 973373
491841 239839
492687 533194
493452 728288
493974 697533
494789 918177
494808 311847
494953 182032
495325 827846
496225 418269
496315 84821
497173 879822
498076 77181
499064 216767
499624 109796
500471 833080
500882 570934
501019 187382
502007 120187
502068 97654
502752 97588
502943 674866
503530 544006
504234 86786
504972 701528
505464 786999
506166 857864
506990 646183
507204 682439
507528 167363
508456 352013
508894 658128
509817 769983
510565 386753
511073 936585
511338 15788
511492 883502
512364 821395
512483 624132
513083 717278
513243 278155
514023 152068
514327 545052
514607 976262
515464 710924
516289 252706
517187 889911
518121 186641
518129 200885
518725 772471
519315 136123
520160 534037
520603 712550
521512 641301
522250 578066
522801 392345
523677 466062
524067 317547
524094 500458
524133 954700
524542 395327
524758 447253
525111 472076
525847 650466
526084 555855
526444 168057
526657 410561
527219 137201
527642 542897
528629 724208
529165 967054
529791 329656
529962 526587
530943 698866
531101 986532
531377 736841
531554 372596
532279 416506
532569 569469
533284 542665
533818 902826
534053 94255
534270 197412
534560 738746
535234 428248
535607 764246
535696 455230
536239 987733
536670 308965
537099 646933
537798 581935
538087 28976
538740 960992
539304 561512
540073 869169
540577 64520
540758 161699
541451 769432
542345 473219
542375 171717
543255 864335
543900 738193
544793 926714
544853 12026
544867 978689
545349 605557
546187 917353
546675 949318
547121 96497
547722 945636
547917 280314
548796 132826
548973 745550
549240 513508
549466 987142
549582 334776
550276 499014
551003 588696
551342 794643
551430 552587
551901 831753
552099 791100
552798 767718
553520 734365
554206 583885
554437 525751
554516 764700
555409 746872
555731 692464
556147 232651
556377 149801
557275 79557
557384 844761
557726 867183
558268 816481
558537 74782
558656 560527
559321 878006
560001 11677
560413 250814
560444 400197
561158 156786
561192 716879
561350 520992
561937 266268
562618 188734
562907 139964
563505 564285
563757 742601
564682 766240
565268 679851
566266 470150
566309 112551
566918 689018
567753 128366
568032 789286
568196 346850
568395 36134
568913 765029
569198 756859
569772 502327
569895 918927
569952 672020
570918 206055
571547 583689
572196 818085
572902 212892
573448 402365
574426 417455
574971 812332
575062 763421
575098 337890
575441 633670
575927 171253
576022 534401
577013 351379
577708 672447
578676 825347
578848 502840
579746 415256
580114 182288
581014 386276
581286 43282
581485 977982
582146 506851
582547 508254
582978 744477
583164 233374
583674 822962
584324 727698
585050 272740
585286 973752
585998 182169
586781 535044
587506 117482
587692 445780
587919 117093
588246 794600
588639 152871
589116 482501
589696 75481
589924 356482
590026 166722
590350 377053
590716 563177
591226 21745
592004 991820
592770 127177
593556 649066
594383 993641
594511 398556
594991 530644
595366 593784
596114 324458
596198 900620
596655 30588
597364 565223
597780 508692
598145 642300
598953 977786
599561 358116
599908 55729
600667 748481
601158 381643
602135 29407
602946 31066
603039 329622
603725 710265
604718 346296
604938 396529
605449 448311
606281 311409
606737 305751
607243 135206
607433 167408
607843 505935
608691 718139
609589 390855
609760 725246
610661 676153
610727 395143
611151 76775
611390 428821
611894 346140
612068 493841
612206 115443
613065 136774
613239 846760
613386 254049
614157 146713
615042 537269
615312 446970
616126 364233
616847 607569
617697 147295
618658 462845
619380 22160
620243 277425
621053 304516
621151 852882
621550 57933
622438 74023
622996 948696
623150 777335
624080 4936
624807 491277
625438 888255
625566 466761
626249 567477
626640 346507
626973 880503
627453 334402
627983 767407
628447 262311
628926 247192
629518 623075
630129 873162
630363 377920
631266 260194
631608 996215
632022 33649
632923 551162
633555 494300
633699 795548
633759 326257
634161 464712
634609 71231
634821 846672
635533 926860
635765 355768
636722 904304
637419 171565
638159 497375
638753 827974
638889 396294
639754 224980
639937 400516
640589 959757
640697 242753
640735 174848
641472 978459
642415 375996
642467 353633
642555 68222
643476 622172
643937 234286
644786 221945
644807 980738
644868 771661
645391 883435
645818 271440
646413 678967
646848 734815
647200 923873
647319 910918
647470 730289
648099 431893
648556 853724
648698 133631
649118 287644
649378 651520
650365 859866
651015 379649
651040 276808
651428 658548
652166 75581
653151 200320
653705 788596
654221 848392
654903 6239
655694 367765
655869 454941
655909 464481
656840 681142
657340 97843
657638 808444
657842 661244
658510 124588
658790 70547
658841 785042
659028 599444
659335 416956
659348 299614
659561 435939
660075 609894
660197 842891
660503 814604
660726 225571
661567 326543
662300 63702
662745 958192
663372 242595
663485 962251
664015 88611
664458 417898
665003 479200
665889 690189
666235 513500
666357 496473
667258 776724
667875 312847
668126 26824
668774 784968
669598 584703
669972 710160
670696 668534
670934 777686
671279 444560
671370 35077
671769 722160
671905 638683
672200 321479
672725 297777
673563 408280
674234 954917
674965 631764
675645 44386
675650 62415
675863 533988
676075 296953
676794 3516
676904 201093
677829 698498
678017 675217
678875 814941
679844 175800
680590 689200
680683 736859
681582 1479
682074 588239
682191 394022
682202 700613
683153 247308
683719 446915
684608 566203
685301 406801
686300 823655
686809 356323
687602 38777
688321 360817
688746 197447
689054 759155
689203 633246
689598 155593
690434 728740
691001 669188
691682 316957
692428 827271
693012 323470
693716 338588
693874 846929
694364 352222
695008 317132
695694 912718
696067 630019
696456 726477
697047 753040
697615 23640
697660 136825
698031 883502
698080 792434
698454 386092
698805 374938
698873 876547
699398 759336
699445 723324
699665 991036
700365 839546
701180 983433
702128 142925
702450 646618
702519 396000
702692 929295
702863 85750
703439 29632
704063 595137
704949 377349
705144 212819
705833 472994
706444 785331
706921 330881
707892 370155
708768 179503
709318 820814
710052 222178
710643 327991
711206 679792
711323 877039
711739 736179
712526 68677
713501 603787
714094 876461
714102 236034
714748 376674
715454 114275
715489 309480
716403 134724
717125 583678
717586 363341
718311 130550
718609 857559
719386 479710
720347 154008
720614 461985
721120 895119
721344 684414
721873 473071
722526 58572
722883 247089
722970 949308
723545 316483
724211 662791
724724 44171
725019 476630
725323 893517
726092 578419
726460 764482
726699 434834
727571 354624
728053 993096
728087 222319
729049 978411
729512 380864
730267 296828
731065 456707
731160 475344
731793 451796
732628 246705
732724 776043
733658 242365
734012 999793
734516 472989
735346 455482
735371 532270
736063 441419
736928 181817
737289 388975
737868 44403
738310 843159
738812 830190
739205 9412
739699 365835
740535 711801
740945 95809
741423 822557
742085 292703
742489 509809
743142 981846
743390 414843
743634 448566
743765 265285
743905 858451
744486 69226
745209 193675
746013 178160
746762 325685
746958 360545
747691 676243
748194 851660
748314 182677
748350 338360
749176 54780
749534 123380
749617 944060
750223 640537
750574 162566
751027 862877
751414 427582
752286 75445
752786 364222
753318 10523
753675 290679
754548 453001
755378 357563
755930 268585
756259 279554
756661 581999
757568 52285
758522 583791
758911 124079
758987 630845
759562 332382
759813 706929
760241 318797
760258 418021
761134 173768
761227 877125
761763 458971
762262 788108
762399 720294
762768 895176
763705 255232
764622 390125
764888 362780
765654 509531
766466 620251
766624 93088
766846 642420
766911 603445
766998 84914
767756 241380
768648 494572
769040 654898
769612 824101
770339 6596
770833 604210
770865 852502
771044 497638
771988 456187
772824 843113
773594 884613
773751 807558
773965 606352
774807 218064
774916 725839
775644 836097
776178 548148
776937 870145
777760 282759
778686 71693
778724 128789
779715 52178
780144 655626
781144 161996
781864 245467
782254 832461
782936 886734
783483 489905
784095 877321
784668 26826
784781 566647
785751 512652
786481 882412
787224 50413
787760 314544
788412 950150
788659 350724
789182 599045
789297 354695
790273 835046
790986 958938
791189 6051
791233 587487
791341 327480
791568 887591
791809 360359
791866 359495
791991 182625
792889 54550
793460 776781
793839 649291
794048 85288
794987 753395
795978 77269
796502 497215
797320 829297
798166 647455
798251 521487
798913 214004
799201 170657
799225 709470
799271 152977
799869 576617
800407 757562
800754 842806
801049 648373
801686 953367
802094 871524
802259 428506
803086 921212
803985 952288
804129 353953
804784 335699
805364 240390
806336 495943
806523 552297
807513 984412
808010 292908
808827 426009
809223 430045
809949 922554
810386 338476
810419 954612
810554 894177
810928 468725
811137 708178
811282 57314
811887 123895
812256 205770
812530 429360
813026 475853
813156 716855
813230 193908
813549 330487
814119 738347
814912 418962
815430 543852
816216 418835
817037 635035
817896 830489
818461 458379
819088 999239
819101 808435
819379 73090
820358 309378
821077 106558
821245 315191
822226 763004
823207 490733
823682 833290
824441 651656
825392 740358
825647 651026
825703 584202
825719 784353
826391 73911
827192 936650
828027 957064
828180 663871
828688 107140
828861 171519
829317 570656
830200 67851
830509 112567
831025 483707
831543 976118
832372 246496
832398 441535
833322 62021
833592 902213
834290 798880
834631 560571
834961 866509
835664 132144
835784 910457
836239 109662
837236 343735
837487 440031
838307 94162
839207 187974
839362 597314
839456 601869
840269 739417
840734 460983
841489 756535
841879 314257
842603 8874
842682 524573
843162 999068
844043 843666
844842 698118
844844 788098
845673 829266
845848 674336
846095 369617
846943 851815
847205 541796
848030 812485
848115 627974
848216 494703
849099 838215
849989 338954
850089 722034
850996 633687
851207 243565
852159 266005
852954 832109
853812 715357
854360 110682
854618 918843
855149 923278
855515 824279
855675 479771
855875 535095
855964 253137
856846 327843
857823 621455
858327 538152
859015 194295
859890 938499
860250 38122
861010 149671
861393 20393
861427 371443
862114 757649
862175 112997
862201 723281
862881 890206
863761 169774
864287 258012
865157 785103
865179 225505
865374 622269
865686 385447
866536 847726
866925 578022
867867 199043
868034 866734
868418 959029
868740 385372
869083 823165
869509 843974
870357 884700
871336 325986
871639 733224
872615 471195
873240 953926
873681 685782
874350 878241
874734 91973
875387 530296
875794 563841
876315 200033
876365 665480
876831 885338
877258 88239
877828 794982
878016 454928
878805 718395
879093 601841
879972 418551
880335 467825
880892 915806
880935 755374
881527 241270
881959 5194
882599 961023
883418 874258
883576 438752
883582 841823
883753 194017
884286 456283
884865 150348
884982 990280
885769 195102
886726 85743
887040 505565
887514 584986
888411 934757
889299 903986
889904 467684
890666 943678
890843 935728
891771 699762
891849 306173
892710 320990
892995 858941
893669 475519
894540 487242
895487 475467
895638 893849
895949 286118
896476 725048
897113 106122
897809 575503
898806 354695
899175 783999
899345 888631
900083 68265
900378 599218
900815 379761
900983 158446
901370 733063
902063 430190
902296 781116
903149 981204
903570 489724
904254 427099
904944 383828
905617 940154
905919 399743
906889 980653
907151 396251
907585 463711
907881 718740
908187 464305
908617 873064
909484 251828
910116 22163
910566 2995
910980 271406
910994 793893
911329 369780
911701 996837
911716 718537
912084 940687
912832 293411
912878 883
913835 581930
914642 250746
915579 698482
916318 800787
917117 384633
917880 95909
918371 661183
918837 776165
919253 367068
919309 705430
919995 144088
920911 164435
921127 943343
921847 675920
922696 459621
923438 817701
923762 850774
924464 117698
925320 386708
925728 811143
926027 179711
926652 686199
927308 589993
927810 779052
928585 954937
928780 271539
929209 655355
929793 575693
930342 693286
931230 436519
931787 549803
932249 234131
932780 7071
933546 281986
934015 342340
934454 986972
934503 442716
934886 344980
935875 133428
936650 426852
936711 696780
937223 721697
937970 229290
938289 48652
938434 718613
938722 386293
938895 249804
939031 634140
939837 162604
940558 898657
941091 226757
941422 909665
942155 274834
942915 807192
943632 115406
944400 231543
944553 224142
945512 46318
945931 620876
946533 350181
946582 394466
947292 889663
947734 452032
947805 362749
948097 120036
948618 401460
949263 246903
949326 824051
949442 271093
949470 344523
949966 775928
950622 408556
951196 304286
951655 345591
951661 173887
952487 84859
953038 971570
953344 320002
954145 138573
954717 508665
954897 631152
955413 634465
955913 289176
956603 719218
956791 25932
956939 601684
957077 747424
957736 187917
958563 843523
959229 263366
959583 788841
960523 375097
960988 109888
961138 626465
961183 485902
961767 12456
962054 945021
962194 593543
962581 157675
962916 358269
963010 228212
963685 774737
964506 586916
965493 173807
965770 982942
966042 151128
966867 893370
967832 293639
968699 388234
968770 717646
969101 188834
969171 61804
970059 488403
970327 127180
971034 59300
971987 120082
972047 943901
972912 353380
973768 134596
973995 99959
974704 41631
975002 217601
975847 335263
976680 973746
976730 774548
976816 197650
976826 102783
976995 330426
977814 526342
978811 89379
978837 183189
978961 759942
979371 550577
979949 544390
980791 791099
981766 128813
982365 338670
982758 319136
983565 387300
984119 508021
984225 282918
984906 851557
985816 680485
986493 692364
986523 696827
987425 878693
988170 55889
988396 198675
988584 106693
989583 763384
989771 423162
990092 834546
990164 350535
990325 629585
991021 594414
992020 672573
992836 511818
993522 619063
994478 736813
995121 686660
995429 468184
996193 925810
996350 108012
996401 630753
996988 317913
997044 384793
997457 484164
997829 268380
998764 419350
998928 375389
999738 362188
1000397 400833
1001324 490141
1001884 613312
1002250 947304
1003016 399397
1003229 966778
1004136 394920
1004590 266095
1004685 51713
1004852 933116
1005099 596309
1005631 784425
1006154 57990
1006389 242980
1007289 324036
1008044 452456
1008128 939726
1008150 465161
1008953 923462
1009776 337436
1010551 263868
1010872 930747
1011463 394290
1012135 924576
1012573 243088
1013562 39417
1013647 810179
1014315 120312
1015174 963107
1015864 175866
1016520 804366
1016994 27144
1017273 540541
1018225 73961
1018560 180232
1019043 363177
1019164 497818
1019348 833386
1019796 713686
1020245 43885
1020715 396735
1021240 615671
1021723 141136
1022390 302249
1022782 608509
1023610 783103
1023813 504472
1024449 101745
1024518 925968
1025460 363151
1025886 197937
1026573 255136
1026861 827624
1027353 741038
1028143 636505
1028224 453411
1028408 165174
1029264 269920
1029336 418857
1029757 851811
1029868 303056
1030153 734321
1030310 948180
1030623 809852
1031224 901203
1031318 151825
1031999 570735
1032428 604640
1032935 961807
1033720 892438
1034003 942051
1034838 525528
1035224 120228
1035347 546249
1035929 816189
1036588 435725
1037457 845927
1037654 628666
1037790 176837
1038716 541786
1039044 233549
1039704 845624
1040307 171659
1041093 460677
1041280 479125
1042133 411449
1042993 238262
1043583 170929
1043749 946991
1044515 634588
1045323 413179
1046224 367025
1046771 56393
1047486 830143
1048208 147978
1048857 293208
1049598 32687
1050150 237639
1050659 195117
1050759 721456
1051014 990566
1051374 623716
1052338 996090
1052599 467356
1053465 253680
1054060 130055
1054296 253187
1054321 105840
1054905 337311
1055233 893943
1055967 732652
1056407 506778
1056885 754614
1057570 595404
1057623 864811
1058388 593418
1058819 81315
1059294 35437
1059715 176807
1060237 794340
1060864 965118
1061737 910534
1062657 205705
1063218 317125
1063762 677840
1064732 775874
1065702 870455
1066480 116965
1066818 877582
1067304 917891
1068177 406359
1069004 532779
1069677 665221
1070147 581728
1070374 530718
1071063 529517
1071496 501426
1072269 525347
1072637 583503
1073201 516739
1073493 641150
1073515 550635
1073532 715225
1073916 595873
1074526 36863
1074822 244858
1075370 190803
1075757 9367
1076254 867630
1077106 895419
1077733 326579
1078689 169418
1078902 612035
1079617 746738
1080491 322771
1081153 944670
1081584 343491
1082013 93985
1082892 357806
1083841 741349
1084532 823707
1084715 623834
1085280 845744
1085900 181809
1086682 916837
1086949 400973
1087667 585855
1088257 622814
1088830 446770
1089326 187
1090241 743561
1091134 343254
1091899 142688
1092877 39823
1093055 669378
1094053 309922
1094873 220520
1095040 238226
1095436 932179
1095602 385888
1096582 887921
1097062 805474
1097390 887481
1097690 526336
1097987 113846
1097988 647781
1098292 445738
1098913 589385
1099192 587185
1100167 66800
1100204 745314
1100433 693274
1101036 421175
1101076 569069
1101318 123676
1101715 401473
1102582 318855
1102692 133267
1103220 261438
1104156 60679
1104520 802858
1104610 673595
1104746 992548
1105579 98222
1105772 600561
1106122 983663
1106284 131677
1107211 417359
1108130 99692
1108200 517334
1108622 771539
1109594 913462
1110153 52749
1111100 709014
1111734 234569
1112076 942588
1112973 288130
1113695 926697
1114628 868224
1115286 536464
1115976 989114
1116334 860549
1116737 48685
1117333 447008
1117460 207233
1117918 295104
1118382 291310
1118607 423137
1119540 406357
1119745 879256
1119852 51993
1120636 313305
1121482 508203
1122249 162679
1123180 111998
1124092 574302
1124558 252619
1124744 628267
1124921 397828
1125829 372115
1126344 158756
1126629 694841
1127421 714206
1128398 879337
1129138 373033
1129437 123433
1129592 505267
1130526 285574
1131081 91574
1131125 612564
1131171 143153
1132112 404165
1132745 753253
1133449 930275
1133694 580856
1133802 340266
1134725 404969
1135642 290430
1135801 539583
1135999 324703
1136948 585802
1137504 208775
1137954 793766
1138089 3465
1138157 616947
1138755 19558
1138836 51783
1139737 458443
1139994 76255
1140503 41600
1141190 926594
1141543 185850
1142302 948462
1142554 260496
1143247 578379
1144150 565264
1144486 307978
1144866 6001
1144882 423076
1145554 397958
1146379 529019
1147094 440094
1147753 32891
1148494 677843
1148553 153250
1148750 126136
1148938 744918
1149550 572104
1150156 743531
1150334 334893
1150477 14675
1151303 951078
1152257 930892
1152830 107331
1152968 23963
1153703 92317
1154230 513787
1154987 169816
1155710 362873
1156328 933902
1156437 461767
1157381 886788
1157887 588172
1158022 843219
1158210 794719
1158627 444478
1159431 852497
1160368 543464
1160901 934838
1161836 548933
1162468 968424
1163183 706976
1164176 690492
1164695 777909
1165656 393476
1165938 348754
1166880 933077
1167235 312442
1167453 276977
1168290 408176
1168406 675845
1168656 748068
1169155 554037
1169213 945667
1170116 901815
1171108 127444
1171320 464504
1171995 585971
1172140 469288
1172988 690930
1173382 250302
1173435 800559
1174275 350543
1174527 808856
1175077 267982
1175241 48715
1175559 448058
1176543 346951
1177108 986076
1177982 92621
1178299 858920
1179035 958894
1179900 307471
1180434 777896
1181345 994894
1181390 485449
1181830 420176
1182786 939284
1183514 284960
1183977 537600
1184267 207116
1184361 292929
1184453 745279
1184566 455850
1184650 566598
1185125 967471
1185887 807341
1186367 804286
1186470 210133
1187196 935190
1187374 548444
1188068 351511
1188640 77635
1189548 542923
1189843 984286
1190344 587291
1190653 740934
1191213 173661
1191650 959734
1192640 795495
1192817 289212
1193505 446155
1193745 386995
1194210 430399
1194596 523526
1195026 730383
1195197 168107
1196072 755067
1196740 986187
1197469 939197
1197716 683833
1198493 364790
1199309 144445
1200128 584498
1200809 904704
1201757 786065
1201985 714378
1202173 452545
1202268 200955
1203052 916449
1203788 540944
1204510 251422
1205232 967068
1205513 361041
1205519 327369
1205547 939254
1206248 502980
1206922 214573
1207589 354089
1208491 909177
1209222 869570
1209391 851970
1209618 462931
1209746 425742
1210080 880924
1210719 875487
1210987 597499
1211040 530495
1211534 172634
1212455 114881
1212538 765056
1212617 737744
1213117 356047
1213163 185125
1213310 270529
1213633 602253
1214560 472841
1214921 64956
1215230 956660
1215856 637389
1216145 565023
1216214 816479
1216225 817385
1217005 623465
1217271 924351
1217598 960153
1218389 569521
1219014 449344
1219710 380928
1219878 394920
1220008 988997
1220343 286619
1220816 138104
1221234 717285
1221260 273745
1222067 864243
1222376 562215
1222445 961115
1223385 164419
1224113 463130
1224557 129288
1225312 124893
1225900 913265
1226154 362305
1226685 503383
1227471 285220
1228467 910613
1229048 466366
1229287 163852
1229512 656385
1230040 300377
1230157 534672
1231050 200946
1231713 631278
1232686 437024
1232744 11304
1233056 522419
1233132 863670
1233410 282188
1233624 562029
1233821 440328
1233840 523772
1234388 127387
1234647 428409
1234823 473368
1235611 944460
1235679 987236
1236064 714108
1236146 689495
1236288 455777
1236645 805435
1236905 189223
1237375 968037
1237517 996853
1237564 695472
1238000 10642
1238915 639120
1239619 481682
1239873 525560
1240141 402346
1240474 915713
1241082 708067
1241256 390031
1241769 541716
1242493 750401
1242644 755689
1243155 382571
1243312 715585
1243935 402353
1244507 912372
1244745 732609
1244900 538376
1245129 995583
1245542 263644
1246148 557738
1246572 228551
1246952 628949
1247664 59288
1247768 500210
1248297 280995
1248951 435705
1249040 634371
1249162 448817
1249363 160440
1249500 12770
1250298 844959
1250500 352601
1250628 537777
1251443 454260
1251796 528047
1252719 154341
1253221 250169
1254119 742178
1254797 968981
1255055 55719
1255167 262938
1255964 192818
1256294 479663
1256374 889530
1256478 936776
1256540 526908
1256849 119574
1257387 456624
1257903 614720
1257929 587307
1258410 757010
1258679 140986
1259671 359806
1260344 508288
1260525 264947
1260664 134108
1261246 523618
1261555 825088
1261695 759223
1261828 931662
1262313 763333
1263224 836838
1263583 227710
1264546 217765
1265052 886109
1265527 309320
1265588 302579
1266177 300862
1266371 741817
1267065 384125
1267935 10733
1268826 850880
1269162 225969
1269528 251080
1270263 185286
1271090 85145
1271742 24203
1271801 583291
1272242 939501
1273181 423153
1273910 387364
1274158 810125
1274752 805697
1275641 419340
1276458 417880
1276577 742824
1277566 277833
1278412 94249
1279009 213855
1279556 189783
1279979 976605
1280630 21189
1280778 878550
1280964 509199
1281697 898264
1281838 419127
1282408 86631
1282956 371741
1283369 629958
1283500 992652
1284243 533629
1284615 972394
1284698 23568
1285042 720375
1286007 494421
1286213 431724
1286808 551390
1287789 986627
1288640 482245
1289578 370677
1290470 993365
1290914 751416
1291697 554572
1291930 384804
1292855 747819
1293569 368378
1293685 991714
1293842 482232
1294110 956024
1294918 580387
1295342 285280
1296070 87721
1296893 141801
1297410 652673
1298275 638730
1298300 42581
1298329 953263
1298625 831876
1298886 62948
1299439 131506
1300184 879833
1300693 418367
1300909 266880
1300970 561676
1301082 190948
1301168 552403
1301702 981268
1301828 583613
1302294 677367
1302440 841138
1302599 411796
1303455 428470
1303732 155607
1304123 212010
1304958 509573
1305155 537173
1305378 356862
1305404 579162
1306011 492932
1306752 864575
1307152 820904
1307611 142814
1308086 726838
1308247 844192
1309147 838643
1309569 920846
1310044 980347
1310921 465536
1311218 367672
1311455 728909
1312239 857993
1312340 480650
1312823 626476
1313704 887169
1313839 58482
1314089 242081
1314412 368695
1315211 529716
1315652 488307
1316117 381159
1317086 627154
1317696 554594
1318246 682643
1318781 741625
1318937 81490
1319792 422139
1319856 711950
1320113 946014
1320617 289760
1321594 747045
1321812 804959
1322359 226639
1323090 47998
1324033 985593
1324436 95839
1325152 403274
1325198 441014
1325235 502031
1325546 538896
1326080 22866
1326604 89191
1327254 93515
1327282 40751
1328151 884240
1329067 708432
1329901 173435
1330894 724799
1331780 351516
1331937 67057
1332417 319088
1332509 971782
1332819 304262
1333567 525226
1334517 468964
1335026 925546
1335078 5539
1336046 899932
1336244 141004
1336273 333028
1336876 685917
1337068 590241
1337388 301999
1337458 576091
1338095 375630
1338103 375881
1338395 692053
1339393 856030
1340217 838201
1340462 712289
1341092 50770
1341604 803041
1342322 598440
1342822 962792
1343275 828250
1343390 226081
1344120 843459
1344398 70649
1344642 500087
1345590 55166
1345888 118018
1346388 711445
1346488 887752
1346803 24529
1347342 178347
1348317 779459
1349301 619735
1350162 561487
1350736 50661
1351697 985339
1352437 593830
1353341 496351
1354227 547003
1354696 924298
1355694 333963
1355867 838204
1356299 404484
1356318 450844
1356555 695816
1356930 452384
1357918 634468
1357945 5947
1358208 769221
1358523 704488
1359356 706159
1359894 269962
1360854 230096
1361382 747645
1361872 70938
1362778 772257
1363778 285152
1363791 420715
1364717 953569
1365086 864752
1365215 234818
1365288 482202
1365337 379341
1366011 356059
1366090 736921
1366899 951374
1367704 336824
1368267 57673
1369173 246765
1369832 568546
1369895 218822
1370295 573114
1370576 765969
1370810 418595
1371493 691091
1371802 978849
1372531 602840
1373042 601613
1373609 714745
1373675 700738
1373943 981755
1374527 712857
1375396 735809
1376029 300415
1376826 531643
1377334 857250
1378255 296393
1378681 158150
1378819 517161
1379776 621833
1380473 896439
1380789 406230
1380900 414202
1381162 635738
1381531 355985
1381755 265937
1382636 367828
1382715 604271
1383420 76814
1383555 913469
1383818 85856
1384163 951168
1385125 328564
1385410 927873
1386078 711573
1387068 187627
1387175 609613
1387705 227671
1388187 420290
1388269 819128
1388535 742344
1388731 48824
1389300 345806
1389883 119201
1389898 739549
1390219 951581
1390519 688901
1390642 387355
1390684 926570
1391462 545206
1392334 241857
1393251 355614
1394226 949441
1394456 270867
1395172 578358
1395419 11748
1396224 866103
1397165 231965
1397752 320796
1398576 466325
1399418 716830
1400059 676563
1400354 972705
1400766 843110
1401166 578958
1401697 731275
1402663 191401
1403060 719716
1403249 729644
1403925 598769
1404817 523159
1405491 259819
1406205 497117
1406468 683316
1407372 158500
1407770 449763
1408344 339295
1409028 514195
1409034 183344
1409052 211323
1409574 968507
1410235 42652
1410680 197764
1411617 507268
1411702 171752
1411913 437414
1412796 36477
1413047 889936
1413427 756478
1413703 998326
1414437 186354
1415437 264434
1415505 518690
1415861 796536
1416358 312940
1416695 35513
1417000 564815
1417215 832886
1417431 44771
1418030 634583
1418407 941228
1418722 456632
1419016 74577
1419690 264221
1420379 977030
1420603 51664
1421434 726270
1421970 110496
1422229 380350
1423119 966558
1423420 786539
1423849 109361
1424049 699933
1424530 849573
1425291 72643
1426152 370353
1426912 388150
1427597 884075
1428355 461698
1429343 393248
1429731 377549
1429985 223570
1430402 161714
1431391 618290
1431598 252869
1431832 214298
1431953 289007
1432655 272534
1432855 15260
1433555 551841
1433886 530597
1434219 691221
1434854 739935
1435686 943440
1436026 832405
1436267 385492
1436700 338402
1436801 390958
1436834 349744
1437397 915225
1438316 590025
1438561 129006
1439199 349201
1439500 600099
1439805 305415
1440379 364353
1441277 506248
1441559 274110
1441738 917441
1442432 882470
1443155 534673
1444033 105521
1444422 740864
1444679 756707
1445060 727946
1445842 153670
1446417 502667
1446458 949722
1447326 815747
1448310 948324
1448705 971691
1448800 388108
1448874 9049
1448942 942453
1448980 265854
1449324 88118
1449553 683953
1449987 661121
1450538 27862
1450644 575530
1451159 335549
1451525 152484
1451804 969469
1452504 100375
1452890 327405
1453432 818784
1453609 596965
1454435 794419
1455210 160756
1455516 82004
1455980 487174
1456478 863802
1456604 156203
1457397 664452
1458127 877743
1459091 978061
1459150 968582
1459546 44775
1459893 395458
1460238 937904
1461174 239862
1461692 433333
1462405 424075
1462982 127493
1463135 605875
1463272 412693
1463566 52065
1464113 355376
1464390 700343
1465278 124256
1465886 746742
1466801 96454
1467215 750251
1467785 872654
1468635 150398
1468852 86648
1469368 870360
1469420 143782
1470333 587873
1470848 134064
1471286 497527
1471706 381785
1471966 191838
1472768 398646
1473192 562141
1473712 416487
1474547 394331
1474708 998510
1475201 701498
1475819 837633
1476397 782147
1476709 236893
1476964 214507
1476966 37790
1477295 889462
1477739 78688
1478240 847973
1479197 558036
1479287 583813
1479460 970442
1479719 715888
1480487 226991
1480652 504250
1480856 370707
1481161 858349
1482034 238739
1482852 277154
1483628 419707
1483701 186264
1484008 941666
1484417 610716
1485210 127621
1485809 477482
1486597 130115
1486693 289777
1487655 17713
1488282 585389
1488605 371642
1489032 804489
1489699 198553
1490399 747092
1490890 544219
1491649 138017
1491700 549594
1491757 287044
1492216 383165
1492851 753851
1493122 346948
1493926 708198
1493990 165740
1494985 768569
1495459 771247
1495930 118861
1496521 587367
1497137 222379
1497614 835326
1498568 541083
1499347 285436
1500261 794016
1500641 811011
1501320 22665
1502085 991312
1502609 725279
1502795 198212
1503542 598355
1504409 484403
1504962 280646
1505521 712498
1506121 224613
1506151 240382
1506337 537752
1506693 186898
1507501 131287
1507688 135849
1508013 342976
1508036 748154
1508587 982748
1508672 413674
1508999 614052
1509290 182255
1509830 576833
1509952 256964
1510670 513003
1510882 577552
1511297 284607
1511420 134645
1511610 949659
1512095 381165
1512518 648058
1512564 433045
1512751 986024
1512961 389605
1513642 657952
1514582 508790
1515105 33302
1515440 287338
1516440 898005
1517288 964612
1518286 422425
1519202 190520
1520149 122767
1520462 212135
1520978 680500
1521144 324974
1521879 170186
1522021 657693
1522964 756174
1523741 848741
1524230 228523
1524615 624648
1525335 638064
1525668 710400
1525859 159091
1526494 874063
1526638 778995
1527268 845414
1527869 625481
1528104 428432
1528679 225058
1528938 325817
1529499 951278
1530050 21276
1530537 936588
1530850 460414
1531753 82724
1531812 334790
1532631 373379
1533258 774890
1534021 403536
1534381 887861
1534474 18499
1535461 599142
1536379 664361
1537116 152853
1538051 896149
1538312 867597
1539125 447307
1539900 865065
1540247 108358
1541159 856598
1542064 6355
1542690 853859
1543425 598791
1543883 857369
1544730 369809
1545549 684891
1545712 620470
1546425 406107
1546726 146963
1547418 88120
1547862 949529
1548717 645284
1549100 497951
1549799 524968
1550273 539742
1551090 27000
1551835 616419
1552175 428657
1553102 71342
1553274 648982
1553960 498682
1554746 414806
1555336 138494
1555398 372557
1555965 815397
1556955 67513
1557417 417897
1557519 385286
1557532 614548
1558038 548408
1558981 214535
1559095 347221
1559744 215764
1560173 985315
1560757 794304
1561420 859180
1561991 687685
1562033 880838
1562785 570755
1563780 347171
1564674 355298
1565594 884975
1566336 962252
1567136 578265
1567569 775828
1567664 229002
1567774 236955
1568306 92430
1569145 285751
1569907 339126
1570441 411613
1570499 744179
1571216 336438
1571450 517438
1572102 570389
1572702 455028
1573369 679298
1573667 432354
1573854 110705
1574656 868624
1574855 585474
1575520 550543
1575765 563073
1576009 674573
1576682 657306
1577332 241352
1577596 818366
1578397 524261
1578806 353224
1579253 942958
1579954 450741
1580677 316782
1581181 619094
1581283 857625
1581440 421341
1581858 81559
1582619 262204
1583141 865487
1583273 909376
1584210 951989
1584821 146692
1585399 846655
1585837 974723
1586455 890001
1587091 98100
1587248 200866
1587777 608266
1587784 252414
1588094 751258
1588835 445884
1588884 763117
1589231 589322
1589424 194635
1590387 878400
1590854 385173
1591239 843775
1591673 767067
1592161 282921
1592858 693680
1593244 106180
1593966 910996
1594598 709441
1594953 537928
1595754 537826
1596688 167484
1597065 45422
1597083 379524
1597482 239144
1597508 289509
1597529 684697
1598375 34292
1598802 779741
1599410 579241
1600189 994315
1600752 43681
1601507 101281
1601868 766464
1602429 952082
1603240 134835
1603399 632320
1604320 314896
1604452 169135
1604564 398314
1605002 566312
1605432 294646
1606289 444615
1606934 117306
1607412 824743
1608338 623844
1609239 555956
1609625 464430
1609720 164212
1609853 357459
1610047 522650
1610877 522785
1611321 606972
1612054 351570
1612622 529130
1612730 99542
1613422 150005
1613952 664487
1614853 735817
1614950 201385
1615811 880466
1615976 733800
1616705 644114
1616944 600530
1617440 150762
1618410 553940
1618999 526550
1619979 418751
1620747 48212
1621007 400927
1621150 732425
1621309 50156
1621639 522544
1622560 477940
1623077 199466
1623773 907909
1624367 992453
1625032 114174
1625295 766397
1625302 753305
1626260 162006
1626548 452591
1627170 305015
1627340 256765
1628332 615695
1629331 665578
1629678 144531
1630520 145855
1630690 667036
1631118 862948
1631489 623682
1631657 317949
1632577 840527
1632802 321741
1633704 87000
1634307 821294
1634831 964801
1635736 676110
1636177 883118
1636745 494372
1636932 519641
1637751 774532
1638527 369014
1639283 328138
1639532 901169
1639940 779553
1640889 762773
1640966 421016
1641768 613763
1642085 898172
1642802 693528
1643553 189377
1644359 367395
1645276 402109
1645914 21560
1646813 108561
1646830 967653
1647498 509257
1648015 297914
1648625 107438
1649338 91055
1650199 723369
1651137 574886
1651458 411643
1652333 84492
1652617 708316
1653275 377966
1654218 157820
1654769 762915
1655405 486487
1655584 877647
1655895 487667
1656297 714441
1657126 206405
1657224 268833
1657926 296830
1658504 971379
1659471 519065
1659486 51938
1659885 889601
1660209 715178
1660215 898409
1660830 769002
1661710 454276
224517869
