82
11933540 Jes 36
14617042 Vav 87
17445230 Wobese 29
39255359 Qoqa 62
41417679 Quso 37
43324422 Sugobak 66
48546177 Sowa 99
60333226 Nosavow 56
107163655 Jijipuda 92
111388047 Lab 63
115484441 Mikol 21
117880365 Nowikexa 6
132822356 Canimab 97
136359455 Yuvibeko 47
141276174 Losuha 59
147358691 Jon 40
151294374 Juza 61
157600759 Cojizeqe 98
182865353 Wufi 71
215862084 Ravohi 96
231976629 Fonucoz 17
238867309 Nazit 1
248251576 Qutedoy 27
253589236 Secepani 60
264331104 Sut 79
269459758 Tabavu 14
270671110 Zijiper 4
278949094 Papa 31
286299163 Kobinas 60
289396374 Vukovim 66
297369979 Pep 68
305953772 Wutu 31
320517746 Qiyetaxu 37
334894682 Ponoxi 90
358090486 Necotun 42
361430427 Lawab 73
363878376 Nuxoboq 40
367466329 Lekom 44
369019524 Kopogo 19
373034432 Fagaco 41
375650443 Qatejot 39
394097313 Pebaga 4
396424031 Hawugudo 38
411347728 Nexizuje 67
433432396 Peza 48
436283511 Zoteh 45
450658927 Pubuxotu 28
460463073 Qoyuse 31
494415916 Pozicij 22
505732754 Wituno 60
507152520 Zomuk 28
507431201 Ziko 57
525357178 Gakiqe 86
532882127 Zagofe 39
535286269 Cav 35
561388545 Gegobaso 93
584125989 Tinu 61
591208875 Top 12
605867282 Sobutale 62
658034580 Meqozu 47
664003354 Puge 47
686127237 Luqulivi 60
721301195 Heyanam 76
724491399 Conuko 13
746512951 Fekarizi 57
754329908 Diyonexu 50
771563624 Jeyixuh 14
805204406 Juhosi 51
840596235 Madapu 23
857103171 Loxa 92
865917100 Yoteh 62
869800423 Keyi 38
884028830 Suviraro 54
886284675 Juqom 43
901184138 Luxiqah 96
922992703 Boruj 27
925997875 Tulipe 54
931081945 Wono 25
947648125 Yakiz 43
959882470 Defenig 59
967597330 Cepagira 87
967799357 Remop 6
