54
6306603 Luhul 41
10047786 Geguxux 95
34641819 Zoy 16
40092319 Tagi 15
59603830 Hacejuq 69
88650893 Hado 8
125123627 Xumuheti 89
127581276 Wutune 73
131735587 Lipojura 87
169662887 Fage 17
200270978 Vutokel 89
220216307 Wadulihu 97
227480822 Geney 30
259461108 Cufemuba 64
261295893 Hir 22
269479926 Vamis 49
274455218 Payis 19
288443099 Tujele 80
325102140 Casuqij 44
326055896 Duju 21
352966063 Zacapu 49
428247106 Mokipapa 23
432340782 Faki 36
456043055 Kic 4
482826237 Tomovele 1
491826179 Babaxe 49
496185613 Tunefex 40
499122801 Tomilod 6
507187787 Gasa 96
531995358 Liwori 63
533380083 Hesiga 78
536591872 Sijo 14
556453797 Huxifa 36
593482360 Vul 34
594604328 Cosu 1
599135480 Kukubulu 50
687874034 Zehu 60
689302388 Xigox 81
701571159 Vex 72
713206103 Latupa 30
719241028 Wovucus 41
742227621 Dukikez 0
774105537 Zaququho 59
787108627 Dahud 16
808771193 Qak 4
827766322 Bemun 92
895657331 Suvo 27
912502294 Zehuyihu 37
925183728 Diyiside 15
931435479 Fapo 51
953694084 Zunas 46
966049705 Yuga 66
986899798 Lofahata 18
991278227 Mihavo 39
