92
12423770 Fuxivu 73
19197777 Qerow 54
20935393 Cepusac 9
37146133 Puwa 93
45911847 Sabada 71
69403723 Gagikoyo 95
89724610 Lanit 36
94234065 Revaxe 15
98070169 Rerahuyu 15
130884765 Peqam 72
151463631 Bexu 31
161027489 Ticon 50
181065651 Cab 15
197564934 Nojigu 50
199289876 Nuc 59
205140576 Qojufa 86
215523871 Loki 20
233455386 Wud 10
261833569 Gok 76
268248260 Xaz 50
270308038 Yapoji 45
272739059 Hahaka 37
273582575 Rov 22
293309250 Cipusifu 22
326279332 Yamecaqo 72
336900558 Magel 25
340985522 Loz 18
349636136 Jufe 58
349877078 Zedek 19
364673424 Yaxatil 34
380699870 Vekiduqa 52
405011474 Xejotel 80
405435487 Tisehubo 56
411829238 Mexed 57
415239574 Vivose 93
417447698 Noron 32
422135654 Yogicol 19
437385287 Sojopaqa 69
462965361 Leyis 76
466435803 Jun 73
475667200 Sexenat 3
500393507 Beniboy 95
501459034 Sekemak 40
515525066 Wilamota 69
520412125 Qaje 24
524459931 Vuxuc 1
534240059 Vula 5
562610142 Yikopogo 86
564490918 Kokuh 82
573850741 Pod 93
601632736 Xez 14
609734492 Dape 34
621155435 Lumot 5
626703515 Zawal 76
628554908 Dexojim 61
655518456 Gica 72
658671393 Megatu 37
658767938 Sof 94
666094220 Hebor 84
674616662 New 48
725923992 Sogaxat 75
731037845 Daduv 44
735739973 Payuke 54
749461525 Cowedehe 83
754767460 Kob 34
765579956 Gax 16
777166587 Sigoy 99
783669389 Pegir 74
788988842 Kozecis 65
794588129 Vebo 15
799373383 Tiwop 51
816861162 Vewak 46
817579159 Navixuti 32
842384613 Caz 10
845803085 Caneno 24
854682744 Loka 35
856909708 Hig 44
892224331 Noji 99
892760926 Hepaki 55
900913644 Selizub 39
910562932 Sucibu 33
912029135 Xuhiza 14
933253966 Fuweba 60
949635078 Riv 43
957535427 Poyoy 76
958776287 Wimen 42
961229714 Ban 50
971473321 Fipinahe 21
975087370 Wefemu 10
977726056 Setuwuk 58
993785622 Qutiposa 35
997680442 Pubudeg 75
