74
6004244 Hizejufe 80
28118253 Riroc 80
31627164 Gab 21
35670653 Hub 89
36621828 Tubugar 65
43498997 Botu 25
47874094 Cohob 86
61162212 Tusu 30
76859804 Gisamuv 14
103835760 Yun 2
110549935 Pejo 61
113994201 Vaqiqaz 31
125089202 Bemewi 45
133658911 Naw 22
153705305 Neki 7
155942000 Ran 8
156052971 Yezo 72
160306766 Tipo 7
196568510 Cel 10
196991403 Miwazuze 30
207553800 Hojunaqa 86
253869370 Qafiz 80
298173469 Nore 56
300111981 Quvug 93
310978996 Toweta 40
320596667 Tofawola 83
326166871 Reko 1
329854638 Sijaxoyo 100
331591335 Meg 43
342939099 Xotiho 8
345568045 Yifalo 47
371569898 Xuduxi 33
377877340 Maciv 42
445082677 Hufiji 67
478688990 Cijija 34
479767994 Dotoda 54
481743030 Wamiyes 4
488935894 Ruwefo 6
500757164 Getet 63
508383471 Xapuwo 95
520825071 Reje 74
540721782 Fovo 12
572946822 Giwur 99
586856827 Bezil 75
596347391 Hifoc 30
597192884 Liket 55
606327802 Dom 13
620366837 Veq 12
632430935 Gafic 91
639693758 Lewiqo 68
647454351 Zop 42
650458736 Kaz 42
685041975 Werenem 97
695633345 Wacu 36
698066993 Yicur 1
739742157 Hibemun 60
762879789 Bukiro 9
771133470 Codas 66
775425056 Wozeye 87
788224668 Sanotov 71
807872227 Jof 18
838406261 Viq 7
850049186 Lumasay 93
871557758 Nigij 28
881756995 Nix 64
884670102 Tojuxigo 20
916532616 Sayog 98
930777295 Jipux 72
961923808 Lipoqijo 28
970370284 Cezukayu 12
988458894 Bujirik 100
993136393 Kozij 88
993352424 Pivife 91
995453989 Tilodu 17
