60
18457865 Netovof 89
23836400 Venumoco 52
29189557 Neli 19
33213603 Zopica 11
40515278 Xuw 65
55958418 Zeme 97
64358282 Yuk 47
71528819 Kebi 8
88102174 Ximos 64
104839115 Lajap 31
107997035 Yen 15
113860149 Wiz 55
117509258 Yulu 50
141640376 Sekiwaj 56
146616783 Yiye 93
150462869 Cebugo 76
161867475 Bizuhebe 33
177246386 Xoda 29
178508767 Vep 97
183261385 Pafuvud 88
183485808 Nasataje 46
188112156 Qazej 49
236025250 Muju 32
286450270 Zevize 80
297648134 Voyun 0
297675037 Jefe 96
304298676 Gutemi 96
313899523 Fequ 95
324057294 Yakit 3
342954143 Nupimun 75
361878838 Xanos 80
397848885 Zulevoq 29
420575742 Kihahexe 89
436092652 Jif 31
446455758 Xuge 51
527273634 Harupow 52
529807484 Rice 56
539482321 Dubomo 55
566670206 Bocaz 85
574372753 Yuyupo 48
577620344 Bag 80
610559316 Huk 46
619114491 Citeki 41
664990318 Hufeyot 72
683076048 Zilusat 51
693195486 Xor 82
726025244 Xiyenu 29
761323336 Bupubeq 84
765426593 Javoqi 55
792085221 Leyeveba 81
808189983 Hutej 46
831696342 Pop 35
850658408 Sehopes 93
860612779 Fopujepi 13
877106441 Sit 31
886330496 Hukicow 88
907692049 Cam 76
949029525 Vivab 96
958328358 Turelak 36
971866213 Bicujeku 65
