63
32473837 Xijega 42
66061544 Qoxenebi 40
75130816 Lelopox 90
102015651 Sokelafa 58
106294313 Tozuq 0
116013900 Hat 68
124023260 Rotu 92
125926947 Duqapugi 13
129500083 Xobu 26
161214624 Bayace 100
186038884 Bewotaf 68
206481139 Lumozayo 2
233767368 Gevidef 94
237065205 Sowiguwe 61
256066599 Pagon 71
290023234 Pub 78
294121565 Pefu 40
296300698 Macerine 17
310288540 Kejeki 100
321124635 Yoveq 69
343063744 Depo 96
344235690 Ruheji 31
345002125 Fequrur 7
370713349 Bimokaf 93
423736373 Jibihimu 94
440907271 Qiwe 20
452355915 Micig 61
462790577 Rufumo 14
469950282 Zeyosula 75
481892914 Lepi 80
486581918 Kipu 17
499416153 Teduwe 81
505879979 Daquv 21
541107768 Fuxe 95
549546221 Pakizuv 4
567797378 Mumuqo 24
603373657 Muy 61
604179034 Weyocex 9
604983807 Yozix 61
607050519 Tabol 65
617835694 Lon 81
625549647 Gefi 80
626606085 Gav 27
635587353 Pekikuhe 1
636935343 Tija 19
670851377 Seheyac 42
683419028 Jogap 46
701570459 Migu 24
749449668 Penusebo 27
778802883 Jadewam 6
801679481 Lopadi 41
815731234 Yeson 24
820103851 Wehebaye 100
838188694 Cay 73
864252254 Xiruk 31
898100927 Gadimac 43
922280669 Zofude 17
927512179 Fuqizo 20
932067926 Sixoy 86
937110029 Yate 31
955046783 Rev 50
981168955 Wamoj 15
991452804 Tilijec 27
