93
33351617 Butizi 20
33636126 Waxuzav 80
34171490 Rare 18
67605712 Vixol 21
76469362 Vuparuke 67
82866653 Boxaf 90
84028553 Qodezoc 72
109559206 Seg 84
110269555 Rimawas 69
114090905 Har 38
117207219 Xomek 26
120642977 Nof 52
122459375 Sijex 93
136001354 Hulanaje 33
143968771 Ricodebi 97
157805311 Fujufova 39
166236105 Zijuvep 35
173438995 Jocequgo 21
186145046 Wuz 0
195167806 Lutaco 18
198253669 Limudi 65
207334342 Vomis 32
209313552 Yus 66
213592223 Nehu 89
216559516 Zom 80
222169649 Yokis 92
222811822 Hixih 58
224125882 Vamac 21
236547661 Podeqofo 52
236757268 Nejo 17
250189538 Wayak 33
253191310 Dutoqod 45
256435316 Vay 85
258914378 Cuno 96
266313511 Xuwa 84
285043998 Boso 19
295461033 Piwahalo 23
301398615 Vaxo 25
322084910 Wajih 37
333254250 Col 62
348079262 Runuh 69
353802871 Jojogu 68
363304463 Qiy 52
371686152 Bivofep 45
386077306 Guvusil 46
387652942 Tupibe 44
389838017 Butahema 46
392236795 Cefo 0
401855215 Kuliz 21
405775783 Qozebu 73
421264366 Biruyofo 78
423603017 Mekaciha 25
425806622 Caheqi 94
438255953 Geq 57
450909479 Pedeke 65
452476980 Xiliya 67
488895118 Qesomil 51
506384063 Paf 67
523203666 Hizuka 61
535806336 Wamihate 69
542935493 Pexudep 40
616584662 Fabe 7
620348848 Gadowape 41
637976844 Zoketa 73
638319234 Hezaqevi 55
642520934 Nom 69
682552698 Gel 51
688191688 Pak 10
688867695 Xumusu 37
709477684 Fodiye 9
722749024 Disiqeqo 84
730020879 Gaju 17
735037032 Ganoge 14
746790416 Pazuzu 91
753376208 Jomajok 12
772381334 Ruhi 36
773590771 Muyu 42
774432760 Monukef 17
810063841 Datiqig 40
815119106 Cepok 69
828940185 Dabizey 38
836048063 Qata 15
869643294 Ruc 30
877234528 Kuweha 83
878133166 Leluh 17
902027966 Qeqico 10
907993991 Soso 33
957255452 Qiziqiz 72
959687286 Humiy 62
960301235 Leq 87
968637113 Ruhehu 24
985834148 Zatisoka 90
986666617 Mazitidi 10
