53
39394474 Berapow 14
59502878 Pereta 95
106512870 Bepufaf 59
114257106 Zelulore 67
146024518 Naven 83
155345541 Jijoh 20
155869516 Tev 25
170675868 Zoguvalu 31
180259571 Wujit 47
203254842 Juqazuju 37
207004183 Huxure 29
212260644 Lofuzok 31
231362810 Juca 38
253881764 Kogecegi 83
259998770 Wewo 95
306016587 Kiyegiw 50
315739970 Nitawaq 59
324117057 Mayunuj 23
325985764 Rukixone 45
341208086 Vuvim 72
350321400 Pede 62
373791828 Supuw 98
386789802 Dasiy 99
442964007 Wosuced 9
448494362 Semeq 36
482943097 Dikunin 61
504016552 Qeqi 18
527902716 Jefibuxe 75
538406372 Suyuju 70
595208747 Yiyida 23
605332602 Sezozar 41
611375690 Deyusele 89
646085363 Regete 79
655804164 Gabi 87
660963974 Cola 68
730210364 Nop 93
752091530 Wiye 18
773162882 Cuq 40
786373589 Caru 22
793764055 Hikoq 44
814223450 Qarireh 70
889918031 Xuyujoq 39
890406767 Mub 88
898281234 Qeqacaho 20
902100055 Haye 62
906887698 Gabetug 54
918666758 Fafaqet 85
929655090 Joqanih 27
953578272 Fone 24
953655707 Xonan 70
978757019 Qayok 86
978852345 Nequxiwi 22
990156473 Becuko 42
