623
220005 Soz 8
1201176 Saw 23
4318981 Zocireb 21
4366191 Zuxofehe 25
6623021 Gixu 14
7531026 Kifef 53
8907441 Tinozec 97
9096586 Gitu 96
10063531 Hasapo 12
10521162 Zomav 71
10808748 Mehac 49
13235640 Sahej 73
16241471 Mizuceli 25
16993582 Puxuvoti 7
17066145 Ped 6
23309021 Qoler 63
23600927 Ziwemu 48
27133567 Dubisa 93
35606359 Dabose 3
36362362 Zuko 99
38327408 Zoyimahe 47
39074960 Hekugobo 16
40251390 Bejeco 17
40532041 Duwiki 31
41281147 Xonok 90
41503168 Jahuki 48
43117770 Wipafok 47
43534114 Xapi 24
43781429 Cud 55
45136216 Zuxotove 60
45280599 Popuku 14
50046523 Solib 51
54558778 Mol 8
55105792 Raj 58
58432931 Bexipi 29
62152155 Nine 0
66393699 Key 96
67490605 Mem 23
67501314 Widecexo 82
68025229 Jidubof 25
68760571 Xatovax 74
78351406 Yozavef 18
78501571 Juroqo 74
79137861 Dacuw 25
80411519 Duloh 24
82078494 Gune 34
82257563 Zoc 62
82262947 Mugay 62
82473768 Vosep 9
82657245 Hotuduz 98
82672160 Mumo 17
83057195 Galohup 15
83563674 Yay 96
84380120 Sefijeji 46
84571650 Pay 19
86641556 Seqi 74
87216573 Xoce 37
89779849 Reva 45
90159071 Qoyobiy 95
91121622 Nesu 48
93976562 Qekaqofo 57
94856302 Pilaxuyi 41
95323510 Yeg 29
96802971 Xumuma 8
106784724 Rasudaya 78
108556654 Xemovizi 87
109350399 Bop 82
111592475 Ciziqe 77
112487312 Qic 7
116135684 Newenexu 2
117071684 Tubiyapi 55
117083520 Vuda 55
118584802 Hute 64
119194132 Zanowovi 73
122773642 Taza 65
123286332 Carok 36
129738034 Yij 50
129751792 Hugecuy 22
129883962 Finih 17
132002749 Hiroxit 56
132650792 Jecel 50
137192578 Lav 99
138845756 Jenodu 23
140922174 Vapegi 46
141863027 Terucu 66
142710926 Suwosu 12
143444370 Fiqara 41
143525530 Hokowut 84
144489279 Pufipif 10
146693934 Buluq 35
146797274 Pupaxoje 63
147202842 Jucuqiy 25
147374912 Pemolep 12
147446759 Rul 95
151382568 Mileg 4
153704974 Mokug 90
156584202 Xukuvibo 88
156604393 Zoq 23
162145894 Nesu 32
164167248 Gorud 9
164225766 Metilas 16
166289664 Fogize 24
167354859 Kejuman 69
168727403 Rota 30
172219566 Zonovom 67
177638139 Xebaf 15
181052530 Vila 97
181391255 Nir 89
186948258 Fay 4
187766413 Hoduyo 85
188315236 Latu 26
189533769 Keki 35
191172840 Copuqox 82
191221199 Culifucu 72
196807338 Tuli 19
196909361 Kugahiq 96
197129896 Qufuz 32
200101210 Jih 2
202299588 Gewirax 77
203108394 Qates 98
203255983 Zuveh 98
206996360 Woye 68
209892251 Maki 84
210526579 Kesiyalu 28
213872327 Tac 89
215873247 Loqake 74
216655620 Wuhuyodu 12
216908221 Yum 16
218674533 Vedituvu 69
220062842 Foh 83
221158885 Tutayahe 64
221932886 Huli 97
224655697 Devegupi 47
225180515 Mud 8
226146855 Xixa 83
226614519 Neyacad 65
227484580 Timamulo 45
227565369 Qeruquh 69
229332949 Picex 69
229968814 Pumimur 30
231315535 Lamax 13
231976135 Jiyobu 44
235581393 Lamoq 4
236029120 Viboqat 54
238438261 Morede 8
238638207 Xared 34
239145196 Qew 11
239387455 Vida 91
239404932 Dibokav 29
240542019 Likowa 54
243791923 Pof 32
244481501 Yoxiv 91
246693377 Tizaba 28
247544378 Dop 16
250966289 Juboyiv 18
251080015 Rilefe 83
252949599 Vaci 56
253216504 Mipe 66
254076979 Muta 89
255755306 Ruwaz 30
260667013 Zegi 85
260746479 Roruriyi 29
261877331 Qosate 46
262100417 Yaq 84
262355106 Quh 47
266400825 Goro 76
267107590 Puq 42
268124309 Sok 52
274301016 Deza 10
275555531 Tupeve 51
276496467 Rosey 50
278048066 Dunotada 65
286470596 Mipizaga 64
287541725 Qoxucawo 18
291805955 Lugesuc 12
294096937 Sojani 65
295109001 Jotobe 25
300557943 Vezocuca 93
300873349 Qukax 44
301142021 Komuyuvi 75
304137245 Vewul 29
305127235 Done 12
308581325 Carezi 8
309407037 Nixukoro 63
312210912 Qujozo 73
315677569 Neh 24
315697724 Lileguco 78
319332435 Woy 47
322410688 Filuli 11
323992041 Guyavu 55
324086430 Tudu 62
326174204 Vuqa 24
326675040 Yir 15
327180408 Bem 3
328327926 Gijofi 88
330394960 Hivana 12
332318861 Modi 37
340263073 Texiroj 79
340564582 Luqewij 10
340680061 Foxit 0
342029245 Horoh 88
344254175 Tizoy 20
345117108 Qehogo 10
345704365 Feresew 16
347228656 Zoyevun 4
347368192 Xis 31
350032350 Gaw 39
352453420 Neqasuvu 100
352590455 Qibir 18
352888919 Japube 43
354088124 Ritakise 89
354183934 Wuhoko 18
360007349 Lasofo 94
361321665 Robiwa 3
361365747 Liwiyoy 6
362509444 Vuso 51
363233428 Befer 58
363319507 Tadudive 59
370833957 Cuye 91
371906853 Lahom 96
372194081 Xesejo 76
372239760 Lagixat 38
374581851 Qome 48
375417449 Dak 44
377136061 Qavapox 51
377678516 Mucec 40
379307978 Hubo 66
379604172 Red 69
382920211 Zodi 25
385161034 Ditikay 7
386058216 Jupo 61
390176675 Rebis 64
391292696 Wezimu 1
392028573 Hos 86
392997535 Gom 90
393760542 Tahe 71
395702259 Joy 54
396063833 Wobezo 77
396294874 Vona 7
396547675 Sigiqoc 47
400045944 Pasuy 14
401869151 Xuve 26
402523988 Suciruca 14
404507146 Pebiyaza 70
405931679 Vasiwa 39
409121490 Qexire 48
409911650 Xidufiho 8
410148436 Bimi 73
411657195 Maje 80
414347073 Sovulid 13
415643514 Dohaqu 84
418027907 Muf 31
420038995 Sulosaq 85
423499805 Bokiwiq 28
424778876 Jase 83
426648934 Ninel 45
432914052 Bote 93
433599521 Pil 37
435052628 Nuj 73
436529932 Gajanut 19
436582104 Nud 69
441278002 Seyekeq 2
447295471 Ceqexaw 75
448094954 Kiseyu 51
448491787 Toyes 36
449962300 Jij 14
450468061 Zilake 66
450677487 Vazo 84
451665209 Zapeta 82
451724459 Jila 75
451821395 Huh 9
452079695 Keqohi 63
454214943 Jeloye 6
455640179 Fokusoq 64
456137668 Tay 37
456362176 Gohihoca 9
457886343 Hene 85
459356640 Teji 6
459490121 Ximiq 24
462027598 Guxaxeja 20
472778371 Raled 62
479663497 Jatoz 28
479826170 Yugedoxu 23
481820096 Nevas 86
486316980 Yifod 78
486608729 Qacijoc 22
487483854 Peleh 9
488241868 Soweme 59
490161819 Noseli 72
492761947 Mozin 23
493477667 Lawut 61
493923495 Hat 26
496864067 Mov 43
497312763 Kuto 49
499442029 Xoj 71
501168981 Sabedoy 52
501677812 Pod 16
503093912 Xahol 20
503425663 Neyecida 94
506174774 Tuhuv 56
507841415 Kan 6
507863548 Mivata 27
508639984 Tay 78
509143575 Wof 58
511250728 Pofojat 3
512935285 Caj 34
513466840 Mozus 1
517313820 Gicac 4
521343864 Sic 66
521455900 Dizuy 3
521686708 Jewuna 70
522845309 Juv 72
523419267 Koxeza 85
523708714 Hakic 48
524834846 Sac 64
525144537 Ruqe 29
526481413 Yalunewa 21
527696349 Topew 53
529552303 Cam 28
531656240 Wiletek 85
532001103 Dovofoba 92
534599376 Duve 12
534714958 Yid 78
534723352 Luxupi 14
534827790 Lopu 3
536922226 Jesecaw 20
539389714 Tepuko 52
544687710 Bovim 84
546525877 Pigak 20
550535497 Yucihi 21
551859997 Luyunaru 87
552903291 Tegon 66
555094142 Xopevif 97
556168821 Ligonu 52
556195292 Sud 96
556504638 Wop 61
558463156 Womugewo 0
558749475 Jawuhi 48
561018789 Ripuji 52
561193666 Gene 28
563118565 Gureyuta 45
563749284 Zeka 23
563791084 Kirolab 65
564149165 Wune 45
567962216 Naloguy 61
568661866 Jedisi 79
569834047 Gima 20
571937718 Nowag 3
571996084 Yohecabu 95
572008639 Homoh 11
578987629 Xuru 23
581513724 Fudifeza 92
581622719 Tumiy 74
583030950 Bamow 92
584486904 Coj 37
584795536 Ragox 23
584878527 Finoju 75
585239375 Xopexig 57
585266811 Ganopo 41
590810663 Nunedohi 44
591087250 Gawabaj 86
591618888 Bugame 45
594424576 Cobitozo 29
594469972 Sivah 72
597182526 Sajudas 35
597340175 Rujiwud 39
598154890 Guj 80
605638151 Lefu 75
606589206 Bibenib 40
609014250 Pabut 94
609589324 Kegi 32
612741206 Ketihop 59
612948250 Yefoxit 57
618229681 Riz 30
619283735 Jaxava 62
622062752 Hes 62
622253522 Hiqikoye 0
622470109 Fufada 50
622758959 Rokani 88
624229161 Roqutan 75
626602610 Yik 21
627099239 Duful 37
630530126 Kayoqul 1
631325883 Waziwe 39
631733058 Qesuqasa 75
632057884 Naqolo 45
633186772 Zeso 32
633295661 Manebok 83
634774041 Voz 56
635653451 Rapi 88
638246015 Pepupe 64
639248021 Rerafec 30
641379081 Kibuwik 6
644108242 Qaziy 96
645157758 Qeyov 83
645860911 Milotidu 25
646922605 Kav 95
647271157 Munaquc 43
647705549 Zamal 50
648702281 Xiqiw 40
650219194 Doza 42
652157198 Xox 50
654533672 Lirag 82
655383415 Biy 97
659189605 Nemakera 43
662787072 Halumem 17
663498999 Fasijaw 59
666585065 Yaxad 70
667894606 Pugemoya 94
671396173 Jowedan 91
674053255 Nuhavig 63
676122224 Pululiza 24
676684939 Damatoq 83
677228289 Xof 60
679213138 Tim 25
679626874 Natu 1
680293862 Mafa 43
681470530 Vevon 16
684653980 Feqera 4
685725793 Bul 41
691401927 Jasumog 69
691567974 Zedafodu 39
692341372 Rukoxa 72
693153357 Setesah 23
694776199 Baximoze 80
695129685 Xababu 10
698164788 Kolo 64
702133000 Povurafu 64
702819166 Kokoyeze 21
703317559 Kilod 99
705774978 Dot 79
706127464 Waga 11
706443889 Yoqi 81
706997893 Wimeri 72
707945946 Mek 15
708526107 Sehoc 44
708965049 Josasa 91
709394825 Caci 22
716145137 Rivafu 0
719830982 Bikare 64
722582410 Tod 3
725213959 Wuzodi 40
727721315 Bevero 100
730306128 Guwoq 46
730921952 Rile 4
731312488 Qamiqo 68
732143657 Goboyegi 70
737282171 Bemitac 9
739204214 Bomenive 3
740837011 Zip 16
741814846 Mufetoq 44
748457676 Din 9
750391870 Zezi 94
751327242 Sekahunu 82
752641379 Jukube 52
753090362 Roqiy 76
753322093 Fubadat 89
753640673 Lipo 65
755056261 Kux 34
755293326 Nenos 64
756856445 Kecamuw 7
759320334 Bacohu 75
760305116 Lehokud 57
760563014 Raduv 7
761444619 Focuxeb 80
761620437 Wevibi 89
764887699 Cem 69
765782576 Takaqexe 61
768873130 Rogirixo 11
769894211 Xace 31
770677036 Xal 56
772710772 Rus 46
772845385 Wobayuro 48
773741032 Hecaji 88
774438219 Firejipa 26
775711965 Vakeno 23
776785788 Batok 76
776830461 Gataguda 30
777924254 Baxajefa 77
778266775 Legi 74
778957026 Taz 59
778986211 Xolucone 47
779929096 Gihagede 67
781746196 Xoqice 90
782655053 Juka 86
782828413 Jexaya 49
788584072 Wobon 56
795766272 Naqiyab 99
798659009 Kahom 13
799049839 Cekuya 45
803062151 Yema 56
803678884 Tax 82
804373118 Cugetox 43
804871963 Tix 84
807433800 Foluyi 44
807870874 Zutow 40
809300572 Desaw 100
809352985 Rojotame 1
809428954 Vivaqovi 52
810311889 Nasivok 14
810725132 Vihepo 65
811567446 Renesici 100
812387936 Jax 12
812405948 Hayofu 72
812697338 Cur 31
813210694 Borizobu 40
815095890 Pugiwup 8
816528134 Firokum 26
816685223 Piboxo 79
816858321 Mujaza 62
817573336 Qusikisu 92
820574404 Gaqufug 28
821836319 Yigev 52
822526683 Rutomeqe 76
823455216 Rusovu 86
823505173 Tigizama 71
831843831 Lebiyet 24
832348627 Bazam 26
836292503 Wem 78
838106706 Xoq 24
838363001 Gix 92
840239281 Qeten 72
840774911 Xugodezu 84
841090295 Vovin 99
841347962 Fufazal 92
842658919 Rinoz 83
843356009 Tofobe 80
843403745 Dekopeja 56
848453423 Camu 80
849722694 Jise 87
849831069 Januro 12
850673399 Jez 4
851221102 Bus 54
852585149 Yiro 45
853321961 Hogip 95
853448749 Biwu 0
853688604 Zegiz 79
854636448 Kocago 75
859634090 Jevi 43
860210753 Zom 23
863242044 Gah 31
863941462 Meke 10
865157746 Tebazuv 33
865398037 Mabel 63
865735372 Mixuh 1
866523113 Jiboduw 77
870847467 Viwaz 44
877062520 Hutiwa 70
877475769 Biticazu 94
877543325 Kakewobe 25
877837695 Fed 64
877945494 Ratu 30
879009991 Qos 34
879103897 Qujese 44
882232773 Cepuhu 35
885000886 Xafabadu 26
892820434 Bejuvomu 53
894640761 Yuzemesa 55
895701244 Xexe 33
897589201 Daget 68
898331782 Delelutu 31
901778814 Vis 81
903937620 Gawihix 64
904515267 Qer 76
905360753 Yud 42
908550237 Jizazen 30
908573422 Habor 41
909159835 Fecu 55
915147171 Kide 80
918640059 Cuji 27
921794424 Zakisu 96
928467168 Pawira 93
929044648 Gaketufu 34
931512584 Poq 84
932242587 Josu 35
932314951 Hixe 74
933373161 Zicohe 30
935688934 Yotuz 20
936448213 Kuloto 8
939861403 Veve 72
941262281 Demoqas 9
941944211 Soziy 27
942903982 Famuk 31
944319715 Bizare 87
945005145 Gam 5
947153525 Gayeyex 85
950658425 Qijo 93
951798225 Ripunu 54
954014070 Kaluhi 93
955683966 Sizoret 97
957945765 Tofade 57
958247700 Kesiri 91
961218578 Narileg 48
962462020 Zefiwipi 8
963627785 Sutusaze 43
963756037 Miyoq 72
965402690 Piwemo 95
967540926 Cefana 76
967900739 Lameyobo 64
968971143 Yiyazuhe 86
970014354 Dibigate 6
970710031 Ver 57
971964861 Xamiqow 95
972148996 Gomo 71
973667895 Siyemuga 26
973853993 Xebakut 23
974750762 Keto 87
979330458 Bumof 63
980688665 Xikipi 73
980833174 Kihes 99
982669254 Fetub 21
982700455 Ruv 56
983931646 Pipoqab 10
984999590 Sivorod 72
988635692 Fel 22
990543736 Vibih 64
991863841 Vavetiv 55
993280374 Dizegon 64
994243441 Suluvi 87
994689730 Zizot 28
994929883 Fun 51
997605639 Dewidica 40
999075207 Yigi 21
