546
28834 Muwabi 83
3182638 Wihu 79
3552972 Kucebif 48
4998469 Hamezuga 57
5411489 Ruhu 4
5494106 Mep 23
6190029 Qokava 95
7541875 Biriz 33
9872096 Morovefu 11
11538613 Yavase 47
12629705 Nuyipona 11
19621901 Butix 55
21763611 Vuyocufo 40
22611351 Xasevep 13
25024020 Yiz 54
26338304 Xipinoxu 35
27080523 Juqoraka 66
28674369 Xom 37
29066106 Tula 47
29527364 Halisoqu 24
30190066 Hihare 27
30689876 Nojad 71
31324674 Furitu 45
33070739 Nijiyu 41
35945330 Soguwi 50
37586873 Qizas 52
38487501 Xehaxe 84
39409861 Molex 49
41604024 Migazob 99
43959452 Bodiru 79
45528567 Povoyej 54
46195105 Rome 26
48138724 Vew 32
49185614 Wul 76
49847242 Zoh 42
50603796 Quw 44
51077697 Xegace 47
53148718 Fudoy 18
54770502 Jeyem 32
55749847 Zokimu 39
58974785 Bovoyab 62
61117765 Ficot 96
61404103 Fed 50
67178100 Livoyoz 66
68972398 Mejepe 77
69529743 Mewewa 16
73773947 Magic 40
76921886 Diq 49
81593662 Hus 51
82956827 Cilukaz 27
84930664 Tat 81
86268929 Xoxutiyi 76
91408601 Romanu 32
91684370 Leqiw 53
94042794 Zakot 98
94295488 Sox 89
96456286 Puko 22
102279652 Duj 22
105439496 Vaguniqa 22
106001145 Zosac 54
107706307 Tij 52
108894453 Podal 46
111093173 Duge 100
112722439 Zuxe 91
114079759 Pitiy 58
115469334 Hihobic 46
116725907 Xew 60
117360218 Piyetel 33
117744457 Ruv 39
118539629 Gebuf 74
118903492 Mipafe 26
119072760 Vidikino 63
119414838 Yumanu 30
122142300 Fuxodes 57
122755816 Xen 95
124614532 Kipo 12
125009206 Zoyu 76
125805958 Zulucoh 85
126444794 Zisaruc 32
126730524 Luruxuxa 11
131125637 Mos 68
131306578 Xayekoho 4
132077117 Vahor 49
132135398 Loraki 71
132144152 Dotoy 51
132277615 Dumiqufu 85
134752019 Popupub 89
134827999 Fugogigu 91
135314418 Civa 7
139061645 Coc 33
142388676 Tobudi 42
148063658 Qadakir 18
150214589 Niwil 9
151955074 Qozuf 60
152412839 Layu 87
152601491 Fome 68
154339034 Waxov 7
155252433 Bonux 0
161946508 Nahavida 87
162319970 Hiwaceto 58
163479030 Zaz 40
164511929 Yehi 19
165786980 Kagejom 58
165789282 Vuwudolo 9
166324265 Didem 77
167366970 Wuqivihe 84
171339822 Buqix 32
177050192 Voka 4
180179327 Qajuhe 48
184022446 Xecuxoxu 67
185965581 Kova 67
188003378 Tut 40
192086307 Fevitaba 44
194017823 Yaxuje 26
197307750 Wog 41
197329533 Vaxuz 47
199689527 Bico 10
199990558 Jeguyeco 98
202284514 Wob 17
204392955 Rakoxita 36
204707699 Bupuh 36
205298230 Kuzime 47
205641208 Pix 48
206438087 Zahoqa 6
207494370 Qararofu 68
208145897 Fotozeho 54
208372898 Cerame 41
210192973 Muwot 80
211597690 Vupit 78
211604370 Diwe 35
213586779 Cexu 55
214601994 Xufegoz 69
219776524 Wayuhiq 92
221103385 Tifo 55
224153051 Buju 59
224946751 Xoxoqah 66
230474121 Ziyez 11
237640940 Qopehu 88
241599828 Fapefi 33
244368581 Qorejo 42
245128083 Luqeju 46
247312070 Becat 14
249418537 Vuj 40
249768127 Saceqa 93
249901943 Cazikoc 7
250939886 Zacular 68
251716941 Cahoxuv 3
255585250 Ludip 8
258357500 Medar 44
258893145 Rubexu 59
261428479 Vavehaxe 53
262428594 Fijofu 99
262697299 Rugocuko 61
265547842 Jiy 53
266151459 Ker 12
267495796 Zodenu 40
269339582 Cum 99
272560215 Fiwajo 46
275572614 Koj 97
279724720 Qeju 83
282608523 Jofihoqo 46
285484959 Jisiven 81
285966599 Lilajiv 76
288967607 Cavute 52
288972894 Lizu 11
288994124 Ginobiv 85
293111768 Gogiy 67
294075776 Seh 97
298721459 Siya 0
300456174 Xilasu 56
300478625 Qikutoce 74
300948475 Vipoday 33
301593212 Lopavito 77
302054676 Foluqocu 7
302100162 Dah 41
302402319 Qogumi 18
302466082 Vinuro 76
308500573 Civ 36
310929943 Goyuro 41
313699019 Kuvi 9
317009211 Kako 56
318672966 Bey 66
321539540 Homego 9
324255534 Tez 54
325605506 Giqih 44
326559779 Kel 37
327418460 Zisow 7
327471875 Xotine 45
329028527 Qape 42
330572110 Yufohim 19
330769578 Puf 18
331487724 Henazuwi 58
333706767 Pajipi 48
338372419 Tuy 6
339109838 Hewavu 77
340900430 Vapohoy 14
341459092 Bevutu 33
341536167 Dizeqe 23
342090656 Kelow 28
342502526 Dojofif 64
347784403 Xifupaj 33
354129351 Rayamam 62
355042257 Tuwaral 66
360285103 Ral 14
360875662 Hiyisop 6
362901788 Fiziv 8
363835907 Jan 46
364476591 Qexuwu 74
364744111 Daq 27
366946019 Sib 54
367485268 Bakoguk 99
367844421 Ridega 35
370954412 Jodiv 45
371056630 Wixovo 32
371091932 Nupinik 72
371767393 Jirudi 26
372064152 Yapuce 99
373414996 Rej 60
373656898 Jarikuha 68
374361851 Haj 34
376434504 Devawi 19
378125105 Kaned 88
381639759 Vaweli 28
383187292 Fesunoq 24
388181593 Paqa 65
388815958 Niyoku 18
389101055 Hizejamu 7
391771181 Zikon 53
396757312 Laduze 13
397690626 Teyen 94
399055085 Colaleji 51
403513541 Jane 37
403579571 Necez 29
404258823 Zejovi 47
405016332 Mexu 87
408315714 Pocod 3
413261946 Yiwaraw 72
417489916 Jis 35
422053327 Diwomipi 81
422512611 Tep 33
424402350 Fix 80
426914213 Luh 82
435962987 Bove 22
436671454 Buyos 3
438213221 Xap 37
439682576 Fahanuvu 40
440510149 Cohigora 95
440746421 Vazova 54
441584044 Sepodiv 64
443407508 Vunuvew 41
443489479 Vuqeday 60
443683419 Kevi 76
444735613 Nugipiva 100
445318966 Veje 30
447310844 Lahebip 52
447449667 Viraxasa 3
447638512 Hace 17
449913349 Qalufi 10
450043765 Kohipulu 1
451089509 Cesa 14
451657536 Domi 80
452589247 Tim 29
461074926 Nuputaro 12
463499421 Keqopo 72
464360713 Yoyeb 96
467175072 Nipoweka 33
468677708 Vemavup 61
468908265 Qoreq 57
473335147 Jusi 38
479725262 Yivukef 91
480509797 Qemi 88
480921453 Tevafuyo 81
480937017 Qaf 32
481703952 Hojitu 18
487018853 Qilow 39
487207674 Cejud 44
488725087 Nuxi 39
490209068 Menu 76
496430080 Fox 52
497509955 Qewuf 58
497866123 Miw 88
499294463 Piruroga 59
506063363 Casovu 21
508341540 Hube 86
509774491 Fudoxer 94
510368917 Ragameb 66
512632154 Wilodid 27
513092351 Gusiyoru 32
514683878 Bavawoci 95
515378367 Mamobap 0
516470346 Gimice 94
522803409 Xuni 99
523981223 Wuxo 9
534188612 Holudi 97
538399678 Deyafer 46
540165387 Jixad 91
542574598 Sexe 49
544627095 Cevijoc 18
547640880 Feru 57
549703625 Halug 16
550730196 Gad 99
551518962 Konegi 64
553609475 Tifosom 60
556042704 Tog 76
561039599 Zebid 53
563034622 Mag 45
563691594 Zoqi 13
565047107 Cekaq 84
567497660 Gefago 49
569246624 Pej 18
569505096 Gunu 60
570610916 Gacu 6
573002992 Tox 98
580879138 Maguzan 35
582465221 Tequlix 67
582502883 Wubu 97
584126134 Luxixi 89
585346641 Sebihewe 90
588109088 Vese 2
589727445 Halaj 72
590270810 Notaq 46
591103085 Cuk 26
592103578 Zomasoh 25
593137211 Disi 31
594037480 Suxa 66
596207869 Yagidula 62
597166747 Nazipo 45
597979657 Feget 62
599940548 Tiwarupu 0
602658212 Gejoqed 62
606755450 Dinunafi 94
607087024 Tulewoc 82
611764732 Lowoh 41
622553225 Doha 100
624632981 Qov 62
625098463 Fapu 5
625510981 Jix 91
628017891 Xupine 80
628171621 Hayo 38
629165389 Qolej 92
630589814 Xijof 93
632515778 Vireteh 16
632899253 Pafe 6
633393575 Febes 18
633540114 Piyaziqe 39
636459826 Kuzap 11
637963789 Lisa 2
638404654 Cuyo 98
641992907 Palino 63
642058233 Qegeya 38
643439798 Fariy 21
644692358 Yexoq 30
645070849 Gic 5
645379614 Cetemo 9
646655804 Lavo 78
647144129 Veyayuh 61
648137475 Poh 55
652764638 Vumur 28
652774714 Noqopex 64
653985448 Hedebek 74
654392677 Rupe 44
655844192 Dewito 36
656343368 Nusaguze 3
658169895 Qep 31
659015853 Rarapug 3
659466750 Laz 71
660441430 Foyizeqi 27
664841287 Goku 49
669658597 Gutotoh 4
670077111 Vufizu 100
671176712 Kahesuyu 55
672117013 Xaxul 52
672375546 Son 22
672881416 Pen 3
675457535 Qecemi 8
676548547 Mayukog 59
676840701 Bokisez 69
681088064 Buh 33
681244008 Piy 94
681365202 Mebagedi 49
682140748 Besi 20
683654926 Mobujun 43
685796524 Qoho 44
688148814 Rajafili 76
689131893 Zovuqu 81
690322889 Moyegi 43
692284113 Mey 51
695930922 Zuli 58
698935336 Lesejo 89
705330675 Cobu 36
706024031 Temuqolo 49
706264487 Nadahi 78
706786178 Buc 87
709000766 Mogexu 4
710786013 Covefe 8
714181195 Zivoqan 73
717687195 Jeyaxiz 24
718508535 Xewopi 55
719493830 Boti 0
721743746 Yesoguj 6
724527367 Vadap 81
725470945 Muzin 69
730375250 Lez 83
730733567 Dupufor 49
733202291 Miba 97
735991278 Sigipu 36
737902861 Fadi 42
739718820 Nehomogi 52
740215165 Sawem 93
741730424 Telojehi 7
744602158 Gic 66
746127235 Xiwiwog 82
747138214 Koxugi 5
747431837 Juxepof 5
747475391 Goj 2
748298162 Nojeb 66
749322946 Suludu 27
750942165 Coke 9
751609807 Sapiv 10
751701513 Yegij 40
752726158 Joces 44
752974898 Nabe 0
753251135 Cexamugo 54
755454898 Xehez 6
756256635 Wuyomo 55
756594670 Sipub 63
757843715 Gitoz 83
758137209 Gay 56
759981761 Nezilome 47
760095220 Kazuhol 45
760182549 Buhovewi 52
761383104 Bilok 17
764550688 Nobiquko 91
765611594 Vuvo 55
768845311 Tip 36
769710394 Voxug 58
770935491 Gihonipi 96
776852713 Has 98
778246854 Duh 3
779448790 Varitaka 75
788996565 Ninazuxu 74
789614639 Gimuhafa 18
792549922 Vew 63
792726782 Qayu 10
793214549 Qimurut 12
795531507 Juxa 29
795908604 Fawuqero 60
798213830 Wece 34
799679980 Doloqe 3
799748250 Cavuder 100
801476391 Zoy 47
803166844 Tuhaqa 99
808279573 Kozoyac 10
808785657 Mibigima 50
809229039 Safewuj 68
810988179 Buzejero 32
814511836 Tef 4
816171941 Gif 29
816247846 Ripujon 74
816656309 Binukux 75
819168620 Wuxok 24
821362616 Niqow 74
821611555 Nayelic 24
827205118 Yabumu 16
829132599 Baromed 74
829971336 Reboyih 100
831323043 Zukev 45
834346657 Muz 66
834952119 Lonov 47
837851139 Vehof 84
840073310 Neno 73
843261633 Fuyehef 37
847630036 Ris 21
848656634 Miro 37
852394522 Gavuziw 92
853640264 Xawo 27
853967405 Deqavalo 72
857024818 Ximemo 60
857078477 Puv 18
857881437 Korohid 74
867450462 Hequx 97
870066866 Fareto 35
873027315 Hoca 58
874594240 Becafin 50
877318563 Vediya 64
877833781 Beruzo 75
878526082 Devawe 23
882520611 Kimisegu 38
886633928 Qokoqef 16
887212439 Nil 52
889111458 Lufaricu 46
890892265 Koqi 75
891779268 Hejizo 29
894115191 Zenoc 69
895340598 Xoraceb 60
895543277 Pefe 1
898620875 Zobuqo 55
900246804 Caso 3
900580251 Yedi 90
900626079 Domav 52
902894625 Kixiju 99
904553618 Qepiq 95
905894379 Ximakag 94
908851008 Tiya 87
909720162 Vibo 8
912439156 Wutov 90
912822481 Heribab 47
914875610 Rerusive 3
915271949 Vove 10
915939929 Faneya 32
916393557 Tilacate 36
917011119 Miluluyo 87
917667273 Novas 57
918359908 Vimuy 40
922940334 Lini 45
926767596 Rocaz 49
935879220 Ziqose 94
937075711 Kazayoc 47
939816604 Fuquz 3
943042951 Milike 48
946306770 Xoluriya 53
946906933 Qoluros 75
947371550 Soyefa 41
949604462 Debusoj 25
950496697 Fogavetu 62
954509022 Senerowe 77
954871046 Mex 23
957841872 Jeqi 97
964727208 Qatile 14
964990228 Dayiruy 16
967116839 Tix 30
968507068 Nehol 59
968902456 Xuhov 98
973093377 Fujovug 95
973379822 Zef 72
973942320 Numez 90
974628285 Citati 73
978698900 Ride 30
978768482 Yibi 30
989686310 Yubiviye 25
990027466 Lafuxiju 48
990852361 Pimi 75
991190744 Xesegepu 22
991793893 Zamezu 35
996877346 Xehi 72
997522793 Zekefiw 39
