108
19820178 Jora 24
19882864 Kohuh 94
47299474 Palu 44
64991057 Panavefa 16
71063498 Jaraqop 4
75380343 Hacaboti 72
80228380 Piro 3
95232334 Tuma 92
100523059 Gukave 98
113118500 Kilagofu 15
124700951 Diladig 7
131305204 Xok 31
147491949 Coj 55
163552386 Sitaza 44
173236475 Fetat 98
198278410 Quyi 10
200312255 Teyusoxa 46
210521030 Dufu 61
214718693 Cit 26
235483419 Daqa 3
244231901 Xej 82
260717543 Hegajacu 41
262818626 Noy 27
296507103 Rojopa 7
300713798 Xoqe 2
331353415 Cid 46
340718458 Lopuk 82
345542267 Nej 55
357543675 Jabex 26
359164513 Top 6
368421066 Reh 78
371074190 Fiqur 23
373486323 Kucewuk 39
376418749 Hariz 97
382960979 Lewih 27
384122630 Gopa 82
386171879 Racohuwe 4
391152258 Civa 15
414772873 Bef 5
417336946 Keqamuz 37
433687657 Xirozoyu 40
435689140 Ximi 31
436573230 Lefu 54
462066223 Qodod 26
465105980 Reyo 0
481062246 Remuw 32
486108744 Kot 14
490785818 Cohor 15
497208404 Lujey 59
497750050 Jeza 96
511219547 Bika 61
515187580 Lat 43
532072280 Boga 64
538571658 Fobih 14
566431396 Zemobi 18
567508183 Casowa 61
580719077 Yuzupune 33
581297891 Wuyaja 58
583698538 Bubol 28
584455197 Tagekuku 83
595959438 Qul 43
601665430 Suquhej 25
619592268 Yofofof 0
619793474 Vaherok 53
639589532 Folo 68
642925991 Podixof 65
663546898 Kuzu 30
664624794 Lekonulu 17
679354636 Yebifuv 79
681138549 Torijuje 25
723744909 Jowid 73
726643654 Vay 12
729215488 Zecuwazi 43
730948561 Lihema 76
732805887 Puhazutu 46
736634608 Meyey 0
742885590 Quqopeyu 12
743403672 Yavuge 95
744047918 Lohowiku 17
748345206 Sul 52
753854933 Palinuc 82
783736460 Lozo 39
791012159 Wafoga 76
793397608 Fur 11
794898408 Hiyal 4
810335607 Peku 11
823056778 Vib 9
833094690 Nomijewo 37
838823543 Yogehe 42
844883496 Xacexiw 17
846890859 Fuv 5
847715905 Ziwap 84
856705507 Bojofagi 78
859804765 Gamare 90
871186490 Zopa 15
880893014 Cudezij 98
887132370 Vaw 43
891564763 Sapebo 49
894427195 Daquc 27
899959321 Sagepefo 30
914975814 Zimo 33
921414884 Faxehe 93
927165279 Reja 64
949187394 Yeguj 82
950666707 Rasinaxo 63
970503117 Kiwo 6
971664968 Heleh 3
992316057 Najupiv 34
