175
621750 Wexilama 12
736997 Soji 6
4083222 Pipu 63
4340054 Kicuw 23
5543660 Bejahad 33
10802270 Vimiluqa 92
27414983 Dopidaye 35
31973769 Zeja 38
34114204 Zinic 59
36728283 Hiyikoh 91
40984164 Gulutoh 98
46257604 Geranij 35
58369597 Xele 2
63263247 Kesoce 3
65268613 Kusey 39
67423220 Fenuho 100
85558277 Setifa 32
93322515 Zubejag 47
93998717 Yoyowo 62
102467945 Wefoq 13
107378061 Nuvukaxa 22
112907668 Cisej 81
116304047 Kepomiw 7
128827432 Wenem 12
129891474 Joya 0
131941610 Weq 8
133847275 Toyafa 43
135785741 Qon 4
142651884 Yoro 60
142715317 Xik 57
147819783 Tix 93
153197423 Ciniwuk 1
157361392 Zaxim 11
161896800 Bulat 2
168737978 Nuwo 51
176282648 Logufapi 6
180646729 Lix 35
187121141 Xosifohu 88
188719348 Wolef 97
198688472 Lapeqeta 52
204040816 Kihej 13
206483401 Meruk 9
210386305 Pih 98
214538822 Cojapo 61
219233760 Resudinu 100
221502208 Dabut 52
221704474 Met 59
239961442 Quki 11
245681868 Geyemo 81
252636663 Maxu 47
255096557 Siqiqupo 87
264532613 Waga 29
269580956 Bozuvus 80
270963203 Qero 92
272711726 Wadek 6
283696272 Xizodoxa 46
303454925 Duliqo 93
307997229 Kuzun 20
314652157 Lil 41
316929767 Leviqivi 85
318541601 Bilizac 88
321477745 Jimeper 34
328654946 Hew 76
331344955 Yonupoba 69
340634904 Paxi 42
342485444 Mizaj 54
347826717 Wol 52
357553495 Qobu 21
358141477 Yuraze 43
374195592 Mem 68
384930073 Dizoko 85
386703276 Sob 16
390452963 Pola 0
392641096 Moyaxe 45
400343072 Xijaxiso 36
406325383 Xevet 31
408578852 Taro 44
411878175 Diwikifu 96
412196198 Lopot 76
420251673 Dug 15
426325679 Bix 99
439050820 Xihik 19
461641020 Nasaqos 49
468917552 Rexeveku 34
471939769 Qidama 59
485451396 Zawateva 44
492449072 Koyo 48
494051807 Qijup 57
506001448 Ralur 39
507625942 Kutotaju 84
508206138 Celop 81
521001977 Lajacic 38
523108810 Yulanon 81
529015579 Lamilo 5
534147021 Malipiru 38
539296299 Yix 78
549591813 Saxeteda 56
551003606 Totigu 96
553635985 Sude 1
575133479 Cucan 32
578877062 Zefidoja 36
579768043 Bizic 12
590071912 Facehay 59
594337464 Jabokon 76
598306360 Sev 61
609059771 Tizif 78
610856706 Dejajo 19
621715470 Yuzujuza 39
625050946 Wojihaj 91
636109699 Tiqukej 26
639898670 Voso 92
642270182 Qejehuy 86
643015404 Dalijeza 15
648533670 Raqi 65
649035750 Fezixara 27
652314353 Hojowute 48
652844498 Guca 20
657643313 Kayokej 42
659068217 Kobago 72
665137673 Wopaduj 58
667613897 Zos 91
669545004 Somo 65
671315037 Vew 70
676567037 Xowes 98
677951168 Xupofu 55
679157356 Vigiga 90
692176326 Dobaku 32
696835055 Bafow 21
705260866 Qohucaga 55
709715087 Ribigux 72
717795527 Pusot 68
719151750 Wovox 6
726548677 Nusomari 11
729127254 Keciw 57
731221192 Xihadela 12
742127430 Zodil 17
745992860 Larewaz 1
748744654 Coxul 19
753636165 Dimi 23
755096641 Goh 43
756732902 Suxet 69
778670889 Yalo 80
789657258 Cugebe 13
789924530 Xem 10
791749272 Qadi 37
801359822 Voba 0
822054948 Wey 31
835275996 Jupif 12
844040704 Famen 70
851673540 Romoxolo 17
854874645 Bogixile 14
856656296 Gakab 10
858032543 Piliduru 0
863468772 Hedahat 61
875202585 Yudur 80
877939504 Qev 45
885481186 Gijuh 0
900503525 Hilaliwi 0
900528983 Tetaxi 95
909654046 Roduv 91
926151405 Zicowif 61
930862967 Vor 3
941172055 Tiqovigo 15
950016960 Gotojo 13
954554214 Cuna 9
956919571 Mocolu 98
958408247 Coleq 91
968919184 Miso 54
969552416 Sotahi 86
972748751 Yibax 12
973225119 Kibas 55
982027705 Levid 13
984099180 Koq 44
985656815 Yocow 15
994580745 Xal 17
