601
132886 Lubohi 96
1478297 Rakeda 49
4836816 Luxi 76
6901507 Lav 24
9357621 Mozif 63
11943122 Tiyo 95
13018375 Jemojage 96
13172545 Potihij 55
13657176 Focutife 33
14019720 Xafodiq 11
14115980 Mok 48
14360680 Zamo 8
14881347 Vuhup 34
17415677 Vidadoqa 98
20029829 Zaruhani 77
22246558 Mun 48
22828338 Wituyig 52
23796564 Yatema 18
24221321 Kosadogo 69
26228646 Cafeyuwi 48
27513025 Lay 33
28044503 Qec 63
28981350 Xuqecipa 99
33327439 Lipib 1
35889869 Ruwitiq 27
37523508 Buzinuj 68
38007564 Diw 70
41662202 Dehulidu 39
42310754 Fos 19
42485199 Dawu 1
43403485 Jimepeq 23
44441953 Bitogej 18
45112800 Kezuyoq 58
48517103 Dizu 61
49112589 Ziquqepo 61
49275361 Cegem 61
54101632 Gimoriso 62
54374557 Kuc 89
58404423 Yeyebiz 32
62279874 Yek 7
64773692 Busoz 6
65192793 Nuqi 46
65557758 Yepa 65
67375710 Vewakopo 73
69148567 Resuleq 89
70454800 Jitihoq 29
74609958 Holoxi 70
74613859 Tuluh 32
74967550 Qabeputo 42
75736393 Beq 48
76620828 Guseqah 30
81980769 Qij 25
82319995 Kogu 25
82922539 Fad 58
84206498 Vecu 41
84562049 Rive 47
86148067 Zirokis 97
87196378 Fijos 96
87553904 Vus 6
89150592 Sumese 38
91335515 Mut 99
92070645 Manafe 5
93470556 Nule 57
94511035 Wedo 30
94704781 Zologuc 54
101103766 Muzi 47
101395467 Qude 67
105323927 Qucu 72
106889016 Nogoquyu 18
108951919 Hozu 72
109075892 Pobexum 52
114737116 Yofu 35
118529085 Jidolod 67
133421263 Sunosiq 10
133777584 Rulowuqi 34
133782180 Zaxi 92
135122700 Quvahul 89
135147246 Yojuni 10
135746468 Golusiq 4
135773151 Gulirog 7
136711540 Subave 66
136776244 Rinile 44
137359427 Nazovur 41
137956576 Rokife 48
138251751 Nitujid 34
140067974 Tonotic 100
142759595 Qelivef 35
143875112 Luka 89
145289769 Wuyixuya 23
145658270 Yut 35
146628405 Lahiwuv 99
147021994 Bufamiz 84
147977214 Rolu 28
148827345 Hewifin 90
151555874 Cuma 92
155458281 Kihew 57
155580932 Refeweh 67
156451911 Qaza 76
157757907 Xomamo 49
159162651 Nelacot 50
160561974 Jehiris 36
161148072 Zoqo 17
161876885 Ruxu 2
162168688 Quluro 34
167095673 Kukipi 36
169249074 Pulite 27
169279609 Wihecule 89
171243248 Gikona 16
173078415 Nepaveh 27
176081442 Bemegus 40
176338776 Ganize 80
176408916 Giwad 7
178481075 Dapavi 72
178615295 Zelojodo 31
182869460 Tikofuy 96
184109371 Kufuru 79
185670210 Xuh 23
186360532 Purofaqo 22
189060071 Setukuhu 8
192395313 Jepega 97
198455804 Lijov 52
201497638 Xapucaha 59
208031682 Yowi 17
208938510 Biru 47
209077343 Huwomu 30
209881999 Zonezi 41
212938415 Zidah 67
214393162 Bekewek 66
214634330 Mowexuc 61
217440165 Gazutam 16
217824544 Peq 30
218153672 Besu 28
221733261 Now 25
228318299 Famahike 88
231072952 Nuyujidi 24
236065198 Buxenim 60
237417633 Por 23
237504831 Nizite 89
238566099 Pud 31
241595667 Pidubu 24
245220090 Votepo 7
245473644 Qox 75
245758092 Jabave 46
246289177 Wesafozu 44
246818484 Suq 52
247421279 Cuzikew 89
247529894 Gak 83
248289457 Tiwug 61
248526119 Kavuxafa 67
249876897 Halovew 100
254281938 Lugapa 49
254835198 Miqericu 58
258061376 Vijaso 3
260555400 Gawiyimo 53
263268110 Yaji 69
263398838 Koj 84
269666166 Yibi 26
272149866 Goq 30
272558291 Hus 31
276878677 Colu 73
276995465 Pusipefo 29
278829230 Xixowa 84
279992798 Yuvifa 38
281864064 Cepof 71
281998599 Tilanel 2
283303905 Hagawace 9
284397169 Wucosup 77
285142797 Laj 81
286844012 Miroyuzi 18
287892012 Bozado 53
288820568 Tequfedu 64
290497776 Suxekop 53
290504067 Yudonuco 61
294579871 Kimu 45
295685940 Yoqapan 73
296286315 Jejifu 62
298567661 Remekaba 67
301592030 Nex 45
303469961 Telopaho 27
306337797 Hicutiti 56
310778674 Qokub 28
311333472 Xuzud 63
312148861 Fate 95
312428435 Faj 46
315279608 Qiyoq 67
318127502 Bofisobo 91
319375331 Ruxuvomo 63
320039458 Gidozo 28
321426401 Zodoq 31
321738855 Julex 52
322774185 Hujocu 19
324638658 Higobaxo 41
326449742 Kav 54
327482210 Lat 97
329737485 Tuqu 60
333016057 Yajina 43
334422951 Wadosa 95
336814763 Meyici 22
337429137 Paxuyo 14
337843394 Fup 44
339104062 Faw 67
339668869 Bus 21
339868139 Tojaco 81
340942870 Meqozuba 97
341516223 Dixujaju 44
341596750 Fiju 5
348163682 Macazo 61
351105768 Kazu 9
352077104 Qaz 43
352309791 Fogeme 20
352647920 Foyasa 95
353567850 Padutuv 45
355716020 Yah 68
360010829 Goxeco 50
361350473 Yow 18
363023027 Wowo 48
365159638 Menatow 50
366360182 Bukeji 86
366783360 Tisaj 16
367292553 Qeje 67
368119849 Komu 25
370071860 Ced 7
370879337 Yezeg 84
371818789 Bitir 100
372207179 Naxat 42
372765306 Nokawes 65
377935405 Qix 6
379177598 Kuxut 18
380096279 Jahofib 3
381736107 Xof 15
387294329 Quzihoj 74
387824421 Gunehibe 41
390364904 Tug 89
393222471 Rasa 89
397253959 Basohe 88
398365817 Pupiv 94
402137588 Cihaveh 58
402255403 Joz 21
404890302 Ritat 63
407873865 Joli 95
410488132 Wij 20
411396682 Xuba 90
413481763 Yevufuj 3
414314441 Noliho 71
415115531 Kakukako 52
415346954 Vucapuge 19
415960409 Moqanu 29
417008570 Hawop 57
417541184 Pakijo 4
420685912 Rexo 90
423644126 Jopuku 6
424424671 Wodapa 90
427656906 Qomed 84
427795083 Johogam 87
429709493 Nos 70
430974128 Gepam 31
431140632 Tegul 15
431607403 Voc 93
433658238 Qanano 88
434111522 Lanone 1
437938694 Cuyuxo 20
439297615 Kuxiri 61
440339933 Sezur 75
441345866 Lufe 62
442622566 Xuzuguh 18
443550154 Wopuzi 99
444349929 Nugajeji 67
446239272 Puyezi 21
447026842 Pojuy 20
448105728 Lay 46
449044547 Yeq 71
450030694 Fef 31
450493552 Rog 91
452235126 Qazinewa 58
453281005 Xid 59
456520190 Sekorubo 81
458895742 Xaperuca 42
464568157 Fojevun 86
465325809 Dup 19
466790041 Puwugegu 33
466954275 Jux 32
467350421 Doje 6
468214145 Xadiwaxu 17
468560695 Xifujigo 6
471033904 Wodu 59
471459732 Kuhoturo 36
471594786 Xaguhape 87
471768199 Xatukizu 44
472673357 Dozac 54
474011232 Pucita 59
478500535 Tesaxi 84
478920771 Dedolot 28
483187968 Diqohu 55
483701900 Qifo 56
483874258 Seho 82
484508531 Dukoy 12
486682693 Vovoq 90
486729788 Luvolewu 15
486791404 Virayu 94
487017151 Lafu 18
487427961 Jepe 50
488625817 Lavite 8
490454330 Zufawu 1
490855665 Kaxeteqe 75
492999042 Kicofiri 10
493469832 Qoq 85
496144237 Qofiba 91
498158128 Jeq 83
499695996 Qixenovo 91
501810995 Melut 7
502892711 Zimili 53
505272346 Yixavuh 90
508216176 Veyepox 59
510202442 Zela 18
510560476 Cexuc 55
510761303 Vado 42
515734062 Tuxuc 45
518349312 Hohode 65
519115294 Cakuj 22
519835876 Fohubi 3
520193201 Fotaviq 90
520340020 Noyaj 97
523044733 Ridowo 65
523887294 Vaxo 43
524375189 Vadoxize 78
525137629 Kuvez 60
525443473 Vuwu 7
534428876 Nixeq 59
535344145 Loyanag 52
540570700 Gaqiyiq 76
541475674 Vizaw 81
542717929 Xocu 5
546224739 Tot 3
546377474 Kanexapu 23
547511579 Togupese 48
547653977 Mol 49
549795972 Rukuc 50
553343738 Geponeri 66
555145419 Vagipu 50
557375033 Haxecube 59
557652982 Behupo 61
557822641 Danig 78
558688477 Baculenu 58
559530116 Kavuj 42
563930338 Xex 87
565896040 Gayey 68
566773544 Tebip 48
566958370 Takid 80
567550737 Taley 19
569363806 Togo 30
570599993 Xor 10
570711413 Cewawe 38
570918533 Tijuwefa 72
573972657 Roso 87
578057101 Holuquba 91
580927898 Coka 43
582496030 Tivefax 39
583451392 Fudirox 95
583611859 Farayina 98
583656977 Terov 18
585126843 Hacicaf 35
587164166 Qemigod 85
588723266 Tihunew 76
590037904 Fiboka 39
591819505 Vokekino 95
592902500 Fagopiho 1
595534575 Hacotapi 10
597169275 Qujuba 99
599028336 Kuxir 70
611879926 Wima 86
612192715 Xupaju 65
612629174 Zosi 54
613888893 Zadagema 51
619778992 Fejeder 87
620064992 Vawo 58
622344333 Fiw 63
623708208 Pemiq 89
626283183 Pacojuru 56
626694366 Qoc 17
627634600 Cukix 39
627943547 Siqivez 91
628294980 Mipehoh 63
628399069 Nehezas 30
630425495 Didu 45
630927119 Weroqah 12
631240325 Zisajeh 81
631537643 Ruc 98
632418353 Giwanid 54
633051204 Xugajexu 41
636153184 Nepupiqi 76
640589316 Sowew 21
643402493 Guj 12
644648415 Hukuyal 58
646061865 Vibu 81
647161058 Bedegoqe 61
647669060 Vonu 9
649461655 Diqe 63
649850618 Cixawopi 91
651026249 Hujoca 76
655490274 Kona 75
656478061 Lumohime 60
657198857 Daquhew 37
659822870 Muboyi 56
661916165 Yezo 9
662811735 Hesin 99
663602616 Fug 90
668930701 Hego 63
669660233 Jeke 0
670164176 Yoge 45
674609812 Bire 72
677065675 Votez 79
682804636 Jeyuni 71
686893109 Dobazi 45
689981483 Qonoxazi 52
690362922 Zid 92
693757601 Lezuq 10
693877687 Yika 79
694083494 Fobosem 82
702894869 Taz 19
703724076 Zol 28
704616000 Cehum 98
704899421 Jateze 32
705064043 Yojet 25
708005504 Wocufesu 9
711854268 Mugumov 80
711962119 Nilukeyu 13
718904214 Xoyace 92
721383637 Qeri 13
722158985 Qif 85
724743886 Dehi 78
725031807 Yuvi 8
727112970 Pafawude 58
728146234 Xafah 11
729183900 Pot 33
729185704 Mibah 37
729406997 Lamaso 76
729732439 Nuhocecu 4
731161296 Jiwe 68
731405927 Dirov 30
732555566 Hotuge 22
737216293 Buk 30
737408321 Reqivudo 79
737467725 Vepoweco 10
737866315 Xudiz 43
738822137 Zularaj 40
740474669 Woc 5
740634663 Vem 90
744580344 Ripuq 18
746388804 Sunoq 74
747321125 Qoq 94
748721431 Nujeyes 0
750356368 Zojewaw 37
752007134 Ravu 98
753045267 Paduqani 27
756653021 Joy 44
756775795 Rifij 100
757928288 Mopebaye 96
758886770 Vafalibo 35
759576406 Cejiwoka 11
763772938 Fofe 17
764408575 Xorido 91
766144726 Sihasul 10
768516660 Yezijani 80
769724500 Pimuhe 83
777017612 Giyo 98
778179657 Wodarah 88
783157636 Mape 88
783707557 Fahal 69
784158828 Vala 42
786905981 Xoyunos 42
791395573 Wecid 97
791419383 Lahivor 26
791513489 Wunul 44
797341877 Fugib 7
800363603 Xizeqiya 35
802081605 Raju 12
802793920 Daciwu 32
806096116 Muwuni 38
807407082 Hapozu 97
808333930 Gemogug 30
814638432 Cawev 1
815143638 Bizihuz 9
820206412 Hepojupo 61
821792456 Zafudet 78
821889372 Zasari 66
826554511 Noheti 13
826938782 Dawokoq 82
826940547 Rix 54
827182870 Lodogelu 66
829457044 Naf 80
832553857 Vazaha 85
833717957 Wuroxa 66
833850623 Pus 75
834044622 Xipot 47
836231564 Socawodu 71
836964447 Tuqite 60
838594440 Xatuqoc 71
838865921 Hajo 75
840045076 Qoza 9
843296567 Qiyiqo 5
843685084 Zeron 75
845913767 Tegebagu 43
846158100 Zah 33
852121673 Suyakuje 82
852819572 Cijoc 13
853009354 Mijiy 28
853879939 Wenuc 71
854563904 Xeray 8
857397144 Fad 84
857640315 Vohi 94
860342931 Yoy 36
860734325 Zeru 28
863881234 Virizo 74
868381571 Nesupeg 78
869227209 Gozud 21
871763191 Soyedure 18
872752573 Vevimu 2
874407446 Yacudu 92
875705888 Kavet 20
875865767 Xufoka 74
880269487 Hahame 3
881150950 Kimolew 34
881805710 Xov 86
885393228 Zuj 65
886572131 Yugawuq 72
886708363 Yehuk 18
886893341 Xoyawaxu 40
887088680 Leleraha 46
888853974 Dizir 79
889916816 Pizezik 75
892260145 Haruho 58
895302887 Duheg 70
896107700 Wenero 63
896231827 Bedikeji 34
898360509 Neyotica 10
902631229 Vinemex 44
904227965 Tidusuw 94
907420824 Manaveqi 64
908444347 Nelata 89
909142049 Quheciq 60
909812458 Pevoyoz 5
909815564 Ranagam 54
910530488 Fixakan 57
915729042 Mik 9
915804183 Giqir 93
917296447 Toraba 37
917881301 Jab 70
918083518 Lav 88
918261919 Dit 50
920029941 Lazok 88
920073496 Roxod 1
921435246 Dedexom 84
922372066 Revub 93
923621583 Ripim 53
924577708 Jivafej 51
927807123 Hiqi 72
929284484 Laseze 80
934104845 Maha 100
935382920 Magesid 40
938664387 Kam 97
941418591 Zugetew 79
941784799 Kefogala 96
942559651 Yusivip 6
944850555 Qon 1
947691325 Vus 47
947749376 Jubage 45
948175935 Xoxonaku 81
949007108 Jokunef 64
951430054 Zukojure 91
951871225 Teso 62
952307737 Fufikiyi 71
952394052 Jefeju 18
955662130 Wequtam 25
957168855 Cucupe 27
959565643 Lav 30
961335102 Taxe 35
961359332 Hicoj 45
962200871 Jegax 82
962462692 Wacojoce 83
963407655 Qileh 13
964704372 Laj 27
965942645 Badumi 30
966415176 Ximim 29
967133588 Wemagaq 84
969660938 Xutovovi 8
973482062 Ref 67
975574122 Dumame 74
976658443 Savax 77
976944228 Firu 15
978836257 Tuki 59
983417063 Mimin 16
990029513 Zinopa 27
990237606 Bujapovu 100
991251033 Wakideh 26
994386352 Joc 96
995071706 Toj 92
996425195 Yadaqe 61
996842014 Xiw 26
997563789 Puk 22
998693902 Zuqov 61
999271433 Kaxudis 4
