741
495319 Kuzaxa 89
1452227 Toz 23
2578301 Dowicem 80
4943253 Doca 6
5107025 Yamu 65
6365339 Lomit 60
9935425 Jabokuye 13
14172997 Gajo 54
15811322 Deqote 45
17728450 Numob 90
18451998 Lohugaqa 42
19022883 Sunizok 26
20155443 Zet 59
20541405 Qayefih 8
23774324 Cafuvu 37
25595345 Woh 75
29590488 Pevobad 33
33735873 Vuqureme 55
34418284 Jabaku 3
36219160 Kebabiq 65
36771971 Xunaz 30
38973997 Yubesexu 29
39034354 Mav 76
40300815 Gusinune 17
41011661 Rejumis 92
41198068 Dupa 73
43528096 Cugi 35
44421489 Zuvuve 75
44574067 Gidage 55
48101562 Geqi 92
49681014 Zavom 11
51602808 Kusonuke 67
55132404 Vufe 74
55169240 Vib 70
55289848 Lageke 89
56540358 Mom 81
58031252 Bajac 5
58509050 Cawu 15
58570304 Kedaq 48
58813646 Teg 20
59362367 Lufoguq 75
59630101 Pelu 3
60615029 Fibidihi 68
60719062 Cibeh 88
61666738 Bavidim 74
61889462 Xeseyiq 80
64334887 Mesegigu 5
64365231 Maj 52
68006544 Waso 56
70434032 Zoxutom 75
71656694 Cagan 56
73581950 Dezilec 2
75435832 Giluy 43
75499220 Vuhuw 20
76305621 Heleyiwu 88
77374370 Rigexefi 20
77660169 Nihenez 96
77816768 Pivi 66
78822578 Kor 51
79062191 Lunotak 68
79803002 Fapixu 58
80278823 Sota 46
86465960 Biga 46
87030565 Hage 55
90392445 Qirak 72
91796071 Xaca 38
92769179 Zuxubuy 79
94925206 Nerewoxu 8
96041560 Cabozo 53
99917857 Keto 43
100342413 Pedas 14
101355439 Leweh 60
103328693 Mediwuw 49
104656604 Qagategi 72
105450548 Difizuy 82
105512281 Zovufaxi 37
106304349 Bivox 50
106463813 Yoz 61
106567678 Zumapaga 13
106998176 Zegacibo 72
107132571 Yodi 32
108059739 Qizexi 28
109027443 Qutavi 90
109243801 Hima 71
109371325 Ram 88
111874617 Kujiyepe 57
113428280 Rulip 54
115445900 Yuhuyoj 55
116692143 Cataze 25
117521209 Rudum 10
118020843 Kiporala 83
118377643 Deduc 77
119002616 Yagac 35
119062122 Dizaqixo 93
120931370 Beveno 34
121306741 Zavuki 33
122986377 Xarapiy 65
123309646 Yikoga 3
124773901 Foxu 72
124988823 Dulox 19
127054844 Himof 63
127336030 Huzad 69
127973826 Gusipuh 47
129695703 Loxi 65
129994734 Xuleva 60
132801424 Doneyoc 17
135345245 Danulol 50
138475643 Biwiyet 79
138725766 Hadomequ 36
139346170 Tokak 18
140365832 Keqimej 77
141113038 Werafeta 38
142114953 Cugifico 60
142492270 Boq 88
143966467 Gaj 88
144881981 Nupe 62
144929374 Xorebafa 77
145161348 Tozefilo 12
146276628 Sun 49
147738236 Haxohaga 21
148929500 Dayidac 40
149842216 Jipu 93
151453087 Kaqotumo 34
151956572 Huciro 72
152696158 Helado 59
154641908 Wijom 70
154959740 Vis 36
156746454 Bobarob 96
159645034 Luvoxe 76
161311129 Pazi 56
161437992 Hiketow 35
166048089 Qimumes 88
166083603 Koc 1
167077411 Kedis 73
168011564 Kodo 75
168090705 Ribinefu 76
170569780 Hemo 6
172813549 Have 75
174223318 Gijipa 43
175232668 Yuqobo 94
175246367 Rufal 55
175363385 Raho 90
175386793 Xicanuyo 91
176908147 Qizowis 90
178558097 Qozaf 83
179583525 Nehap 20
179883340 Ziyiz 88
180372120 Taloc 55
184534275 Ruwenac 41
190440331 Biva 23
190891550 Vilud 74
192912159 Lodevoq 11
192984736 Julonel 12
197328761 Vusoqu 98
197350521 Gororexe 92
198858458 Favugu 26
199628079 Qil 6
203121577 Dapekux 88
204299175 Xoquzoj 55
205034300 Xojireta 9
205827139 Molorof 48
208694527 Kum 75
209734752 Kokaluk 23
210734240 Lupume 3
211165744 Yolumiz 42
211489368 Yehicaj 8
212230043 Sidigak 44
214463743 Higu 91
214664336 Dawuniv 100
215021346 Lugecel 96
217568606 Rewu 20
217657174 Panoj 58
217788797 Rusovi 1
217934948 Zavikohi 45
218321326 Ranuzod 12
219074201 Qekomud 47
228246954 Giseti 34
231595621 Risaxix 25
231711356 Fovu 2
233141559 Nititus 82
234373779 Huv 50
235069571 Yiwafaqu 83
235322863 Latemop 83
236172650 Bucoko 99
237914656 Zopaju 69
238015603 Pimas 29
240650505 Saviveh 16
240981790 Penav 69
241905484 Waxut 79
242301222 Qis 88
242718914 Mavutim 89
244267418 Qegome 74
244789337 Cojuri 20
245969963 Vedarit 36
246914620 Yoyi 40
247784057 Qagetux 20
247998943 Meri 34
249142927 Tepajin 47
249353185 Kog 42
249624443 Jedon 93
251036913 Zufowowu 48
254392800 Rafabej 91
255586868 Dupa 51
255745480 Risawe 54
257077254 Periq 18
257775643 Rivipa 83
257945043 Kedoju 27
258281692 Zizak 96
258717809 Duyudecu 2
259191297 Fizusu 88
260233724 Wakafimo 19
260506026 Mejiyowo 71
260514146 Saveweq 75
260652379 Nifeniwo 8
261704567 Pufo 30
264380195 Qesije 40
264590729 Ripu 62
266211197 Kodahiga 82
268027283 Fiz 93
269171359 Videlute 74
269593662 Dahu 68
274107420 Joseja 83
274388182 Wujoza 42
276943237 Cuceweg 34
277954396 Nutume 0
279149756 Dog 81
282655230 Fuy 1
283050669 Dowomod 83
283168490 Finafaz 40
288941347 Fedufu 96
289712494 Zan 75
290322656 Noyisu 22
292920570 Reva 36
297913188 Yirosay 47
298612120 Riw 49
300618904 Reguf 40
302044442 Huqe 28
304377846 Raru 10
304462853 Joleveki 82
308185313 Lides 17
310339281 Bejeqece 97
312001082 Tuzewi 78
314258219 Neriyuc 75
316035179 Vodetinu 57
319023601 Juheb 66
319097096 Fahuni 34
319491428 Renon 97
321848898 Roxalic 81
325006965 Mavoyu 31
326637962 Remasu 52
326706570 Wumazuk 67
327565489 Koxiji 69
330361635 Johow 98
332536571 Torojil 90
333031006 Rav 87
336662841 Pow 43
337284116 Dovihapa 95
337292745 Bajemik 2
338356236 Keyuci 94
341924040 Duvitako 73
343023731 Mul 27
345298853 Felip 73
345763732 Kedoguje 63
346095504 Vodij 98
346324881 Heviqa 10
346481120 Jug 50
347035834 Vomexe 65
347705703 Gibere 79
348574565 Luze 8
349201354 Nireze 28
350453891 Jepavu 6
350738851 Buyigisi 13
350889087 Fiw 31
354651761 Kih 89
358771806 Cij 10
359156264 Jilofo 56
359797317 Cuhuce 77
360202682 Vajik 26
361853981 Wovuvoqe 81
363467730 Pikepafi 71
365179691 Noqe 43
366233739 Tosuv 29
368342584 Yidibivo 40
368932995 Baq 14
371067341 Vafo 80
372967340 Guz 30
373803048 Nud 45
374377064 Was 33
375713276 Vak 87
377932308 Kijeroj 62
377987473 Ximeli 59
379288973 Bisudov 35
379315211 Gowupo 12
379864292 Cedacipi 27
380276223 Yuwige 48
381417831 Haceruk 33
384170293 Hozekaz 35
385004912 Mufo 21
386327849 Caquke 83
387346478 Xizuxifu 58
387738725 Liditu 63
388478762 Yiwijuco 53
388566433 Picu 25
389351398 Yujefe 99
393330748 Lixayige 80
396538951 Yozafi 70
398842354 Sop 6
398938486 Sugeriz 77
400873717 Kemi 86
403085658 Cuguh 94
403816166 Suvi 69
405238475 Voj 57
406299439 Katopu 26
407333085 Gonahore 39
408282053 Wic 91
413964224 Qimo 58
414563991 Latemup 54
414844426 Cen 63
415594646 Cavuy 0
416620010 Cozec 98
419344492 Pul 11
419570993 Seri 80
420370584 Tafe 16
421963524 Cab 50
423705104 Caxo 44
425570888 Soxaxir 16
428125980 Biw 65
428149524 Jawulesu 62
430073063 Kohutu 48
431531647 Was 43
432688998 Xiyav 20
434477815 Buhiseji 33
435594941 Dezinud 48
436769936 Viceg 51
437986779 Gesi 46
438607431 Sujo 49
439027325 Tiw 31
440406595 Xugu 29
441831322 Yigi 89
442279328 Vanefij 96
443102261 Wimane 99
445204880 Dut 54
445300617 Puvem 53
446116216 Quvike 67
446182181 Lira 83
447085024 Kuwi 81
447775533 Det 50
448144204 Nebej 18
449060146 Maheza 49
449886621 Hudon 19
452734138 Zuz 51
453294485 Zozegoq 23
455245372 Guguz 18
456034089 Zofujis 56
456063452 Guxi 40
456352798 Vadode 56
456618441 Mudotoqa 39
462992920 Zuxi 85
463696334 Mit 4
463993636 Qov 44
464546234 Curey 81
465642325 Hen 61
465866785 Rahirule 44
467452520 Tuxi 54
467532830 Cozipexu 33
469693484 Lavew 85
469982737 Nahacano 89
470831724 Macev 38
471840605 Fiwerab 5
478200970 Negimeme 34
480038256 Cic 20
486207473 Mide 82
486764534 Liguwu 10
487252619 Dofu 52
488004626 Hexako 45
488219471 Pul 83
488428362 Fexuyiro 97
490706843 Xafoperu 49
490810919 Nusohoyo 42
491870409 Rafusoyi 22
494691802 Juj 27
495425840 Ligi 25
495928918 Cepa 53
496918885 Nabutan 16
500863781 Nus 55
501494955 Kuqa 82
503090155 Lugusabu 25
503450505 Gus 15
503562151 Hexuj 57
505672214 Jizomo 64
509403459 Sibodeve 87
510044532 Seqa 54
511907000 Nefa 42
514571497 Seqiqobo 30
514575583 Nelocona 13
515458188 Qinaku 6
517942983 Marifav 43
520424594 Kituwo 83
521784101 Lomu 10
524039468 Din 10
524738004 Vicezu 0
525748082 Doved 83
525859225 Sic 49
527552181 Dijofema 6
528236992 Noxulim 24
530307876 Vov 29
531712870 Rine 57
531767910 Weja 17
532476512 Feju 75
536152936 Kaqet 92
538054178 Xikebiw 4
538681781 Numol 78
539519868 Meyatar 95
542063752 Xaberi 48
545070090 Rihizepu 0
548482944 Harab 27
550761816 Tolor 86
553285650 Yutan 53
553714562 Bavah 44
554006009 Xusu 15
554762045 Zoqaw 21
555628224 Wug 14
556449092 Tulipalo 45
558191441 Zaxuyoce 90
558239791 Liworeg 1
558846944 Jemex 49
559188153 Xas 7
562180516 Tic 50
563012568 Zoxesabe 14
563885313 Rateqax 57
564152645 Gomavu 51
566242952 Fedixos 51
566676924 Zuq 91
568800362 Noboxeh 51
569098197 Xatafeh 76
569706733 Div 14
571170159 Kovom 93
571639600 Kag 17
573334772 Bur 90
573388853 Sey 51
574197002 Beval 48
575456374 Tofanu 56
575597433 Gaqukoy 4
575644840 Yaf 18
576008313 Vegu 33
580532190 Goja 96
580861623 Simal 56
581084806 Kudef 37
581664708 Cuge 21
581908887 Xemije 66
582054543 Nafuze 83
584129222 Fan 54
584425854 Diz 36
585608326 Sanica 2
589698780 Kay 44
590835948 Ges 99
593388342 Yed 61
594436601 Sihov 57
594918440 Gibuniki 97
594942086 Mamif 53
595665425 Fedufim 51
596111903 Loveto 41
597830500 Fotozu 97
599103758 Hazudaj 65
600592907 Hodusux 67
600684706 Dokeda 92
603255372 Zohoji 90
603618986 Rayeqege 45
604824983 Zogeho 91
606383251 Juwo 82
610515326 Bome 83
611148265 Wayaf 13
618936325 Lepav 41
621061087 Wiciluy 6
621547793 Dotuda 80
623730667 Cimeb 82
624138794 Wunu 32
625628192 Wekimod 33
625822570 Kakup 93
626489922 Dafi 45
626854865 Zamujop 87
627337640 Mowewivo 17
629943990 Neyar 78
631186386 Jetalu 68
631846432 Zene 34
633938975 Wiy 37
640094505 Huye 11
641139173 Vavic 14
643574364 Kuce 89
644885793 Nalelaq 38
645609420 Juliy 100
645724495 Reto 67
646392110 Rih 77
648895303 Huloy 57
651489698 Tuquqa 68
651518968 Max 73
652865441 Cojozu 96
653824721 Genoyile 69
653943160 Tupuw 44
654286851 Xujesimi 81
654452998 Cub 73
654965158 Wanasot 21
658156019 Has 57
661789812 Hix 30
662401656 Fosu 94
665674794 Wuy 34
665702343 Vaz 55
666692442 Cek 88
666875311 Sewoy 37
668288171 Qeka 49
668347233 Xaqujuyo 64
669259006 Luvujob 83
669711322 Bemiv 47
672882451 Rubuwuw 19
674382782 Solalat 10
674970991 Xayac 88
675666073 Cuy 4
675851702 Tewipon 57
675955404 Dowepo 91
677773088 Xudud 6
684473988 Vobo 33
685780816 Wohugo 8
688620070 Yuyice 22
689022153 Xijuyoy 7
689570513 Qibe 16
697055633 Gag 82
698172516 Rijemon 98
702251809 Duqive 96
703615211 Wazaq 16
705024080 Sujeji 7
705337118 Weyem 34
705552683 Wut 21
706916382 Dumoc 43
709468673 Haj 8
709902779 Yuwucugu 13
710391663 Hed 73
711171399 Kuvu 74
712384592 Kuwawu 8
713282383 Deparozo 80
714262304 Vexoq 60
715889212 Yoqekebu 96
719376646 Satolug 36
719530312 Coyo 12
720364766 Woxomih 11
721073960 Wefe 33
723631483 Nis 3
724579777 Mibucug 15
726003519 Quhezuf 85
726382425 Xehakum 94
726621503 Bed 9
727069542 Viva 66
728118820 Hafor 94
728848568 Tinup 63
731431670 Wutina 8
731508721 Sisijade 44
732868856 Cifuxep 87
733192493 Cow 78
733637005 Xuxazo 52
734526154 Pew 34
738346912 Cacofa 37
739915494 Butis 32
741730049 Kokev 57
742445487 Lep 85
744740307 Piwopu 43
745400910 Lohi 31
749320700 Dap 25
749345070 Jasa 0
750036328 Tigun 3
751197906 Beqo 5
752859179 Pek 98
754935309 Vijivor 88
755018287 Meb 12
755943510 Nox 95
760460138 Faka 62
761846439 Teq 65
761993416 Moy 86
762242798 Linivok 23
764700538 Bag 0
766382698 Qiku 17
767256654 Gojoteb 94
773746766 Nay 33
773747494 Nut 22
775104535 Kuv 79
775187206 Vusayos 94
775825772 Kutapo 44
777439367 Lameweli 63
777693780 Fod 35
779260674 Kapu 54
785018963 Yuzoset 82
787708396 Qot 98
788533019 Divoya 35
789878074 Kehitik 80
796302690 Neviciqo 47
796360538 Yomazux 80
798395569 Zayudi 47
798499938 Zoxi 91
798638243 Noragite 75
806466937 Yas 95
806818411 Hahur 66
812407642 Rulefite 82
814716208 Gev 99
815183384 Homu 35
816726637 Vove 38
818776798 Lac 67
820196101 Sevalime 90
821600273 Rujolali 61
822392276 Lowo 14
822816603 Racu 65
823957003 Deziwoja 10
824067833 Cejof 67
824263462 Paseke 30
825958639 Xaxutoce 98
826568933 Pixobor 60
827252693 Weba 18
827403535 Goy 58
828014861 Tupex 98
828163429 Ceyus 13
830265864 Juz 29
830433744 Qul 70
834045167 Neqomot 21
834512144 Redahufa 47
835683346 Zib 98
841032532 Pile 34
842724076 Cog 72
842906316 Jure 13
843921405 Xajar 51
847261784 Hiv 11
848054732 Sogidufe 80
849645941 Bekos 13
851311268 Hed 89
851647106 Bake 71
852500585 Nih 93
854476709 Kotutiha 64
854922096 Yudek 46
856584174 Tavisehu 46
857311495 Wev 34
862695854 Gehatux 92
863871690 Capil 12
863877822 Mihufu 12
867162611 Motuxeno 72
867213858 Tofi 46
869312676 Wajoq 66
869868751 Xosigosa 44
870309527 Quq 86
871153858 Mequwiwa 99
871843806 Fic 39
872608201 Qero 2
872960308 Qasa 47
874171057 Fesuko 35
874996561 Toc 89
876408281 Daxecef 90
881830288 Miv 52
881966548 Mabetej 12
882081551 Verome 89
882708691 Kibiyay 11
884222119 Vafi 9
884785344 Yuhi 70
884787711 Dife 78
885123592 Viyipuv 62
886212804 Pema 54
886450344 Rac 40
887482736 Jiv 85
891064518 Top 22
891739384 Tepaziwo 98
892485821 Wosixosu 69
894847585 Toqici 23
897165652 Qoceyelu 15
897359474 Wawak 0
897949381 God 62
901466637 Jebi 70
904880061 Fapipun 84
906245950 Patoze 41
907422883 Jasaka 33
907541356 Gerip 19
907835591 Cazaf 56
908716329 Gowuri 5
915661664 Zetonu 86
915965988 Jon 99
916355007 Mipit 85
917482422 Loluti 94
918115870 Jutuz 9
922404655 Vomiyito 29
923896707 Ceha 70
926849681 Vucana 98
929012222 Vij 3
931625550 Sijipezu 55
932407873 Bovi 67
934211593 Ziveke 4
937617109 Weqerohu 90
938023409 Nazezum 92
941812438 Boqiku 43
942491507 Ratez 34
942886274 Fuxutoc 69
944363562 Guneto 0
944877194 Kovotay 27
945018784 Babipede 12
945524785 Kaw 49
945876907 Zohecoku 21
946349252 Deke 49
948558347 Sayad 50
949189675 Ritoruwe 87
949715913 Sezobuyi 21
950128388 Mivonar 88
951650750 Guro 75
955681871 Celoy 52
956102113 Yupatox 61
962005099 Sataf 25
966595849 Piyozasa 51
967136159 Kawiziki 33
967777026 Yaw 34
967878040 Vatu 46
967985758 Losixax 5
969640737 Wave 76
969786670 Fom 59
970546081 Teke 41
970644918 Bison 67
970768244 Vobula 49
972400017 Dahonas 29
972620372 Futufodu 35
974019465 Qevuy 92
974673968 Kasib 31
975078751 Lala 32
976796886 Lovahi 73
977304504 Fap 55
977880179 Sud 50
980067175 Jixox 52
983206726 Pihuve 89
984461559 Qoga 32
984829441 Hutomuw 18
985645856 Yusugih 34
989610535 Solawo 13
990604800 Sudobof 64
991806266 Xex 46
991993835 Puw 77
992803131 Wigoreg 47
993725664 Zemow 56
996551999 Xude 65
997267359 Xugafaj 19
997992595 Tiwore 78
998229060 Ziwubu 6
998463762 Pib 9
