482
918846 Wiru 97
1199548 Vinupid 18
1914189 Xice 0
3775148 Dojihula 34
6738476 Dep 6
7559039 Dowuvaq 8
8524465 Wowoy 22
10243765 Mureso 63
15719830 Hagote 97
18226712 Fon 78
19245306 Zibogoka 85
19295341 Toze 84
20503332 Wodi 7
23647458 Vol 95
27977735 Quvekoru 86
29677546 Rosiwoma 46
31075185 Hizovinu 99
32934849 Donucit 83
34213324 Merih 75
37722881 Wopikep 81
45473508 Hote 24
46817889 Fecexo 35
49315638 Xaqi 80
49562938 Gihixog 4
49768340 Vopoka 2
54320883 Sej 16
55063061 Cosow 88
55197566 Heyi 1
58380317 Rayaqeyo 41
59152218 Xatoma 62
64122015 Jol 49
71155810 Yuqov 66
76932188 Hetoso 9
78251243 Zudu 84
81935488 Wofekoti 55
83223528 Liz 3
84425749 Ciy 96
86444556 Sake 19
86486297 Kogi 37
89596659 Facariw 86
89683490 Dizefab 38
89868337 Yojakaz 55
90721448 Xihuquse 62
95635801 Xiz 2
96902096 Quku 95
98215252 Lev 46
99271742 Zot 80
101937256 Nifu 24
102161861 Deju 18
104084592 Qujeso 58
104165098 Gijaq 32
105825672 Cegu 86
106456878 Qomi 11
110161407 Morodi 14
112586319 Zehawibe 28
113448849 Wideciq 62
119021072 Mezem 82
123398731 Besol 21
128193293 Mibuq 77
129271389 Turamoyi 9
131167592 Tebap 12
135021236 Vetayexa 98
135581660 Feraq 70
135860065 Kegayabo 63
137258674 Woxuja 84
139193136 Doju 6
140699206 Vizofu 81
142186543 Petis 15
143038355 Yiyumaq 48
143862057 Halon 63
144125266 Vinabu 95
146120201 Zub 97
149784194 Nixu 17
151126659 Xop 49
155087366 Tebipux 70
156844800 Worovifi 14
157023815 Zunucebo 82
160380586 Canij 56
160930767 Lanu 97
166262395 Six 20
167378849 Nitapodi 15
167968935 Bayuku 0
168750665 Siy 5
173209180 Berareha 61
177529567 Wow 24
183388977 Rub 7
183544018 Jicomi 17
184355037 Fiqiba 81
185755493 Zucuyey 76
187283788 Qifici 7
189928912 Qaw 33
191307780 Zijev 31
193181881 Nice 11
194431593 Japag 33
195457483 Mutoh 82
196108618 Cavo 35
198274772 Lexuyig 17
199028221 Nivuye 77
201553923 Nog 69
203256178 Jiqozeto 3
204135647 Gec 87
205342862 Ficebami 97
208065431 Bafa 52
209772335 Cewede 59
213954370 Paviqabe 74
217569958 Peniqi 58
219546910 Qujihiku 94
221109666 Macajovo 9
226510121 Konewah 55
227673266 Bosupo 38
230627632 Tipinopa 54
231128785 Nahi 97
231137637 Lijufuxu 92
231875381 Wer 51
232724102 Copubazo 28
233215925 Qanem 44
234870905 Jubecu 90
237270736 Miduyezo 91
237612552 Banot 41
242436965 Waxawovi 78
243690500 Lokimam 67
246031838 Zividiv 12
249463515 Biva 24
251615374 Loxisuz 43
252587992 Daqozeno 52
257698230 Jaquyeq 38
258400091 Gipopa 35
258999202 Vas 5
260966805 Yac 81
263989974 Tuha 54
266287997 Guq 57
270211508 Cuyedewi 1
270513100 Mob 27
273923464 Qokaz 18
275887141 Rawesi 59
277221646 Zih 62
280706508 Veqala 58
281142528 Yewo 94
281321036 Woniye 1
282812945 Geg 96
286056076 Jafe 77
294631932 Sipiti 88
295865940 Jafa 50
297210329 Zokod 96
298353150 Sira 14
301923065 Pifota 93
305016302 Gucol 12
305038622 Yofilof 9
305288461 Buqisu 68
305684215 Poqoziso 62
307599156 Wusupeq 99
308085642 Varezi 18
310342277 Mikihaye 24
312392363 Yoza 87
321577759 Hazozabe 89
324071938 Sidan 36
326945154 Falah 66
330853133 Ded 78
334087389 Kosunucu 100
335464541 Hafu 86
336852880 Zot 99
337092408 Bidi 40
339620736 Jagatar 27
340620964 Rixocu 35
341301375 Xaqixisi 97
343125487 Xiqopowa 60
347643686 Wimon 3
348221207 Fayehuwe 5
348423307 Xawu 87
348693571 Feqa 10
349846271 Yebehuso 51
352625644 Vocojumo 86
354609968 Wub 92
356435586 Vinow 95
358344264 Qaje 96
359663553 Cagibov 37
360438581 Gubewi 14
361297504 Wihe 68
364794598 Wut 26
368965771 Mobe 89
371028713 Qake 71
372306238 Xama 50
375942922 Gol 54
378643611 Mihot 66
379693977 Pucuy 100
382365424 Vudarera 78
385953982 Sowehu 100
387250767 Cubudisi 6
391177978 Diz 92
391699239 Dud 44
392799045 Gigujeda 10
392940373 Miloje 49
393288906 Cosel 96
394089802 Kohane 30
401772259 Dekayage 72
401830316 Rajupew 41
403433648 Divi 37
404436335 Giliruy 73
404804169 Hox 50
406623663 Yadapiq 6
408269319 Kahicuv 39
409363332 Qicapor 91
414781218 Xido 59
415526477 Jujakof 14
416523067 Kanome 78
416823133 Pebiq 53
417132954 Teheqosu 77
420082970 Povomiw 47
428810749 Pix 72
430380805 Wogasalu 23
431542502 Tuw 34
433933146 Gas 63
442690307 Guy 56
443067868 Fek 28
444062085 Lafidigu 28
444159810 Net 12
447886880 Ter 98
449821329 Kexogu 5
452534755 Rib 81
454340344 Yifazoma 15
455596805 Cewa 39
455607500 Paqojec 75
459714350 Lazucin 50
460497973 Gocayat 43
464471077 Dev 98
468130267 Sigacox 18
469269580 Xozadola 60
469507956 Kirika 10
470462654 Jase 38
475429044 Bef 36
477978342 Deli 47
479527892 Tug 1
479601010 Vegage 23
485897740 Yadun 24
485903732 Somakeya 92
493089720 Nobev 65
495043237 Lerazaf 4
496163479 Furevo 34
496255371 Mosi 100
499083212 Wisonaj 26
499131333 Zonudo 34
500028287 Doyopup 32
501067773 Zuvejaj 18
502364846 Wemicac 53
503727578 Jaze 88
505706094 Bosus 4
505774992 Gamelepe 54
509137874 Foni 64
517224843 Vicogij 40
517474124 Gekoqo 96
520628547 Xupiji 59
525411130 Nox 27
527417925 Sofabap 83
529511019 Milufiq 97
530288725 Wope 80
532228082 Jaguzi 16
533447479 Hosuz 6
533607523 Vahurabi 70
533629077 Yim 43
534545019 Radi 49
536533358 Miduz 89
542264366 Keb 47
542698138 Gafop 87
546515872 Panuvigi 83
550403887 Qever 94
553048020 Baqux 81
553814355 Tuhekima 52
556580692 Veha 59
557966267 Tuz 63
560740612 Yunuwire 95
561488891 Xehotu 81
566451661 Rowusoq 67
570171801 Dopudomu 24
570896580 Loxoqiqi 40
573382459 Kis 35
575421062 Yodaduw 74
577191779 Buxaga 61
577964158 Wawoxu 99
579100029 Zip 44
586490328 Taki 30
587616096 Yewud 24
592635452 Judu 42
592745168 Zepo 8
593293411 Dudesube 4
597531463 Zubani 40
602755937 Yotodo 61
613009600 Netaco 100
615132398 Sajareh 63
618231429 Yez 54
618766947 Buca 85
620303472 Necukez 55
621032281 Fus 85
621425434 Jifalo 72
621795699 Nuzugipa 97
622393244 Jabesay 55
622481621 Vedaxe 43
622774980 Qox 59
622846635 Ziguhoji 40
624749338 Ditasi 6
625441335 Wil 37
627729739 Juyev 30
629353037 Revicira 21
632566789 Nis 45
635914243 Xuloder 54
637566879 Zonasa 11
642425688 Jef 89
642559239 Napasu 27
643647940 Zen 72
644597925 Weyi 67
645249570 Tegig 62
646779608 Kobace 96
647531105 Yohoveza 27
648847064 Hoduk 38
650838171 Zaqowu 77
652696331 Jabutig 5
653796573 Mukiw 47
653842125 Puc 88
655292131 Zuj 79
660210689 Papon 96
664592926 Hitux 40
665436521 Pir 25
667904965 Fem 17
672528447 Rayocek 9
673552901 Nevowi 61
673655910 Zidel 57
675821587 Zuveyax 17
676654124 Vikove 28
679326746 Fuvudowa 83
680621341 Cavege 47
683441392 Gezomi 8
684817488 Tuhebo 59
686681065 Yefako 41
687015667 Vacu 47
687263133 Qeq 64
688208681 Mozume 2
691529437 Gilim 78
692721562 Gewuwowo 82
697348581 Bukiguc 24
698416129 Nule 20
706396041 Wojinoda 26
707648837 Bajajag 49
709376700 Gukazi 13
710347162 Jifoya 93
711437607 Ban 65
712287351 Viqokiy 65
713857562 Docuwili 92
717720709 Lid 52
720029824 Yobey 71
721078372 Bumas 52
721377947 Kuwoda 19
722075317 Qavariwi 6
722956232 Kibo 57
723972489 Yoxahe 62
724146137 Zamobek 34
724372057 Neb 35
726347052 Kegewiva 13
726999417 Fiwuwaba 72
727604929 Cekik 71
728535195 Key 28
730116939 Fakus 3
732249243 Mihi 81
733366755 Mur 37
734051919 Lema 35
741764156 Kasop 42
745989667 Risiri 66
754175179 Meqikeg 79
758808052 Geyezoz 29
759412285 Kagigeqe 15
770505346 Gus 8
773879513 Dizes 48
774295157 Savu 20
776789225 Rakibani 7
780392743 Gafo 89
781989567 Wir 63
786472353 Zoyar 11
795942210 Red 100
799183560 Tirixe 94
802770721 Mekek 14
803981856 Yodi 37
807397159 Pet 72
807405413 Gibot 32
807693551 Kedesute 100
808927328 Viyaxur 66
809980375 Guripah 37
811160850 Vadita 47
811329059 Vesikom 13
813173544 Tehibi 21
813300551 Wehifi 11
814499194 Kep 27
816716747 Qoferup 57
816758262 Lumehax 24
817199541 Foqudiq 35
825707904 Fubulifu 38
825827796 Wuh 59
826040971 Jaduc 91
828118457 Cosox 2
828632096 Fiwav 3
828664328 Mol 64
830782991 Yasa 53
832412097 Rocap 41
834393302 Saf 68
837509156 Quko 68
839102906 Fay 95
840123164 Muvavoc 75
842568739 Nuresac 48
845042923 Vodo 16
845234755 Fufamuw 98
848022282 Qejeyeb 95
848498691 Kome 93
850842629 Pujebe 93
852477742 Daqibo 74
859613375 Cuwiko 28
865605942 Kutiyude 52
866337508 Tidil 39
869902542 Hoz 80
870404568 Gov 94
871110320 Kufo 33
875805122 Pelejaq 71
876055839 Kevoco 98
880260191 Noxebo 48
881133104 Laneraro 43
883572649 Detekut 62
884001413 Ceba 45
885348149 Hom 54
888774889 Giregeq 26
889854515 Mux 29
890324040 Yizili 26
891530634 Cizah 81
891619522 Haliwira 52
893425929 Lif 4
893834590 Qobipela 43
894825772 Zekoq 67
897254211 Xukiwavu 26
897608057 Wevesuc 4
900132666 Pak 33
900963357 Vozimal 83
901761562 Zaseyi 49
902420290 Lapim 89
905722750 Zap 93
909941158 Nav 35
913630777 Waqubop 35
916561386 Mufofi 23
917135059 Ludasa 84
917472721 Gato 6
920324436 Fiz 7
926393996 Huruju 28
928266202 Qoti 19
928918480 Fegera 78
929493772 Gimofu 94
931277739 Jadoy 25
933014256 Mobaretu 28
933231775 Lujuyija 26
933751607 Pegisis 61
936450297 Foqog 24
939282964 Dape 48
943621594 Ratuyu 50
944866209 Vuyaxat 85
946320659 Jof 100
946846276 Zay 86
947940646 Kubuqulo 21
948425019 Mif 11
949103260 Bezah 32
949573190 Cotisol 54
951690289 Zatalu 26
953418554 Sim 62
955723158 Belap 5
958061901 Vozira 7
959237307 Jawa 12
961295890 Gewap 57
963570416 Xurul 30
969305825 Zajuyabi 26
970923843 Lab 12
973813321 Quqakok 8
981816784 Hoyexox 23
982361927 Jiqana 15
984180670 Nupi 5
987144955 Way 82
988535812 Roqayur 3
988920948 Buvijixe 48
992466579 Yadi 28
992743148 Befohi 96
995229669 Zedekuw 76
