891
878 Wolavu 68
2720706 Sibahi 93
2859053 Wozi 69
5001876 Nexaro 89
5919396 Xoxohaga 82
6699214 Qavem 40
7013545 Tujilaxa 60
7618312 Keled 70
8023211 Mejob 66
9017239 Vale 38
9990212 Gikobuco 33
13448611 Widu 96
13493227 Quc 70
14234839 Pitukic 79
15000745 Bamaca 8
15566927 Witulala 99
16197126 Kufokugo 50
16540194 Cotasanu 36
17456420 Wasekevu 74
18866235 Watilofo 35
19651831 Tola 95
19944273 Vexupec 97
19998681 Gowol 34
22020858 Kaso 60
23346728 Kuzoxe 29
23483952 Keravo 38
24510081 Seneboxi 29
24981003 Dogovegi 9
27221914 Tiwono 77
28160063 Meyi 33
28313610 Cejavar 99
29045237 Mukaxe 55
29293694 Hulifuno 82
32756425 Neqa 80
32949716 Bub 5
33766397 Qakazoh 83
34514450 Tojih 36
34782343 Qas 89
35164278 Vedorey 1
36290753 Socu 18
37442255 Xocowuc 67
38118646 Vure 14
38304931 Zupukajo 85
40695852 Jocatofa 68
42675461 Haganeb 81
44318168 Jam 29
44620803 Xihaluwe 13
44626498 Huc 17
46006022 Sivoqeso 84
46644801 Baq 72
51420004 Kexexana 10
52940134 Xata 50
59046712 Comeper 100
59844787 Fupojocu 41
61226262 Gaveyiy 5
61326388 Req 34
61529117 Raxomay 60
61554706 Foxufow 39
61813260 Giwebako 14
62248855 Letefo 47
64291722 Ronahem 8
65976784 Nub 25
66276023 Qizefum 4
67104407 Jojenavi 12
67344298 Viyivecu 64
73025295 Mul 30
73591608 Dumi 1
74262141 Rijuqefi 38
74433885 Mowuyofu 5
74750104 Konigexo 13
76599101 Muduyiqe 64
76819957 Beqoga 15
77052561 Diceweqa 64
80815067 Hexujetu 87
80841774 Ruvukal 21
81236006 Xazo 99
83546996 Put 92
84316551 Zakotoh 10
85744628 Loxaqubu 37
86355779 Xatuc 50
86952553 Dopuyu 64
87922246 Cicem 46
88052777 Xacotiv 62
91614714 Suke 95
92382473 Xoyasas 55
93301109 Lukakik 55
93858004 Mimawi 18
96384407 Qiwa 68
97034997 Volujuvi 80
99077164 Ketabas 22
100776273 Niw 23
100878527 Poqogu 80
101351934 Puqopof 34
103813779 Zarene 92
103884650 Vamep 95
104072106 Qukubiv 73
104851192 Xolorozu 19
105311094 Qoh 27
107253580 Zeci 61
107786641 Juxom 63
108039292 Juwate 74
108588948 Wodavewe 87
108881557 Cah 77
112353925 Puw 61
112773686 Kub 59
118850983 Qejiqumo 66
122210756 Cay 42
122649855 Yekazelo 20
124306121 Rofaq 23
126396838 Badigavo 10
128260141 Buwoj 3
128278828 Fiziz 68
129381778 Reqatoti 19
129712230 Sor 17
129972296 Guhovavu 74
130842945 Cod 32
131144393 Lama 27
132541109 Kumis 65
135607701 Kabutowa 75
136110458 Koleyup 86
136919202 Cusaq 67
137323158 Juqor 68
137935255 Bav 44
138701968 Lidanuq 48
138702499 Zukigunu 13
138998708 Vifiva 21
140714895 Yumavu 37
142486991 Cenazaho 26
143752314 Fiqic 83
143949265 Setofa 74
144575982 Xoga 14
146282486 Netet 47
148898517 Belaban 5
151964084 Qorotubi 86
155223352 Qihi 15
157467431 Xupasir 3
157545108 Qurebih 40
158431479 Dicav 52
161743163 Wixekizi 36
164240367 Hehigi 50
165998367 Kus 63
166298914 Rarer 9
166917924 Hot 48
167380566 Nici 7
169289127 Nise 34
171927866 Yoka 54
172292021 Komare 85
172432827 Qedeye 6
173363559 Yifucim 71
176422160 Nibat 14
177420828 Niqi 69
178219603 Zosi 58
181709589 Puho 41
182600085 Jedeniwi 31
183531410 Gaq 94
186412789 Zayezobo 96
189229232 Pudu 88
189284057 Hos 32
190215248 Jak 78
191925610 Dicorer 26
193374696 Pexeg 34
193676152 Guhij 56
194081663 Taye 80
194593536 Din 40
195065556 Jimaq 8
195867654 Ceq 65
199049958 Pilofe 58
199201842 Ruboka 58
199926955 Leqinib 77
200289642 Cudu 17
201952120 Mayovos 16
202325304 Riv 94
202812024 Mit 5
203157238 Gaz 100
203917639 Haluzofi 34
204349946 Fal 52
205811344 Fugan 82
206477558 Tuhuce 80
207155179 Fuguwak 44
208071514 Hoqasiqu 30
209150166 Fuxugof 69
210179077 Tiwujaf 73
211966599 Pineru 94
213068011 Zikube 35
213817739 Hicano 13
214312862 Puyeqef 25
215380750 Qowi 70
215603844 Jey 16
215651849 Tovoruba 30
216134375 Licezo 19
216410224 Yufedolu 41
217564018 Ququs 94
217953992 Mogifo 15
218257600 Fupuzeb 67
218798317 Pohat 86
219950909 Muji 57
221398080 Puqoma 59
223197917 Qoyaqo 7
224477904 Vufom 40
224488422 Mom 80
224811332 Jebage 13
225939996 Dadi 19
226543006 Diperi 49
228193453 Zav 52
228790570 Supibiru 20
228967033 Femiw 57
229188954 Lunomebo 100
231492459 Maxavo 81
231614574 Huqono 57
231880227 Puj 95
232223151 Xeyuwa 61
232455167 Jatoyu 61
234298926 Hukuva 25
236201173 Kalonu 84
236772715 Suq 13
238910757 Nizayiv 4
240505702 Riyog 79
242210269 Vuzaza 69
243254960 Gibipow 49
244252869 Rohasobo 14
244619292 Tawuqilo 100
247706499 Pupa 75
248729890 Waduwuv 28
250815243 Newa 0
253928190 Wufir 92
254542830 Ceb 82
255777499 Yane 73
256476024 Xomeya 19
257251399 Col 90
257290327 Fiwiwec 81
257616382 Hujod 68
257985830 Xuh 11
258244461 Bamezita 91
259121775 Xerozi 57
262443301 Xadasax 56
267013135 Jojakapu 82
270118224 Zegip 22
270704409 Raz 25
270873693 Hurihi 26
272691751 Yuv 77
273242715 Hojapu 27
274435025 Yuvahuwe 11
274779104 Tamagozo 82
275014285 Giveso 84
277437574 Guqobiya 92
279812160 Serud 34
280263686 Pode 100
280300411 Rotomat 61
281667588 Tevoro 36
283206505 Dal 23
285845999 Mufuqu 81
290541782 Sej 97
290587740 Qipe 2
291737045 Sur 75
292567826 Xonirowo 43
294296999 Winoneg 56
301219318 Cihoveqi 93
302397432 Jehawuj 97
303672356 Colaw 8
305396684 Xoxah 75
306845897 Zoyafap 95
308149509 Cihe 58
310191591 Rateb 4
311191240 Kobut 1
311924582 Vajux 81
313935017 Kizofo 87
314066994 Deb 90
315101761 Navefi 27
315483435 Gof 67
315756476 Rogogowa 51
315757058 Jojah 4
316921843 Golu 50
317660785 Bun 64
318347842 Woz 21
323209891 Wazo 64
323492396 Wokuf 69
325188278 Tate 12
325783934 Baq 17
326851242 Jahaxu 28
327107780 Gekexe 57
331457629 Cekumi 9
332009698 Hizow 89
333280079 Caje 43
333358832 Cad 3
333860077 Ruger 11
334423904 Wajaq 84
334585235 Rumopod 78
334695400 Wapezay 65
334751390 Pij 11
334985530 Leso 43
337195802 Qeq 57
339310283 Ticehoy 43
339486151 Qibovi 98
340687009 Maxazex 45
342238966 Fireceyo 57
342964950 Xacequ 72
343094917 Yisek 100
343474053 Conatiho 66
343874580 Heboye 45
343988312 Niba 60
344507613 Damupeb 27
344739630 Xiqe 94
346091768 Jox 45
346169580 Ziyepa 1
346784822 Cotume 87
350277656 Gigahipu 50
353401402 Kipij 98
353699571 Pamucaxe 93
354486910 Gawuduyu 10
354974486 Monowo 16
355947062 Curo 32
356668304 Piyakowu 34
357125385 Qicugov 34
357904842 Hurohuji 10
358260379 Tis 75
358682740 Kewofiso 45
360524141 Farafaro 89
363060124 Qaq 31
363466020 Nanun 96
366362642 Pivi 98
368140028 Ximimeli 76
368535665 Keqemali 19
368831523 Fosi 8
373205477 Pihedus 14
373567588 Xukawa 55
375776804 Nayujeja 97
376113001 Mawozi 48
377740159 Zumip 73
380598266 Zib 10
381998908 Huxiyego 14
382855912 Suvadeg 8
383559848 Nere 85
384396296 Jido 74
384486100 Hodosa 19
386202818 Carelasi 81
388814350 Xeyej 6
390802881 Jesoyi 96
390870537 Nipuc 2
390936558 Rac 60
391077387 Zesuku 25
391853665 Vimaz 76
391974578 Qusa 68
393028581 Yofiwu 45
394023312 Pocaxa 24
394340481 Lebijo 44
394373588 Jalibif 13
394547852 Zakazev 43
396093142 Nurobay 42
396270191 Siyutopu 35
396504397 Pen 75
398080024 Xode 51
398362241 Mepa 49
398450900 Yehelafa 0
399670328 Hixuqo 60
401292388 Dapowic 92
401399241 Tiq 64
401461230 Hudasovu 77
402058967 Cujupah 48
403215681 Zenarale 19
403230168 Gaf 94
405557964 Yewe 63
405714994 Cibabifi 100
405886576 Zif 39
406073216 Bebezox 4
407456319 Temomam 72
409858217 Noqo 20
411144815 Nohimay 60
411465387 Fugom 58
413505832 Luqil 29
414966284 Suqeyagu 55
415710261 Koc 20
416605215 Qunecu 41
417417373 Vexukufu 88
418993003 Naqapudo 31
419690443 Votamami 48
420057635 Najo 15
423484736 Dusu 61
423809718 Wosa 64
424502576 Noj 24
424561035 Vojoj 70
425020023 Falix 64
426111512 Podijal 82
426618343 Digepuk 63
427903332 Bez 36
429917698 Tinu 43
430173902 Xixulo 97
431316839 Hajoboh 86
433170149 Redarel 96
433718636 Mumelala 96
435556004 Zerava 31
435807589 Rata 60
437348076 Leqegaqe 68
437406962 Wunoz 39
438580146 Vovis 78
440807909 Bilud 32
442746130 Sexe 33
443616794 Juta 54
444396202 Busobufa 3
446516591 Cogi 78
446660236 Xiva 90
450696096 Cemi 20
450887815 Hajoke 15
451342451 Gupi 9
452325556 Humivob 34
452782535 Gexet 78
453165368 Ponehav 74
454282761 Foru 40
455337976 Cotohin 72
456375451 His 91
456557482 Muhujaju 71
457410927 Kixate 10
459838104 Sewesugo 27
460783515 Tet 22
460930108 Wiruf 51
463710878 Dayufaji 47
466815934 Cij 28
467268784 Yijabiba 23
468670152 Pesuro 14
469380497 Gagevib 46
469468359 Fat 8
473501550 Yut 96
473657507 Tikelequ 99
476380955 Ziforaq 99
476969749 Levelux 73
480301131 Gif 87
480440297 Mav 11
481505245 Vubexus 86
481523811 Wavaxeh 7
483054805 Zeda 22
483208251 Hiberan 76
483952192 Cilifoje 26
484483922 Xahumowo 24
484718971 Minakoj 59
485286920 Tili 17
486095146 Xatiqeb 37
486299939 Puzitah 68
486845319 Taqigax 78
487926533 Doraxicu 69
489137060 Xuqovi 25
490518190 Duxuj 6
490563019 Kece 53
492301819 Dobequla 6
492444797 Serono 53
492560382 Tefeba 71
493170413 Xijo 14
493363512 Ceq 27
493960426 Pibukiw 68
496469178 Lewe 30
496559199 Quku 70
498574536 Yafom 13
499489030 Gusokaza 87
500428591 Xeve 34
501265202 Sifuyuf 62
502902974 Veruruh 79
505376827 Bus 72
506207894 Gadivoda 41
506847870 Sene 27
507535069 Hojepigi 36
508432904 Weliw 54
509280080 Hesap 65
509738286 Yoqu 80
510177135 Cizivotu 37
510579977 Xewo 15
510848318 Yoneru 77
511010142 Yob 40
511302230 Pehoc 0
511584677 Tuterawu 58
512043056 Lete 73
512538493 Topemoge 47
517173590 Puki 18
517672769 Hajerif 45
518137815 Dihawusu 17
518350519 Nerafi 39
522865165 Jamupoc 41
525891846 Fixedo 35
526590646 Givuw 35
526880366 Boci 26
528357787 Nupowog 10
531275449 Huz 47
531874074 Cebap 75
531958343 Vacuz 84
533786626 Wehokowu 40
534582840 Nec 35
536177964 Niqajoma 21
536224506 Tequq 20
537196562 Hoz 42
537495611 Porapuyi 23
537801472 Vic 22
537819074 Kiso 53
539324453 Tivaqexa 18
541201576 Mij 42
542713607 Fojuyal 6
542927142 Sehesa 96
543224317 Suxavopi 13
543640881 Bajo 93
543678521 Zamit 8
544146912 Vuqe 22
545245849 Nilet 33
546418500 Jeb 73
547858727 Nim 63
549400190 Giterexa 16
549542434 Miwegi 77
550892645 Cayu 32
552416822 Zebedel 80
552458477 Kudobi 26
555383963 Cax 28
558339707 Dis 77
558913911 Piqagu 58
559870363 Qin 82
562258011 Wuley 18
562344191 Yarokoyu 6
563170626 Xeg 39
563754512 Pofohon 88
564443353 Zatagub 54
566311682 Jayitoke 42
568937275 Sures 36
569208789 Ziq 70
570430791 Qelut 32
571094282 Some 57
573209742 Cal 15
575134214 Nasim 82
576932146 Feruko 84
578040362 Yozocaq 90
578272470 Qezoqul 35
579056296 Tatefu 10
579219727 Feyug 23
582002354 Togoz 39
582391689 Dusalo 48
582436289 Duzopot 54
582734627 Tadefo 2
585140595 Zik 14
585967528 Tewugi 55
587693460 Yiz 41
590907203 Zam 49
590939586 Siviyag 69
590980631 Gebok 47
591789421 Vuqalese 78
595742922 Zoze 14
596211520 Birezu 79
600344063 Koga 2
600880466 Cabiwib 3
601013122 War 66
602962700 Luveyeci 44
603892839 Zadijena 72
605572066 Kolutuce 61
606163621 Kaziseyu 69
606422955 Dulujeh 93
610279468 Tujira 95
610505901 Wuw 30
610638503 Wuroyac 13
613170431 Gup 33
615317079 Nesutib 25
615615259 Komafe 30
618561556 Wez 61
619970723 Sikize 1
620114589 Veranew 49
623163784 Win 0
626977659 Rerofu 72
628248490 Fozihej 21
629321157 Fetac 26
629408375 Cimijusu 59
629736079 Yeda 84
630352125 Qenop 96
630512052 Qiqe 37
630849457 Palexuw 14
631190882 Koroj 13
631495312 Jokoyeja 65
632977687 Giweb 64
634129785 Wiw 92
634357392 Hefabiv 94
635070440 Pequxi 29
635087268 Duxeqan 21
636347009 Jen 34
636520222 Lijom 17
638034243 Rigiqe 94
638494019 Moh 21
638611216 Buturav 53
638922778 Toriluxe 46
639313127 Xadaba 75
640287385 Wafiki 5
640337862 Xopaqa 1
647476190 Rotizey 50
648194150 Jet 79
648280908 Gekawozu 42
648960043 Funac 73
649949159 Tuzo 33
650477225 Memetife 43
652820663 Xaho 96
653040869 Yomen 37
653897615 Zaxoxov 99
654059020 Ruhirix 18
654143453 Jidave 12
655077260 Zuhozez 60
657157945 Jiquqi 73
657727086 Pavex 88
657836173 Pacujeca 93
661333772 Pefedox 5
661535781 Vopusik 55
661881332 Qicuj 73
662768517 Jan 24
663441608 Cuzuqo 38
663787195 Goqu 34
665719894 Rihi 20
666358808 Ley 66
668208043 Quy 3
668918025 Teqizi 14
670008447 Zugivaku 12
672367879 Zelo 36
672730093 Yos 51
673696550 Febimog 84
675824127 Gah 92
678426060 Nuyeguh 52
678724503 Huw 69
679579990 Qoyowik 5
679901230 Yavijab 100
680285671 Rec 42
680677858 Xerejen 89
684952807 Raga 98
685819893 Coyot 99
686800632 Webegab 24
687461205 Jireji 40
688397302 Toq 46
688952468 Remamaf 70
690571736 Dup 10
691074247 Veg 42
691265811 Qupiniw 38
691684334 Firofud 32
692513243 Gapi 51
694132996 Hej 59
699784018 Sim 38
702132063 Kuhajike 17
703103855 Yajuja 24
704984637 Wafabi 65
705468511 Bikujafo 10
709131215 Celoj 53
710311658 Lerov 98
711445523 Pusi 55
713001689 Denoke 50
713255280 Xijeduv 3
713703916 Kemuqe 45
713940508 Binekiq 4
714709953 Bawaqiv 77
715167915 Mivi 22
716942462 Judekaz 0
717663867 Riwo 48
720434934 Hikucamo 49
720792080 Juvevo 98
721111712 Cim 18
721886826 Qohuhoy 37
721974166 Ragowila 6
723127343 Pesi 38
724841435 Duzawiq 16
724850803 Mana 80
725702443 Hefu 57
725872376 Kedovube 1
726457109 Wobajita 1
726510791 Camo 63
726779459 Vux 54
726995700 Xevage 85
727076787 Mika 83
728946664 Taroruy 60
728999618 Juzuhov 44
729323317 Satereli 61
732669672 Yemopod 25
734600123 Beta 68
737664200 Geyiqopa 42
738697096 Qexulew 91
740710955 Wekaq 72
742135307 Loqizeb 77
742783512 Weco 74
744208878 Hama 15
746067389 Bav 83
746289517 Tovo 72
746872230 Xihiz 16
747931804 Xovayo 14
748801145 Kibo 8
749734583 Numukes 84
752533985 Sipedig 77
753906680 Qul 18
754755600 Pum 73
754973659 Dokuha 70
755085074 Redota 9
755614500 Sixun 8
755812201 Xocal 81
756554300 Moyix 13
761236546 Dazo 26
766058034 Sokuw 74
766290953 Kope 81
767106149 Sisu 3
768298847 Jipipo 80
768567916 Konazeze 47
773414199 Genew 59
775115126 Wugu 54
777241751 Zosaje 50
780082765 Geg 71
780737159 Nucoduho 49
781541230 Gufobopa 46
781560206 Qogaqimi 89
781660702 Tebelaw 70
783223693 Tanu 35
784207847 Fajic 55
784284441 Kizezuge 52
784611107 Lon 67
787084566 Letucub 34
788327782 Culipoma 98
788819238 Duj 60
789654714 Tok 59
790394835 Dizo 22
790888166 Baf 98
790919802 Baxohat 8
792363369 Xoqol 97
792776679 Gosa 72
793509433 Hon 50
797607814 Codate 62
797780433 Hiy 47
799049910 Nake 29
799641759 Cusole 71
800524100 Woxoziwe 95
801543993 Hena 89
801795776 Ziv 36
802557020 Xidu 29
803788076 Wopil 73
803972776 Cemobor 26
807965291 Hanono 24
810230107 Bejosad 25
810350458 Yusaxir 44
810358101 Hotemaqo 36
811361771 Doxisopo 75
811541907 Hicafoz 71
812272035 Yow 1
814676880 Kuqe 47
815087344 Haluk 76
819167420 Yurosipo 30
821053769 Gono 19
821260945 Qiz 66
822574328 Yuhula 43
823953046 Mexife 74
824031262 Pafera 18
830193728 Biqen 100
830373252 Boca 46
832423621 Gome 56
833071463 Jev 51
834488276 Bevit 17
835317583 Hariyo 10
835953575 Dewu 3
837743489 Qijubo 71
837932533 Velif 51
843574032 Duqa 60
844329371 Tule 68
844864044 Mobewaq 12
847217579 Sab 2
848702794 Huyas 82
849845673 Gob 5
852881874 Waruyu 94
853046633 Bezezod 68
855798260 Mido 7
856323743 Mag 15
858046250 Virox 61
864358597 Resegot 27
864572703 Tebudasu 53
866051560 Sicoveta 81
866931509 Qaf 76
867314997 Des 39
869919116 Qom 92
870389663 Meye 49
871500387 Rika 28
871581571 Goriqej 30
873176090 Cefer 43
875074621 Sifepi 58
875334252 Qixuke 32
875383483 Quv 6
882836685 Qoc 42
883341787 Bilukiw 27
884751753 Xevihaw 99
884974890 Vilejoy 23
885726768 Qozac 76
886694308 Yiguvor 20
887478150 Yuq 61
888696137 Jaxiwode 32
889385285 Xeyiret 30
889424323 Hano 81
890116950 Poheveti 3
890599745 Yakojas 55
895222671 Yez 34
896446695 Hafe 27
898001845 Mawigipi 30
901149520 Nijusete 0
901780688 Curuwus 9
902023868 Wez 60
903471588 Qer 8
904319363 Mezohobu 72
907691764 Jasegoya 19
909175750 Vapivi 97
909956876 Ziyise 53
910153017 Cogeco 79
911499720 Hujif 32
912830242 Tezure 90
913481959 Wuzem 42
913715469 Hab 9
916704666 Juted 46
917012498 Selegude 58
917396788 Lem 37
917599311 Jof 70
919866961 Mifube 74
920914085 Vuda 20
921221416 Mamo 11
922195470 Dowo 95
923078019 Riwiv 0
923844023 Yeg 49
924522856 Toh 83
926879273 Supo 32
927831054 Savuqisi 74
927924845 Yoyu 28
928480394 Lewiwe 11
928656371 Lipum 63
929597485 Borediy 40
929844801 Juroz 84
930132243 Sazafeh 0
930174906 Rohu 25
930531599 Kad 83
931145252 Xuh 30
931877176 Baqinod 77
933135446 Newojow 38
940875647 Lam 71
942118580 Suzezew 68
943452583 Riguhuhu 79
944408265 Macunaz 24
944980318 Nuwisoha 98
946464724 Mukeqe 64
947287354 Degekeqi 31
947708438 Sibe 86
948999213 Hej 44
949036422 Poj 91
949484612 Gicid 67
950545227 Yowob 63
951590863 Mut 35
951766982 Vihowazi 21
952508302 Tebapudu 45
953480367 Moqetih 74
953714005 Faxapuju 13
954992671 Dexozo 74
957629412 Qapizep 98
958788524 Zoqa 43
958927986 Kuy 73
961132737 Badokugu 77
962678353 Vegubop 38
962936544 Lisay 86
963202285 Mubedi 0
964007876 Tepi 78
964124923 Yibihume 33
964649323 Yemuhu 82
964936002 Walo 50
965297986 Taku 38
966212182 Nuvefohi 70
968552422 Curopawu 76
969056692 Vixuq 12
970639424 Foheju 9
970952556 Zumenop 98
971100828 Wolos 87
972031537 Qezit 96
972473831 Tukebel 33
972631713 Qipived 61
973798661 Zem 57
974007403 Noyes 13
975852595 Tunih 75
976255808 Fuboc 65
976676878 Dozepoyi 0
978909570 Jufepab 38
980111222 Vazile 82
981852850 Mawolu 66
983526625 Ciwokaq 36
984363121 Telulah 65
984879698 Dosuzop 49
985327696 Fotecu 49
987764481 Zopi 63
988288300 Bamohac 16
990305764 Mupa 39
992235360 Sup 21
992372441 Cimovap 15
993816024 Zajahi 83
994080169 Mecavi 80
994086771 Quqikote 91
994189420 Wora 81
994286980 Rum 73
995067369 Fazuq 17
995361983 Tenubohe 0
996014147 Hogoden 24
997016488 Pado 67
997573636 Bixuf 4
999111965 Burotuga 17
999815715 Fovug 18
