362
3342975 Gesuvepu 16
4912988 Dido 28
8107400 Colede 39
13347615 Gevubimu 95
18238729 Humeq 43
19912095 Qijew 74
25160639 Viqej 99
32537603 Zurimef 7
36296033 Datan 33
41785765 Tumoqi 97
48404712 Riwisa 40
50915368 Dixusik 47
51177040 Werekum 96
51753199 Wekuraba 15
58542594 Viyo 23
66120516 Caqoxa 38
74296840 Jisi 52
79856487 Vazuce 87
81188967 Hicutozo 66
81201389 Zomuzi 75
82413069 Ruboxif 30
83727269 Zaqil 54
84957993 Zojuk 99
87006083 Xapo 53
87674237 Nehajiz 17
87848578 Qocogog 37
93063745 Pehuyiqu 21
94254769 Jusu 11
96347343 Zupubed 30
97341641 Makitije 73
99697802 Qigiqix 94
100606277 Hogen 74
106134618 Tixur 98
110619265 Zoxivij 83
116931592 Hogoku 100
117095661 Qisipa 22
118302932 Cuwevic 85
119801310 Caso 21
120006920 Pil 1
122789362 Vil 38
123066828 Besag 3
125091191 Wesap 4
128060367 Retu 63
129604864 Hun 48
129628116 Caxese 89
134461273 Pifuyoqo 50
139172476 Geticov 17
141116341 Xefabuv 63
141151278 Yigoqufi 58
142833785 Guje 10
143106302 Yaleyik 100
144673552 Kijew 64
154281416 Wek 57
155240381 Vesapopa 78
155734110 Funi 18
162189723 Bec 17
165391625 Dugog 60
165597386 Fumey 49
165902852 Yuteza 59
172967475 Sekek 43
173660832 Wuzolag 3
174977225 Cuw 55
176409375 Bivecepe 86
176768295 Potonuz 77
179649616 Fud 90
184370676 Ziha 93
187199369 Qatiju 33
190557302 Tabiperi 81
194030886 Dupa 30
197160750 Hufuyama 48
197234430 Vix 54
211213945 Higoqu 31
213363999 Ser 78
216825696 Lukibove 49
218719197 Rudazo 25
220033619 Vec 86
222266899 Niya 88
224746491 Faqo 69
227388944 Puziyan 69
229324927 Xehu 30
236796977 Bedibax 58
241961997 Gah 13
250561285 Yiramic 20
251072999 Rawif 31
256663299 Zuducaxu 56
258522937 Ciwuxoro 28
259803494 Juxovij 44
261098622 Dedimuv 17
264888779 Xiyifura 41
271877465 Zurik 78
282590076 Xowi 20
285422399 Logih 98
288383351 Nejet 76
292359538 Qanayox 76
292708036 Doxum 50
297575559 Buxo 76
300748842 Kikegura 47
302716057 Yeqob 84
304462935 Qac 63
308762073 Vitaqa 33
310457775 Bukec 24
312443655 Cucuhiro 61
313343686 Foculez 97
314922299 Lida 19
315658875 Gapiki 44
316008830 Hayu 92
316044547 Jixeluf 59
316111486 Tedon 41
320084742 Mibis 55
323860442 Vayahih 91
324124179 Gof 64
328125283 Vafujeki 86
328313137 Sulag 77
329110396 Faxoj 21
336747741 Wafiya 78
336833037 Duqafu 17
337503358 Pohaqik 51
339478359 Curahu 90
340448664 Zixuc 67
342389942 Xaruqem 93
343329186 Lirem 39
343756337 Jan 16
346674713 Ruha 40
353223165 Toju 86
354726624 Sapasoja 10
355140292 Huz 4
355414702 Newuk 35
357814373 Hewuxot 54
358790428 Tijeqila 43
362380939 Veluw 43
362415820 Wiloq 99
364024912 Rugeji 22
366140328 Yozu 98
367789018 Yuf 6
378407179 Zupo 23
378607791 Xapekano 22
390599023 Fifaqey 46
391463625 Dozace 92
395587396 Wiga 39
396607129 Gifa 84
407454658 Rawoxeg 45
408518764 Rabe 95
411397626 Buquvoz 86
412354112 Tisa 10
413954140 Xokimeno 1
417697248 Dizev 59
418443857 Kulo 75
420535647 Yed 44
421137734 Buyegepa 15
423130460 Suc 14
424087066 Vufu 71
428905694 Heka 23
429912090 Bebalo 9
432707698 Reyu 75
435992607 Nad 69
442229339 Bepatuw 24
443798987 Qirove 97
446955124 Pivoku 28
447441248 Joza 3
447494054 Sepibeqe 32
448033994 Nubewove 59
454065889 Qovuteh 94
455087644 Yenoyew 65
459548282 Caneqo 80
463334286 Qexike 37
463688516 Vay 99
465927114 Rulibi 50
466852469 Qavegih 55
469104818 Tipuliya 40
469506097 Gugani 21
473155963 Dazo 12
475706014 Lidowif 30
477121690 Bumeza 51
481604086 Gegez 39
482129094 Cujac 31
482569724 Lan 74
484711053 Doxezi 68
485607249 Mufap 93
489499231 Jaretum 54
491645961 Ruyus 4
495563123 Kujamuba 50
495605731 Hilivi 77
496841916 Baxezij 57
496844077 Kutagu 100
498175224 Fup 91
499876046 Dicehi 88
500245721 Baqeq 78
503911523 Koyewuza 9
504299999 Jey 7
513154988 Kiyo 54
514898277 Dedi 40
516562138 Yuxu 80
521075383 Yokifiwo 16
521402613 Zijaza 23
522034855 Qunawuh 32
522583950 Gajaf 5
526715986 Hok 44
531906852 Qopu 53
539058141 Pej 31
539149753 Juvo 9
540580966 Noraz 96
542507640 Jedonahe 68
543286926 Fakiwoco 25
544167379 Kezuk 90
546417401 Wijoxapi 67
550884140 Buzukizo 33
551165959 Tey 5
551656517 Kab 84
551844111 Xunuru 23
552942524 Kipekeca 92
559357422 Qojuta 6
561437331 Bop 70
562951080 Tuzonedo 58
565393451 Kitujil 30
566727139 Jipetay 15
567467607 Zozohu 14
572407784 Vib 86
572431885 Xoxocez 47
572637787 Zukores 62
573357874 Ladobo 28
576772597 Puyani 10
580050452 Netuduj 14
583613468 Qola 89
593112773 Voruye 80
593789376 Fal 5
597052203 Zun 20
597131236 Duse 47
597549819 Keh 85
598436675 Weqaco 73
601096077 Likigah 50
606065750 Zirujut 67
609932995 Humokof 25
611190586 Wumefo 69
611931997 Rolarivo 64
613343327 Dokofuwu 75
618055218 Kevarap 55
624596758 Biyulo 9
624990726 Wuxeri 44
628109386 Qadiwacu 70
628371144 Nego 56
631302981 Few 36
631657134 Raqav 51
639281496 Rofucu 33
643230529 Dosez 76
657697797 Sayesole 70
659323142 Yugagoy 93
661352318 Rotugixi 98
665242310 Goyeyumu 78
665556903 Vidi 25
671782588 Laheco 25
672135575 Yenizis 55
672615945 Raja 100
673220541 Gizat 36
674637351 Ruge 33
678583777 Poha 92
680168868 Nayofasi 37
683293608 Mesulif 58
685814658 Vuse 1
688763596 Wasetiro 95
693232039 Gujur 24
696328207 Laluzu 8
698426589 Juxore 33
698648911 Sayucoso 95
698829280 Doda 94
702464500 Rop 10
703180367 Gos 32
705364712 Zeqilo 71
707469402 Lofemer 51
708219029 Ferema 60
710085061 Kanon 28
716992635 Bal 6
729382148 Nag 36
733988529 Yenolupi 9
735003672 Pofic 45
737153247 Zizupovo 24
737316202 Zoh 6
739851639 Xuxam 53
743387269 Newubud 66
743609023 Buloxa 100
756949026 Manulohi 0
758456404 Tuvuyazo 54
760565160 Jecopub 91
760964556 Qizul 85
769827955 Zujuqama 56
772039327 Pidona 13
772229274 Rupo 14
777623481 Dava 68
778223199 Ciji 61
781866345 Fet 54
782593611 Moguduy 59
789839299 Suv 91
791339784 Got 82
795129591 Boraru 97
795228109 Kofe 5
795595082 Gagu 33
796276833 Qiwet 52
796596876 Fahov 95
804819020 Dowuliso 84
806211482 Hadeguh 59
806819043 Dayik 45
809471442 Kuwoz 90
811068282 Zaripir 25
815807500 Hufon 52
823330500 Wasiper 22
826730512 Hofogi 37
833387424 Huji 11
839663955 Sodexuv 89
843829972 Wupo 44
847353003 Yuhehe 51
847452097 Setucoj 31
856662853 Xexiw 34
857422824 Pid 8
859336276 Racabi 25
861148226 Tojikahi 46
862119218 Kedogoje 47
868071990 Merilu 41
869453418 Buc 75
869551359 Yovumi 30
873608784 Puf 98
880333781 Tivin 81
880445713 Wixop 52
888135610 Juj 66
889179932 Wojine 34
890612240 Wilonow 14
895335782 Qudemubi 5
902610356 Bate 99
904922078 Nuy 65
907843367 Ziwin 38
908309026 Disodefe 11
909296189 Qidicufu 100
910915892 Gicupu 65
913337091 Difafozi 95
917858063 Wem 38
922438428 Pexuqoz 35
922899971 Wuba 72
923436015 Dotoz 73
924166176 Serakano 27
928634125 Cube 52
929053382 Butar 6
932435251 Nek 86
935224669 Nur 76
940006269 Jatu 42
944199167 Lonikuti 2
951226741 Nivew 61
954443726 Qew 91
954473104 Xubutepa 19
960090724 Koqiwafi 79
965585326 Goxafo 78
968978112 Qok 98
970454255 Voxiz 42
971304692 Xuvoj 28
972283980 Mexaqin 51
974839496 Hacogeg 69
975697026 Nub 34
977455538 Nuhefasi 15
983685579 Fafi 54
985317401 Vepacoq 76
985451496 Hadu 25
987531168 Jatu 83
989851745 Weci 43
993367078 Diwoze 10
998652175 Yuhodoto 74
