613
2562054 Waja 16
4004148 Kehidu 71
4350461 Nowig 78
5576495 Kesoge 10
5734929 Xosaco 72
5893238 Fibiyon 71
9919638 Rum 88
10167901 Fopizehu 29
11503263 Mur 33
12303356 Rob 15
13535130 Pame 77
15347503 Cesu 42
18286292 Ful 48
20328042 Bakam 62
24117917 Guyap 33
24294379 Pibicuz 86
25117612 Suh 73
25274217 Neloxaye 13
27097515 Tube 9
30087663 Qupike 52
30373640 Suduric 1
31168084 Darixus 16
31344330 Roba 56
32389926 Qakuq 47
34167937 Daji 33
34198280 Feyadi 30
36781264 Nayoluwi 39
40562649 Quna 30
40661496 Hade 52
41120233 Kafu 8
43445107 Tuz 100
43667655 Belenu 51
45644663 Guk 5
47046437 Pitayixi 29
47836634 Yef 42
48552970 Zimeko 85
49142307 Yumarede 64
56122801 Jeko 19
57020545 Rilukoz 17
57747291 Faxoq 71
59344205 Vekecey 64
60707171 Pofuk 43
65078250 Xiso 73
65264494 Nuwud 81
65422490 Honis 18
65701334 Lulegagu 1
68012179 Bomo 50
71035637 Zakesiqi 52
73257003 Gawuro 91
73948397 Zag 11
76186216 Vebo 80
78732865 Reyiy 26
78990120 Jadureq 95
79734132 Doje 49
85185102 Neqihir 5
86102931 Coxexofa 71
86765716 Ruciyaf 95
97843639 Jib 77
102048190 Regiq 40
103087384 Sapijut 83
104557326 Dehozoki 6
106766626 Diy 35
107512603 Xagi 69
108612050 Roge 80
110088308 Vopob 8
112909144 Tahazel 44
115624283 Pageyivi 7
116034880 Bodihofe 66
117335882 Geyekide 28
117510094 Sak 83
120855404 Dumo 71
121535255 Gijadil 27
122132141 Qugalil 91
122450510 Zemoxo 58
125170353 Yivi 31
125214825 Jiq 83
126412063 Cuwano 98
126422855 Zeqomosu 63
127202588 Yudiduri 32
128225646 Newuc 4
129480749 Sedev 98
132293637 Kil 42
133157823 Vax 7
136060397 Tedex 81
137051351 Gidiyu 50
142052332 Yizemi 80
147539794 Qadenesa 69
150152551 Seroyuvo 27
151018897 Lugif 42
151184139 Pivog 44
151751534 Ficeh 58
151814842 Jodupul 62
153632737 Tib 97
164400216 Lobi 61
165331740 Dof 21
165673309 Yepas 14
166177680 Pulijiq 60
168070749 Memo 57
170962602 Doqok 53
171629585 Hujofog 40
175731212 Kij 57
178948766 Hajetom 69
178974023 Bay 53
184324801 Sanivami 2
186316552 Jayiwah 75
187577935 Hiyatem 31
188631628 Colayoke 33
188710860 Suze 4
189695760 Zef 63
190040218 Zomixova 91
198749277 Bejiliqi 51
199103093 Bavisaza 40
199956051 Reqaf 64
200094348 Mikelol 41
200280858 Nakot 90
201671323 Cuqoj 91
202123958 Tobipa 26
203593034 Simej 30
203609403 Nejo 35
203864659 Jejatiq 40
204337337 Facuc 85
204807642 Rey 19
205218586 Nimo 99
207124441 Lofig 33
211038836 Gejot 20
211458501 Yayor 19
213106946 Hisave 88
214301669 Wig 45
214921328 Quqo 73
215855064 Mol 2
216545253 Wume 14
217978401 Garuduz 69
218248181 Yih 90
221195662 Qunu 60
223367439 Zotuh 98
224546610 Surebuxo 40
226409049 Siweb 22
226681179 Tax 59
229178401 Kake 87
232595640 Hohib 58
233719819 Hipejez 91
234326777 Sug 65
234385347 Ricacis 23
235277950 Cotaj 87
235594123 Jonezu 25
236386580 Qunakama 87
236858510 Nizehe 34
238344915 Giquw 44
240775409 Bilumada 33
242004316 Gat 51
244141616 Gavase 86
246100466 Miwi 66
246170200 Yuf 70
246916134 Canoxasi 83
248045088 Yil 83
249142642 Mimov 67
250288221 Xadul 31
250558746 Jemex 43
253054655 Lahu 7
253380562 Dufo 69
255420033 Minotaz 70
256971738 Neru 81
257038985 Cavuzub 68
258922510 Woli 79
260146248 Henihu 93
260670420 Nidaxemo 52
262411475 Rus 14
267796518 Misuxi 84
268224404 Datip 40
270694378 Civiqiki 87
272323268 Xeqesovo 67
272419821 Sikiwu 46
272543443 Dute 24
274578965 Lelexos 52
274862738 Wifo 39
276490097 Cowuki 75
277329557 Fewune 98
279106829 Zeg 39
280421699 Qav 41
281143990 Yuno 30
283365485 Zaboyi 35
284288100 Rimol 8
287545132 Moto 3
287686435 Guxojene 64
294138921 Lehiyuhi 17
294159227 Pitud 42
294694499 Banubif 51
296064399 Corimese 40
296560118 Romapilo 46
297116577 Nog 63
299091407 Poq 61
306216451 Putipe 3
310859788 Wogu 83
312765421 Yerikur 50
315644388 Panex 95
319747977 Rijetid 33
324410242 Vugul 42
324629062 Yoxujiru 58
325874522 Xiciruye 50
328438879 Xegazet 39
332299597 Rugiso 17
332307022 Zofayej 56
332384222 Bodu 83
332509521 Fenevupa 70
332929969 Gaqijowi 40
332962260 Burowa 59
333176981 Qumepax 3
335661366 Vagac 41
337810830 Jajaxeko 57
338781465 Pedes 51
339400632 Yatopo 24
345529982 Doyu 78
346678804 Guzu 37
347753706 Duyivagi 9
348178116 Hupubem 58
349255829 Linez 56
350175380 Tuno 36
352793713 Gutabe 22
356710918 Raqa 36
358504743 Merubav 58
358509310 Hizopus 4
358988521 Musacaza 35
361281042 Zuq 46
361459843 Rerek 60
362635974 Najij 37
362875310 Zis 25
363382567 Dejova 85
366386266 Tuze 60
366794388 Yirev 89
367113085 Gasab 70
373079059 Dayajux 42
373598691 Hubanidi 91
375773187 Ceho 40
376238893 Sozozu 64
377924349 Retileqi 90
380346002 Dili 10
384558961 Piyu 95
384823101 Wanuc 0
386024056 Romew 98
386343629 Dusa 29
388833082 Decap 41
389117076 Kujuzi 15
390569023 Piviz 16
390792611 Lap 59
391550458 Tujatot 31
393480375 Lubixo 5
395087410 Lazaye 99
395809586 Nikirudo 4
398389686 Cewaxi 61
400833766 Hap 100
402012432 Yur 12
405110609 Tudeqaqe 25
405162501 Muqo 2
405579680 Kike 40
407483676 Tud 23
408302097 Rudocixe 0
409794704 Huf 27
415002093 Geriduju 59
415374959 Qulumunu 24
415727682 Kitetoho 11
417884955 Jey 46
418719365 Gimoqoh 14
419146901 Nizab 95
420764793 Nuzo 37
422073234 Kumafuj 0
423349455 Dur 3
423536683 Juqav 5
425388950 Losofasu 25
427803080 Tixule 96
432801068 Vuyemuga 90
434020633 Zuyowe 62
434192704 Qarori 8
434459460 Rox 7
435098898 Sawun 42
435567658 Vihesu 72
435905818 Tuz 5
437209421 Dax 57
438442564 Waqo 40
439005009 Feq 21
439089684 Nul 60
441309302 Finex 31
445529320 Heroy 78
445873407 Takaz 44
446428630 Fugecih 17
446864273 Wil 8
448723250 Cibo 19
450496278 Laziku 41
453856640 Veluzibo 10
455647787 Jurug 37
455745691 Qun 23
456225262 Yeturub 97
457491031 Qojuce 52
458943528 Miqazoc 53
460215002 Vik 33
460310357 Mumutax 80
460795734 Carobuka 83
463059170 Huh 19
463274393 Cirajubo 65
463457152 Quv 51
464399135 Lezupej 79
468264134 Geheq 29
470725620 Xap 51
473170698 Safexe 63
473212695 Gigar 42
478593855 Dorudi 34
480182919 Bihuzaqo 54
481759848 Pacezaho 12
481972081 Kalaxes 81
482631512 Leko 72
492367742 Rowe 59
493868799 Rebagah 64
494980087 Xubicut 73
497177693 Zov 12
499573666 Siyiv 6
501429958 Tutu 60
501553275 Gejere 28
505896194 Gexenasa 45
506524961 Wikig 36
508783751 Kirasaq 30
509592163 Lohozuti 81
510754463 Qexinosi 79
519838445 Gihiwuba 67
520691477 Zijika 48
522859678 Zalose 33
525183937 Woqini 58
525569128 Vuqure 36
527410301 Guv 84
535710155 Yupiguk 92
535726443 Jedidodo 3
537732839 Soti 37
538533648 Xek 81
539775147 Waz 53
544282329 Foquq 70
547110336 Yahuga 61
550381895 Vefo 35
551634796 Muli 34
552159756 Vidocuge 33
553112847 Zumer 43
553276642 Pepicozi 73
557529037 Kegirev 42
560194696 Fexuceze 25
560273640 Cahik 31
561495102 Moyiper 58
562599489 Xepagi 26
562670985 Topo 100
566944003 Wipu 24
567364900 Xeh 99
567489789 Movikuro 0
568161568 Ronef 41
568346242 Suz 8
568515613 Wisava 88
569801586 Lobera 63
570395163 Kigat 59
570959599 Vuyicov 87
571809186 Zikeqoh 35
572782079 Zocewuz 58
572872403 Macosaj 33
573078865 Xaj 95
574105662 Hoxudak 48
575868719 Tal 37
577435522 Cipidup 49
578385029 Won 22
579058256 Denegafa 3
579343590 Lajisove 7
582618547 Nex 95
583139367 Cagu 25
583192548 Mup 17
583457238 Cup 95
583804734 Biluk 36
588244563 Nifuq 4
588461057 Vibuvar 24
589489416 Dade 18
593105978 Yegid 76
595368576 Mat 97
595706391 Fayuji 69
595723877 Vobosi 54
596358146 Xubosuxi 54
596711339 Mupoyese 23
600202094 Sazug 37
600448528 Lemawul 53
601568472 Wekov 68
602125761 Xefuse 68
604047999 Fazasabu 67
604247150 Qequ 18
605822919 Huxoduf 80
606382797 Nixaka 93
607954068 Joguriki 23
608075452 Qay 17
610328855 Pem 35
611704964 Dijo 55
613579306 Lix 63
614055883 Xib 49
615561158 Feqi 82
617120052 Xegowur 34
617274853 Xafa 95
617780674 Wewa 87
620637090 Puq 37
621434531 Jibip 73
624719397 Kopuquzo 27
625454913 Kez 66
626227255 Hucukow 55
627354072 Wisojeli 21
628221369 Xopojuci 39
628311036 Kax 58
631365994 Qefot 26
632268892 Dozah 98
632751739 Feyuv 2
633063297 Nimituw 67
635351353 Vugiwico 32
636940657 Kubefu 97
639799101 Limid 42
640458757 Jakejone 45
644205829 Jewure 32
645344348 Rahubo 84
646413653 Cinilede 10
647374665 Siraxefa 7
647606043 Cey 68
647939311 Colu 47
648006311 Wacuk 21
648748595 Pomo 12
649544649 Yebuhema 49
651387248 Fujesar 0
653321970 Zeje 53
654799629 Mab 67
657622475 Rafe 46
659194769 Rije 16
661855335 Farodu 97
663428801 Riqek 91
668500045 Wimaxeva 73
672803956 Nufajal 42
674438090 Duziwu 47
675532095 Zusix 60
678375120 Fezusaq 47
679191366 Ciwanusa 67
679220947 Tede 79
681973249 Ruloy 10
682333479 Yedur 82
683480654 Bijudi 44
685265085 Xajot 63
685574982 Tivebo 91
687159950 Mivuj 90
687731711 Til 32
702469518 Gel 88
702650918 Teja 66
704039431 Voke 20
707825955 Wunoriha 63
708733052 Ridiba 4
709171578 Wuvuce 16
709582044 Qezo 35
711709572 Mada 53
712225843 Jipe 66
713760471 Difuva 16
714256527 Vigir 48
714265351 Wiqicak 57
716400718 Naba 20
717314590 Fegosume 61
723238768 Bacifo 41
723527795 Yosayuq 82
728718932 Qas 51
730938964 Yufupa 87
731142121 Vixujip 52
731518713 Nehe 98
732332483 Bujaf 81
733165309 Bexex 59
733715246 Nuti 10
734873922 Mawim 33
735297728 Laxug 47
739573710 Gap 24
742114471 Xadicaxa 90
742451604 Cogiqa 93
742809100 Yiri 30
743017604 Nudan 51
747329498 Kalukac 38
749716281 Zagopeju 36
750626875 Docorop 45
751301503 Hapat 99
753020606 Qiwiw 96
754057531 Vehi 15
755392137 Gemik 30
756167774 Sim 9
756560541 Dotugu 65
765908565 Vulafe 43
767922288 Nuba 62
769887996 Rusexuh 28
774772449 Yeg 46
777432661 Mucif 84
781690893 Toriz 70
784720978 Dan 58
786250649 Fof 68
786720151 Qos 92
787155645 Dule 18
787539871 Cok 83
792755006 Tuzifar 83
794820308 Fulay 45
795238098 Fal 76
796931301 Zihesok 10
798870368 Nuwuje 79
800610965 Xoqed 89
801661445 Guv 94
802655669 Sivaqum 56
804629488 Xovefifu 45
807105319 Qefojob 55
808309969 Xaca 74
808398670 Varirimi 60
808982413 Niqidu 37
810351341 Gev 47
813506287 Tabu 97
813791441 Fodehono 31
815524849 Quro 44
816834820 Ruyusid 4
820010915 Gegis 89
823807891 Xokoro 96
824696082 Zowoxime 88
825264155 Nep 62
825783795 Huzale 8
826290738 Vofez 32
829306612 Hajotayo 35
830686532 Kofug 91
830900306 Hafaqoye 2
832722072 Mosux 14
833846046 Jayuna 41
834662374 Ridure 6
835650008 Wusol 63
841712197 Nalap 74
843398576 Meyoq 19
843799883 Gacem 92
845332793 Jadi 82
845740599 Yuy 41
846639196 Helewona 42
847087866 Qiqas 59
848253024 Dubeg 19
850931528 Decax 69
851911845 Yehararu 54
852734209 Dumo 69
854157915 Liza 8
854273029 Dejisohu 24
862770320 Fesav 84
863812305 Pupi 84
865896376 Wirowub 29
868174798 Xejiyov 79
872220327 Kuna 96
873431440 Kov 99
876062216 Kerep 34
879290718 Jato 65
880961411 Paje 50
883166508 Wul 6
883408053 Yamixur 75
884902921 Laxi 88
885928468 Zaf 37
886951319 Nila 12
888156526 Peti 75
889775567 Nata 89
893342531 Jola 8
895851962 Vipim 11
898706322 Retiz 57
898764136 Kote 27
903926096 Januqo 61
907421174 Zuhu 99
908590180 Fito 47
908853300 Binunida 57
914712688 Zeq 62
914762975 Virof 31
916923599 Zoluhiha 76
917447667 Baqetam 48
917713769 Mipojesu 22
918110804 Cog 53
919456608 Wavalihi 1
919495718 Vamaki 20
923451931 Budo 87
923803204 Yar 40
924739205 Gumix 61
926332707 Cevag 56
929375351 Bugufe 94
930523299 Todiyovi 71
931592934 Fagu 20
935088576 Qujadi 79
936778139 Jife 84
942970135 Wucu 34
947166074 Duzesot 28
949710582 Lohageca 83
953235812 Sem 73
954491230 Cic 37
956928752 Qaqe 18
957905611 Cimosud 70
958975725 Fuloveho 14
959290462 Padakap 93
960967158 Fabacib 8
961106102 Xomo 75
965926641 Qegi 18
967028225 Beji 80
968564650 Nocaj 32
968797879 Yuyu 87
969818328 Lifi 16
971953646 Geneb 93
972725681 Janokug 94
977000021 Gil 30
977771536 Kizotoc 58
979708719 Kuhog 34
980001638 Nacamo 97
984315623 Goyukov 64
988418622 Golakivu 26
990727123 Fego 70
991906158 Qixix 12
992948339 Hameja 33
992981716 Rucih 55
993021567 Nunog 73
995411153 Yecisem 2
997373825 Yoxoham 1
997540319 Gasi 54
998336698 Haxib 78
998934591 Piwiv 58
999021411 Sob 42
999075340 Wamaxop 17
