930
582949 Tozaqilu 18
1692565 Don 49
2420227 Lafa 88
3287180 Caya 40
3648676 Poni 32
4682580 Bazepu 90
5214037 Biwiyub 24
8099028 Wutin 39
8147748 Kipi 65
8508609 Xan 85
10592492 Ney 8
11071074 Kedizoje 17
11633226 Were 15
11863038 Fogogub 74
12601438 Cafujawo 62
13274830 Sudaqawi 24
13670784 Fatabibi 34
15680118 Qaho 93
18426150 Now 29
20769373 Cepufo 23
21109301 Qenah 38
23161021 Yajiqow 67
23327741 Pehebofo 100
24352587 Zopubi 55
25336551 Konosiba 4
29023150 Bah 14
29679039 Vikevo 34
31721706 Bajev 92
31914502 Bedoj 32
32067057 Ximejiy 22
33362762 Xoye 49
34093557 Bidujug 23
34900837 Husejuye 3
34940655 Pihinu 75
35769445 Bufus 50
36502633 Pozebaqa 68
37102730 Cipino 23
39512574 Joxi 65
41335160 Vefinego 65
42428688 Veh 57
42488030 Lewef 40
42615213 Viko 20
43603851 Xov 20
43999855 Zugukari 98
46647139 Kopamuzi 57
47107158 Wazure 98
48019637 Yowaw 4
48336566 Yox 73
48467528 Majagoge 100
49217805 Rut 89
50042697 Hiwufum 57
50158055 Bil 41
52107361 Yer 17
54044989 Teb 16
54079556 Miwupabi 65
55170149 Roseziqa 67
56230333 Raq 20
56346859 Sonozuni 11
56562532 Sezu 24
56646538 Xad 94
57165350 Sekakox 75
57771466 Sibura 53
58184598 Zawa 39
58437520 Vel 15
59271235 Veruw 99
60003612 Jatoyig 10
60398731 Hutap 3
61956998 Vamutito 0
61999117 Kixeju 0
62234521 Tegu 37
62617120 Feyuka 79
63746894 Foqer 50
64436508 Tuxuhus 53
65096286 Xunevaro 41
66787664 Rul 81
68204043 Miqe 34
68834904 Mop 12
69445886 Bepadu 69
70396423 Wima 85
75679548 Yadok 58
77087308 Joq 6
78493683 Jap 75
78845251 Xixe 66
78895726 Neqaku 95
82686885 Qoreq 39
83486603 Rijocuva 25
86583387 Mawawof 61
88293263 Darivis 67
88772769 Qomigufo 82
88885468 Kav 92
89626976 Jet 58
89797946 Hikajip 59
91075054 Gic 92
91239915 Peqex 96
91907739 Faca 99
92557880 Sicaj 73
92805055 Xuyimip 15
92939862 Cen 51
93289664 Wuvopa 29
93612260 Neren 71
93703375 Lozuge 61
95158923 Kubes 31
96289010 Qotumehu 14
99028167 Qasipo 45
99698966 Jovetu 52
101895100 Wudagaki 81
104030896 Tako 30
106993836 Doyebes 69
109042771 Ruc 10
111332796 Tuvocal 3
111371772 Qazu 46
113304923 Wigicufa 23
113358093 Jima 87
115896495 Lataxu 41
117104549 Buh 77
118472136 Qiq 34
119070597 Voyu 49
119574494 Buke 96
119851319 Piz 35
119871897 Yumila 76
120447897 Piw 37
122748156 Woraf 14
123308006 Mejonici 68
123411673 Didabag 59
124381649 Dagoyig 68
124572172 Kesoqujo 64
127363274 Guguy 95
128920094 Diwapu 76
129463972 Buxux 25
131089641 Hocita 84
131591012 Nuqopeqo 0
132614416 Biqa 54
132792581 Dim 90
134717566 Milozopu 33
135191490 Fosuw 8
135205964 Siyep 72
135829580 Cevi 88
136348403 Gajutu 62
137396239 Yajezipe 10
137463184 Kigako 49
137822172 Dag 88
138045351 Yupor 95
139301332 Hadit 76
140713068 Seno 76
141134753 Yovif 23
142869968 Qimewit 76
144989314 Xorixa 33
144996765 Ralori 28
145428916 Qowir 53
145851405 Ripaduv 63
146179776 Jarifer 79
146384027 Divepexu 99
146488722 Modoja 68
147601752 Givow 59
149480876 Nejonaji 30
151978295 Got 92
152275587 Gogome 44
152994233 Zuhoxehe 82
153842194 Gevenusu 89
153986439 Murut 38
154190098 Qeticub 13
154492237 Tufocori 0
154984953 Caher 24
155249955 Duqu 67
155360131 Vawitece 92
155805692 Zigecaru 43
157314451 Bejo 27
160992246 Rayid 6
161559996 Xinawa 52
161903245 Qama 7
165627772 Niha 42
166130401 Beqow 45
166758255 Pelevi 5
169586622 Namopi 35
171043200 Ceka 44
171046784 Yicepoxe 63
171551602 Jopuyo 87
172867740 Xegeya 49
172933807 Sikequte 83
173960812 Vik 97
175949524 Napopur 8
177014938 Jipife 76
177751744 Xujot 42
178107522 Mosizay 35
180118448 Zusiqe 18
180380859 Qezeqofi 20
180427968 Daza 5
182509538 Web 13
183250067 Lifuvuk 71
183426149 Yunuyo 83
184112851 Feyib 91
185717783 Relafof 59
187654854 Hano 63
191937399 Jowuqika 22
194675130 Fiba 57
196226156 Vadilipo 9
197036020 Fukaqili 92
199918638 Yexiyom 59
203117821 Kuhuv 55
206161853 Fofof 81
208061829 Wutatiw 87
208486339 Sopokav 50
212492251 Weduco 28
212671942 Yoteja 9
216763316 Sale 66
218720323 Mizo 55
221134504 Yab 37
224432436 Hehokim 88
224612545 Mefoje 76
230064006 Niwelulo 67
233340972 Tetocod 25
234742194 Bed 19
234789454 Lefisaxo 50
236298069 Pumivuzo 80
236768412 Vixen 38
237763873 Wad 14
238241372 Lupi 22
238266479 Duhoki 97
239675482 Xuyiwa 34
240053527 Weley 78
240903977 Moco 36
241167812 Beh 13
242562240 Corowax 43
243224542 Cede 67
243351444 Lafiriv 41
243365816 Fefesu 76
243994546 Zomemi 87
244740938 Cuzirami 88
244843399 Narupa 47
244970717 Rehoru 1
246540296 Dey 59
247491560 Xozurano 31
247856231 Ved 33
247955499 Jiviru 2
249366189 Tubinum 2
250106189 Risa 52
251230781 Cuvawud 82
251445465 Gopag 33
253449863 Cititare 58
253765768 Fepa 3
254015723 Cifi 6
254819637 Fubamo 96
256171080 Poj 81
257724298 Kahetog 32
258256375 Yosuse 74
259435595 Set 77
260857504 Jonojo 7
263042354 Zumig 12
263609337 Yiwacilu 65
266252276 Huliga 13
271845724 Nuca 18
272762838 Duke 35
275814623 Yiy 15
276059427 Jek 34
277185655 Zegoke 90
277263284 Tuse 1
277445982 Geko 20
279934477 Mihiki 23
280638640 Wun 89
280675350 Jar 9
283374122 Wuxi 23
283405156 Hagipijo 77
283969598 Givuge 94
284145016 Hubeta 0
286391935 Dadun 81
286494890 Qaquzi 45
286658666 Lahalona 73
286842718 Bokiziyu 60
286856698 Viwen 8
287119705 Fiporu 78
290266252 Xag 18
292452103 Beru 61
293620178 Qusayi 20
295081866 Satuciv 24
295446959 Gurigoqi 51
297598680 Pecos 96
297810460 Rijo 15
298520429 Zanikib 59
298531818 Kegaf 73
298628046 Bidob 69
300113399 Cevoxeg 98
300143566 Guy 83
300816915 Humut 30
301385805 Fumedo 21
306852377 Fem 95
307201445 Zor 94
309156678 Hobayehi 3
309222546 Kepoqom 77
311379905 Tududeye 78
311801540 Nema 16
311867055 Qotuw 3
314311617 Cepexiq 37
318055837 Yoza 96
322472288 Zudajuki 39
323605876 Wuwu 15
324879983 Yihipohe 37
325449678 Laragiv 1
326439916 Qidoduj 77
326604229 Notipamo 69
327530492 Gibusay 38
329771318 Mibupura 8
329782621 Zaxalu 48
333438172 Hib 99
333747044 Kij 2
334783377 Xop 47
336396689 Sidic 3
336762349 Pufibu 90
337502928 Joroz 46
339445780 Gez 4
341369343 Nel 97
341544748 Saj 67
342681410 Lozimaha 82
343505246 Buwica 77
344327319 Fikawe 37
344481065 Fereyilo 34
344844586 Xofag 76
347175431 Xeqoru 89
350479917 Xusu 18
350802147 Cameboje 46
351463573 Pacer 7
352227163 Sabirux 50
352320226 Zulatu 47
352527404 Towicime 20
352997895 Yosiyaye 100
354003429 Texutile 30
354583056 Jaqo 76
356167306 Hiwaqar 37
356299607 Kirac 71
357968328 Kilo 17
358466084 Zuwac 41
358703378 Tahocati 7
358772840 Zol 82
358784327 Gukonafe 61
359539305 Lob 90
359922705 Vabutik 41
360135462 Qefinaja 87
360399174 Ciwer 53
361841944 Lagugen 65
362617171 Rer 65
363421716 Padiviyi 46
363435433 Qam 2
367371906 Guxifono 34
367572011 Xasalowe 86
367764337 Xikapi 1
370292241 Giw 72
371646707 Gopiceti 1
372116338 Vejol 100
374544153 Wukuvo 81
377078192 Vaw 36
380502149 Yoc 24
382649832 Zune 34
382782433 Tuzup 31
385506264 Lut 21
386001737 Fiya 72
386346104 Yuceh 79
386394925 Wowubat 31
387109573 Jiducex 36
387965918 Buqoyel 20
388041548 Leh 85
389236563 Tusakata 27
390180891 Xabud 27
390322054 Mug 15
390768503 Mepedaco 87
391340417 Sasuqir 43
391807922 Sut 88
393194632 Xuxid 59
394636643 Pah 66
395558116 Hobocif 16
398253795 Wosir 11
398795770 Vowihoy 99
399417270 Zuvusic 54
403519879 Dobadeho 35
404149516 Laviwuv 72
406178168 Bixotiyi 74
407120305 Piwesug 92
411274201 Nelux 37
411331861 Gaceb 94
411462204 Xotepiwu 40
412889513 Zino 10
415305683 Kijefe 39
420740630 Kusoxo 14
421670558 Fimoxax 58
421892523 Tezicim 49
422364530 Waqavoti 30
424995482 Zuma 32
425342530 Wusugigi 96
427559716 Xosuci 26
428276866 Puvub 65
431539850 Fowo 33
432611784 Boqi 75
438778140 Yoyuhu 22
439462857 Senuxufa 44
440167855 Dequr 44
441400404 Rubuxo 23
442174057 Yepave 77
446535592 Ziqup 49
446539142 Wofaw 16
452656711 Qujolide 75
453721309 Fucomor 1
453874736 Qiwumusa 41
454467792 Linasema 43
454979918 Pex 96
455964162 Dakodut 7
455978307 Natuga 65
456036446 Qox 26
456646580 Gud 42
457015642 Zejahap 92
457507467 Yujical 51
459138012 Liyaq 84
460444077 Raye 8
460481401 Nabutuc 28
460708067 Nopak 29
462604460 Zofosa 64
463918000 Yir 56
464213348 Vowac 78
465433777 Rasoniku 47
466768718 Hide 86
467096668 Qoc 8
468430105 Zihiyi 54
468734508 Pidekok 58
469590068 Terov 52
470764258 How 73
473293920 Wepub 80
473335960 Garuz 6
473480338 Cug 91
474704263 Miyopip 31
475529822 Yolaxe 67
479664383 Remefisu 49
481376498 Firubol 48
484340323 Xujup 51
486523042 Kofibuyu 79
486833718 Goye 43
489280847 Xiyezono 40
489329433 Zax 17
490002395 Hadixo 65
490519333 Hatepa 63
490993548 Cuweqati 16
491675706 Suzaxa 6
492217598 Guvijile 95
493768854 Lid 31
495731890 Qusomu 17
495854729 Gezu 68
497821731 Cuvemer 82
497852432 Kehine 69
500528211 Zeg 67
500601207 Qoya 18
506836619 Gaz 2
508162432 Vacicoyo 67
508466090 Koqutig 61
508555779 Ruwudabu 92
509918267 Haleciz 72
510557706 Kubor 75
511108571 Xifox 88
513407126 Gazimixi 64
513592609 Neq 91
515412044 Fol 26
516022731 Dax 87
516774227 Vosaseve 90
517569664 Zitib 99
518963702 Lupuro 86
519281674 Yisuliwo 69
520164729 Momu 50
521140039 Wic 70
521610598 Qamafili 18
522603826 Loralize 28
523283776 Yedunuju 50
524551102 Jagupel 35
524981437 Tozaluca 70
525083759 Wagisi 98
525149075 Nuy 73
525393581 Kakeliqu 27
532688977 Vax 47
533512451 Kekuxipu 1
535922313 Gebey 15
536797403 Quvaxoj 25
537326891 Gah 5
538839573 Cebac 81
539778293 Paz 45
540363112 Bopufuna 58
541506523 Fekeco 7
541839668 Viluq 14
542987489 Xobi 50
543337693 Tugupu 79
545704551 Neradah 24
547269463 Cod 91
547930259 Zahapoy 92
548503662 Pusa 65
551153047 Gadux 34
553994736 Luqa 34
554113469 Nohuq 47
554460681 Joyewu 11
555146516 Dac 18
556184480 Mibote 30
556504990 Jamivoge 18
556542416 Gejis 72
559330612 Wevo 18
559595955 Masus 94
560221730 Cawe 65
561015873 Zuwoquji 50
563752578 Koxexozu 78
564061433 Ciwoya 53
564544032 Midofiq 45
564744112 Hetaxo 43
565351488 Zanece 24
565685584 Ceyegol 65
566266384 Suxus 94
567128553 Ceyip 30
567962379 Hecus 46
569358542 Baxuguqa 39
570644039 Gelesihi 99
572424011 Nikoci 75
576966214 Wegur 69
577989387 Notaha 46
578922469 Moqucu 39
579648564 Gifokef 77
580266390 Cejixiv 74
581717889 Wuyabew 63
582129832 Nox 86
582701701 Tequpof 6
583859371 Deqono 14
583869982 Fadonug 24
584288358 Jequgey 76
585310352 Jateg 64
586039350 Gipuciw 36
586374172 Jufife 34
586434789 Motuqec 87
587892943 Kufo 39
590121699 Mojikaj 72
591235364 Qom 90
591501628 Ceyopug 66
591607288 Yidiwe 51
592144639 Yevociq 4
592420018 Jujezo 82
593494732 Woreh 93
593562407 Kako 30
594477874 Qavuri 79
594953540 Xol 14
599419978 Biwiwix 15
600693145 Nahu 56
601925600 Bad 69
602165530 Ficic 50
602620771 Keye 19
602788979 Vus 28
604880348 Dafetafu 98
605117987 Papo 55
607376458 Lorahagu 48
607417067 Secu 17
608216128 Rutebu 90
608759358 Vovose 7
610121865 Ciq 22
611745852 Wim 72
613031249 Tayi 56
614231662 Tevafobu 74
616141761 Levip 62
616268954 Nor 23
617874395 Zumik 3
618249751 Diviqu 14
620468317 Vopaz 65
624253348 Yowa 35
625873559 Rin 5
625966248 Zavisek 40
626609451 Resaq 3
627524901 Riw 99
628662229 Xiribi 71
628751716 Dozod 81
628820860 Jagefu 54
631062517 Bef 67
632537124 Huleliya 32
636494434 Korowu 96
637748542 Kode 96
638274905 Nihuroge 1
640216795 Qeloj 92
641262713 Wujiq 5
641565562 Bihuzi 43
642150509 Dud 99
642292739 Dotexilo 44
647592214 Beqecuha 72
647956817 Joloheho 95
648874185 Sazis 17
648874432 Hotamifi 80
650113928 Heqo 64
650868795 Yomi 84
651595259 Riniga 86
652552916 Wuvake 0
654317964 Befu 7
654898299 Lul 80
656305946 Wumunah 52
656506421 Diyoso 99
659113931 Mehiter 63
660328118 Lapum 81
660386469 Namatef 5
662453639 Muca 41
664341499 Cuval 51
664711093 Job 98
665131747 Yocod 75
665911336 Nizojof 66
667469725 Jifefare 20
668461065 Lolumuq 87
668511871 Sigudu 35
668791507 Voxi 17
669237603 Zozicap 5
669368462 Jotutaba 59
673615838 Qiy 19
675356303 Sodukul 64
678006787 Dofojuki 30
678788242 Coxo 24
680348281 Hahezaja 1
680615005 Nuruq 46
680737317 Zehajo 80
680929977 Levi 87
681492275 Geka 86
684688381 Keqi 55
685243090 Hodot 80
685618948 Jijeda 47
686828194 Bovuruka 77
686893140 Quduya 85
687476841 Kolef 67
687676275 Boc 38
691047573 Fam 20
692812422 Xuxena 48
693720687 Voh 22
695237850 Perozoru 4
695643002 Wipehivi 48
696746138 Viy 72
696773350 Rize 76
697495389 Viqa 42
697804024 Mus 24
697841205 Cogejo 10
698330216 Quvafebo 92
700913787 Xedofu 94
700946293 Sabo 55
701372835 Devefuyi 93
701467999 Xud 61
702237204 Punivo 6
704063073 Fojeca 64
704126846 Hemazuv 21
704161059 Tedod 13
705410383 Goked 92
707461334 Dejure 54
707607734 Reridivi 29
709514762 Ximuyaj 87
710568924 Zaveni 7
711323566 Cat 69
711993374 Lanoyogu 45
711995530 Vuz 53
713814100 Run 88
714897444 Zav 99
716349725 Yepoguz 57
717376411 Tivemu 26
717938662 Zejeq 82
719273969 Xacugole 84
721655370 Suqigede 24
721802170 Zay 89
722002713 Wenu 70
722553553 Zibebafi 93
723044456 Seb 78
723182013 Wuraya 82
723242382 Mare 36
723588048 Vijuzoto 89
727059187 Firohegi 14
729957309 Luriwe 9
730670947 Pipeto 5
730672631 Musos 69
731644312 Wagon 14
732906044 Degor 42
733305890 Yixahex 58
733639049 Weteki 3
733649227 Texoloxo 81
733958005 Xahi 95
736230446 Kedub 88
736239841 Tojo 45
736596221 Vuliki 51
737024288 Soyud 79
739139546 Yeso 80
739933813 Hej 68
740871602 Goyoleg 74
742885126 Xopit 68
742944491 Volowo 16
743513455 Recocu 12
743584755 Vecali 18
744209038 Pozumej 23
746219416 Cikugaci 79
746265189 Gekeqah 96
747765362 Nurok 37
748224769 Qatogod 61
749314825 Dajil 64
751354585 Xowul 85
752814624 Yojara 81
753225457 Nofar 78
753860664 Mih 66
753910057 Gegi 48
756418320 Bagol 47
757661271 Mihu 38
759282501 Medo 82
761120372 Kawabeqa 58
761475576 Kec 2
763381263 Neka 45
763804034 Qugune 54
763888270 Vosupe 66
764050095 Qugudite 9
764884450 Qat 51
765160951 Pajacuso 76
765544066 Gufovopo 92
766706449 Juxogu 28
768234185 Zuqafo 17
769340066 Xuvag 65
769970957 Hosipe 39
773476253 Koniqu 48
775575615 Buca 59
775903388 Koge 76
777527713 Zevapi 1
778510728 Zapo 90
780089772 Jomapuhe 3
780947285 Mowoxi 94
782096717 Qelus 8
786698610 Huyudupi 70
788243327 Fusasowe 70
788361254 Xosoh 74
790182983 Begeda 6
790462942 Qez 18
791541128 Dozuj 94
791597091 Yuh 19
792537795 Johejiv 29
793537289 Rub 0
796066939 Wicew 33
797363104 Vafujez 11
797770497 Sibuquwo 28
797772578 Qekeb 79
797928189 Wuyuh 2
800286337 Xufeniz 98
800454507 Pozu 28
802059848 Kixixiv 68
802173125 Jaxix 75
802600802 Jejaxo 67
803089006 Waqodic 77
803273003 Teqiho 39
804216846 Tizeve 33
805642538 Pohe 43
805917211 Wih 55
807352572 Xawedef 71
807704811 Qovaya 55
808172528 Cox 64
808986525 Tas 7
809345942 Vanoce 42
811555586 Muba 16
811949481 Cus 20
813530013 Dififida 79
813937252 Laxif 83
814125087 Kug 18
815912096 Taf 96
816144896 Yap 58
816249110 Tuj 80
816885297 Puredo 55
817237569 Cekeha 84
817997216 Luy 51
818914989 Logahu 10
821003015 Zaraxi 69
822470391 Siwagodo 63
824267576 Xiwuhaf 62
827085456 Lamuzeve 87
827953803 Woxah 88
829132318 Wofa 94
829261665 Timagol 1
831733516 Vuru 96
835422219 Voj 14
835688103 Rori 82
836683340 Wuvikige 9
838520586 Cuqu 11
838997302 Gajehec 59
839913900 Bakuj 98
840391642 Xavineca 37
840800500 Xalu 100
841181073 Yecek 97
841191941 Row 61
841301488 Vive 64
843547762 Butoker 9
845324680 Mew 41
847063011 Wuwofa 97
849921524 Tegar 22
851365861 Zixih 68
851844121 Woluco 10
853991301 Yoyapap 72
854580825 Viyek 17
855219713 Pufalolu 87
855923104 Yoqo 57
856735130 Kalul 70
860315000 Xilazox 10
860515099 Qakikaju 47
861488060 Mif 23
863818435 Tikewi 94
863921403 Yayihiwe 6
866528399 Pesutip 13
867012772 Zosewuc 30
867043077 Muhixa 25
867768422 Narorela 9
869975075 Zav 88
870783339 Coqo 9
871056773 Wihugo 47
871082445 Hat 24
871501604 Yodehes 43
872036766 Jupeh 2
872337955 Loreru 27
876374056 Woziyaca 28
877869802 Ralelan 65
878004919 Wiw 81
878887516 Veraponu 32
883336156 Loj 79
883593110 Vagej 56
887351671 Ruyara 78
887688301 Zoj 99
887927911 Jula 27
888253802 Nuya 100
892461023 Ridog 69
895467480 Diqe 73
897940848 Jam 30
898433840 Rozexixu 52
900112104 Puku 9
900356624 Qoziruyo 46
901120394 Tosenu 90
902394959 Yejivo 1
903536969 Laloje 13
904096065 Yag 44
904111031 Qugex 75
904777184 Kabazex 79
905211970 Tilihejo 96
906102665 Xaro 92
906338363 Zopu 13
907087899 Niq 77
907113311 Hutehame 18
908208918 Bugijeni 34
908964746 Sugacesi 36
908991530 Yisihiqo 32
909766452 Wuyilaq 32
911569056 Kiyajovi 19
912497386 Jinu 39
913875564 Guyo 72
913894387 Jabe 55
916610734 Gepalij 64
918389863 Lum 83
919999126 Xak 76
920408942 Pof 95
921554882 Fum 17
922193181 Vujekoqo 6
922453460 Punebud 75
924544912 Hisaj 98
924917334 Xohex 2
925685299 Fuge 67
925907557 Gajodab 11
926564795 Ved 96
927305668 Nafojaw 18
928240663 Mobib 18
928778119 Pacizac 59
928833421 Vamijow 74
928852585 Tareyava 62
929261777 Madusuw 17
929592013 Bovo 31
930643305 Vec 59
931571517 Teyer 81
931765326 Herocoge 33
931911813 Ciwo 69
932466502 Dasujoja 74
933207635 Rah 59
933470902 Zidez 6
934345412 Sahut 64
934821100 Wefirir 55
935589847 Lup 17
936446132 Qago 51
936458471 Rik 5
936491260 Kiw 34
937143696 Mehej 37
938880694 Gugisofa 72
942209848 Mozimi 79
942235330 Keho 48
942925844 Leco 41
943912532 Ziba 33
947454112 Lebihi 36
947736060 Zam 32
948565096 Kak 17
949695364 Xen 31
950191500 Gecut 22
950506293 Hado 38
952895648 Bon 49
952919471 Joxa 81
953961907 Rusezeqo 16
954234265 Jubana 64
955996877 Del 8
956155695 Yiv 47
956494058 Kec 97
956649403 Soba 61
957245930 Xirihej 44
958437045 Lusev 53
959256070 Xowoguzu 8
959878935 Huwi 58
960100697 Daqi 97
960199137 Wegi 93
961101319 Gojap 36
962210155 Pixog 3
962395374 Lamef 96
964000637 Wepeh 97
964364682 Zuyos 89
965089401 Dukoyaj 28
967112253 Pafitu 91
967856909 Zusaxal 67
968683508 Ceguq 81
968719748 Qidage 37
968845445 Dula 42
968951069 Gamuw 8
970591693 Giruw 82
970841134 Vojitaw 23
972824134 Tucufaj 14
972941696 Jupug 52
973913697 Hufax 0
975283254 Dahumu 41
975547006 Moy 67
979671430 Terez 60
980780260 Tera 78
981206431 Pubi 94
984204014 Bayecab 31
984989576 Zexu 10
987132531 Rini 51
987724782 Qon 46
988584334 Xopi 33
992488627 Qebaguqo 38
993996071 Pazeluxa 17
994353661 Bok 9
994396703 Nuha 17
995225325 Tuyawe 100
995910170 Figotol 20
996920399 Xejiko 53
997805893 Feyici 43
