529
2647757 Wef 69
6219488 Hetet 42
10744821 Sifuyaqa 87
12495689 Naguwe 15
13246990 Dif 30
15797752 Riyodoc 74
17906451 Hisayula 18
20481866 Reboyol 15
21205723 Kudow 80
21881514 Joxosug 51
27647083 Guhahak 54
30119463 Cakopiv 54
32161371 Pakeyete 70
32207654 Cekuyada 93
34048111 Nete 8
41337398 Vop 33
44471033 Kusito 23
46512473 Lofem 77
46611367 Gomic 65
47150500 Ton 19
48248888 Vev 16
49734485 Dami 69
53490741 Vesem 43
57219392 Pomumafo 5
57335735 Rehi 99
59575744 Dopi 13
60717450 Masazigo 54
61223865 Nazotah 11
61226177 Rilul 25
62019176 Togu 73
65202204 Zayinana 25
66098627 Yake 69
66645436 Nihiqom 73
67017160 Linepako 18
67454935 Xevuxase 74
69972294 Xifocep 59
72019120 Zobapid 50
76301241 Rutuzi 95
77607989 Sezefej 68
78383189 Xaqegiw 99
79799481 Gekuca 47
82848746 Neg 37
84020172 Fiz 75
86886468 Diyad 98
87009186 Tuw 46
87021227 Sir 51
88221495 Vuviw 15
92157108 Jazix 95
93334574 Qacuwax 14
95859177 Moqil 71
97145553 Luk 7
98764366 Bacu 97
101614414 Qoru 27
104606531 Wexejit 44
104634821 Cajoto 61
106720415 Yiqexo 63
108966961 Siduhes 1
110695336 Bep 13
112660399 Pakixopi 43
114195207 Titaqe 46
114445587 Cat 24
120921762 Tajokac 2
122771947 Dob 54
123194331 Qiyey 85
124961977 Yaxo 64
127699511 Gadexime 53
128250538 Demu 60
129321540 Dosi 61
132418230 Duho 89
134936692 Kivafiw 71
135077324 Yaneki 95
137297473 Befiti 21
137673457 Werayow 65
140843215 Yudit 56
144641903 Kojipa 95
145464059 Joq 29
145899682 Mojaqi 7
146868288 Ludefi 73
147413189 Luve 5
147936882 Nawogoxi 63
149690026 Tifi 57
152983051 Yafiwe 26
153447663 Reyoleja 96
154294065 Xahal 20
159926673 Yopaq 12
164142966 Gowic 61
164285071 Duked 37
164614960 Qemeb 97
167375874 Cez 67
167677396 Repud 52
172908944 Kum 48
173969225 Lof 71
175818819 Jerat 67
176549295 Vugorim 12
177059683 Vejehoh 65
177216850 Lovuz 51
177636772 Bacex 69
178412008 Yexo 81
179669970 Non 39
182714700 Lekafe 70
183916982 Lucofed 87
185659535 Qusutaq 45
188281716 Vog 61
190026783 Vanolap 87
195825305 Goqolit 23
198000191 Legohuka 31
203735142 Qanudis 84
209263651 Yulu 2
213489746 Votiju 79
214080028 Jikudula 29
214147132 Hedik 17
214433953 Fopax 11
215248492 Tatuqele 5
216193198 Jekoze 19
220456196 Ziyuxok 69
220828951 Zokehon 78
221682111 Tocup 78
221977137 Dihokidu 15
224925541 Qamojuc 82
226206065 Xizope 83
226299097 Biqi 57
226911245 Qom 21
229074096 Kuke 23
233557751 Kopukow 27
235614426 Cizudeve 93
236075945 Sum 29
237540365 Vudipo 38
240190986 Josoka 78
240858051 Detici 18
248119382 Guc 65
248435691 Zaquxu 8
253126475 Nezami 45
253799569 Qesav 73
253826438 Kuhowo 92
255176865 Qegobe 50
259272723 Rekeziz 40
260990557 Puboqixi 92
264765350 Tuqojave 58
265132544 Qinemaj 76
267044429 Sayuh 24
267396053 Jejoxon 96
268058593 Wez 50
268852113 Nib 28
270151802 Lareceki 41
270478472 Zona 72
272341898 Pecoko 67
273305392 Yiwezup 26
279272338 Fam 37
282510971 Xapoda 36
292687193 Guva 70
294417874 Hayu 69
295090841 Vocuniyo 63
295766811 Higexo 68
296992582 Karivob 36
298851339 Kikezef 10
301368733 Redenaj 89
301992309 Himukoqo 43
302080689 Zitabo 80
302513222 Pow 2
303199135 Wuq 65
306239067 Zuwu 33
306942639 Zawe 97
308211756 Kopamuso 37
318305224 Soxukima 58
318621056 Nepuja 76
324097986 Kewiduj 80
327040685 Zejis 17
327627552 Doho 0
327839522 Tul 11
328046164 Gokam 4
339071755 Gub 19
339948473 Kazonaq 89
341412427 Vokake 86
341640422 Dabujo 68
345160760 Cun 67
345635008 Sapalusi 87
346577224 Cenaqe 10
347337600 Yuwovad 66
347493672 Kiqez 70
347843748 Bifiyub 77
352157135 Wexigi 8
353649933 Yut 4
354527166 Daqaxac 23
354722998 Vusoh 4
355064268 Sipis 54
355143845 Buc 64
357394277 Yepudix 58
363160650 Befa 94
364309881 Digu 19
365005849 Datiquw 58
368391907 Colajan 67
372826232 Ciroho 50
376168505 Kevoj 11
380493125 Nereyiv 83
380996740 Lasuy 0
382756578 Deq 88
389570687 Wavusib 54
390644707 Nadab 12
390991970 Piguve 74
399874105 Rep 59
402115533 Hecovel 19
405070170 Ribaje 91
407694362 Zepar 7
412687226 Zut 77
416468902 Qemaf 45
416490225 Xuy 42
416914454 Vus 31
417787205 Qibijuz 85
422692643 Gav 11
423270614 Sowuwu 11
424001041 Gokeyi 85
424814476 Bulaw 35
428227774 Vutuw 79
429046539 Marapila 0
432033741 Sovowof 1
434116643 Jovovipo 39
434168307 Qufabo 97
442391413 Ner 22
442501553 Xowugoc 34
445327275 Ziruw 43
445761664 Quy 9
448898483 Nolakesu 7
449663117 Lacu 27
452321411 Falamip 97
458278180 Qavup 39
458727654 Guxu 96
458795535 Rupuq 99
459385284 Xini 68
459692325 Mufor 28
459871870 Cuvame 6
461217782 Dicuyiha 53
461557411 Zop 32
461672872 Luvosa 16
462208696 Hijikusi 6
462759751 Wuviq 21
463910620 Dogew 31
464910955 Gijezu 78
465742003 Yihiy 34
465756450 Yucozu 16
471424894 Xun 83
472075695 Zosezun 82
472426656 Fed 60
472584398 Bowipiba 40
473220100 Luvu 31
475681617 Jumobato 15
476736663 Guwijiru 4
483068429 Zojevez 42
484220053 Game 39
484726595 Kugipife 2
486648406 Vafa 32
488007060 Hoj 44
490306924 Fisajudo 37
493406081 Mamosaja 16
496659594 Qogoqut 74
496800939 Jihogi 31
499179532 Teni 42
503431210 Qiri 47
505643075 Lucizuv 4
511036634 Solohaz 75
511750221 Jibipi 77
514332330 Yasibux 88
515355373 Yopon 22
515509679 Qawica 2
516688559 Gexaz 36
516960004 Fovu 5
518971415 Weyuz 44
521032099 Vub 67
524052527 Hequlizu 57
525269252 Yepufu 68
525707283 Yer 5
526170992 Yidij 33
530052435 Hik 1
530780839 Devosaq 3
533928976 Vuyosonu 82
534758714 Tiveliwu 5
535413174 Videyu 38
536127359 Hotapeq 83
537660970 Hene 27
538890784 Zaye 77
538934629 Jehebob 79
539160162 Xijubu 18
540468163 Sav 62
540587355 Vadimode 67
540736403 Xop 72
541562835 Qitobava 25
542355311 Lof 91
543227908 Bih 13
543395958 Qubix 73
543423872 Pukipub 70
546754692 Ruxira 7
547883933 Yexusita 35
549159407 Rifu 8
551061085 Gatabob 94
551193782 Xabi 7
552057864 Fuguh 42
553764029 Nuhiqi 81
558107960 Xahiraz 51
559400902 Mutiso 74
561952795 Litaj 47
562221611 Qawumoho 57
562736239 Monajugi 22
563438908 Bebuxidu 71
563947947 Resezup 48
564017574 Xucepel 5
565878274 Lexopa 1
567631078 Pejuyig 15
571546210 Yonokafi 42
571817943 Qiz 75
579473712 Xufuw 38
580120347 Kezud 92
580815581 Mehos 38
580980048 Jecin 55
585177568 Fadag 10
585552947 Masagoji 1
586749868 Yat 12
588105850 Qepewa 81
588672606 Wunenu 72
589285014 Pokid 37
589500474 Dozonu 3
589970720 Geli 80
594439725 Vucevede 15
596760980 Heq 95
597936445 Gizex 24
600230323 Tavakig 67
603539242 Xegog 92
605210354 Mohe 67
605740949 Coduyaya 83
606929960 Huq 59
610170834 Pig 61
611253383 Fegimim 70
619170384 Zotuxin 4
622901890 Kocim 98
623078032 Doxupa 84
623752232 Tasez 91
627375786 Fumuxo 26
628937278 Haguqama 39
629146367 Hacupo 15
635592690 Nosiki 64
638107532 Xokaji 80
639702831 Qumita 41
640771728 Leda 83
641152982 Mibiwo 56
644064298 Pamet 86
647797879 Radohiho 15
650403544 Wutinus 47
651960850 Fovu 18
657078743 Jil 40
657102217 Yas 100
659308429 Sofi 18
659976731 Kigaxaw 54
661714429 Jaqaqe 40
663601106 Ruzas 2
664409844 Jejegi 75
665749560 Berowoq 40
666072975 Fuzexozo 47
667939079 Pot 16
670428230 Bazu 83
671319673 Qasud 49
671528029 Xejar 41
671590015 Fowisuta 3
671820984 Zaj 53
671994099 Xeyeteca 28
673444022 Vepip 13
677277647 Topiz 48
677768366 Qicufe 29
679424800 Diduka 0
679925466 Xidi 28
681743498 Teyowoh 40
683244863 Zidacel 96
683341967 Fomav 90
684847788 Tucitu 76
686061250 Rig 45
686110777 Wadohi 50
687247915 Yaquler 20
691682449 Likodaz 16
693874153 Qihimeh 1
694248934 Hidigije 41
696395242 Hoyi 57
696402855 Laf 94
701438984 Latofew 27
704945621 Papu 3
706524872 Sibereho 52
710562970 Deg 64
710835582 Vozip 48
711117786 Moqequs 54
711585429 Qapufaw 27
713138468 Faruz 54
716070627 Duhido 70
718166531 Rodux 69
720531819 Tolap 75
721428977 Bomoheg 77
725140486 Yejuneko 95
725892215 Dixavepo 85
728617492 Dun 69
729941750 Qure 54
734444882 Xoxawumo 57
736558702 Pojayihu 2
736792930 Kabumuri 45
739622182 Vita 56
742076296 Qapoh 23
742169837 Xenilawu 25
742317011 Xagor 82
743424258 Cihupey 87
747909315 Dote 1
748775160 Sobofo 100
749764445 Mowu 95
749952974 Lumone 61
751515630 Zaki 0
751648787 Cufeyic 60
751830958 Xizuq 85
752120301 Deruwob 87
755322045 Qusuguy 1
756513624 Gitoca 52
758536035 Zawec 1
758694554 Hiqirek 28
759106259 Dira 80
764557136 Kitoyume 2
766669892 Gewoj 24
770218312 Feki 29
772172370 Hilemi 46
773558908 Sicatij 54
780742908 Dap 31
780914248 Xevir 31
783765763 Feqoz 54
785803353 Jiv 24
787470353 Dozumoqo 86
787808037 Yeb 76
789041585 Vif 12
789551137 Cos 59
790480673 Tareje 68
791543774 Ceti 58
792152463 Xitip 84
793482670 Giw 8
795702331 Rep 10
796526983 Gucuku 6
799070834 Jiqaqoc 3
803498890 Cucuq 89
803796175 Kura 41
805359446 Yur 6
805745189 Toluma 36
806146621 Nuja 93
812464335 Fogadipu 91
817459677 Kumuraco 86
817524758 Wuti 32
821137988 Fogaza 6
822095672 Rox 91
823683233 Kaki 54
826885372 Foguzu 35
831995597 Naveyod 71
840719430 Vuxoday 15
846012336 Panuwowa 10
846656203 Yamiw 19
847283514 Xujejelo 26
849698993 Faqu 34
850632508 Nepujoye 15
851631873 Wali 68
853252426 Xiquhiko 13
854281859 Yejazuya 71
855731521 Dewejih 9
856988895 Yal 86
858088261 Qayotoy 94
860139939 Kabanar 64
863392582 Tiv 68
865719714 Qeb 94
865720921 Saqiha 90
866348625 Xaliwico 42
867804892 Yironiv 8
869902266 Bale 49
873336665 Wubib 92
876507171 Tidogew 15
878622576 Bud 75
879564284 Xum 27
881812309 Tegapo 2
882102133 Fibasija 25
887540956 Guj 89
892046324 Bevevuda 8
893425959 Bikuxeve 77
893479636 Novuk 69
893621002 Sebay 51
895351944 Zurenu 12
898610306 Vepo 13
901707731 Yapovik 12
903886642 Zahikuda 36
907531739 Cixo 65
908685589 Tiwube 90
914421939 Copusut 47
915100585 Luf 78
918313487 Dowujot 27
918546902 Gizu 88
924852854 Ruvibox 72
925863102 Cowe 43
926005361 Yupezapo 93
926569984 Zokil 23
928580422 Civ 26
929637024 Mepeto 98
931367313 Vuqedo 58
935362462 Genawolu 35
936218902 Turabal 83
937947785 Kapazo 16
940781083 Vov 100
941842097 Wiyob 38
943275005 Xunecev 87
945171220 Hefiqam 10
949522820 Hito 30
953033312 Sokidik 8
953377889 Jusi 4
957190374 Vewiqeb 12
958049516 Veqo 17
959981531 Fijaca 32
966026325 Liyigoy 84
966264084 Ceti 7
967381116 Cori 39
973550750 Zemigal 91
974201205 Nibemu 45
978887396 Buvucu 44
985077100 Sixasomo 98
985390331 Huj 32
987143286 Rocewap 25
990676363 Vukokave 95
990883184 Yix 50
991117960 Popo 91
992096533 Puqoy 86
993569294 Qosajin 36
994106554 Yobisis 69
995186180 Cewub 40
996561046 Jor 4
997620625 Gawa 58
999911067 Vodux 67
999989287 Yuxifap 25
