924
1223951 Temalut 87
1880540 Sabe 51
2447591 Yeyewuni 31
3399382 Yakagi 77
3818760 Cubope 81
7039266 Niy 58
8798238 Yazocoz 24
10232109 Jumi 84
10339479 Fudeb 7
11803767 Sejidifu 19
13790006 Husu 4
14231677 Suseyuk 20
17014422 Quwoy 54
17954074 Zep 45
21006542 Pixiseq 41
21829727 Give 100
22051095 Lozife 72
23605663 Fifi 13
27862038 Cujibiyo 3
27863500 Lebebab 96
28886919 Jej 30
30062440 Dogom 97
32390559 Jazi 71
33036867 Koze 81
34772029 Riy 91
36468328 Qomoyi 5
36828728 Rij 71
37367952 Bif 95
37531045 Kojit 53
37844133 Vaz 37
38774676 Bavet 27
43781493 Yame 49
47915718 Tevikiba 65
48735016 Bacu 70
50335330 Soki 93
52253114 Zobubi 88
53259022 Duxof 35
56977292 Setap 14
57751878 Memuvefu 95
60486170 Xavuha 73
61212188 Keboni 18
61304604 Wusofepe 32
62629739 Pegef 35
63494981 Cogojoc 8
64258930 Xefuros 31
65997844 Jiju 46
66829260 Sobije 52
67183811 Taroxe 82
68686043 Qucaca 97
70296052 Qogageki 36
70516341 Pofev 68
70823614 Geselel 88
72636607 Suvofu 100
72744398 Joje 38
73477885 Dase 90
74840073 Noqexo 75
76774228 Woxa 46
78924055 Zoc 7
80937822 Fusiqusi 74
81221104 Noqil 3
82763309 Pelime 28
83737648 Jigoz 39
83777901 Kowaleto 90
84983209 Papul 100
90405175 Xof 78
90508994 Nilozura 87
90547702 Babo 97
91018343 Gafax 99
92847077 Xujanu 40
93273048 Yujoriw 46
94417222 Wewopoha 44
95937480 Jenirix 22
100077932 Tiro 84
101546698 Mikule 31
101691623 Hupax 59
103796601 Tekezud 79
105658204 Sarewabo 99
105979634 Xero 35
106608241 Cexe 40
107405649 Wemoyu 7
108325189 Cuyi 48
111873099 Zakivob 2
112309526 Batogo 97
112549541 Zejuqa 5
113436538 Zofek 86
113754313 Cac 19
114200898 Xegeveyi 37
117614405 Qaleg 5
118306822 Yuwoxi 16
120019473 Tupa 48
120985281 Yokibuju 34
121333865 Zoxediro 46
124305323 Jesiwu 74
126260074 Xov 54
127422971 Fusaluj 3
129204379 Potoj 84
130073328 Hedip 43
131570707 Luwawow 84
132481272 Rojaniq 70
133069491 Poleha 69
133386426 Zodido 8
133440247 Kiwaf 20
133723896 Dogede 35
135089744 Lew 43
135689930 Pim 88
137670102 Bawol 46
138115166 Lunusiz 76
138858023 Yaf 81
140706795 Vizik 19
141941313 Waza 32
142257484 Tave 34
144802712 Xaxocib 42
145650056 Piquhag 19
146401816 Cozejuwe 44
147023924 Faku 32
147591607 Beriyama 68
149894266 Yitubiq 32
150463950 Yakosu 60
151520394 Lupata 49
153382558 Tipakice 4
156261992 Qeju 62
156849990 Tivajato 13
158595730 Ruhik 48
160060455 Tufi 26
160914036 Bacum 82
161143248 Luq 75
162181176 Cecugu 54
162797205 Viqiz 38
162848154 Bunod 99
163886870 Polib 34
163991771 Diraj 72
164699066 Dafor 83
165818884 Yoviz 35
167597234 Janor 60
167754841 Viguz 59
170528932 Gaw 89
171178022 Tupebu 23
171325937 Wuwuju 34
172929727 Jehi 69
173372825 Hiro 96
174597377 Liruheb 16
175206444 Run 80
177503946 Bahadu 45
178149813 Biv 61
178683113 Tatudiy 96
181160427 Lidi 20
182726449 Burene 88
183084386 Cez 97
183570137 Haruwuca 50
183681920 Nixera 68
183732876 Liva 60
183781596 Laj 88
187357849 Xeb 16
187636426 Patesux 65
188527930 Dasokox 18
190094364 Viyi 64
191345323 Xujuda 54
193331345 Melocamo 10
194162454 Kud 12
194230104 Ragoj 62
195352513 Kisebona 4
198599924 Gafu 33
199072470 Pudu 38
199727672 Zemur 87
199926471 Kicubixo 74
202272950 Nihowig 32
203899205 Sanaciju 40
204011036 Qiq 62
206820602 Ponilaz 18
207365168 Ceb 77
210407916 Cedecota 94
210549063 Kujonuj 36
211069003 Zaqa 86
212155453 Cole 43
212209430 Turewo 51
213405386 Qigaj 69
214392693 Guy 62
215952627 Reqog 66
218323922 Vofo 38
219862430 Semiv 91
220497203 Lezig 52
220939976 Yezezemi 10
220988458 Wevoga 17
222101579 Cika 58
222164369 Tiqarili 74
222477545 Hesoceri 43
222918845 Vihisez 24
224257371 Pane 66
224884302 Hij 45
225387843 Xix 77
226927443 Jek 53
227460073 Zola 86
232757617 Minuw 8
233861834 Tote 4
234510890 Yewa 42
234587555 Basimunu 14
235183612 Tudori 65
235330827 Yoqenos 77
235468292 Binetovu 8
236448390 Teteya 21
237905237 Batim 11
239205955 Xomiyo 51
240148732 Sipe 3
240669281 Ravaqo 9
242011927 Puxahi 61
242042159 Cice 24
244145349 Cobetah 68
244262783 Kik 20
245488043 Xide 15
247015781 Fiser 5
249450542 Bohejiqa 27
252032962 Yaxidavo 28
252047422 Sokekoke 59
254538236 Yoy 99
257829295 Jacosu 26
258588892 Wur 95
258885696 Pes 99
259615577 Denihoru 2
259694758 Ceweg 31
259802341 Yiw 97
261835943 Qozisa 48
262060013 Xalecuj 74
264028179 Gilite 2
264146185 Tuci 60
266116368 Vewagu 8
266889616 Xupefa 0
266942164 Tutog 76
269386832 Vazicir 45
269621066 Modoq 42
270422037 Goj 62
271927131 Xuduxiz 13
272692646 Xisulehe 2
273753019 Hiloqidi 96
274635725 Defik 26
278775359 Simito 58
279694979 Yidiv 34
280682859 Dihik 27
281499012 Kon 11
282061248 Ker 46
283573169 Fahehoh 10
283605561 Manodum 29
285360534 Dunotap 37
285751314 Waxeroxe 66
286567043 Tod 97
287437768 Yiv 16
287914740 Yenaso 22
288398308 Zuxu 54
288849840 Xebuco 42
289584323 Nugo 57
290087791 Tah 30
290458123 Yotifu 6
290468873 Hicuwiya 54
290671113 Dop 87
291307778 Ciz 12
292803614 Nupap 77
293032574 Wirug 53
294636459 Xemuday 45
294736442 Rofed 33
295827993 Zeginag 41
295979775 Sufuxiko 42
295988346 Ciqob 10
296182652 Qezuq 19
296687620 Pupiwe 47
298118991 Wizolete 36
298568821 Vahulofa 2
299724884 Fatab 29
299770339 Yisoz 77
299791141 Pobi 53
299949585 Guz 31
302798536 Yizosu 89
302819336 Mira 72
302920378 Yoguda 11
303400398 Malenoc 48
303436479 Yoxodan 8
304006910 Casayicu 56
305438888 Cayefoni 2
306900130 Tefewa 35
308458273 Jut 81
309739842 Wotaxaf 86
310188288 Tevimico 98
310820966 Noxot 31
311186664 Kufed 12
314687184 Bofapolu 58
315571699 Lizuq 33
316645271 Nuxug 25
316864794 Huwexeq 86
318073952 Qew 100
318118335 Hizige 7
321312772 Jasu 3
324386758 Xohuvi 73
325744363 Juqowoqe 44
325969170 Zudirate 49
326295311 Pexe 100
331238105 Timanaro 39
331893632 Datic 0
332755842 Kixayeyu 98
334819959 Lariyowo 25
335521011 Wezalo 73
336579967 Kalizoz 89
336712417 Xubuj 59
337715148 Zow 76
338047612 Xoyovedu 65
338815856 Hiwixi 71
339521922 Fenut 34
340335538 Tun 93
342453427 Paguze 25
343980424 Xedi 6
344751686 Hogake 69
345136356 Kico 14
345522476 Hubo 89
346451578 Zocaxelo 29
347527644 Vutahay 60
347884309 Kaseg 79
348660376 Riw 12
351230683 Jib 47
351730314 Rovo 56
351888199 Ricug 70
351953242 Kigiya 76
353508445 Howokapo 14
353818041 Xanebiqi 35
354209631 Vokodu 93
354338590 Zar 2
355032534 Xorifug 57
357943577 Cirut 6
359421921 Husi 94
360104868 Niwomi 51
360721371 Ralofum 78
361429038 Xaluhuvi 78
363361505 Ticoqu 31
363415431 Ger 15
363427158 Con 95
365238498 Givix 82
366138174 Niwo 91
366408564 Bawe 100
367535631 Tinogo 17
368710325 Boqeteq 99
370156644 Jaq 48
370952320 Fucagede 30
372547050 Bisuh 29
373321037 Talayu 95
373833783 Quha 70
376557251 Put 22
377462165 Rekanu 53
378477865 Subowi 22
379423940 Herotuwi 100
379646022 Fura 17
379787013 Janoso 100
385053131 Lobarel 97
385657752 Hir 87
387707286 Xenudoju 5
388328215 Kuja 96
389008998 Huyoki 84
389553823 Medesuya 28
390141178 Xejar 86
393205969 Misiz 4
394061603 Qehakida 32
397714996 Xeze 42
398128720 Qucolo 96
398560412 Mopo 6
400120571 Lolihegu 25
401446884 Sim 5
401451104 Miyi 65
401510459 Zut 63
401608348 Gevadaf 57
401893900 Fuyakip 78
403527827 Berurom 0
404453887 Mevo 71
405768210 Wugudi 21
406289048 Likubi 83
407223657 Faxer 24
407414881 Bumeyu 85
408610955 Hofise 36
409120073 Diwivez 55
409506109 Nahiq 64
409575804 Nojoje 75
410207858 Tajo 13
410750591 Hume 55
411256829 Gidayu 84
413906555 Hizos 25
415938217 Kisejep 94
417850847 Qaref 34
418657537 Bej 94
419367815 Gobofeli 27
420881559 Lutok 77
421242785 Resucoq 87
421978636 Nevac 57
422832580 Vebujuvi 47
422855886 Jeyovoh 83
423737511 Zapak 43
423774786 Yuwasip 25
424107946 Sivexap 71
424255482 Sevaq 41
424735803 Reguroc 29
425848159 Xowiya 94
428997517 Hohiy 72
429252291 Tajeka 4
430067496 Juhok 26
430953758 Fusot 86
438313139 Hezigat 84
438366184 Midaha 23
439607205 Lokawora 21
442385373 Ceyemi 75
443641927 Boqip 0
444216251 Velap 94
445629541 Noju 75
446471147 Fay 39
450565760 Wivisu 91
450744007 Dixixila 4
450846513 Zeyoge 78
450931579 Hapeyi 46
452774364 Sacor 8
455709787 Coc 80
457328699 Quyene 3
457802032 Keqa 63
460371239 Mosinus 20
461962577 Kikereke 51
464231184 Nuf 13
469605253 Kaja 80
470020264 Fori 27
472232103 Dubagocu 80
473758175 Jacama 83
473868007 Kuzap 60
474458141 Fozigaq 35
475333101 Vuwo 31
476220557 Zeq 52
476403547 Debej 89
476793006 Kot 36
478814389 Weyeg 70
479629833 Loce 100
479669784 Wexawo 87
480059752 Peheda 56
480191305 Kej 11
481265764 Lewizer 84
483177071 Voxe 97
483679680 Yeh 86
485187693 Jiz 92
486497611 Genabeji 17
487535390 Fasil 6
489407188 Fob 74
491846288 Kofilib 38
492602036 Kirokam 93
493081904 Raqaxopu 48
493314828 Jumaxaq 87
493761531 Yejima 82
495512735 Qop 62
496475534 Zeyiwu 5
498064098 Meyiji 30
498071434 Ziret 60
500837541 Pero 5
500965560 Daqe 87
501031583 Lokola 6
502120072 Jihogoci 98
504290562 Yiviw 97
504321722 Loyoji 52
504641381 Taxow 79
504979856 Voroxa 86
507404308 Zude 72
507733930 Nomu 76
509890247 Gopi 60
510859648 Yuj 61
511638251 Yeleb 74
513923162 Puco 62
514985941 Gob 63
517504140 Bihuso 55
518758580 Piquk 21
520533822 Feliyu 48
521821178 Kasun 21
522931511 Viyeveve 71
525651539 Kem 93
526986753 Rututuxa 62
531969458 Vokunab 12
532579114 Xetecih 69
532588204 Qul 81
532858108 Tunayewu 38
533839873 Qeqa 40
535472788 Yupe 47
536875146 Yotepuji 89
537484061 Gimelav 54
537924091 Rojip 58
538197308 Vofuyo 68
538485237 Xise 89
539373778 Sazolu 61
539630816 Yelima 34
540460952 Diqelon 21
542072797 Kehabace 5
542429597 Nadokaq 61
543517353 Zedug 40
544543829 Hove 56
546268535 Yuhagoki 35
546528197 Bezop 64
546619664 Suca 52
546925283 Fexun 31
547933046 Mebuwaku 77
548875170 Binok 74
548993608 Timowi 42
549678105 Pilatun 22
552160864 Xexob 71
555744960 Vuv 20
556058638 Pew 100
556394845 Badu 36
558399579 Gug 44
560295782 Vedujuk 73
563735556 Cisigoze 64
563942490 Cajov 69
565124919 Moyan 40
565320929 Zaqeyan 52
565579315 Zej 3
567784867 Sikenidu 35
568442129 Zel 33
570255163 Quxi 46
572159138 Xago 93
573779831 Zoxip 35
574761271 Pitaz 86
578409886 Taku 11
580031230 Teworiwa 94
580603999 Payepagu 44
581022784 Taz 86
581761146 Yalacu 41
583579834 Pobujis 84
583716630 Jejejot 34
584698121 Lisitusa 57
585058809 Tihu 21
585213060 Pevoku 57
585824289 Qawawu 94
586383375 Jam 6
587455152 Zavonis 51
588575225 Yemezu 32
588853223 Denep 87
589322369 Xisoyiku 38
589499391 Caze 81
590895929 Dahegebi 56
591317950 Cedat 72
591358381 Popeju 60
591460891 Lakeze 47
594213416 Zotibupu 19
595741364 Lifen 14
597512621 Sovuyube 61
599370884 Mizud 65
600332833 Hey 97
600783784 Fawo 0
600861059 Jaquh 93
601921492 Zor 51
602156806 Vogicu 66
603300357 Wamu 39
603322821 Zun 85
605666362 Zeyeku 47
606555879 Ludevo 35
608175211 Tobeqar 44
610478287 Yete 42
612548804 Gup 55
617845469 Nopudelo 29
619133884 Cejezoyu 10
619630755 Cefuxi 21
619965932 Dolotivo 80
621121572 Xupuqil 81
622293779 Yozir 75
622889466 Nez 34
623139338 Rofil 45
625951377 Luqequye 6
626735255 Xuguzuto 16
627023782 Lir 77
627987836 Kihukila 6
628127629 Womim 63
629110265 Jita 87
630485863 Kes 56
631031255 Purono 4
631801793 Gij 77
632192584 Vorag 15
634506267 Huqeruse 84
635891251 Nefiheco 64
636427791 Jixerih 95
637086773 Mupovez 53
637616728 Rolisiv 93
638690367 Guhosabu 33
641184426 Cakuf 30
641200525 Paxusa 17
641980345 Rokis 28
642736844 Silim 100
643531966 Qadukuse 28
643645382 Pavin 49
644119194 Gorusogu 2
644811062 Musado 18
645471469 Figacu 6
646317885 Golikine 10
649003803 Lela 26
651106903 Bixu 81
651814994 Dufadabi 55
652381686 Zas 8
654030065 Rejad 74
654566674 Fimotiko 20
656176918 Yelixebu 77
656900327 Petav 60
659766376 Kica 15
660781641 Muziv 20
662800214 Yesehowu 72
665233415 Lanaya 8
666725575 Bafek 84
667368466 Pilijuq 4
667563379 Zavu 78
668209740 Sifijer 10
668438624 Wisoh 72
668685008 Pupizeme 1
669756447 Datinu 49
670640214 Nayo 10
672807097 Xete 67
674004114 Woloxon 57
674650552 Gufudo 90
674919760 Naw 89
675127761 Tiwad 1
676588086 Yevaxa 96
679300642 Lidogoh 87
680799984 Yeya 61
681556149 Donuvu 87
681934349 Micah 54
682388458 Pup 0
684120164 Bogoqa 63
686482336 Qifeti 1
686806703 Tozu 52
688719062 Xagafep 51
689205918 Jex 1
689857915 Nob 68
692124489 Juxazal 38
692922568 Qowuqad 73
694738699 Guyifok 86
695318942 Dipesiv 31
695672375 Jejop 85
695901060 Hoqur 43
696984818 Dupavih 39
697278076 Nuc 39
697968422 Qake 17
700784076 Jen 7
701861368 Dor 3
701998309 Bigojaw 13
702524182 Qilanan 58
703507499 Peratake 62
703897766 Fiqo 73
704510721 Bakomah 23
704699757 Domaw 21
707770283 Veqexaqo 13
708690572 Qeyeziwa 33
710105302 Cewenace 53
710422182 Sekaxuci 44
710939715 Womecer 1
710985726 Wuzizey 10
711690579 Buni 41
712196270 Bopiz 45
712534246 Jujuhi 6
714282872 Gavov 80
714596517 Kuwumo 64
715340339 Juwubi 15
716154548 Xox 100
716181629 Getic 21
716307036 Dol 15
716511311 Maj 88
717235486 Hojaqi 10
718062013 Tahowa 34
718614928 Vociqeci 8
719019811 Pak 18
719554002 Huj 63
719682268 Mericu 15
720923826 Jiyokeh 78
721001330 Cube 14
722857285 Qoluda 64
725007554 Wofan 99
725805408 Meq 87
726045201 Met 23
726221232 Corate 10
726634740 Qibiyek 8
728315257 Fucoxezu 97
731029448 Lasa 35
731426371 Rogu 18
732533168 Gicefis 31
734997251 Guno 31
736349174 Sumidew 13
737112358 Corekan 28
737206976 Henonu 99
738221350 Xowur 38
739995914 Cex 24
740190352 Lix 2
742096519 Nec 61
742321964 Jetut 79
742852154 Rivukome 81
742945273 Cedabore 89
743211542 Fajo 1
743918220 Ximoso 34
745326176 Jul 52
747879643 Suf 96
748234607 Sal 47
748586105 Woxa 23
753467733 Mobib 91
755220866 Xuri 85
756391065 Tubu 77
756628337 Hewenew 44
756989338 Jufiteho 4
757857175 Xov 39
757922557 Rokihaci 4
758378777 Muzaru 11
759065736 Dudise 41
759697796 Wahev 9
761599796 Xeze 40
762121310 Xoqogoto 91
762851578 Dozinob 31
764829893 Xilosawu 92
765914493 Qayar 33
766456038 Lukuleso 41
766921696 Yoremig 80
767091220 Jiwakoz 93
767713831 Micoxi 96
768082570 Wemunu 34
774151500 Bah 33
776400770 Xepu 9
779561945 Zule 62
782550973 Vutiteje 42
782595037 Foxe 44
782861515 Zazo 12
783227830 Rerowa 0
787172815 Kuyo 33
788681671 Sida 10
788981887 Tikam 56
790230087 Norop 19
792532837 Leragice 15
792756861 Yuyavi 1
792807552 Hucuxo 89
795458175 Hezin 71
795781271 Mip 32
796475364 Noqufihu 58
800049694 Dokope 38
800152975 Zupo 22
800441343 Yepezer 45
800893590 Guwiqe 94
801034390 Cixesoda 98
801941378 Casepos 94
802249235 Jecosepo 85
802323584 Fugo 27
802531127 Tufix 52
804014341 Mijigaq 0
804493101 Namoz 68
806112678 Hazaj 28
806486555 Viwu 87
807753038 Reka 63
808613148 Binuzajo 55
809990072 Pex 63
810908742 Rabi 76
811582986 Baxav 66
811857920 Korid 92
812581767 Taco 59
813259429 Cujuk 86
813614996 Wofeqogu 83
815017672 Bire 98
816171768 Batosepo 32
816211614 Lekom 7
816528839 Nixa 74
817013229 Nijijaqu 51
818192177 Beni 93
818224977 Losexu 70
818273024 Juyul 22
819491568 Cogo 82
820846996 Kagujeja 63
821918355 Puxeyul 34
823020523 Dedocep 57
823434849 Yavuce 42
824285671 Jituce 57
827614656 Tijun 20
828595701 Muhu 19
830779225 Julem 14
832497078 Teha 5
835452202 Weti 35
836225397 Voqe 51
837957653 Lap 86
841179812 Kik 33
842154085 Fipipuja 46
845773998 Lay 84
846095840 Hoqizoc 82
849099221 Rokisus 32
849584642 Riso 23
850015050 Lumur 36
851077870 Mapa 36
854788739 Laneti 21
857900725 Wokiro 35
858346270 Jelizo 83
858927451 Wiq 5
860973330 Xubizo 13
861206963 Com 27
862582079 Goxa 38
865490202 Jaluba 55
867739999 Rixava 51
869507052 Wujur 3
870786528 Guz 85
872404205 Wehi 8
872727542 Nuxayavu 14
872983089 Pig 95
874579350 Suxu 93
875467509 Voyixaf 82
877429226 Late 42
877530195 Hasixos 58
878787564 Nijesi 89
881605995 Tinuwasi 87
882204580 Paru 27
883572089 Jinefun 92
885205794 Dilatoni 55
885276062 Qomuzucu 40
885708831 Reci 24
886106397 Yolam 38
886175519 Jomip 0
886704259 Kotepake 85
887176487 Cuha 65
887510283 Qivuka 40
888201439 Kotohix 61
888705734 Zirid 78
889218285 Ziw 42
889553879 Yukipi 72
890525403 Sej 27
892099157 Heviho 50
893479660 Copexe 100
896983383 Sacog 77
897941273 Leva 84
898544212 Joc 94
899016517 Towa 63
901703683 Yevav 59
902772797 Jat 99
902930848 Wape 16
903732776 Boxap 23
904549821 Kumes 52
904911970 Xiwu 16
905658342 Doqacuq 47
905719623 Fiq 92
906077179 Hegiligi 65
908436567 Dul 61
908545293 Jiqag 56
908936948 Hatibe 64
909014643 Dud 2
910687191 Lekip 40
911286521 Wod 16
911580487 Cezinoxe 63
912091705 Res 50
912919654 Vuqexajo 44
915112428 Gukapu 42
916120668 Nutefo 45
917711816 Havig 18
920089387 Cefut 5
920273589 Vut 26
923067031 Kirugix 58
923331836 Bar 49
925311311 Fovulime 26
928188233 Fovedona 84
928214967 Yolosoho 96
929309419 Cohiqolo 34
929735830 Daki 37
930325495 Rohu 20
932031419 Wuf 90
933746463 Poc 11
934111625 Jelufoy 26
934253219 Ful 15
936288535 Gobiwiw 99
936479971 Vujizev 42
936549941 Reyo 50
937249175 Lifefiv 47
937409331 Wiqizux 85
939818882 Vaceb 37
942969653 Setekof 45
943666459 Kiso 30
944586275 Vom 41
944819517 Yurix 44
945455151 Xihido 77
945590212 Vozefis 88
946132722 Kinafo 90
946316846 Fokuq 84
946496658 Dejid 8
947208215 Veredoc 59
947542371 Notoj 1
950239235 Bibuyok 89
951497577 Bulami 81
953035181 Fuyepa 46
954224107 Weliqus 52
955208206 Tepuz 62
955564178 Qatu 73
956413881 Gab 37
957280381 Yudu 86
957394255 Jotehi 27
957560579 Zuyoputo 54
959597653 Jof 1
959894971 Vijeqe 30
960858537 Manihamo 95
961680555 Bomagu 77
961727057 Kamiza 44
962088849 Xatoy 84
966726485 Nuqogero 3
967068393 Tisuw 29
968304800 Kus 7
969800607 Kiw 74
971125201 Tecede 27
971146261 Fede 47
971425916 Biq 92
972245747 Zolab 15
977414248 Sem 67
979327687 Nequm 100
979984526 Pove 30
980236080 Nop 49
980339790 Xowovo 10
982185406 Cuvoyug 7
982308357 Tasero 74
983968418 Kodameg 98
983972207 Wipap 24
984434036 Jayah 52
985372620 Zeba 6
985889611 Bum 91
985999722 Gofi 86
987165668 Mogoraza 28
987242147 Kuwo 58
988688323 Ruwuca 57
988860192 Jodi 90
988926572 Cegog 22
989169221 Wuyehit 52
989242874 Xeruro 22
991189709 Zaroveno 4
992272282 Qob 63
995644322 Didu 35
996388392 Hotob 87
997085364 Mirit 93
997671845 Rebuxu 5
997756629 Lat 62
998174046 Bakid 44
998435460 Korivez 4
999312221 Yoyef 50
