518
3630105 Gile 13
5342665 Mekecin 81
10491433 Vasani 69
12353523 Pasah 25
12434484 Wemigin 18
14329156 Moxixi 88
15769086 Vama 64
15776873 Siqayula 78
16311768 Sabunib 52
18869989 Xuz 100
23535201 Qozusiga 66
23646242 Muf 79
25063293 Yipi 55
26080122 Yuri 8
28403142 Feyaq 60
29175508 Keluxoyu 78
31045977 Qidim 86
35025520 Sada 62
37440730 Taj 6
38528641 Taxipi 91
40119162 Tol 84
41061696 Yufufiy 99
42978345 Duzed 13
44464454 Bohu 26
46653341 Jepipo 20
46833348 Cadapaqe 16
47049355 Zilat 53
48972509 Hifajoqi 9
51383484 Kucu 36
56147931 Delo 22
59423590 Cuxom 71
61924875 Bure 36
64283107 Goqiq 26
71532016 Kix 97
71671653 Ziyu 53
78754721 Qeba 100
80156089 Cufuxifa 41
81658876 Caz 96
85503054 Mofaz 38
87196179 Felamoc 8
87218811 Hijey 0
91054070 Pukogeh 54
92021239 Pesefu 52
92513509 Jur 87
93953213 Solaxex 31
99284014 Nop 93
100843566 Pen 60
103530996 Vavozu 17
105175751 Cagig 49
105815964 Kuheni 47
109256336 Ciwoh 94
112351537 Duhixi 66
113456256 Tip 52
113700218 Yujo 13
113804350 Kowus 62
113992321 Dakakey 67
115936565 Jaco 16
117180913 Gat 74
117350366 Rudu 15
121706564 Riw 16
123835504 Mukijuzi 62
125589082 Huvoquh 36
126487683 Gefo 4
127937626 Reye 5
129807675 Fuwoq 16
131149192 Jodujoy 86
133142103 Hawawo 80
133716736 Tuce 98
138572144 Casapilo 33
139455757 Qihutox 14
139812723 Lemebu 1
140479472 Mahamowe 5
140512473 Netefos 94
141478419 Yenerubo 97
141952121 Nana 95
142873231 Deje 6
144761689 Kuvigihu 11
146451186 Linebo 54
146475737 Cire 49
147867293 Pij 31
149097670 Jokoxoj 23
149365741 Lewe 51
151116357 Fuloji 41
151321231 Tixapa 100
153461507 Walahed 72
158656263 Sono 70
165593017 Vimalu 88
165984465 Rulozux 79
166484769 Qirulo 58
166705911 Gex 53
166999963 Rene 2
167119276 Tekaj 46
168800400 Lot 49
174553563 Jelupas 53
175476650 Ruqesa 82
175523696 Renadera 61
176548366 Tuz 54
180045408 Widimiq 41
182816500 Mujameq 40
183722171 Yehakuh 27
184839937 Yajimex 87
190716333 Kiyuw 99
190906204 Tok 31
193495992 Lejac 12
194823820 Gicujus 43
195718313 Nizikam 61
196962538 Timigago 68
200737704 Nugifa 96
204379877 Jicob 2
205131988 Kufofi 46
206222493 Sumufit 53
206487318 Sid 30
216058578 Numew 91
216950113 Navup 5
218210234 Tamab 30
218223493 Jihequ 80
221732947 Molij 95
228465858 Yeligeto 38
229461854 Wiyunir 93
230130946 Vanalere 84
232085936 Vetib 41
233469910 Pilaw 32
235895377 Fid 61
237535227 Bevigine 86
237844034 Foq 9
239978748 Vuxowu 29
242259018 Netili 4
242498888 Dehuyido 52
245700799 Kuga 100
254328470 Yehutip 12
254350646 Padab 12
255444766 Qikopud 48
258031773 Meda 31
258841075 Mib 45
261829974 Tidofo 9
261968268 Feqa 76
263721796 Joxoxowi 97
264918383 Jeguca 10
265320540 Joqef 61
269138975 Texoz 96
269655954 Gola 65
270820486 Miji 50
271454205 Pumu 32
272097087 Finoy 57
273372623 Kuk 87
274953545 Sixag 46
275335540 Wepoqero 37
276577350 Doti 77
277553412 Tola 23
282024379 Lan 40
283011730 Zitoku 34
285940553 Dep 46
288650083 Vubolono 49
290398800 Tisifu 33
290501859 Zugu 66
291490797 Yoji 81
297179014 Feg 34
299154559 Gib 96
301285917 Tunop 15
302919883 Zena 62
304285403 Sivefec 65
305306282 Mihidi 23
306561291 Dekocov 31
306999855 Lorevi 4
307068235 Tom 97
307680872 Duku 74
308548223 Wimecota 38
311136171 Libafes 39
311494477 Nomecoz 9
315105881 Hoxoc 96
316226473 Jopi 65
318866067 Dubis 25
320061375 Xubuva 61
320157812 Qufar 3
326169736 Fiduya 77
326580646 Qif 29
329329723 Deluv 14
331582128 Wazisa 65
340508237 Togivo 64
342860587 Xabuj 20
344270407 Mos 56
354413037 Cadayic 21
355088025 Qizos 51
360112211 Cokuf 35
361401274 Bufalimi 33
363984560 Tapi 79
364293591 Cagataki 21
366237984 Gepofip 80
368390543 Mapev 51
369421120 Dero 31
370356388 Mipacix 22
370979898 Muqom 33
372926261 Kozahe 56
377111852 Vecabic 5
377294126 Sonejila 28
377471021 Fogiv 44
379340313 Todunu 64
381136599 Rarewiza 18
381728707 Tehi 13
383651647 Piyuyaso 40
384890272 Zafikoge 10
389016874 Jucu 21
391628316 Des 78
392241600 Jutul 64
392306106 Ciririj 31
393527671 Nemile 27
394258396 Yakavi 52
398055395 Cuguxeg 73
399572574 Mujo 0
403814452 Gisu 22
405230778 Jopowod 98
405813316 Liq 22
412709931 Jociy 45
413370217 Waronubo 80
416137389 Bunudez 76
417236182 Gimo 44
417456941 Mej 46
417909899 Tuhoqi 38
422943538 Yupipowi 48
425902309 Hovo 23
430389964 Viduruwu 86
432362960 Nemehof 98
433622431 Zaviso 66
435043104 Yimene 64
435173188 Zudihi 71
435246226 Teqel 9
435279373 Gap 35
436241761 Gageyu 5
442799844 Gac 85
442964410 Jisulu 83
443983071 Velita 98
449179089 Kogeduye 72
451360719 Jeyas 90
454527688 Fumeyoqu 34
459981057 Hiye 32
462808630 Lumuxuc 65
464092453 Decivoyo 94
464303888 Loheyino 86
464785058 Wata 19
465434320 Vedice 17
466166829 Vit 19
467093740 Vipujum 67
469696866 Yuquruq 40
472211365 Cowugoh 14
472741369 Qixonada 78
473421372 Nuvufo 96
476884171 Gij 51
477880829 Fovo 34
478032010 Wovux 7
486478772 Dij 29
487165751 Tax 60
489552416 Muvu 0
489657616 Pozokuda 45
490685154 Neju 72
491297034 Les 10
491352079 Toke 90
492758695 Yoriyu 51
493046146 Tulo 34
494552066 Qimaq 48
495195991 Cogosi 77
497337944 Nipuc 69
497848705 Kuvaco 32
498764704 Hucuruq 88
500923224 Talikeh 23
506298858 Wasolaf 6
506634529 Kewo 38
510037201 Bihene 56
515753490 Gowayey 93
518253512 Gujiyofi 44
519135943 Luzeniba 11
520188381 Motim 97
520767993 Zade 36
524981308 Hofemuqo 32
525692601 Yiz 73
526682471 Towaber 97
527834258 Bola 15
531683679 Dexoko 91
534706642 Zawiv 37
534849269 Zete 15
538496197 Lirike 66
538678538 Rujihili 29
542283657 Niwunowe 3
543585814 Baw 91
545283415 Berogufo 14
545512050 Huhot 62
554561098 Suxalizo 28
555679893 Yofuliba 23
558383050 Keyi 3
558446174 Yah 80
558684841 Zaqoc 97
559128499 Wuyuvu 52
560214077 Fus 20
562598087 Peqika 63
565924520 Pub 9
566374848 Belo 75
568681660 Yete 84
568812122 Reda 28
571912313 Sut 26
573571484 Bivo 32
574037461 Qafol 70
575828253 Tixico 69
579658821 Merisiv 2
582832059 Piziyodo 95
583767690 Nivel 15
584823874 Cofuqe 35
592797565 Kadi 7
595418168 Tawav 92
596525762 Zureja 40
597764877 Kip 55
598341925 Hinutuyi 29
602158807 Vif 16
604848639 Yunatena 81
610960705 Cubi 60
612151583 Dib 69
614086332 Tucewaru 77
614725973 Pip 94
615137762 Yayiyey 68
615830922 Beqikim 88
618472393 Woradexo 60
620531357 Sefe 60
620697526 Rilisisi 0
621042155 Qidap 48
623043838 Hosa 15
627406337 Dewi 91
628713185 Feb 15
629804730 Leqiw 24
632370710 Ciyive 35
637053813 Gomo 27
641617801 Sasefika 80
643053756 Teco 16
643238486 Hupihuh 16
643846654 Pidehic 90
645422871 Pofegike 65
648522404 Cituvexi 7
648582981 Zuze 57
649189460 Koc 15
654436470 Safiya 97
654582319 Nunaf 49
654846041 Dex 8
656196801 Mewiwa 63
659165372 Loyahi 53
659325313 Mohix 2
665150234 Qiq 81
667288110 Juce 83
667468415 Mafe 25
667965717 Pip 67
668312568 Ged 5
670670566 Bavenu 57
673853188 Sasah 37
679556855 Fixaqabi 46
680750696 Pow 5
681889653 Kim 24
682480390 Wovayag 15
687792086 Laneka 27
690645122 Rodifor 15
690798980 Tufok 80
691653080 Wobumuku 84
692593665 Huzu 75
693877610 Womil 73
694278916 Naxamona 6
694511472 Malene 21
700558452 Gepen 60
702705031 Payixi 6
705289293 Pojepeq 43
709217641 Niyut 22
709782648 Yanifa 67
711172374 Qutikun 44
712589307 Jejobij 69
714485518 Ceqafaz 73
715555108 Qopexuq 76
717029341 Luqarag 32
718230703 Jaxaney 65
718445900 Fekucame 73
723317354 Hab 8
723706787 Gutimo 71
723817090 Rejaza 18
723921887 Qerorufo 10
728564057 Saladeno 47
737823702 Pale 15
739039938 Vocufajo 96
742933509 Hup 92
747638215 Cixuper 37
752885294 Zuw 85
753530898 Vebiles 60
755311094 Koduxaca 95
755634095 Gofeqipu 24
756611683 Teqof 84
757042354 Pobari 93
764209698 Hox 51
767469331 Tixal 93
773158050 Vocuzet 79
775005149 Heducux 61
775675350 Miwav 11
776237144 Somu 65
781466831 Hefatafi 45
782772997 Voler 31
783419489 Dedah 59
783550329 Val 28
785950757 Xiruteb 44
788694342 Lurigare 42
789607738 Duqebe 69
790926333 Cemune 30
791989567 Rukavobe 67
793063577 Qoyikaqi 10
794797489 Higa 19
795760419 Kefada 5
808217640 Dufo 59
808945344 Tej 65
809085356 Jakokuke 91
809410686 Fiquxodo 49
811380229 Teyoxeho 54
815124207 Xepew 36
815894086 Padipa 70
817261076 His 18
818006956 Lud 47
818949276 Digu 79
824922568 Gapazohi 21
828249288 Yubige 9
836229244 Capi 88
840676411 Gowek 75
840766834 Fug 82
841133846 Yojak 5
842814213 Yidiriji 12
843106973 Fihahiwo 25
845761952 Wozifaga 65
847594294 Wuzokobe 42
848412535 Cexo 10
848837591 Yikev 71
849236878 Yiki 69
851970365 Col 79
852946642 Qunehubu 2
854459457 Ziwohem 6
855054688 Wicelisi 10
856379424 Qoqirepi 76
862198700 Tar 97
864412860 Nodip 33
864875753 Wonohug 48
868435388 Taq 83
872378279 Bedarih 55
873741559 Lowa 5
874056012 Zasecexe 65
874474954 Nuba 59
875283522 Bimefe 74
876304013 Hic 19
877281743 Lay 28
878677797 Foqah 34
878841825 Mekot 59
878922527 Jodok 83
880470583 Bumir 85
881095060 Vid 77
883201964 Hek 43
883387714 Dojave 57
885114159 Fukew 59
887555560 Zubeves 42
889432333 Zamajo 69
890632793 Zosava 23
892113813 Depotes 30
893812820 Narec 59
895112970 Goyey 57
895866073 Gukugu 48
897859102 Datoxofo 62
898420139 Zad 52
900159921 Qiqot 87
901847633 Hab 62
903709462 Kaq 11
906252265 Viza 53
909293870 Cab 27
910092897 Sefoyeku 53
911026234 Robuci 0
913896202 Xoneve 56
914411098 Hovufoq 30
920613250 Kupa 100
921766289 Fukit 49
921971173 Rubo 80
924221432 Kavabudo 55
930125880 Qiciq 45
930340365 Rogexuh 79
931235669 Tixe 88
932741855 Tolagun 28
932923398 Qicaqeki 75
934870083 Lumoka 50
936645291 Neduci 51
936910919 Sozo 75
937004555 Hacob 48
937427893 Xerin 61
937839166 Sen 12
946717302 Bad 43
948141341 Pefuna 86
948785707 Foyu 34
949349202 Papasag 50
954039970 Hocusuka 86
955015411 Sayod 34
956217261 Gopu 76
956602108 Kuxefew 15
956606772 Wosoti 87
956821336 Lij 96
958803475 Sohopuvi 29
964100524 Vizokimu 42
965173513 Tazu 75
968045244 Yudefev 90
970987478 Yowehe 36
974605419 Paxumasi 80
979624137 Kuhi 87
982510512 Beho 64
982585570 Jalaw 17
983504660 Joteden 44
985976113 Lav 50
987947559 Bib 47
988792629 Cibe 41
989231960 Los 86
990279560 Wezasi 44
992746558 Rapamewu 26
992822670 Jip 30
993991997 Biv 60
994058910 Rev 13
998810201 Kirivem 99
999018704 Yayaram 20
999876413 Nowe 16
