753
141233 Gex 4
200512 Fozamo 26
1207142 Mavuv 15
1330101 Nebawo 70
3138696 Halovu 79
3765465 Vuman 22
4634540 Winaq 51
6581582 Bayiji 10
8943140 Lov 27
10339613 Xonaxo 19
14614051 Dokega 94
16846154 Mayawir 52
16867290 Rihasa 27
17393596 Hudu 63
17910827 Gidoqo 61
20493982 Bemunap 66
20728801 Fih 80
22012234 Kabeq 91
24254817 Xujubipe 25
24973616 Necawib 57
25456215 Yimudov 86
25490727 Cuded 91
25604768 Qow 35
25793930 Vamah 33
30632058 Xuwulup 32
33666878 Xuweba 25
34208193 Bilopok 13
34306364 Wewexuni 84
36742605 Qapixara 56
41046493 Vun 93
42657716 Misunur 93
43682908 Hajeyu 39
44322567 Hiti 83
44692197 Vosizos 26
46014490 Miverug 77
47639953 Qik 61
48151023 Yenaw 43
54318627 Gudah 5
56430791 Cateta 71
57108917 Gavicu 24
57422305 Xelog 36
58610947 Nicapipe 94
58844555 Sifisaz 62
60032379 Nun 9
60506019 Jojesib 87
61840818 Picol 23
62964342 Gurojo 62
63289432 Hem 19
65427721 Yas 74
65605111 Yejaqof 76
68612660 Muso 64
69618718 Vajom 2
75062355 Notuxut 4
78188680 Hiduq 12
79744401 Kawoga 94
79753036 Pipo 75
85489580 Mud 13
89124098 Yovebar 71
89389774 Fuyo 93
89529696 Posaz 11
89952102 Ruli 62
91639784 Lugi 6
92028557 Disasa 17
92238770 Hekatu 40
92253838 Cixit 50
92931180 Ponibel 83
94257119 Yokoxake 69
94586640 Jaliseze 35
94904711 Doba 79
97982332 Gelas 55
99335247 Fatiwu 96
102572971 Hada 66
103965432 Weji 93
105798129 Nuzoloz 91
106159779 Dayeqiqe 52
107686070 Zuzo 19
108298378 Nuputif 72
109116351 Hovug 16
112429660 Bobewano 97
112788708 Vawava 83
114650310 Kay 81
115833327 Puv 37
116260579 Jozoc 35
116560522 Vibaj 28
117336530 Kif 95
119252299 Payefor 51
119387520 Dabiviba 60
119541539 Mopaqi 9
120611549 Conuyiv 37
123606378 Moway 94
130847665 Qapelasa 71
133630930 Xeyuyey 46
134707740 Yixupek 32
136150053 Fivu 86
137199036 Tod 33
137463261 Zes 3
138053695 Piwesugu 9
140864436 Tabaka 53
141241434 Nuhavoya 90
141820261 Race 82
144013601 Mihoyuwu 31
144648413 Fuyixeji 39
144832890 Nedam 80
146574761 Mituv 96
147350139 Boke 42
148012427 Hac 71
149431671 Siqud 85
150343276 Fadi 92
150993773 Yitiwaw 45
151003846 Qavuvos 90
153294462 Rub 6
154198863 Sonano 80
155121796 Sig 62
155347988 Vehafeh 52
160021156 Muvet 80
165339045 Kuraj 58
165508819 Yaxe 13
166702958 Wike 25
167196860 Lugobav 44
168584437 Jeposo 55
170133184 Pef 29
174351092 Ditulawi 91
174882769 Cijum 30
175250971 Fujapil 83
182095712 Nuziz 98
184409647 Catuxiwo 33
184710917 Rik 8
185953138 Qejuva 44
192304102 Xuxiraxu 0
195648061 Voza 75
196937991 Maj 93
198810905 Bewugi 81
199680189 Jis 70
200414150 Yuli 93
200576324 Lidu 26
200891888 Yuvewopi 17
201834438 Korefab 16
202082347 Hojaho 84
202750823 Hupaset 37
207558898 Xix 83
207568562 Com 27
208951390 Noduvi 25
210298032 Xubimu 34
210969874 Qov 55
211885404 Wiy 74
212023111 Wobi 19
212564794 Sive 18
212914614 Taxucov 80
214460021 Poma 28
217199582 Nuf 2
218583722 Rahawuj 3
219048392 Sukoni 75
219423100 Dizamotu 64
220401121 Gutiri 40
220485315 Winuc 27
220870963 Coci 40
222143834 Meciye 12
222507396 Cog 71
222667479 Ditiwe 49
225105323 Lorej 20
226608053 Kehuyi 99
229351687 Kehoso 5
229509833 Cigeto 16
230790259 Jimubojo 19
230858128 Yurapu 61
232208693 Bepi 76
232529404 Qeyuvare 97
232956363 Karodid 96
233237788 Fex 56
233646152 Pihe 92
234547374 Muz 69
235159236 Jegizopa 34
235583366 Qik 10
237365962 Vedaw 63
240091027 Jita 46
242208291 Nituquf 61
242721984 Delac 71
243200978 Niqa 18
243588352 Letik 44
244126793 Biquzam 9
245946621 Zicageqi 73
248163880 Safazude 10
249114026 Bop 88
253125905 Luraf 68
253332215 Serer 49
253405269 Vel 45
254290306 Poli 4
256723989 Jutahu 50
260270241 Giqarir 83
262306494 Zelar 27
263531307 Cojey 18
265103697 Waxugapu 7
266179134 Hohuxi 55
266179572 Jicokoy 85
266612372 Yix 41
268007054 Gerecev 5
268744003 Xiviz 88
268886388 Bub 39
272365098 Yukorot 41
273240369 Sama 56
275628837 Dalogon 78
276710944 Rih 1
278407371 Seke 100
279146310 Neda 10
279729502 Tosa 17
280371382 Porihoc 33
281050336 Loruviz 98
282271860 Veloyuse 51
283581602 Yujob 15
285795192 Secif 16
286286078 Tekete 23
287040565 Levasilo 14
289236522 Zojogor 66
289432866 Xecezimi 69
294000511 Gidawojo 64
295926525 Yolos 27
297010996 Lazon 37
299270733 Teco 61
299872116 Zopuj 15
300109811 Kuyorep 47
300559595 Dalibuji 98
300781233 Weded 1
300783493 Yipurifa 44
303429706 Dahiyev 92
303720894 Xeqoyev 76
304978808 Tuyid 18
305711414 Zen 99
305807723 Yijopu 48
308744233 Jayiyi 46
311403484 Hicutup 93
312694580 Mob 66
313392038 Yanicu 8
314395365 Yowe 100
314905347 Tozo 61
315786367 Kugugim 32
316672628 Pegopu 34
321372314 Waro 63
322086784 Tiko 20
325757266 Xawezo 2
326689744 Liyupace 22
326974754 Nodiye 77
329174751 Mupij 10
330490877 Quliwe 67
331073835 Runan 21
331141307 Mudusow 79
331278342 Yov 56
332536182 Vuxakod 52
333690244 Himozu 52
334214022 Beli 39
335794936 Fapixiho 87
336336553 Tujuyes 97
337319056 Wujomo 1
342086930 Rijabo 38
344389037 Rip 4
346667300 Bupedaru 45
346830934 Kedapi 17
347533823 Sob 84
348077322 Qoqu 17
349769539 Qokun 39
353866652 Votah 59
357095556 Vofece 46
358006701 Vul 50
358033861 Nalul 45
358227887 Safe 34
358935741 Siz 42
359604068 Koy 29
361306978 Sapasape 47
362305693 Niba 12
364482054 Fefe 64
364784086 Wos 59
364820765 Fidiqep 44
370526380 Hiven 66
371134588 Mimi 87
372190016 Widix 70
374084233 Camax 18
374538448 Gebeq 33
380505748 Suv 63
380654493 Fec 23
382872566 Wiv 12
383639477 Cukalo 28
386768337 Citofegu 20
386898521 Gose 38
388261064 Geti 0
390114070 Qeja 57
392309012 Bokac 98
393387988 Mirerol 16
394309113 Daduwod 48
395843950 Hixumu 60
396586228 Dib 54
400124944 Lozudi 55
400291210 Piqo 18
401899804 Sag 69
403824260 Qiqejere 46
405530130 Meyer 46
406883329 Named 34
407556995 Duz 69
407665604 Horo 61
407722748 Voxozor 86
408937150 Miwuloma 28
409098651 Nopa 100
409367598 Tular 96
411890686 Lemarelo 91
412059635 Qir 71
413141537 Qahazab 15
413773342 Mipufawa 47
415614887 Hiloc 17
416205082 Zocepuv 83
416356612 Yirames 92
418639324 Pahuwoy 65
419500068 Wamah 33
420220675 Pimaroje 73
422205228 Senutor 54
424367051 Ririm 2
425282239 Wika 99
425283854 Lacaqisi 30
428710007 Xize 35
428910596 Cezaka 86
429137291 Zivigac 33
429282556 Julebos 6
432029296 Jagujit 100
433832868 Fuyojim 54
435517952 Qeyi 45
444151549 Nukaridu 90
450006654 Tonih 86
450720876 Wef 46
451880138 Liceh 75
452178779 Doxaf 86
454729958 Suhoce 44
456919370 Fed 26
459906673 Bog 99
460572929 Xurepu 26
463792603 Tuv 46
463857344 Pubel 82
463971020 Novoqa 62
464032764 Ziyoboy 53
467329948 Kos 93
467994767 Nepuz 8
468026973 Xaz 90
468154808 Kocapir 73
468256220 Mequti 28
469555092 Sokureg 62
470854306 Fiy 44
470937629 Vuhu 94
473412005 Bumuro 98
473990879 Quvoguju 54
474694230 Sud 66
476364179 Lamokat 92
477202785 Sawow 63
478178435 Xotowam 22
480980239 Vezice 19
481383052 Jetosoju 31
481484663 Wigeci 83
483262843 Zedogefe 64
483718726 Cuhup 16
485234168 Kizavo 91
485696481 Kibo 3
487578359 Simico 82
489049981 Tuwew 92
489640431 Vukixek 53
491664370 Cuzohuf 32
492738438 Tuledi 42
492974076 Visejap 17
493178233 Rejarili 34
493896977 Cive 53
494532724 Fuj 15
495629311 Gekaheb 82
496396068 Xuqa 61
498732713 Muqe 65
498778988 Tikekej 67
498834255 Wifu 72
499334323 Yitoc 40
500291147 Zecoc 84
500893294 Halicawi 14
501322706 Kis 33
501530855 Wawuvece 32
501763162 Sokorike 26
503588691 Sudozoj 77
503902198 Yoyu 88
504443987 Vaxuno 8
505694534 Jig 21
507479560 Hequre 38
507532436 Yawecap 99
508139398 Wagif 26
508427076 Selidohi 51
509131964 Waqaw 97
510112137 Paqimira 23
511815990 Pid 31
513102908 Dobeboju 57
513763936 Rujel 79
514370890 Rojomik 2
515078826 Sezuxub 12
515229377 Pulido 16
515272184 Xip 86
518226055 Yuhukul 85
519679172 Piri 69
519940448 Paf 58
520346681 Kuj 50
523354186 Gureyey 46
526318535 Fag 34
526348496 Sodezid 1
529125191 Lupuqeg 7
529219602 Hikahiy 50
529476656 Pagaro 23
530395265 Zeba 31
531058917 Wib 57
531695421 Nujico 71
532665957 Rawufobi 34
533618466 Muhet 12
534587700 Foqo 93
535009970 Sowecuf 39
535860712 Diquw 87
538115974 Lesek 74
538975944 Litode 6
539185444 Kabeya 94
542262572 Zidu 48
543187514 Fukivibi 0
544843795 Tahogapi 80
546562670 Fekazom 73
547875229 Yacede 15
548884228 Vijefic 69
550541202 Fetopiga 93
551778466 Wuhibeve 87
551998384 Homi 80
552318931 Gopowiva 11
552431160 Nof 65
553134093 Liticaxi 61
553530765 Pakug 75
554110073 Xuhihax 33
554607969 Dihik 59
555729011 Kise 58
555920150 Xovade 63
556481652 Qabodu 33
556762015 Naxov 15
557025130 Vote 50
559706246 Foyu 21
560883750 Pihefel 89
562230998 Duf 31
562255310 Cimatuvu 27
562698023 Werihe 42
563020347 Mufe 66
563962625 Hag 57
566050931 Narigez 20
567591182 Niwo 98
568113288 Pihiva 23
569523672 Jeh 40
569731405 Fimojiz 64
570147386 Fepuvaqe 99
573023471 Zozobo 98
573525473 Vono 97
573709606 Cibo 100
577351656 Ter 49
577460626 Jaj 27
577595553 Riqe 46
579734779 Veq 25
580636665 Gamak 20
581103965 Sewub 100
581863410 Padezaye 66
584691486 Wix 24
587694037 Wumunak 26
588277695 Voheyawa 91
590080419 Pixim 58
591551933 Rikaxora 50
592027650 Rino 46
595445020 Det 18
596079874 Sevihono 1
596363815 Yufe 83
597948614 Kuvar 21
598327024 Tuw 99
598724240 Gof 37
598991893 Vipaf 32
599044413 Jugip 16
599612864 Seh 34
599819230 Xikolocu 69
601979615 Yeriho 92
602967152 Rejihob 54
604215073 Xixumiza 13
604555943 Sada 90
605433950 Riquko 89
605501213 Biyiciv 32
606111858 Bujul 53
607357787 Tabuwoc 71
608858876 Nifiyiri 14
610055747 Womik 25
610591128 Hukawa 23
610622199 Qev 15
611099097 Pajiq 62
611405897 Tako 62
611905163 Kikimej 31
615679782 Baq 20
616268424 Qelebu 10
616484793 Poqam 36
616681453 Kohuc 94
618328201 Pekifoq 82
619491372 Xow 97
619492454 Cucusup 0
628502947 Suxihev 1
628635730 Lenixab 4
632492719 Fifice 0
633124354 Wevih 30
633963852 Jobu 100
634194136 Xudoyebo 42
634879757 Dumi 93
641647066 Geyu 56
641658237 Bilunapu 35
644904239 Rolemuta 24
645712446 Givefoze 66
648176211 Gini 73
650003193 Coro 18
652880212 Wijud 36
653375814 Cudi 17
661154590 Winiwar 41
662309962 Yiroh 94
662937187 Karob 51
664022593 Jizug 9
666698850 Nohuruza 1
667878387 Fodiza 68
668138016 Tisi 15
668984550 Soxifu 37
669038426 Yogi 12
669040399 Rubajuw 31
670722664 Hebava 97
671107131 Buzofi 52
672579983 Cibaz 24
672748541 Rejome 26
674676168 Quto 76
675316959 Firiho 38
676825638 Jaco 2
677583161 Pav 51
678576656 Dekoso 64
678674044 Wekawa 62
679611790 Vuqixif 37
680628476 Licici 62
683229103 Sutuc 92
683393281 Zisax 3
688115065 Muwiwag 27
689642395 Geniheke 7
691782191 Qayazoh 99
696939181 Jewobum 56
697923451 Jeh 96
698732292 Qasoxo 21
699107509 Namu 84
699548737 Dawi 32
700460504 Quwahat 1
701979781 Bapoxa 92
704975736 Jeho 31
706302093 Bumoxap 51
709330145 Fatiruja 54
709463914 Kiwep 84
709626222 Vacizi 86
709961471 Quwuw 38
711059102 Nuyewey 46
713522638 Wugeqo 69
713577503 Sexu 90
714489197 Weyusud 65
718367515 Jezesiju 63
720757822 Mejude 12
724479131 Voferij 56
724734107 Cotici 8
725718101 Cufamupa 23
728130236 Qiqamow 56
729749930 Puruzaj 51
731277774 Yanar 84
733525443 Folufu 0
733780771 Morele 79
734688989 Mowis 22
736284143 Tocasix 10
736571063 Rule 54
738614724 Yun 86
743126692 Tahuhuj 64
743843603 Wafovize 40
744064813 Bovemec 34
744849789 Sulisuco 97
745865296 Ceso 17
750238486 Likemes 55
751279145 Fobay 74
751635756 Muc 74
751736367 Yakit 54
751774533 Meyupo 91
760880348 Dizet 79
761117932 Gekow 41
762892031 Saruhir 81
763561285 Giridom 89
764413711 Xowet 5
764811129 Volexur 29
769343700 Cewehibi 10
771817106 Joquwuwu 11
773699748 Negad 82
775425094 Qufo 54
775780387 Raletujo 91
776242536 Pelisop 7
780334120 Daq 48
780962738 Juwe 90
780978708 Kikiya 85
784085229 Maqeju 41
785810962 Wosexuqu 0
786320445 Sozu 15
789819396 Zad 80
790115254 Vuqemow 16
790154083 Sah 93
792191602 Qosevu 96
792902451 Wajeba 93
793809439 Guved 89
796586539 Qumope 100
798379996 Dusivo 59
799400781 Jiputu 37
802119992 Memete 29
804118211 Huhado 36
804554583 Topej 41
808318781 Xogowuko 9
808742183 Lidobok 7
811725884 Magem 59
812454346 Votukaj 5
813563239 Kiyuzof 97
814583786 Puzi 30
814929756 Gotolo 0
815672693 Zavomeb 94
815969469 Horoki 12
816529944 Xese 55
817166867 Hifez 84
820925462 Wixebel 15
821317870 Dogoza 3
821455854 Kolo 13
823502746 Saxupu 61
825658813 Mivuzojo 35
827112990 Hirece 94
827453059 Zuqat 63
827844064 Kesuca 87
830556587 Hug 60
833702386 Cusab 28
833929166 Wuk 75
834758011 Vulomex 0
837537654 Govuviv 75
837928553 Goxilico 37
838234974 Xutefam 25
840730000 Nenela 96
841035749 Keza 95
841082487 Loxumiwa 25
842561338 Fetu 88
842925604 Xevilef 21
843777945 Rodezub 84
844604739 Forupaqe 15
847169602 Bir 29
847351932 Xagowifo 89
847655312 Ruze 3
847707856 Lob 47
848868004 Dequ 9
848934100 Yovob 26
851549136 Kate 60
853027056 Fikafudi 36
853344983 Duqanagi 69
853557586 Vucejek 74
854009979 Xiha 100
855128968 Regufeli 75
857264116 Bomifa 70
857412303 Ceju 60
858822633 Biromaj 81
859530754 Decoqeqo 68
860261302 Pek 61
862796313 Yusehac 92
863105304 Cebic 15
864468308 Qojidatu 67
865772412 Seg 15
867141185 Xewupij 59
868424031 Qetunus 63
869455298 Qomu 74
870102834 Fobus 56
871365606 Qopi 6
871428765 Xan 21
872226813 Fozijak 42
872704955 Viz 79
874535996 Camo 48
875419941 Vitayawo 1
877213770 Nodolak 88
877588203 Poy 85
880021530 Voxoq 28
880178272 Becen 61
882578899 Curaw 89
883245900 Rijuxus 31
883665741 Wozo 28
883785969 Sevej 67
884846292 Pab 21
885590656 Fipi 43
889980674 Qikisiv 3
890304747 Ruyaciw 60
892511607 Doqux 63
894922670 Ruqiyu 37
897933616 Fiwol 53
898657161 Cicur 45
898864996 Rat 69
900270515 Zay 88
901664656 Xey 43
902451564 Tadaguvi 17
903678191 Qeleru 30
906279759 Cut 62
906335696 Qutipuy 3
906683756 Luqa 17
908148009 Pasuxi 49
910057475 Hoxuyehe 71
911423383 Neco 41
911576172 Vogu 43
916881551 Cotimegi 65
916885465 Xofef 26
918111806 Yub 77
918229437 Hite 51
919793864 Fagola 5
920727635 Sop 21
921882473 Jivutige 92
922614459 Rug 17
923333156 Piduven 1
924311207 Koku 67
926648027 Giye 81
927228837 Doqelage 35
927661050 Comujof 30
928205386 Fohu 17
932591164 Yovo 20
933792846 Yexap 21
934332682 Mel 65
937164044 Gofe 35
939972458 Pajosise 32
940433508 Qaj 80
941603652 Bahel 76
941983019 Zokijaki 8
943144518 Fokimusu 74
945224209 Zemiw 25
947414704 Womuko 64
949646415 Masu 53
950148173 Quho 14
952337970 Bosivebe 12
952508307 Deyapab 73
952778555 Zefuhav 33
953518250 Kopufu 31
954808779 Rizeq 22
957108928 Bapi 26
959775567 Sune 45
960988955 Toy 31
967763648 Koyuc 44
968241489 Mupavat 24
969121162 Wena 47
970541503 Fohokiza 31
974863213 Hehafap 67
975025834 Cukicatu 36
976318365 Yukewu 26
977207054 Lipoy 78
981853363 Jihomabe 94
982284192 Viba 40
986392504 Gaya 76
989071204 Pefogo 35
990276125 Mozu 48
992529335 Bobazo 23
996801026 Vimilo 88
997074497 Cetifohe 62
997644197 Bowexexo 72
998937220 Nope 0
