235
2915714 Vodomed 14
3315669 Niq 80
15706733 Huneze 45
23864804 Zak 8
33844415 Gaje 87
35426668 Gohic 91
48961105 Fetat 73
53356303 Mavozali 39
54922179 Moqewe 17
55057235 Mivovi 39
55354151 Rixelo 83
57364409 Fuxe 91
59514700 Fogitij 45
63786464 Giw 40
64288408 Foguhaqi 59
65405020 Noke 19
66441014 Sixilo 98
74412859 Soq 95
79480670 Delohine 73
82053050 Pobahe 6
87288544 Xol 61
90381326 Fipuloy 49
91392947 Rodawihu 90
97914085 Qudayida 26
98775258 Rijihu 60
113005341 Bijedajo 16
114956428 Duzuse 59
115857611 Cutope 74
120687466 Tazu 95
121932468 Qapomimu 21
123849293 Xace 95
127407468 Huwa 52
138170379 Qeheva 89
138386456 Konefu 56
140195206 Xoxehav 56
147082064 Hiwasu 65
155170483 Jit 59
156115510 Yolohu 59
164966322 Zazonehi 28
170097943 Mehoqu 91
177099464 Bus 67
183006438 Yut 83
192321393 Yez 34
195352328 Nafulu 90
199273249 Nos 75
200552321 Zamox 38
202380317 Pugu 53
204524761 Yujaya 60
209185389 Comac 44
209850845 Yovo 100
221824233 Piregeci 64
223455946 Cob 98
227918461 Koduw 69
232044165 Tifik 65
233156266 Resos 14
239849873 Jija 58
241963810 Vujajo 87
258390115 Lafi 49
259868798 Noruq 46
267407927 Waqa 37
274558741 Mikaxijo 28
277330283 Jaluj 85
280528910 Per 36
284563840 Dawit 75
285061862 Poy 68
292515080 Nuhu 4
302498824 Mazol 45
304452243 Qujaf 66
305151173 Cupez 8
305538030 Vud 53
311342017 Vaki 32
315419641 Pog 45
319843737 Cemajuwu 33
321614500 Jayinobi 47
323931781 Zeyera 75
326986774 Sopog 41
328979958 Figubi 12
329294604 Viyizolu 67
336600200 Hasumuq 18
337795257 Par 7
342116191 Puhaluq 42
348587292 Pedow 3
351463940 Difa 60
353665648 Jiturom 59
359269946 Ruhog 30
361948917 Pirafudi 69
364735908 Cojeyol 50
365580385 Pobicivi 12
368765359 Yikuci 13
369157753 Cimod 66
381205248 Miqa 17
385617038 Zakiqef 35
387310347 Hired 67
397951405 Ziyuda 5
404567931 Tikawu 6
413337880 Wamibu 85
421060237 Kij 88
425358596 Mamevut 78
426902737 Kil 4
431641600 Kuc 75
433467863 Pahejer 32
435461141 Fov 46
440539047 Geri 4
441878203 Nokewi 58
443974779 Baxu 31
450295276 Vexohi 78
454465157 Vewak 18
455180851 Doporam 60
462072633 Tilon 74
467027413 Vamupeg 28
469583304 Sikaji 33
477515592 Vireci 21
480945802 Wip 55
485222807 Bayeg 27
485361931 Baf 62
488666394 Miwiwot 90
492076907 Qehimolu 83
493109747 Raz 55
496382860 Viyu 39
499876025 Zup 67
515655700 Pula 66
523377399 Vajij 30
532257055 Xof 79
532339368 Sahaw 24
534455016 Keriva 99
546192350 Denebo 44
552654705 Veyacusi 67
554080644 Kukakaqi 43
556138053 Buyimu 23
565660497 Judepo 86
568021318 Ciqukaq 45
569441225 Butizat 95
570973623 Mov 99
574533451 Luqe 86
577776210 Citeqaxo 96
584159568 Kakub 49
589758702 Fun 2
596379610 Xise 35
597429361 Konumu 70
603204420 Lemede 26
604028935 Vawo 58
607194284 Quhova 80
610623627 Cohamuh 22
617974431 Jahus 41
640111896 Diz 18
650483855 Gotude 19
651214789 Hesazaf 26
652469752 Woy 20
653687037 Majide 57
654218240 Miruw 66
666447630 Pon 93
668495992 Razol 98
671021156 Punudis 91
671290110 Gaga 5
671535735 Qevemuz 41
672824526 Boz 40
675783593 Fibi 19
679009353 Heca 47
680124308 Kusuziju 81
685103027 Xizohom 20
685429990 Xoqaja 47
721852239 Neguqufo 12
722620675 Vezu 63
733450439 Gero 59
741571576 Yege 52
742612895 Carilidi 28
743040208 Kalacuh 36
745235840 Rosecun 11
746720866 Riwati 51
747145677 Xepika 63
749973883 Vigesiw 78
750070235 Zoqawaye 65
757498909 Rom 96
758719006 Kibuqiz 49
760879345 Kowoled 58
766213465 Hap 53
768624942 Cuhawike 80
774823655 Gudu 40
776916121 Muhahaw 91
782194708 Cewedo 95
793876728 Jetexis 93
795427080 Sul 71
798461820 Pahok 6
808571458 Qido 46
811326154 Gowo 3
811760745 Nuco 95
827490263 Nopik 41
830326117 Busaceji 16
835297246 Vabofu 17
841154082 Mokeb 15
841950043 Tuluqu 100
842685478 Woporoco 95
845180479 Nov 46
849342280 Jozizif 50
850631275 Divaju 4
859592529 Gol 65
863003391 Wekowego 76
873423804 Sujojiq 49
875526018 Sadel 39
880713631 Losu 64
888642329 Pumiwub 29
888984142 Muqid 90
889211221 Divises 98
892976283 Keq 77
893217421 Tilo 81
899897700 Sequnu 6
900030642 Kawular 13
905919384 Tomikane 20
923598314 Vejexeh 81
927580062 Bufe 72
931072509 Munuqo 28
933892203 Jon 4
939831160 Reyere 41
941002502 Tiyowoj 75
942919253 Yecerow 90
944265108 Lunohu 99
944697827 Mutiwu 15
946074764 Gugufu 6
946252697 Yuz 30
951802364 Xun 73
955289903 Yafizahi 86
955528869 Bahina 7
956261502 Kil 71
959830463 Vowusej 29
967694898 Malo 22
970044965 Dahifiso 90
975740369 Lafug 28
978381062 Sigodaro 93
978407444 Dah 97
979025490 Hane 73
979095130 Kuw 78
982138343 Lesinoj 37
982868242 Zik 1
991579678 Dum 24
992846953 Mumapoxi 5
