757
436349 Vapava 50
1314873 Jac 5
1400163 Nusayiqu 98
1564700 Fameli 16
2088544 Lumimoc 36
4586674 Nomo 88
8126971 Jacumasu 26
8481503 Difob 18
8565753 Duto 31
12907681 Giq 55
14045966 Niqovuv 59
15140114 Xazuhuju 54
16751917 Xaraguro 24
16908568 Jonon 87
18098213 Kigeqaj 25
18147398 Mixobat 35
18722514 Qosal 44
19305680 Sezejo 29
19468828 Saxuho 2
19554527 Cexe 35
20839083 Wodoleg 61
23321746 Jazop 76
25298564 Pebij 23
25584123 Lupuxet 45
26819287 Lucifafo 12
27093084 Nozopob 4
27320691 Faxin 94
29997049 Roviha 41
30822463 Gisoq 55
30946781 Seloj 93
33426236 Botete 48
34058002 Qel 6
34791400 Nirih 65
41463742 Qoriru 63
41474563 Jeminep 56
43307869 Caye 19
44801528 Lamocafo 3
48642437 Duyavil 49
49832433 Nuvete 56
50092452 Cus 42
51489528 Xafuf 22
52384716 Kisos 51
53713311 Lorep 87
53975188 Wuwu 95
54694537 Lecovisu 16
55203679 Dot 60
56206028 Defo 62
59439821 Fip 87
60760870 Mohe 77
61533975 Jogisero 59
62367562 Zipog 23
64902880 Yoxevuy 65
66472923 Vebosuta 92
67910972 Zirixebu 17
68300644 Qalak 67
68446680 Hucet 39
71875103 Zunewof 84
73776595 Donehat 11
79009522 Qaye 92
79907413 Daza 20
82610880 Zogec 95
82950330 Sifipaje 51
83345819 Notod 66
85300599 Yejopatu 84
85568827 Tativiza 59
88762826 Xizozuj 43
89070379 Ruwet 82
91873886 Kelecele 79
92313148 Poheso 81
93585539 Yuzemal 35
93824146 Popawed 74
94822171 Quxuzin 26
98815107 Diwu 95
99540872 Tugobimi 48
100721840 Vowiyiqe 38
104944715 Dex 19
106959360 Joqamiyo 74
109405729 Vetubih 91
109432758 Paxoy 64
114467766 Peyaz 76
117021705 Tig 46
117725057 Cikut 76
118658849 Fizo 18
118698709 Foluci 38
121869022 Wov 16
122221740 Rida 56
123383986 Ruhetep 77
124143500 Wetixaqo 52
124845490 Jicikiq 71
126179125 Jisilohi 85
126513547 Tozox 7
127131833 Vufiq 29
128887858 Vub 60
129071902 Jep 86
134888464 Yip 18
135600901 Mogimu 70
135842982 Xejitexi 93
137118399 Jel 58
137751763 Guh 75
138494195 Sazula 80
138672266 Fuyeh 8
139027359 Yeneku 4
139096737 Ladi 51
140288949 Hujumi 61
140406879 Jiber 61
140795726 Xanu 22
141578147 Nusiw 7
143753674 Kahora 77
144303320 Taho 89
147364766 Bow 4
153870212 Joqase 11
155684380 Nosu 81
157326749 Fifafeh 3
157642642 Falehu 62
158068330 Hon 23
158372876 Duguh 84
159284094 Dez 88
159788732 Binodedu 52
163020601 Qeqav 64
164764004 Jeyom 36
167232867 Kitoduva 62
172699346 Kuvodubi 33
172981537 Rovema 12
174583726 Yawani 5
174741731 Vevoq 58
175618618 Xuwugay 56
178832588 Sihedu 22
179068773 Tuyed 97
180049383 Jatefowu 87
180251053 Yelofudo 40
180403715 Qapewol 21
180665143 Mixokoj 31
182086604 Daxiciji 0
182103965 Zewimi 43
182300122 Hix 16
183003606 Web 27
184564728 Jaxav 43
190726351 Riyiri 33
190805896 Lepos 49
194507153 Zahake 33
194943917 Redexil 45
197736936 Tuzadu 5
198832991 Supareci 14
198871344 Lud 42
199386310 Mipuc 86
199501759 Runakiwo 35
199671857 Kiju 19
202527986 Yawuf 16
202796189 Sapetoj 13
204338443 Sux 31
204808180 Yotonu 94
205083000 Yeg 22
205990007 Vojuhazo 71
206865337 Coyo 73
207461266 Mop 20
208784992 Gim 97
209173421 Gutuzaj 86
211367340 Job 29
212876981 Wedikex 55
213045524 Qaniye 32
214094145 Jajuw 12
214438775 Rexi 67
214607036 Hogaz 65
215778490 Giy 63
216726688 Jaqinu 29
220434911 Wamume 51
222341708 Vatoc 37
224554440 Kitupiy 32
224726892 Wuya 53
225393707 Sapoj 100
225873235 Piqaweno 24
226636264 Rogovevo 23
226826544 Sehux 53
228626686 Tobuv 31
229131215 Sabojequ 44
230448784 Ruxo 0
231874260 Nur 10
232783092 Gak 77
233122039 Sowi 12
234364990 Detala 28
234717046 Jizuceri 7
235125596 Bavaco 89
235646302 Koro 18
238048419 Selamol 29
238429412 Tiveq 16
238966503 Nuhudig 0
239392722 Sijila 27
241323051 Depusim 50
243430575 Lul 78
244032949 Tireko 20
244066462 Gata 33
247837470 Yedupop 66
251017277 Nonisoy 42
252259738 Suq 92
255445188 Tulemi 8
255624451 Zimiyuq 43
255751848 Venowif 58
257498721 Pamaj 27
257635747 Yiro 91
263779606 Xufeqit 43
264891113 Muy 47
265560825 Kakimevo 62
266234098 Nemovi 94
267804146 Xipafas 14
269607609 Vinume 73
270035603 Sixim 30
270811749 Xuqi 38
271430282 Bubecutu 35
273844259 Didohepa 70
274113042 Foxe 46
274229562 Yibenoti 72
274784002 Tek 62
275265379 Wujibim 86
278054590 Haxoka 90
279254989 Yuharij 89
282804029 Kisisine 34
284592993 Gifos 85
286756968 Rojo 98
291233561 Todocaxi 50
295064735 Nipo 47
298157132 Kezoguy 38
298255271 Cuc 34
300872207 Woxo 87
303454114 Vuqaji 48
306447372 Gaxexoy 8
306804009 Ruquwow 36
312190985 Paso 47
314407942 Racexipe 84
315375698 Gaviv 32
315391258 Jirevaco 57
315567483 Nafoso 63
317649899 Xase 23
317897817 Lekicuy 89
318933473 Ceje 21
323378517 Jaren 83
324032506 Ruza 92
324098212 Mehitin 52
324297923 Biked 23
325281916 Kutah 70
327722921 Veveraqa 49
329884611 Bal 89
330150843 Rujo 85
332320104 Quvitaj 79
333862468 Nowikove 94
334670522 Bej 25
334827770 Gemo 46
335770203 Yofuy 61
336118720 Fod 54
336975488 Tupapom 28
338231277 Zubemo 27
341276819 Qow 73
343102701 Zowah 58
346483069 Biv 5
346764547 Pewuca 22
347119143 Fucu 95
347763621 Kosemar 46
348286923 Vecipuri 62
349063800 Xis 66
349149015 Semupo 79
351159965 Guvawuh 23
352429072 Mapiquvo 19
354846878 Deg 27
355173706 Bacu 100
356945096 Jep 6
357975761 Poyuq 76
358830571 Ruzaga 28
365607328 Laxolade 76
365906867 Lazotax 67
365993450 Xesud 55
367831685 Tupile 12
368630482 Kuneqeze 72
373132036 Hifac 76
373516022 Dotuhes 0
373660339 Gezi 11
373916504 Fos 96
374201444 Yokahozu 44
375404745 Hisuye 90
375885241 Momadu 19
378385916 Sud 18
379277034 Fejoku 62
379577667 Mad 91
382715166 Fisezi 13
384187027 Poq 40
385065839 Koco 100
387186249 Xub 96
388949655 Guti 8
391744437 Yaxofu 97
392676869 Vude 95
393424058 Gesekusi 47
393449650 Liwayem 83
394761991 Tarel 24
394995882 Sidod 15
395382259 Tova 78
396211565 Lexi 53
398882936 Jutavo 88
400052550 Tozemoce 55
402300323 Sikofe 68
404291467 Ris 97
405309972 Wujew 92
405373377 Yaya 8
407072020 Cuqe 58
407188788 Beyu 33
408300046 Yelitu 53
408741134 Pin 79
409451512 Ludok 63
410463810 Jezopo 0
410902332 Pey 85
411560354 Fir 6
412266893 Wesobew 83
414490782 Qusebaji 30
418293697 Gaz 56
419052706 Feheqa 3
419804350 Rufaq 43
420036631 Hoq 29
420050308 Fal 49
421045655 Zate 26
421389548 Rinopecu 97
421600727 Viveb 65
425340484 Betajiya 1
425403091 Lux 81
428409196 Capa 15
428626207 Come 80
428985335 Xiguvo 34
429829397 Gezene 79
431324197 Fow 76
432408491 Samuvune 78
433950280 Weduvo 58
434913212 Cola 47
435500802 Cudulo 26
436007802 Qoz 5
437045147 Kod 58
439303744 Humozo 79
441216601 Nixopa 100
442688586 Sutenot 74
443525567 Tepa 14
443828882 Cajiwemo 56
446813487 Yik 91
449920097 Tumoke 54
451005063 Jakoh 74
451376979 Wosubemo 23
451401468 Yojobaqu 51
451818683 Lopip 86
451834031 Pagisiwe 47
452531244 Webofay 16
456824408 Nem 59
457427147 Xine 50
458214362 Yapuniye 0
462662669 Vohoye 14
462766389 Forak 35
464618035 Dupekila 75
465477499 Kepoye 49
466485716 Zice 35
466953726 Qot 96
467081309 Rejasof 41
467206074 Domupi 9
467282364 Nihiqubu 4
467739600 Mesacu 63
469012074 Bidi 51
473258907 Vajotu 15
473959788 Kar 88
474221257 Xiseviju 100
475334970 Qusejoro 98
475546467 Baw 78
478473571 Tisoluca 77
479329804 Zejiwob 11
480001370 Kas 3
481906698 Raduv 96
482182552 Laqi 28
482211687 Gonete 97
483314148 Him 71
484681268 Cevepufe 52
485276700 Tihojone 85
487388023 Fehi 74
488860103 Konub 4
489253644 Tulewov 87
490958504 Sowe 18
495434805 Javoni 0
495452446 Kirabi 39
497154409 Sun 98
497629878 Xasirufu 45
498911453 Recosil 17
499874005 Niva 73
501678787 Tocunuqa 92
504289580 Mulahoh 49
504997276 Wajo 62
505208085 Puzana 100
506185317 Vecay 31
506246087 Xonop 60
508259911 Kogoxoye 23
508526797 Ruvoxu 33
512213597 Tik 24
513359303 Sir 64
516337650 Cucavuyu 17
516481454 Lib 76
517325474 Zacifigi 74
517925534 Xapey 45
518864969 Fihezob 67
521098452 Mah 34
521461304 Kiqap 79
523574162 Xazuq 41
524011690 Sufor 35
524653067 Qite 59
527368748 Cazicov 54
528200796 Pogixu 44
529606570 Dumixiz 61
530952158 Davuw 33
531797954 Tixuhuwi 71
531977414 Jilo 97
532520643 Rimuq 23
533955530 Yuhay 98
534406791 Riwohala 93
535033152 Maj 21
536996121 Fenomos 89
539529506 Lop 24
541267390 Sevedij 19
541582743 Xefag 35
541763306 Hoxevu 66
542216581 Zelu 93
542410005 Cacabeh 7
542490839 Dezup 95
544513831 Doxiso 11
546791249 Kuyewati 36
546841612 Wer 40
549225971 Kipimi 52
549451907 Dino 87
552037447 Hot 18
554366256 Hawi 39
554838609 Des 33
556402324 Sevid 62
557163060 Qiz 90
557426393 Wuseza 99
558032128 Cedu 61
558982219 Zifaxoha 66
560330511 Dor 48
560379321 Fuwa 27
561576654 Hide 62
562044686 Hacoci 78
562436001 Dibo 87
566104462 Nasiqat 76
569720855 Tuguz 71
569854215 Kotewih 84
573212648 Cehuhub 38
573365421 Gakilot 65
573555603 Gum 71
573870623 Nihocit 71
577653524 Punu 94
577862144 Sol 30
578118634 Petemogi 17
578807704 Sica 34
582105814 Pomaya 63
584732036 Vediga 93
586071597 Fuqimo 2
588689922 Huka 67
589761062 Picudeke 26
590064020 Voki 96
590594030 Towikayu 16
591359780 Tonudok 1
596159867 Kubixo 85
597713991 Vev 97
597729489 Kemohux 34
598223658 Gaxu 61
599250755 Yud 15
601683909 Pemah 89
602353957 Lahig 57
602605304 Javemage 26
602738259 Dim 26
603376990 Motohezi 23
603767972 Fiyecef 1
605240581 Satineg 57
607808618 Guret 12
609366370 Rigobuko 38
613848901 Sulexat 68
615559266 Nikoxi 27
616534626 Finiteka 29
617988699 Duloya 2
619022004 Pibaz 53
620989172 Dixeb 17
625200050 Hutem 57
625722994 Gabe 41
626206664 Yac 25
626884687 Lojacaz 73
627975433 Boyede 38
629009286 Wuzayozi 67
629593490 Toso 27
629777665 Foluju 99
630402771 Liv 40
631202851 Gem 48
632631417 Loda 2
632686960 Kesum 90
632705526 Mux 79
634771505 Zahikoha 8
636976080 Foyaven 23
637052795 Kafolaha 11
637249359 Dubofoke 22
643636406 Yulaq 9
645691018 Rigubem 98
647375374 Bayeno 9
648802672 Tax 14
649006106 Devo 79
651066714 Rocubeze 33
654953727 Devumug 35
659595721 Yuluz 76
662744998 Xur 45
663566159 Mibi 77
663863606 Mobete 3
664428315 Mije 68
664642344 Gubi 32
664671862 Godovoqi 60
667492074 Hodiga 34
668101752 Yilaw 20
669538261 Deq 97
670783829 Pihegi 33
670813150 Jef 23
673075821 Soc 27
673517036 Sibug 58
678591914 Yadeb 37
679356350 Koxape 97
679909842 Cet 56
680192251 Hufehe 88
681561007 Qimozepo 34
682165324 Xun 61
682856435 Moyap 35
687424879 Juxaz 98
689467823 Quve 76
691882745 Soluceve 73
693189565 Naluqu 55
693401938 Mocolino 52
699303985 Nepebus 36
700206214 Kanoc 31
700891151 Lodayan 97
701180656 Loveqap 31
702518969 Pocil 75
702728996 Xeherosa 24
704357493 Qubas 34
704581151 Jiruyoq 49
705085300 Geyuwipo 24
709453660 Lemogo 58
710046128 Nugu 85
710775227 God 10
711886696 Lukeko 84
712704494 Hecawal 19
714010134 Gudeqijo 84
714741344 Sokayodi 82
715086586 Wug 49
715191930 Dukoqo 41
717666855 Dafi 98
719178863 Cij 67
719454582 Pamine 67
719572709 Qexor 88
721058065 Gasow 55
722160092 Waciyeti 73
722295455 Bit 44
722371091 Yaciqog 12
722656031 Wilez 33
723848407 Rodul 85
724911968 Qusove 57
725815120 Yofaguja 82
727118634 Tehawod 34
728557795 Dogesaw 63
729829736 Bukal 41
729920826 Sesaw 47
733545158 Tixiza 14
734777326 Gajapeyu 30
736167434 Putolu 36
737140995 Tus 69
737494201 Yemilih 82
737848591 Penoyada 95
738078338 Belugaw 8
738536993 Repu 77
739631421 Gazowuh 34
740069864 Dade 56
743256710 Jabetom 26
743468390 Hiw 44
743831188 Sicisoxi 57
744441861 Zite 56
746026406 Cut 62
750082484 Wikatez 25
751107666 Wafic 46
752351802 Diyoje 85
752472117 Yecak 50
753117374 Haq 31
756160133 Yuqilug 78
758552114 Meqawovi 83
759876897 Zuvu 7
760084204 Xoza 78
761260354 Taq 33
763195458 Voyeboqo 15
763237386 Mot 18
766049132 Cusu 36
766213626 Fudiceku 9
768156244 Sep 48
768205952 Vamihiba 94
768356914 Polacecu 81
769362634 Duhu 49
769677127 Pocomip 81
771196921 Vacume 24
771557723 Kedawota 45
771752962 Vah 70
774822434 Nuqey 59
775772721 Lipukud 51
776792193 Gen 53
776886866 Yanofi 19
777015699 Joneha 3
777314609 Gufoh 58
778567430 Rila 39
779431987 Qiz 35
779652149 Tehadol 37
784095562 Juja 50
786945558 Tetuc 60
787365464 Meyonig 14
788283383 Cege 32
790805698 Xenutime 52
791682928 Nepawade 29
792447709 Zihu 65
793195270 Nore 29
793470324 Niranan 24
794547768 Cocase 88
796199495 Yenenoyu 56
796458632 Hihebufa 24
801201337 Zohosudo 84
802063312 Muvow 48
802364508 Roq 75
807072909 Tokuz 30
807627191 Vovalah 60
811411058 Gir 48
814045484 Gumi 39
814494577 Jenowivo 100
815180526 Bizihono 73
815265179 Woqeraxa 43
815568294 Keloke 1
817070465 Boxenub 36
818519276 Yivek 80
819182943 Pili 38
820657462 Quk 28
822278179 Deyohox 51
824279677 Soki 99
824588724 Qonuviq 50
825480150 Toyoha 16
825739473 Numukeg 86
826905592 Lipa 66
827819935 Mopa 85
828324854 Vatap 14
829436685 Qobubej 53
829680931 Kiyosehe 53
830528035 Bajos 68
832300075 Xetuso 75
833020402 Vavevisi 81
834130722 Yuzevimu 77
837195821 Segaquk 56
839255109 Koketok 66
839285704 Conuqiqu 28
840102108 Daw 86
840193968 Zalozi 44
840503627 Naxa 39
842966742 Getabadi 16
843705803 Fakexino 3
844317747 Nuko 41
845488138 Rofiz 72
847918823 Woli 37
849860538 Rigi 80
851752395 Deguxiya 27
853755198 Yune 4
854296563 Gecolez 85
854314503 Rufutodi 25
855029241 Tutad 17
855503613 Jafe 19
856069710 Jeh 87
858420008 Gipomi 36
858457683 Zemebipo 88
859167577 Sojijir 49
860279994 Kafel 21
862008510 Qemokon 87
863336943 Wodeh 61
863337692 Jefo 34
866571013 Nako 46
870761733 Dirag 32
872691369 Quvucafu 53
878122817 Tar 41
878614680 Qoxuk 90
880226902 Weyo 39
881247228 Diwofek 57
881408289 Dul 87
883359923 Huyu 93
887158617 Dug 87
887552522 Fiju 21
889164796 Betonet 49
893007473 Bayuneni 13
894294866 Tigugab 90
895662999 Savayija 59
895871854 Titiqiz 13
896241891 Voti 26
899233973 Beb 39
906913798 Tewoniq 15
909075699 Dig 32
912843115 Mazicelu 73
913232911 Vehadega 64
913758158 Hem 5
915020738 Jomuropi 96
915853968 Guyomopu 81
917303160 Teqecab 100
921297486 Jowe 73
921670102 Recahi 81
925649078 Hakuvoj 70
926007299 Cux 89
926232658 Lomida 37
927136295 Fezoda 15
927829911 Niy 16
929249990 Gadaqu 8
929948122 Lef 74
930461470 Juhuw 56
930665403 Xuzu 19
934934034 Yazak 29
935373222 Zegozu 27
935830510 Lasayuf 38
936751647 Bihiqu 14
937375067 Peg 14
937600051 Tanaye 60
938901983 Kupu 37
939974356 Wevin 82
941188379 Posimu 44
943435846 Tomif 74
943449747 Zarace 68
944591215 Tihuro 81
948287116 Meqeh 83
948790736 Nonetux 64
948894728 Kex 31
949645160 Vepaqip 82
950723158 Rujofiy 49
951353408 Dokufa 73
952545046 Lidahelo 85
953437497 Fexuw 55
954195736 Puyuca 19
957817717 Fubila 82
957939935 Qezez 79
959479125 Qikowelo 97
960598560 Luhuv 5
960610277 Jupe 39
962746711 Yadocur 83
963031695 Fanene 4
963043413 Ron 86
963524455 Redikav 78
967832893 Hofomi 79
968731964 Vedu 15
968983430 Kunesado 94
969288082 Rosiha 73
970846633 Soro 10
973133007 Hufoyunu 51
974523090 Yav 47
975487253 Tewijub 27
978880905 Didixod 89
979126456 Qiwiyi 34
979136286 Pos 56
982999358 Kex 33
983130269 Qefezu 9
983379092 Givuko 39
987734907 Hizo 81
990846595 Cok 93
