506
4339138 Duma 36
8098027 Kakusa 10
8684982 Paqu 1
10045031 Vexuf 25
10287696 Ziwunusi 65
13470840 Fuqehuy 25
14238979 Kat 15
19854547 Gimab 91
21552009 Sukinon 54
25860062 Naqiro 57
27005343 Hivohet 15
27950823 Niva 61
31253684 Yogese 50
41254842 Xekore 11
42085816 Wexil 24
42914229 Hun 27
43137173 Juroceto 68
44878081 Marorudi 58
47490568 Rinisopa 80
48294122 Jinuhit 36
48988597 Yobaqore 2
54195457 Xojaz 33
56030144 Pikoceko 28
59961168 Xogiwano 4
62665485 Yixa 93
64454812 Pam 13
67541175 Royumeze 98
71337081 Fuxehor 46
72803932 Yizovaki 40
73569828 Pikizu 58
77205451 Beza 25
79349912 Hivoyedo 21
81370184 Cuyesuv 95
84802528 Qarunid 12
84897261 Celurop 60
87613526 Teveze 92
89347596 Jaratal 81
89736025 Luney 33
93826811 Pewu 8
100475117 Gehiwuw 26
100859909 Dubigumu 43
101201096 Jipobay 42
101435243 Nerejal 67
102555476 Pisay 11
103968813 Fay 39
104289662 Galo 59
105315390 Xuviye 3
106337780 Pexegi 96
108102441 Muzikad 24
109026800 Muxede 65
109098401 Pufu 49
109124315 Fipobuba 78
111500852 Hedehuc 96
113420220 Wiqig 95
114142248 Huq 94
114852173 Yidipa 83
123649742 Rojura 82
123993874 Reluluf 1
128270312 Gijayamu 49
129381905 Dace 98
131292660 Reyu 49
131952852 Rizoge 36
132984607 Naboxay 89
138507715 Xeridoj 14
138670554 Qabej 2
141194661 Wuzaro 77
143107783 Deqalabo 65
143506476 Cupifeba 66
147853961 Kuwosun 86
148500247 Pivela 96
150642655 Ric 33
150717678 Hiko 24
151546091 Tig 41
153713164 Dareku 92
159031176 Bokesit 22
160239019 Jib 21
160593748 Ver 27
162827038 Tevub 45
163065477 Xen 91
164191424 Ridobi 48
168968967 Mukuyi 58
169391495 Fuw 70
170150268 Cuworuk 30
171845221 Pelef 73
174544025 Gohoh 34
175372222 Fabeq 84
177977831 Cuwaqo 13
178590968 Yibud 22
180379276 Nete 10
181866501 Kabub 21
187654847 Toj 81
191009602 Rux 39
194129193 Qaz 52
194227883 Yisa 47
194354371 Xepo 61
194897630 Lij 90
201391054 Kote 100
201415567 Yedib 56
202047714 Juxop 88
203201916 Pokomom 29
203667595 Jodut 75
207052395 Duxep 44
207388573 Xocu 9
207630179 Misem 71
208373662 Xaw 57
212515524 Kekuj 39
212693243 Zor 74
213081045 Zixixopo 3
215979903 Zukipeza 28
219154816 Hekoy 49
221364565 Qes 98
225451287 Yefuxa 79
226278816 Nayod 19
226859390 Yaroq 64
230370272 Woxukuqi 59
231509660 Fosi 96
233584180 Wumebaf 84
234690811 Fala 58
236318331 Dig 81
236589236 Zeqam 42
240154087 Xewohepi 98
240264666 Vebelim 16
241098710 Doxavale 9
245164471 Sarugosa 75
245487311 Rejut 7
246509357 Sacilegi 83
247820831 Widoqax 99
248355608 Gusoho 42
250793871 Porokiwo 2
255423717 Godu 20
256105621 Kacuyas 71
257344290 Sixud 2
261291491 Yehe 48
266829810 Poc 1
268082575 Qut 94
269024743 Xit 21
270548210 Zodavefu 85
273660237 Qisaye 15
275831011 Xagametu 98
276024087 Gihoz 96
276593943 Ficekop 95
278368759 Xiqa 83
281338472 Gojuvij 8
287947262 Pipizosi 31
292789290 Hux 42
296071960 Jehako 35
304635936 Fivec 45
307620253 Yesutec 79
307910818 Carun 23
309397989 Tepotil 24
313277793 Tegigel 69
315217646 Xodono 29
315984457 Pugaxiw 32
317081890 Vuc 91
318108936 Gifefoy 84
322438306 Meqesedi 73
324521917 Xorixis 95
325110874 Cof 22
325407154 Xeqinoca 1
326741600 Cumoqo 88
328485216 Xiraza 70
331849453 Puwupoq 100
333805983 Hap 29
334157513 Jux 15
339831758 Sikafequ 8
343873439 Divixih 3
346452385 Qihopu 32
347519810 Yuyeqo 40
348009045 Yudo 86
348476442 Deyoway 80
349282322 Buwu 0
349477674 Bowaze 28
350156137 Zeve 67
352403225 Muzi 58
355271601 Sadetir 32
355846264 Tecali 75
358133654 Tuxub 96
361010158 Gasejibi 57
362730440 Dojusezi 73
363185316 Pacaqe 52
363686240 Tulumera 40
364620941 Xuxik 92
366480460 Vojo 14
375107892 Gajuleni 38
377445037 Rilis 96
378833843 Tohof 55
384702725 Qakonip 72
386227170 Kucagof 65
389377259 Fafad 78
390299744 Rufenu 20
391563409 Becoles 2
394041054 Yawan 68
402206638 Nikinu 17
402472468 Dilugeki 19
404154469 Lujoyoc 92
404358136 Zimavoli 69
406363560 Puriro 48
406429161 Yuxepogo 97
413393963 Lujih 55
415596550 Vohocuf 19
415656869 Xuyon 95
416373316 Dozodet 70
417567781 Jayotuda 93
421309301 Doboraze 53
422566040 Xisol 41
422843227 Gubiz 70
425336853 Vodopon 1
428641385 Wefa 21
431897750 Moju 94
432400772 Qigexo 74
432711628 Zaduquba 64
433979026 Qorudoma 13
435123280 Quve 61
435580944 Xuqig 64
445491051 Lesutat 68
446794563 Fevogib 40
447414924 Yisun 27
447500862 Fewo 4
451778304 Zexep 61
455526998 Sez 46
456554139 Kabax 48
457030841 Nil 82
458042145 Rixuriz 31
459637827 Roxawe 11
459883978 Watifub 76
461126135 Wuxebup 44
461219335 Zumoguw 15
461589139 Vuvocone 71
466683851 Bopid 71
466739377 Tat 59
467716851 Hid 83
469293730 Moluxob 61
469453149 Waqifiq 18
471708225 Xobaqevu 41
474264115 Rohecif 78
474651893 Yeco 74
475911480 Vezoce 3
480525350 Fibilihi 50
482001003 Henak 54
483595571 Velomu 86
487089448 Vana 52
488206293 Qav 53
493616178 Viqi 30
494394640 Jaqu 79
498270813 Xiv 80
500476511 Fuzir 77
500956737 Kor 34
501095360 Gagetok 53
501241472 Xib 8
507860156 Zegube 90
508128009 Bites 39
508785953 Ceduf 29
508959350 Tocim 27
511028400 Nahekano 66
515150024 Hesujiji 64
523864783 Wez 85
525604719 Debizo 51
527629002 Vokitu 22
528211244 Yewocez 21
528913307 Notubeso 66
530691920 Terudad 26
530907049 Putavode 36
532771534 Lera 76
535614054 Tagalih 9
535762471 Judom 71
536670395 Requ 8
537103798 Dopovesi 2
538987432 Weqo 7
539495686 Pizoze 70
539655331 Funuvi 5
540571676 Ropoz 31
540647516 Timiz 80
541969792 Ral 92
542499075 Gamutula 37
543214083 Sun 72
543318393 Rubosuvi 90
547831603 Her 18
551477711 Mote 99
552969034 Carik 85
553122950 Zet 60
554107197 Miyodu 96
554139169 Wuqedevo 67
554477814 Codex 29
558274449 Waluzox 91
560486430 Jawe 69
561124188 Jekuhigo 27
562866157 Pupizodi 6
564336577 Coja 27
565536222 Webus 69
565860847 Gac 20
570476873 Duva 7
572702118 Faroma 46
573375139 Sigoxuyi 70
574332940 Fazev 39
575150064 Damabi 14
576049816 Sozopuha 49
578956361 Movite 15
583173986 Jadek 37
583635238 Yor 80
591838383 Xac 2
593384423 Qomadex 43
594040193 Xajusa 94
594400321 Hukumu 97
595219858 Rafoto 23
602647317 Tavama 20
604547474 Gos 19
605366158 Qurena 21
611706382 Subes 10
612338702 Kured 30
615132964 Xedayuno 35
615483639 Ruye 41
617767968 Mitelan 37
620544054 Ziyig 1
623207065 Cel 84
624025185 Nis 46
626284301 Xemuy 42
626677236 Mep 37
627018896 Xayad 90
627770551 Nejugida 68
627935568 Kun 16
629970327 Jugoloza 41
631703411 Hiz 62
636476136 Xijak 66
639067292 Hav 78
639599084 Wuqaha 86
641687728 Zabu 29
643346077 Verivoh 77
644712174 Rey 31
645367618 Bufez 100
647189827 Gepetima 60
648893623 Wukumepi 9
650448412 Kepig 28
652627490 Jeturumu 79
652854258 Qiheru 7
657650765 Doge 67
661748846 Wip 54
671262388 Fatumu 10
672291165 Buvez 40
673867945 Piq 57
674190088 Wifofovi 37
678535698 Fofopeki 55
678879100 Surivusa 60
682162608 Cex 30
682273482 Zozekic 10
683340355 Kem 45
683495558 Kas 54
685256242 Duneja 87
685973934 Wipu 87
686150722 Qeracuc 92
688212804 Sup 61
691876096 Veno 41
692186994 Ximeziri 88
692945549 Tuquxuji 94
694058542 Hivuxiw 10
696973129 Xuhukis 63
699083880 Qatoh 79
700055154 Buxiqu 14
700425329 Luvohe 31
700680362 Mukef 39
703146532 Bogujay 50
703301294 Josareti 10
704528686 Bisuq 43
709037898 Facar 45
709095135 Lizikufi 18
710641794 Xiq 4
711177114 Jatob 85
711370690 Pileget 1
711748728 Beyu 50
715009849 Wizavage 98
715017033 Liw 14
718577827 Mezevi 56
719317092 Bohoyece 35
720377009 Kuzidoxo 24
720734189 Tunu 24
720855292 Hufuju 30
725077238 Hadigira 25
727327615 Yudik 95
737312324 Zali 10
739336695 Vinuzo 75
739450794 Cifivaqe 89
741587242 Dula 68
743785586 Muma 3
745146096 Wafor 66
746863817 Pojosaro 90
748865931 Virekem 38
750476458 Beruyila 63
758427077 Yuw 4
759293182 Pobaw 87
761070327 Kemixi 57
762358218 Quwihure 63
767599521 Jowusijo 11
770869816 Qag 32
772200362 Zuxeb 89
773444795 Nufa 38
774374553 Royo 91
774921395 Qif 69
775102136 Honenalo 80
776327128 Sop 83
777476385 Giyipilu 35
778003383 Beyedi 48
778524978 Tuloz 6
778800143 Hevuz 54
779248247 Catec 75
779257790 Guzoruco 82
779965656 Xaroqil 19
788442438 Qavaj 8
797662280 Muzad 80
797908170 Tefug 48
798227158 Zifayir 82
803414327 Jusasusa 2
803819280 Kumuwag 22
807446158 Cabupuke 60
807590527 Qujo 93
809579387 Hole 7
814811308 Hat 88
816287994 Vav 16
818567378 Nagikic 1
818985220 Jarixej 61
824747819 Vegacic 73
828001059 Piruja 50
831634789 Seqo 73
832184306 Balepuf 90
833085690 Nenuyur 94
833204616 Soqun 22
834999482 Teq 55
838442768 Hamivulu 46
841208652 Zari 12
842840824 Sazuriku 23
846398541 Cima 83
847004321 Soso 73
847231351 Wop 1
850869288 Govo 67
852384374 Yobado 67
853269668 Hudu 37
853976259 Gisaz 58
853979690 Putalero 62
856286172 Nituqujo 74
858510901 Pegab 64
860357274 Tutoy 56
861707242 Xacepu 56
863340804 Cixinuhe 94
864958445 Qus 83
871200697 Voke 5
874949623 Xigexino 16
875496591 Jajive 42
875950873 Polox 55
877281082 Tuxe 69
879072080 Cap 97
880040820 Moq 91
882601580 Defe 25
886482360 Bulicati 99
891969324 Sexuna 53
892658531 Veye 34
896084248 Toh 86
900191608 Luriw 83
901767194 Nikuyeso 6
902319531 Vacewos 72
904258861 Wub 70
904800132 Nebibe 97
909402821 Kalowuq 88
911676777 Gapace 0
912025525 Nupe 30
919244099 Xafuniyu 64
920308742 Lovus 42
922551315 Sapafaq 19
922782785 Tuqebose 55
926328504 Zapekeri 66
926579197 Wihomip 80
934595443 Wet 4
936142237 Rumitu 32
936463906 Cubedox 51
936933028 Xuy 24
937583792 Fatazoke 78
937641083 Wiwakike 91
939951298 Rucato 86
940982291 Zoji 18
946810938 Vigi 70
950484261 Wabalo 65
951698939 Hamo 8
953843615 Lananix 35
955917354 Ligopasu 9
956768585 Yoyefoxa 80
957010535 Riji 25
958424873 Vafopet 61
961018298 Fuz 91
961348206 Woliges 47
968140288 Ciwu 51
968835484 Tozag 2
970956991 Zafo 48
971012727 Qep 3
976733746 Races 18
978767354 Mopo 65
980671296 Xuro 42
983747017 Nazoseb 64
984501037 Nupop 99
984816632 Joyumaro 4
985385151 Texab 53
985781225 Vogace 47
986788370 Vufukej 61
989888622 Duben 72
994138941 Zataze 72
994282973 Cih 78
995078689 Nusaki 38
998182798 Tey 94
998804298 Tuxax 78
999843376 Yawoye 45
