818
381808 Nekiso 39
869283 Fumaqef 60
1207505 Zagowo 38
1524273 Recoru 64
3480299 Zadob 73
5204841 Goyuyo 56
5728597 Qilayaz 59
6621100 Luze 49
7626408 Qik 35
7840756 Buyupat 31
8908012 Yakey 5
10244507 Zehak 79
11222343 Zaj 81
12099725 Qudomi 12
12450729 Fadevaku 27
13576863 Hizog 96
14017013 Xituko 21
15615374 Ruf 55
16332115 Hepa 40
17890598 Cebokeh 37
20952269 Voqurik 78
22510483 Nurizox 78
23266358 Jatutiq 10
25209176 Qemipozo 49
25411945 Cen 95
26196232 Qukuya 10
26784750 Novuvug 32
27478038 Cet 75
29342698 Kacinamo 11
31170582 Vik 89
32928166 Quvim 94
35113014 Faqez 3
38157556 Vuk 83
39272298 Nowatavo 44
40369854 Ciyazit 36
42098987 Dofecal 16
43005041 Vucujid 4
44965164 Mupehi 66
46023270 Sog 71
47851257 Sep 63
50160676 Boriz 48
50585403 Titamo 42
50626231 Macajat 20
56822157 Genewuse 79
56840376 Bap 16
57044493 Xaj 6
57867117 Vivu 96
58799499 Huseg 46
58887151 Lopihara 99
60086895 Fudojad 99
60921456 Nehawa 25
61200914 Bugopu 96
62130581 Yaja 67
62654848 Xirodew 61
64067288 Sive 64
65321729 Qov 24
65405903 Gamu 61
67353368 Fofire 28
67961153 Hak 10
68366837 Madet 30
70607236 Qel 6
72427540 Duhobiqe 23
72478140 Relin 55
73630970 Cojezice 98
75290733 Kapen 98
75645249 Kiye 69
76912486 Bobif 65
82250025 Gaju 18
85634182 Diq 96
87269466 Tuwitap 48
89449045 Kijik 52
93628666 Rologi 84
93689624 Jagekav 5
94158539 Rizuwa 38
97428416 Xeyi 65
98148750 Lenuhub 2
98383867 Nalib 99
98832958 Qecuxat 51
99832061 Law 9
100053605 Hesaso 81
100220449 Wofadepa 71
103077341 Qolece 89
103805761 Panikug 50
104897746 Foyuqef 3
105050547 Niris 38
107737561 Dunok 27
108350177 Yayu 14
108728192 Fiqo 91
111288898 Wih 63
114860646 Tupihix 48
115314181 Kuqagisa 2
115441262 Loc 32
116894191 Koses 90
120472197 Karagac 24
121128253 Pijo 74
121875332 Pisaxov 27
122104246 Farevof 50
122400811 Jaruh 4
123065760 Noduqa 73
125187200 Cemonipo 41
125261539 Piziza 19
127044445 Womoto 90
128403377 Ribig 20
129866671 Mewi 6
132197965 Cebu 78
133185415 Basika 17
133909987 Cayelir 76
134281294 Gogo 83
136306957 Xosopor 88
138648604 Yica 9
141099659 Dubilolu 66
141726406 Cefu 16
149496897 Cayola 13
150340385 Comuze 50
151130512 Rozokan 1
151703156 Cojayuku 55
153112112 Juyu 14
153957914 Jufedivi 8
154670819 Wecakef 58
155327833 Woraf 97
155356142 Xihorol 9
157592199 Teranij 87
157933828 Vacud 10
159496519 Fan 83
160340204 Vesoy 35
162824271 Binetupe 72
163237959 Hane 60
163343590 Kowogul 95
163377955 Quwe 87
163920276 Woselelo 95
165350173 Tewo 20
168047826 Jid 54
169190488 Giveb 64
172850104 Hurub 32
173626359 Rexupat 40
174616805 Qiqopu 21
175762195 Delese 7
176014876 Wom 7
176865706 Rava 52
178176785 Puqedox 83
180308362 Qipiqace 91
181557615 Fak 50
182667835 Wikoy 54
183472449 Yif 84
183790613 Piviku 20
185012606 Dipaq 10
186959140 Pado 64
187132316 Cazuwat 21
187294419 Cayaxod 70
187422158 Wita 8
187488794 Mihutu 69
188052007 Leti 44
191124042 Sef 50
194150736 Nedelax 35
195809321 Jowic 83
197455994 Mada 11
197724152 Huc 49
198542778 Fugokito 22
200200664 Xiqus 58
203417464 Fidap 49
203558982 Wohecax 39
203692468 Lunu 49
204372347 Duno 60
205432073 Tojixica 32
205674402 Lihune 23
205884655 For 91
206296822 Lecifeso 19
209107368 Biro 78
209227362 Zunexos 24
209300131 Tihivuj 60
212432876 Mefe 63
216274889 Dedote 85
218169534 Zixoguq 56
221738451 Yeha 53
221795051 Bipawuw 86
223599459 Yiveyo 74
225349489 Fitaya 45
225516657 Sag 51
226098392 Minemo 71
226419404 Yejis 77
227024693 Vugakoz 27
227293145 Kabugeki 46
229386254 Kujih 79
232755915 Gug 88
233626455 Fim 19
233721586 Nezabo 42
233818961 Pib 44
234629256 Soyus 8
237299611 Yoqes 22
237465098 Zuhuh 63
241826156 Qovevig 93
242019882 Sasa 68
242494540 Boquleb 41
243611251 Zidafo 43
245832094 Caq 80
246635717 Guyowaco 84
247426864 Reh 81
248980608 Yet 21
251246334 Jix 45
253156047 Fake 84
253244713 Jodib 61
254065121 Yori 50
254669940 Geh 81
256302468 Xokis 8
256336681 Loxi 12
257014494 Caxowiko 13
257931175 Mupilop 24
259332712 Fibocac 82
260071208 Rebiyu 73
260432253 Mocakipa 5
260712117 Vopavoyi 97
261855416 Peh 89
262382476 Huvata 56
267160623 Lumozeti 41
268558431 Daf 27
269504630 Xeyarux 63
270163065 Keha 66
271228519 Fube 97
273435538 Het 30
277006898 Dot 8
277312544 Rec 86
278481910 Xir 14
281472414 Kuhem 5
282379616 Zerobiru 71
282543894 Giyehame 21
282681159 Gej 84
284082919 Zatol 42
284419900 Saromut 44
285400438 Rohe 84
286177637 Vanal 31
289579107 Gunoja 1
295145516 Hasetu 80
295616893 Vasehu 71
297371657 Cagemaca 54
298269902 Duwosebu 7
300479343 Qor 52
304135465 Juqe 33
305442225 Yasupoza 9
306217934 Danew 87
307263761 Julaxip 55
307701653 Dodiwin 2
308640663 Tikaciro 82
308918499 Sozo 79
310622662 Tikele 0
314403742 Yilifaf 74
316396026 Kaxici 99
317623017 Yetinuh 52
318324876 Xedasim 12
318590311 Nayogek 93
321262301 Gadukin 1
321693898 Feqiwenu 80
321743123 Seti 81
321964152 Xudaruco 97
322194951 Veyugub 70
322275814 Tocep 82
322580950 Xilul 17
322825679 Lawihoj 98
323285461 Quxujofu 26
324422746 Zumihos 99
325628184 Hufih 63
326313619 Vezi 8
327126767 Qamofeju 7
327206895 Sipuzuq 38
327508155 Hepahohu 59
327537245 Zozuk 45
329240751 Gunuk 89
329604301 Reqexop 59
331110987 Tevu 35
331306772 Paka 24
333131154 Quto 52
335688507 Wari 62
335810270 Tukoy 26
336953460 Bini 89
339404211 Zugoceq 20
341935697 Cedi 31
342203238 Halodowo 18
343129689 Fude 62
346881278 Noqazot 45
351355281 Qifof 54
352059518 Jaqiz 36
353289838 Sumujuw 95
353291453 Nidewuz 0
353671347 Doboke 75
355096382 Hixove 80
358080107 Nono 80
358409257 Kume 93
359930203 Tor 9
359974631 Rapaje 25
360632083 Bicesa 32
360692400 Wafok 7
362895230 Yuwo 39
363219261 Mexupaf 58
363588475 Dugil 77
363676173 Raxiriz 0
364234308 Hon 12
366960693 Waci 14
367316334 Dasegog 34
368406931 Ruzeqaka 70
368852277 Tepuviyi 12
369608614 Jeke 20
371792657 Hocelaj 57
374609141 Xefog 96
382137654 Yahavar 41
382187776 Hih 89
384135352 Milivuli 18
384164679 Xaxi 46
384866550 Jezuni 9
385537554 Selov 65
386246401 Poyud 5
386292049 Detuje 57
386707355 Nuwas 89
388049225 Muw 62
392094013 Viyah 3
392339877 Mafinase 67
392413074 Kuxako 78
392650623 Siy 53
392893410 Yum 85
393214847 Jowodak 87
396104120 Mekof 70
396126983 Valane 73
396349809 Jequqif 25
396394281 Cake 34
397953363 Qosuyi 6
398118860 Sofadu 70
398307704 Taze 69
398683027 Luse 33
398761707 Metej 10
399268394 Dowidu 95
402668362 Yeg 100
403999161 Hudifow 33
404334626 Hibic 15
404410640 Furiga 30
407682031 Sez 82
409328959 Yozuq 28
411332362 Pay 61
411831348 Dakisiki 93
412604015 Yudoni 80
414758139 Wuteretu 75
417222582 Tocuyup 75
418630269 Riqof 0
418672848 Bamo 56
422417840 Datewim 84
423675001 Surih 73
423987352 Lovumiyu 69
425130733 Vufeger 53
425840065 Xuke 95
427455994 Guhoh 32
428665303 Gowev 24
428702682 Qahe 28
429113668 Qixayapo 58
431294648 Tomimet 72
431695436 Budejex 62
432252672 Lezuwu 47
432589953 Qovu 63
433816120 Vazoy 77
435716935 Fituvo 80
436062998 Somas 22
437142425 Nobuhic 78
439029918 Caruy 91
441209663 Vebesal 38
441547866 Xiquz 59
441662066 Varuw 38
441891087 Rolov 86
442152043 Qoy 87
442249121 Hemuvaha 53
443060585 Yig 59
445242121 Wifame 6
445352205 Fenusaf 99
447176419 Xocobeza 27
447293624 Tihidaso 66
447699216 Ceq 88
448708543 Nofogina 63
449613596 Menu 27
451733403 Puw 77
451895649 Bevan 91
451902286 Xajivoce 84
451972095 Zor 22
452216898 Bexife 63
453705319 Maki 30
455081795 Dinam 42
457514071 Takecax 77
458097304 Hapucate 6
458171222 Metake 6
460335670 Jufuve 21
460591847 Pupijopa 42
461552941 Fan 2
461854056 Matuje 72
463552826 Niz 7
468730557 Purelu 84
468815625 Wikecod 27
471588891 Ruja 34
471787199 Huvo 4
472626809 Weren 14
474093788 Yokav 23
474371811 Hufo 3
475258441 Pecagay 17
475838161 Lacazu 55
477509843 Pima 98
479509503 Yeqape 51
479613749 Xebi 28
483300299 Xola 99
484191942 Doken 75
484849734 Zaxuqu 35
485319151 Geyawo 30
485868718 Mipiy 68
486657282 Hizay 95
487850749 Pequl 48
488117014 Pazuwi 64
491205051 Zitife 73
491413492 Dagexur 44
492417682 Megelov 75
494600935 Wuraleb 4
495092678 Kolow 22
497149746 Pavujete 33
497904940 Luv 88
499099705 Muzam 96
502134158 Kuzag 3
503675899 Zaruzi 29
504784390 Xuhad 1
506586524 Wetuvuyu 66
508824610 Bufep 51
509683590 Ridevon 29
511559597 Huyu 75
511921005 Viqucaz 72
513163572 Zoge 7
513533210 Daletam 93
514571991 Nuzequ 71
515095187 Zagujuj 42
517164457 Jah 78
517765566 Baweh 74
519097270 Rece 83
522118503 Welete 67
525448603 Deduzam 38
527551786 Cevomuxo 1
528079369 Jiw 25
528423918 Jix 68
529171934 Sadil 54
530104048 Dizoruh 36
531234589 Goyinaxe 96
532109108 Samefozu 42
533473961 Poboz 59
533592606 Duxiciy 63
533607362 Qixa 46
534625815 Migoyeb 94
538387133 Xeb 56
540115092 Wayi 10
541249541 Fiji 26
542873985 Kusin 92
543897069 Qow 46
544137960 Pafexer 56
544875092 Fakelid 26
547489232 Gohom 8
549202371 Qeput 40
549602425 Fomaha 75
549684758 Yihepe 93
551113983 Qorili 78
551903686 Vimoza 24
553624171 Sidijam 57
553976343 Tomube 94
556956241 Kaduca 8
558389089 Gatumefa 25
559673929 Fagaf 93
560634818 Yufehe 32
562285434 Vigi 32
562863390 Moyowiv 1
564461169 Mijecas 35
564932759 Zosinix 76
567895487 Wad 8
569104648 Dezajuv 34
570670870 Napupiz 69
571561662 Hegone 43
574268770 Xozotaji 17
574495718 Safipeba 64
577562010 Now 100
578887501 Reji 34
580025624 Hideb 46
580052814 Xiguca 13
580323655 Jusuxuna 82
580707151 Guzaw 17
583712738 Biqokic 51
583781396 Xoga 90
583864307 Pixowed 86
585651721 Ten 13
587314148 Sax 26
590782017 Xiyifagu 47
591414213 Suquhod 38
593376747 Jujuy 89
594116385 Cal 18
594906056 Xehen 12
598509647 Wiwa 37
599735137 Ved 91
600219562 Nek 94
600592843 Noyodid 82
604560602 Rusir 72
604899445 Pel 67
605404713 Mopiq 26
606626346 Buti 43
607661385 Qapoy 30
609671735 Gig 69
610255637 Ras 96
610545898 Sapeq 19
611822250 Petogof 45
614947712 Muqamu 57
615031303 Vug 78
615404957 Munebejo 50
616357995 Gup 25
616613294 Berij 5
617617988 Butufese 72
619252837 Muqabuca 46
620610481 Nizawor 92
621092938 Tubezoju 64
622258464 Dusiv 97
623090552 Loz 81
628568516 Modoqes 67
635582068 Lamiqoze 37
636670605 Vulubug 30
637996517 Posuvute 86
638729802 Fazo 81
640734603 Kogoc 60
640985279 Fikipek 33
641422829 Fani 44
641558640 Lopi 87
641820841 Bop 18
642145306 Giqiyote 1
642711094 Pow 16
644305742 Siyonu 20
646772231 Vifigu 16
647258530 Jaleb 44
647467652 Tiqifuwe 41
650470680 Baxes 22
651914984 Kayul 40
652065993 Gabu 21
652142779 Laj 13
652730439 Zahimaya 20
652957387 Quwavuxa 61
653376073 Tafixob 73
655725455 Kucol 95
656366411 Gud 49
656763844 Nuyaz 73
657709752 Makarire 71
661418993 Raper 41
661751219 Cuzoyid 31
662327333 Caho 30
663952587 Kori 5
665842958 Qopewad 27
667643605 Nodoxoga 70
667856035 Xizub 24
669399226 Luxero 70
670658296 Bafudav 33
671595841 Buhiz 69
672266146 Xacop 88
672295271 Cowixo 6
675645440 Baceripo 45
676138301 Puhehipu 9
676736349 Socecuy 23
676928568 Limij 50
678357549 Lizutem 4
678754001 Luyab 9
679014200 Ruyor 11
679223050 Jowitage 36
679265054 Dajo 64
679618248 Fas 91
679753573 Sig 85
681752620 Pibige 9
682110330 Pite 81
682195590 Yobiweto 80
682561575 Figipev 25
683792364 Gorimabe 74
684542756 Zacidi 50
685329918 Gam 68
685918286 Pano 82
686341305 Zabax 38
686605869 Vekipido 53
686699345 Lamel 12
688852899 Tejix 60
689237840 Zugekehi 86
689444816 Sula 9
695542382 Halu 6
696103920 Deru 96
696463476 Pomel 61
697069133 Waxetoj 11
697571328 Jihi 9
698214036 Cunerod 77
700582597 Wey 78
701573292 Nofetusu 26
702288284 Zafiveni 78
703143526 Yovunulo 24
705226059 Kequle 83
705458285 Jonusula 40
705574607 Fepoq 23
706876884 Timezux 14
707611919 Sevolenu 48
708891261 Xawux 37
709369515 Yuqek 42
710403048 Zoboriza 96
710509847 Luvi 3
714446437 Keyo 57
715830072 Finije 97
716117496 Vapiqes 26
716125573 Dezeza 32
718571667 Wawac 45
719869309 Disat 54
720185344 Gukesu 74
720185488 Xizisali 93
721416166 Domo 36
721710233 Yek 68
724419502 Rafo 13
724477094 Joqe 25
725060984 Qogenaku 10
725555507 Bowapuje 71
725760252 Sis 82
726880965 Tez 52
727784769 Wiji 64
729493526 Yasirevi 21
729493554 Fohapi 55
734209487 Duko 30
734903859 Qive 31
736790443 Hezahes 91
738621928 Sifo 31
739404705 Vah 66
739960694 Kipapofa 11
741294705 Vem 80
741753101 Topawa 1
742896196 Gaputosa 69
743889759 Fafunevu 44
744232142 Guporo 27
745742572 Jiqev 49
746516395 Taci 86
746566190 Vuboge 86
747237789 Vujoga 92
747771448 Luxoce 85
752162348 Guyuranu 13
752748316 Juyu 100
754926181 Pituqula 4
756502947 Rawexak 40
757372121 Fav 46
757517209 Pocade 88
758306111 Fimiho 76
758954308 Tazeqebe 30
759018904 Gatimi 84
760176083 Zaqoxu 98
761457098 Nekayar 13
762632777 Zuqe 41
766671775 Pog 26
767634707 Sedu 96
768378912 Yebut 46
769427667 Recuqo 26
770022877 Cupah 31
771268778 Dowuyag 91
773553190 Liro 45
774761938 Jutibop 94
774833888 Zok 79
776013015 Lovoxi 85
776355700 Rupij 80
777130622 Cev 48
779041877 Fivifi 67
780363200 Tuze 71
780907665 Qukem 50
781462066 Hobe 24
781622145 Dino 21
783132263 Heq 57
785148848 Gaxa 75
785691530 Kefi 39
787083909 Rumamiy 3
787147259 Luzocib 92
787290987 Saxu 46
790047502 Tes 9
791356110 Nev 67
793993254 Quj 64
794116957 Dazabow 97
794890380 Rusa 43
797526779 Xikuzuya 13
797661432 Fazo 83
797794360 Fineyuzu 65
798655065 Fapavovi 64
799833422 Cosu 30
800169693 Luq 28
800187467 Damotabu 75
800324578 Bodepe 36
800564790 Povi 55
801200127 Nuwo 44
802029708 Zucuca 64
802682351 Jedit 85
803962075 Giqi 14
805079811 Wadekuv 20
805733978 Jehatefu 34
807833448 Rorigo 95
810672200 Ganasiy 18
810880076 Nac 37
815880289 Teve 82
817267247 Xeqet 75
817369699 Yiqoh 45
818232555 Ger 15
819886240 Sice 51
822672183 Remusobi 61
823913567 Lanese 69
825417385 Fujave 83
825844324 Zic 45
832045206 Barirayo 42
832401029 Butibegu 83
834708002 Tica 65
838222619 Sidu 5
838479505 Xiz 86
839737720 Qawoyed 17
842745978 Taqu 74
842867339 Gipeqohu 35
842918259 Xudapeg 5
842932436 Kiziw 60
843061958 Mojaqujo 38
844066159 Dikoqude 11
846984652 Heqesol 94
848001455 Yomojigi 6
849249871 Picuwoso 96
849494770 Bemaxeru 77
852255209 Vojofu 26
852344327 Mosir 71
852558901 Cat 95
854612176 Pite 29
857729902 Xolidac 1
857948347 Disagow 49
858039428 Qazes 13
858176212 Sicosop 28
858804785 Kidunan 27
859608592 Lahavaxi 54
860446352 Xeg 12
860661141 Yemosuya 4
860951571 Danasu 37
860985068 Coha 51
861533599 Yeqem 23
862506883 Nuj 29
863804943 Kokivo 54
870667918 Qaguta 79
871324083 Vofa 0
873719606 Mogu 51
873853621 Tesa 19
874196567 Yehafave 8
875430925 Zarepihe 48
875533558 Sevonuv 83
880016997 Kosomi 76
880373738 Yah 100
880387674 Qemoweb 56
882295295 Wuveg 90
882811089 Cibi 3
882856927 Labu 32
883633371 Debi 66
884391592 Yajo 59
887764136 Qej 31
890585770 Yan 38
890781573 Faloki 1
891114872 Pinuhu 2
891413439 Tawawu 86
893645632 Yewileco 43
896730812 Dadubisi 90
898016032 Cif 34
899181628 Holi 46
900658342 Sijupolu 18
902685986 Guwid 10
902686844 Saq 94
904828213 Vud 30
907185572 Tisuja 27
907481765 Ducewu 52
909269211 Paluze 84
911734274 Ruvucis 100
915277581 Hovov 30
917994155 Piwi 33
919089964 Ragiy 99
919541161 Jidofix 38
919723767 Cina 68
920278490 Kufay 68
920762498 Yatu 60
922960927 Qol 12
927813800 Govibego 4
929772731 Foqapi 32
930607620 Miqog 68
931964204 Midih 5
935509888 Jaba 19
935785926 Piroy 92
936573311 Kaquwo 64
936977157 Dula 50
938553555 Sopeti 0
939034725 Jijubi 34
939597767 Qigage 47
942623037 Yuguyuf 45
942667729 Saxezoc 23
943833060 Gowewo 63
944476323 Seyas 23
949233466 Fal 91
951402176 Vofajofa 58
951618495 Jalitumo 97
951659290 But 42
951692611 Lepi 100
953210463 Xahopefo 38
953970174 Duzaru 28
957035247 Qahosos 53
957650678 Zanipew 48
957671227 Hapegeni 63
958162711 Hos 29
960672902 Wekijug 34
961409791 Yoy 78
961515978 Kaxaqi 37
962417915 Toviqoye 5
966635937 Dicalah 69
971542384 Doqidoz 13
972032792 Nobi 2
973522635 Mahuv 67
973707266 Fey 65
978010951 Tomiqoq 72
978987050 Sur 10
982762818 Nesanez 45
983134223 Jokumifa 92
984031166 Mapop 29
985395956 Humi 75
986931839 Tila 89
988526937 Vefum 1
991558979 Kah 54
996625703 Zakoka 79
998106564 Yozilaca 65
999342458 Piweh 16
