629
191959 Teh 36
912762 Daroras 95
1446836 Xiyihod 36
2023792 Zoxi 14
2524648 Dobe 75
4888167 Muwiquc 44
11254350 Fiwiroci 13
12565403 Lukoyih 96
13054700 Wikideg 77
13511908 Tev 48
14852394 Yutu 35
17159948 Yowogohu 66
17552743 Hojati 43
18824412 Pemer 37
20747450 Qofufa 8
25239355 Puqazini 5
27325724 Bek 51
31545202 Nufuz 63
31666450 Cav 61
32438690 Guyoq 25
32504726 Gomini 92
32929481 Foyiv 52
33496283 Naquw 21
36018527 Sesido 58
37012156 Xesuru 49
38303585 Hoyuwic 4
40560642 Ceyaki 92
46181856 Fujaqozo 92
47059544 Bola 13
48457527 Kuzaho 10
48662559 Totamon 63
49379058 Rusogav 43
50498892 Kuyo 60
51433372 Xexeku 14
55165111 Lesig 10
56147978 Nanuge 36
56792785 Dub 60
56793527 Tare 62
57570068 Magufi 65
57748819 Yeb 70
57922637 Nayin 9
58228091 Barod 11
59089834 Tenezo 5
59520708 Quj 93
59853669 Pinolos 62
61430558 Xevel 78
68596914 Hiv 63
69631047 Baza 73
70750227 Dadaz 25
73407980 Gob 39
74680663 Sifoz 78
76760182 Hopuwu 25
78758132 Revar 54
82626413 Lajaquga 6
86358001 Woyuj 77
87125898 Tew 4
87263701 Ceyap 25
87588015 Gavasop 67
88418253 Xurumaqe 5
90377998 Zajen 98
90809789 Rumineka 1
92198340 Vego 97
94812918 Qiyoho 81
95025210 Nudu 1
95091390 Lasu 94
95475905 Xonopaf 49
95658982 Pat 65
97397776 Jejubewo 51
107305668 Gijoruti 78
117739135 Rovehiy 41
118095754 Xato 96
119926994 Caguliho 90
121611045 Nayopequ 62
122602712 Takowor 25
124564851 Musogok 30
124885301 Famaqu 79
125617070 Higoq 39
129575742 Derohem 58
131739723 Quco 19
132275136 Hix 31
132408940 Yubaziki 66
132537506 Ned 1
133370593 Xufab 90
137473503 Roneha 28
138544330 Kabiga 83
140218329 Dilisawo 58
140461358 Nuweko 66
141852078 Piq 56
141973194 Zeqabo 67
143142366 Vutiyem 8
144258709 Xagex 69
145164168 Ruvizope 100
145839389 Regetig 48
150968676 Niwones 55
153789793 Koxemi 87
153992969 Yogu 29
155489336 Mejo 87
157555256 Yefumeni 34
160060998 Hacaya 69
160308303 Ruzom 88
161476435 Van 88
163412936 Vuf 11
163960772 Hotezar 31
165429445 Labe 1
165900391 Qaz 15
167311072 Vay 48
168995102 Sunaleja 76
170204934 Memaf 36
174087262 Witit 15
174871013 Qus 27
175576378 Jodohak 96
176226310 Megoma 36
177794446 Qeyeci 90
179301676 Laqo 70
181588871 Jogibe 55
182490268 Neboka 46
182621520 Sazadog 7
182983534 Bama 40
186310702 Coroquhi 40
187304914 Sek 72
188527329 Xazexay 96
191816078 Pinape 28
192814725 Hus 78
193090207 Kexamora 21
193291772 Nukid 38
193741250 Ciluhug 5
194055059 Xahapihi 77
196220615 Tomido 13
196435233 Sexug 8
197666083 Nexirako 32
201324837 Muy 82
201976413 Qonuq 1
202342610 Hihuxa 26
210524839 Raz 41
211844599 Qofifof 10
213236666 Samosiq 60
214461067 Nal 74
215390160 Vawa 34
219665249 Nehife 36
222552154 Ficevik 33
225790494 Teke 19
226265961 Hujiye 84
226622452 Yuy 82
227362216 Pujay 31
229167221 Pehivo 5
229685804 Haziw 84
229779711 Teso 19
230658938 Wehiqaga 86
230846275 Roxo 100
231608807 Cupov 40
233091322 Rupek 43
234334453 Xover 59
236900685 Keki 35
239737570 Gorifow 67
239861260 Mumapece 12
239966461 Dif 46
242387102 Fipo 75
244086496 Nilaqe 98
248062551 Qey 20
248785898 Wazov 86
249313150 Yufevu 19
249355453 Tixus 75
250150267 Peyazej 88
256171481 Lil 67
256917539 Wor 49
257691981 Kotah 20
258949071 Qihizon 21
262369501 Duzesove 40
262795717 Levekumo 92
263132652 Hepecaju 67
263873955 Lixi 45
264584600 Hoyif 98
267296706 Qawazeb 70
267531749 Dabu 52
268173721 Xatefed 8
273885939 Woq 30
274507737 Rofulat 49
274694430 Miqipiwa 55
274844692 Runuze 62
277034007 Gisadew 75
277321902 Gexa 55
283894233 Tunayip 74
285761626 Kuraza 70
286398290 Pucad 36
287818844 Qigo 4
291928861 Zaqud 84
292830585 Sifixi 32
296384322 Bay 64
298187878 Hopi 25
298419627 Jogova 85
299680258 Velimequ 18
302130178 Renukizi 72
302893920 Nihir 39
306675949 Tiwexo 65
308008525 Yixuwes 63
310045330 Govazuvi 0
310564140 Peko 2
311719775 Fitobe 34
314008775 Tuju 49
315747281 Fen 23
316371382 Vaz 13
316410465 Hujece 67
316854756 Rubuge 87
317061507 Yuki 7
322556612 Ziyiwik 52
323636449 Feboze 42
325219584 Hub 2
328036553 Diyesaz 36
329749518 Lataya 98
330294334 Kudivo 42
330713319 Bexeri 63
332519870 Jifuwaz 92
332862887 Jipeyuk 9
333779229 Nun 14
335479105 Caduh 97
337873048 Zogiwo 97
340039596 Niv 60
340415941 Kaximi 43
342804704 Puk 16
342860052 Suhinox 12
344619611 Vud 99
344920652 Bev 84
346442388 Siyiyo 60
346895578 Biriqit 73
347877743 Haguhaj 63
350146920 Wibe 89
352858209 Vusugux 71
358281207 Fulenu 2
359874051 Niyivar 43
360398364 Yeqe 20
361250421 Jolaq 67
362916757 Giyuka 91
364278762 Beg 42
367238816 Hevod 42
368589607 Yuqoced 95
370207687 Dawopaci 50
370885345 Kolivec 49
373989726 Wibolihi 0
374024781 Suz 20
379724144 Naluqez 29
381414540 Qafebow 22
384239636 Huva 28
384872531 Gotus 84
393045721 Gukecero 91
396688206 Ciyotez 95
396788834 Xeqe 13
399379613 Xove 82
401340219 Sibobaxo 47
403316818 Voce 48
408204942 Jataco 65
410412964 Gik 16
410899574 Pusol 99
414469998 Godoyuk 24
415040856 Fuquxuv 86
418141981 Wizupivu 90
419411160 Jaju 53
419612149 Gesi 92
420138155 Liy 86
423268251 Jatuxema 59
425256813 Qoxis 29
426266195 Qoqo 76
432324264 Waf 62
433323135 Pudiboli 56
434064989 Vekuqe 87
435210157 Zubataga 9
436966761 Vowaqaro 40
437268954 Noboxap 32
437928063 Laya 12
441554178 Difidave 0
441621047 Hokuyid 37
441719810 Yigi 5
442439597 Kokerobi 37
444448682 Zitiwowe 6
445406555 Neyaje 37
446698592 Reboca 78
446905705 Yopefixa 12
446970575 Hufab 8
448852470 Wubafo 1
449209252 Gebigi 34
449516106 Pilo 63
449901903 Xopoxape 54
451040502 Wowu 73
453487290 Repewo 77
458060202 Tiwo 26
458801873 Rolok 73
459601987 Liwoxopu 11
470340122 Hiw 94
475259690 Texax 93
477173090 Wikakaci 4
477517571 Cadoziy 59
477625597 Xobehex 32
478597500 Moluxe 19
479327945 Hiy 64
481682345 Sawozaq 80
484835545 Xoyexoq 67
488377950 Xiqit 96
489068402 Rafebu 23
489205246 Niy 22
491353826 Mugedax 31
491780839 Nivubuma 24
492495292 Tajol 82
493934435 Xayakig 70
497091657 Megulopu 34
497707061 Siwoko 80
500426108 Vof 53
501028125 Kej 6
503623568 Qidu 79
506135488 Qixey 19
507231783 Qanasera 6
511601676 Tilefic 87
516578526 Suyaci 50
521489945 Javil 65
522651996 Doqisih 74
525570077 Coluseb 50
527103432 Hay 78
527815860 Yitu 20
528655748 Xowufuc 71
530060301 Fulahena 8
530957327 Cov 49
534766612 Towa 40
534997508 Puteba 38
535625566 Fuzedipi 82
536240873 Nacad 59
540444119 Holije 62
541903332 Suvuqot 5
542666527 Wos 95
544330081 Zucen 53
545128370 Vidukis 92
547592938 Sugewub 12
550093003 Vacimuno 44
551299474 Ziboheju 98
552264393 Dutixale 37
552721506 Muheji 1
552917834 Saxif 19
554199205 Hetiju 88
554507930 Safot 20
555707696 Zebuwi 99
555954643 Bikalok 67
559731890 Duxil 8
559995447 Gahot 90
562134897 Nige 72
564360554 Jaqufud 96
566210890 Kacimi 64
567120776 Fiyiwiy 100
569970221 Yuh 40
570175634 Zuhu 5
571618910 Bopudawi 79
574206380 Curoveya 55
574467281 Humoyu 1
575542582 Muwehu 69
575919021 Hor 15
575956503 Tiboyax 65
576019484 Xonil 96
576492419 Zetages 91
576654980 Focel 17
578182605 Zobokete 52
579675796 Waxute 41
581828361 Duz 3
582039398 Wobuxa 15
582769695 Vivebux 13
584288690 Piv 31
585810099 Vasefepo 45
586726914 Vuv 35
588905195 Vemev 60
589875023 Miko 56
591262595 Kiceq 35
592932068 Tuderaj 18
593598743 Qav 59
594202232 Jore 63
595205800 Zijo 61
598415428 Zibeb 13
598664919 Lavebe 80
599029612 Gufac 49
600810563 Kiwi 11
603068505 Sudater 23
603182286 Riyo 23
603754550 Kezuhopu 16
604417501 Rusaxay 44
604456333 Matotob 19
604665377 Keni 62
606069101 Cuyuc 96
606548852 Huxej 24
609672295 Soxe 74
611317506 Sebi 54
611571292 Hohi 85
612846160 Waw 0
613211371 Xinoya 100
619287145 Fajamon 42
619613742 Ketom 93
620980839 Viwax 11
623287859 Suvika 71
626362879 Ronuzawe 77
627758414 Cagur 94
628046847 Qumuxac 7
628196982 Jayid 41
629710375 Fizo 25
630716096 Fas 17
638856901 Dolamuy 60
640088987 Dodunuv 77
640720671 Waliciru 45
648257656 Suvobo 99
649143590 Vusaz 43
650100051 Jakuyar 0
652057859 Xele 58
652701413 Raxodes 71
657561934 Noxameja 53
657983793 Huzozo 20
658291400 Guhic 33
659249225 Safu 85
664306227 Gune 23
665221157 Zonu 29
665301856 Leyevop 29
665761137 Goz 44
665918262 Belaz 48
668375338 Soquj 10
670177149 Xubite 72
670693603 Naduquh 81
673269902 Hoba 46
674706058 Gaz 97
675187676 Sapuyen 11
677236256 Lohec 94
680824642 Rum 42
681029937 Robinek 75
683622427 Famubela 9
684510370 Qexuceye 35
686218230 Namij 81
687281683 Cen 57
688115165 Rore 26
691704332 Voco 21
691990161 Kitonaxu 64
694558028 Veqegehu 55
694764804 Ceg 93
695800149 Noderes 74
697360923 Bazuk 65
701143561 Wikeyac 71
701811633 Jiwuhi 31
702333032 Ciwowuta 40
702992071 Tujutog 69
704285107 Leqe 80
704752864 Led 79
705366655 Ceragu 94
707434461 Fayuk 73
707619738 Topuvo 4
710509963 Donuc 52
711568914 Kasu 56
711860119 Gigahu 19
714535364 Zezezid 81
714758808 Box 90
719085488 Vun 31
725307621 Zoxux 20
730493860 Pusajus 52
734557955 Hajah 29
735448642 Rivec 95
735779936 Votiqife 44
736194222 Vikugaku 12
736694493 Pig 12
737475907 Qita 48
740922184 Divob 84
741302135 Hezajow 48
742149138 Zahiqinu 78
744633475 Cevire 53
744656260 Catemafi 12
746436231 Yiy 63
752531925 Vubafuj 41
752583619 Xuqahaci 86
753576254 Xabemoh 28
757764446 Masutu 27
760123570 Love 12
765718461 Dupuhohu 63
767632557 Pitojos 56
769104564 Teza 79
771090388 Kaz 30
773652365 Qek 12
774204628 Gesahur 86
775575777 Jon 41
775600135 Sovo 1
776703299 Tinoji 14
776842288 Taceri 73
778338165 Cin 92
779454608 Val 12
780200022 Woreh 26
780270005 Qisu 20
780532623 Rawoz 72
781044840 Xecaxo 85
787091133 Qeso 86
787860435 Sepiyij 24
788391711 Luduruxo 100
788809917 Taxa 55
790091113 Duce 82
795038376 Gon 38
795308511 Faqica 65
796689923 Coloto 87
802574565 Wowavuhe 94
805160619 Pipi 89
805640665 Zoroto 42
807028183 Yilan 58
807067654 Vukom 92
811283179 Qocom 22
815474778 Haduxu 25
818209114 Wovu 1
823143353 Dijobo 6
824103780 Jebiyor 19
824871771 Wejuya 40
826326648 Meguw 24
826892414 Koteqew 52
829951977 Jatehi 31
830523230 Cidi 76
831752880 Jiquyizu 83
832024582 Tax 73
832274756 Bomi 3
833903765 Wuyume 78
834837054 Kupeloq 89
836947155 Padotim 13
840065455 Moxasuh 84
841413722 Raxog 2
842460746 Sofi 28
844275052 Hipef 19
845510232 Hegur 91
847840357 Beru 96
847967167 Wobu 30
848807215 Sekaqeho 59
849803869 Jabi 58
851217214 Buqiyi 9
851246384 Qeviri 77
852605690 Tit 91
853294774 Ladu 13
859117310 Her 83
859206465 Rumal 62
860885188 Hoduq 19
861051174 Qeviduri 69
861427078 Pigus 46
864080706 Cog 91
864961781 Qunuy 13
865114154 Kixuviw 59
865379946 Fopak 23
867521337 Mucet 99
872563537 Moqame 38
873712092 Nituqih 65
875311049 Rudatuxa 62
875880227 Yanipa 11
877754568 Cohanez 100
877838765 Hihi 87
878268665 Guregayo 81
879796859 Vib 18
881067914 Hiwucid 80
887792507 Juredipu 41
889707417 Gihug 48
891302134 Sogula 19
891421724 Daf 9
892306712 Sajine 16
892865557 Piho 97
897410231 Viyowe 81
900978150 Xupah 43
901438822 Warezovi 32
902006424 Kek 47
903353790 Duyoz 78
903892655 Lerapeti 60
904569544 Tuvovawa 31
905081541 Biziso 3
905840175 Coquhago 74
908009295 Varuy 59
908887911 Yizinob 16
910693520 Fox 99
912136646 Vudijo 88
913325988 Naxiki 94
914774056 Jocoxe 49
914778372 Xuyogeh 73
915009813 Bocecat 7
915798677 Fiwolam 46
917630154 Kul 35
918262973 Qomofi 5
919377628 Yoqojo 2
920492532 Hunesimo 17
920913236 Lij 63
920925769 Zagu 69
921912387 Hotodik 17
922043641 Jezivuri 91
922123764 Dis 69
922415120 Xorarox 57
923234025 Devib 24
923387587 Yon 87
924183810 Ged 48
924638195 Zoqur 70
925444507 Dod 44
926741175 Xuqif 0
927333059 Hezuqe 5
928454907 Zupuvic 51
928589011 Minobole 53
928777697 Sike 12
929321391 Qexu 52
929760163 Taxi 38
929776368 Minim 28
933041509 Joxoyato 84
934878651 Hudu 61
935432159 Qeh 28
935719160 Woh 63
936536824 Bogocas 15
940383281 Xugahu 25
941854155 Doravori 59
943600659 Dumobo 93
944118777 Mukutibi 59
944261831 Geziwuwa 59
945799786 Fivix 99
946572625 Weginoji 82
948643129 Cux 40
950602841 Johid 74
953068249 Zafeb 91
958868503 Wir 51
963328176 Wen 25
966996981 Yidow 48
970921092 Lekeku 31
971202755 Coda 51
972559367 Peri 33
973351780 Mujel 59
973810025 Caboxeju 6
975044808 Mokun 27
978411427 Lebuzu 52
978490428 Qab 69
978539196 Yugadot 85
980711664 Mux 10
981446821 Jelat 34
983986774 Kojotam 17
985702648 Vahofeq 22
992640616 Yarofiy 85
993400925 Tusuco 84
993929108 Pobiqama 49
994075229 Tile 51
994618279 Wuqifad 5
997890587 Rus 4
