315
2770999 Muy 36
9845130 Weguraq 66
13663685 Rubi 24
20728700 Xewop 61
23880915 Kuk 27
24296621 Vuzeyel 92
28474079 Xocabebe 45
33943643 Bewuxez 20
40390019 Zewa 98
43321043 Qero 49
44011669 Yomexo 20
51283490 Velesopa 41
53494498 Ceq 12
54159968 Bexaxeka 56
56454824 Xil 14
56561726 Horoteye 49
66387610 Melus 74
68895312 Cexet 68
69342064 Fananey 82
69956067 Dipadav 4
70529901 Kivu 93
77352163 Vad 14
80421443 Gelo 53
87010730 Fihexe 36
91952075 Foruw 66
94242565 Dewegok 41
95566542 Rerah 57
96874639 Xoyofar 54
97368418 Risara 7
106196807 Bicor 7
115092256 Sejuq 57
116209068 Tenas 4
116780579 Hidupiwi 47
119111663 Zogafo 31
122457302 Fofuc 71
129277628 Xeqamuh 12
131946065 Sisad 48
133254284 Garige 9
133501569 Xoxuvi 33
136276617 Zahecuv 69
136632370 Didovi 40
143961108 Kufuneco 46
144363446 Buyuku 2
150888600 Pupaqida 66
152771295 Wanen 31
152946354 Cob 5
154156651 Facepuwu 70
156384628 Votiqanu 70
158220716 Yiqogevi 53
159421300 Sojiti 81
159828021 Jegaz 47
160262493 Juvulafe 98
169714109 Sasaqev 77
171262501 Fabut 7
174265746 Xaguqi 86
175384287 Bof 97
179685135 Zenahik 77
185164218 Piwu 48
189440852 Feyav 20
192289580 Pugix 96
197381266 Maw 54
202196380 Bexiji 62
203638338 Fiwu 50
205490616 Tik 46
205873936 Wuxigu 73
208167395 Fidi 88
209661851 Wibaje 41
210246561 Qadeqa 17
214825758 Cobaseho 52
215357821 Cifahix 80
217969562 Fizicif 41
222798218 Vac 86
225088422 Taci 90
225401111 Cusuc 8
228048824 Jocu 14
230569677 Qumuyixe 96
231500553 Por 44
240885505 Qal 92
241325949 Jofib 13
244110673 Mujuw 63
244915857 Loyi 98
246028287 Hesexa 57
248294532 Hal 64
248506310 Ruhutal 40
249674660 Qukuzoj 83
254991291 Xiwanumu 27
257848467 Tejetimi 24
260268513 Fugocama 88
260821852 Rekanalu 42
263077650 Lalo 39
264625221 Yagobaj 48
264736090 Xozaxih 4
269163214 Yajo 76
273173214 Coq 14
275616911 Pawedo 80
276656134 Fudarup 84
282905004 Rehehugi 7
283294189 Cikusuv 11
284888634 Pizuv 18
285272502 Vala 22
285488563 Bob 18
287891431 Seyacaw 46
290804858 Lafitawu 70
294528555 Nij 67
299312451 Gepixi 71
305678404 Xuy 60
306909388 Hulejuge 59
308094798 Liw 37
308789063 Zovem 66
311448725 Kirogoxa 14
313944454 Qaxoxegu 36
318838327 Soxo 86
327297672 Wucocaqe 47
328565563 Rane 68
331158627 Zesemo 49
343709591 Vapeq 14
346973983 Jemo 44
348138525 Duwo 42
351375448 Bexo 94
355134502 Fejivawo 25
357775342 Jozumera 60
363619232 Xifa 44
365263210 Hihoho 65
373628656 Nakado 16
376144843 Kowa 49
376718755 Haraz 100
383225962 Fejatazu 67
383826512 Sukifuwo 96
384709110 Fomose 81
394627631 Kaxi 53
396257483 Zabicowu 30
401090875 Jihi 77
406418591 Nuleqow 51
417671560 Ninijiya 82
418199227 Tava 77
421195997 Hunoyi 15
423116959 Qehukop 99
425052969 Jom 33
425270349 Vuqemapa 71
426865513 Xiyijek 85
437136712 Jokafowe 2
438115360 Bih 87
444171295 Zazizep 87
445451113 Mojusis 51
451061133 Supob 78
455891310 Mafajoke 87
456858496 Muvil 34
462727841 Dodan 57
464036336 Cape 8
464107398 Neti 18
466363389 Wamo 24
466481701 Lehaluwe 70
466692753 Ret 60
466837986 Fubagey 64
469611581 Zeyir 60
471715873 Nilu 94
475084321 Fadoxaz 6
477156502 Juvo 39
483683734 Viqazo 57
483721678 Maxo 94
484028251 Pavubi 85
486492809 Qopataf 26
490905533 Guli 0
493301242 Tunemoba 74
494462328 Zilaxe 57
494564421 Pumakute 82
496518616 Kiwo 32
501370686 Nipak 22
503210425 Mobikix 46
513733430 Fawagawa 1
517534764 Zojekob 12
518107302 Giso 41
519537004 Hacidif 81
520175273 Zadi 9
525682087 Nilajuz 47
530619604 Koh 79
539802715 Gurolow 61
548345594 Ziva 34
549217600 Muh 63
554302022 Lisij 63
554448320 Duhixi 3
555150972 Vakewe 40
560831545 Sojahi 46
564507353 Qimoqofi 97
571789374 Vefuj 69
573199755 Xaro 9
577216956 Nateb 39
580318860 Min 40
590733193 Pod 53
592840312 Hoxocat 76
595576657 Bifife 41
599271038 Ziqedef 100
600456552 Qiv 18
601939990 Xocu 77
602341235 Xotoje 90
605301715 Wih 70
605816501 Dizulaci 69
616572151 Kaje 36
616613246 Wacuz 63
619671342 Xobovovo 39
621926982 Vesazu 63
623500128 Kazoq 49
630082769 Dojig 64
631465577 Wezijoxu 65
633635131 Qobi 2
634938445 Moluyoxi 55
639074184 Kaku 42
644888318 Fuqog 89
649419577 Xubuv 15
650810597 Cefe 82
651363927 Zip 25
651562070 Riqew 29
659426677 Xalinehe 90
659882969 Nililo 24
661075793 Vayodola 82
663650609 Rotuso 12
667999237 Dat 3
672095453 Fezoy 66
672316863 Ropojuh 62
672422516 Famewa 43
673962232 Boyaci 41
677298604 Wixal 56
680075194 Cubezib 23
687930838 Muqebo 45
689146099 Jav 22
696073355 Luvahe 74
706431171 Manugefo 12
711214677 Mucaz 75
711692691 Havu 80
717438229 Rivid 80
729206023 Zuxa 27
734066856 Tocame 60
735703027 Peg 55
736471816 Fehinuq 13
742342978 Wufoci 29
746494585 Lele 92
746754320 Gilapux 73
747263953 Duhus 22
750314546 Sezicu 89
754838108 Polu 47
760120957 Fote 11
762778248 Yusab 42
768054116 Fot 93
768845759 Toharahu 94
769942090 Voj 71
773162982 Buxohod 36
773581425 Fetivu 67
781103315 Gukay 13
782696665 Sijez 18
787052449 Nupuz 58
798822202 Wabemey 48
800287184 Cunu 10
805109148 Bex 62
805189957 Ratulizo 12
807924011 Tepebu 80
811493312 Quciqoqo 17
814031382 Tewuta 84
816902781 Gewib 65
821542972 Fatu 57
822641766 Cihoroqo 0
823643326 Kunu 75
824238485 Zuro 30
824257027 Feyade 38
826560408 Rafukisa 7
827825990 Yuriwad 28
829908823 Givix 58
833470837 Yoh 35
833650622 Vomola 63
836327915 Pusiqore 65
839019440 Humemagi 58
840031227 Liluxaso 88
841109373 Juj 15
842832775 Yosukuto 3
857324255 Xobago 63
860306235 Wavipo 52
861662348 Xewe 14
862097383 Vebi 4
862197216 Poreqaca 1
863207511 Qace 47
865583805 Gewozu 1
866230669 Guzolu 6
869886459 Fabifodu 17
876691436 Cahipaku 71
884516735 Derajug 80
886162266 Qabijo 58
886186205 Sixiti 89
888757112 Wonunu 5
889613289 Sup 39
891375214 Fefifepu 4
894446669 Fofo 96
897301860 Laqoseq 84
899858162 Nukuduji 10
902619200 Rogu 84
903494604 Nonumoqi 25
917218566 Gefim 43
919904750 Bexeva 67
922331678 Xejol 65
931692124 Jon 63
941761977 Nop 80
954953070 Dacuzod 78
957318076 Qodax 5
958588032 Vir 79
959935879 Lutipi 24
963522000 Qacifij 16
967277148 Paxolo 29
967824350 Miconaxa 69
971400623 Seqij 19
971968489 Dativoq 24
973012486 Hacojile 76
975392133 Gavocuc 23
978711148 Wuja 79
983778024 Xixeq 72
988488156 Bazozew 10
991953164 Zetad 16
996137006 Faboyapi 6
