334
1404632 Wuwagewu 43
2398639 Sesivega 2
3504003 Vore 80
4129673 Topex 54
8841713 San 22
9407406 Zutipapa 46
15716287 Lawi 20
21570906 Homoviv 38
26381619 Tuyaqij 21
26424083 Vireniq 66
27317419 Kezahik 42
28449294 Rixu 24
31870795 Duhi 34
38880413 Biqeb 19
39202590 Kon 58
39407363 Togix 77
40193153 Duza 8
41114538 Vowiy 85
44064259 Wimuhuro 36
44370956 Jeraju 15
46044124 Bemata 96
46309526 Rexinasi 4
47645680 Qakiwov 66
54471937 Lekinu 49
54713490 Zivuxatu 84
64400640 Lup 4
71599395 Difomu 85
76522003 Yijuzox 92
78179831 Qutev 85
82031478 Jamag 94
82548829 Rucuhod 96
87893467 Layipu 17
90813898 Mihof 35
91435260 Rufuwad 6
92588426 Xehuk 94
104058588 Bozafe 88
110503065 Zib 90
113768668 Petevex 69
116874017 Zesoqu 95
124264345 Puhofa 11
124667067 Raje 41
127388721 Desab 100
130117965 Zorihaha 73
130239609 Kexiq 7
130353146 Jugoqa 99
132548930 Reqi 27
139223668 Kopeha 98
149094905 Vepeje 66
149159692 Vet 99
150933946 Juvel 54
151326963 Yop 27
154040075 Jayoyom 8
156058922 Yeb 92
158168890 Rozuwe 5
159240675 Noz 81
164741231 Gogekez 92
166992662 Jelesi 21
167967633 Necut 2
168639620 Pizolige 90
172000573 Losado 12
173263695 Pavuqa 5
175565937 Tele 86
177314981 Tazujigo 65
179384955 Lacibu 78
186311646 Hosih 42
191223452 Lis 84
191951256 Feboziy 38
196686666 Wiviv 1
204031887 Pidu 32
212766012 Cuguruce 30
213069789 Kaci 16
215176636 Keqove 31
220368102 Qun 90
225283384 Vuketog 46
227988760 Piva 20
229077347 Vipu 52
229781161 Suyibe 72
230210186 Hociwuc 78
230757370 Baq 22
230829773 Vucilo 33
232677107 Mefacix 18
234000355 Nef 48
240236120 Qiyo 100
241953115 Gamoyo 82
242688843 Cey 37
244656879 Naratode 97
246044226 Luwozaz 19
248503303 Sopo 36
251068953 Ravob 94
255205059 Voqajaz 82
261466961 Mudot 45
261774777 Pabaqeso 10
271108006 Xowa 59
272451498 Cisoyusu 92
275428876 Legi 32
277828567 Podetig 66
278039806 Mayowit 22
281963028 Cobowas 92
290638763 Diqok 57
296248515 Wese 35
296643673 Sahixi 55
296858188 Huko 63
300560740 Koleruh 0
303479542 Hubag 83
304332269 Juyof 49
305307247 Wotupez 45
309461680 Cepezox 18
310452430 Nobon 31
320966084 Lari 26
322455700 Vorucew 64
322655940 Conipuh 61
323630424 Fewizube 56
327618284 Kequbon 88
328802135 Zaroc 15
336410909 Vumip 77
339772904 Vil 24
340020812 Befo 4
346767977 Domogogi 93
348759333 Mofuru 99
349903878 Hoy 46
353256089 Vacezehe 39
354954052 Bemaq 84
363182761 Gixor 16
365665191 Bojuy 65
366214110 Yoko 87
370408989 Siku 33
377626313 Wudinir 38
385081339 Bafeq 57
388658821 Qeca 61
389815295 Ropuw 42
395301778 Vahoq 75
403398674 Roj 34
408322025 Yikivane 55
410608173 Nuxoxo 46
410999552 Foroj 67
412907905 Lola 59
419733722 Doseli 19
424114990 Rat 74
427209919 Siyidema 17
428791511 Hoqevavu 87
432577668 Guwuw 91
434584231 Gez 91
437387465 Vab 40
437747173 Peyitugo 51
440086719 Dit 60
441013008 Decud 44
445792884 Hatafaj 11
445807964 Zov 58
448133835 Xaxice 86
449340813 Sovonemi 28
451125773 Wol 90
451992677 Jimahuqe 33
452908161 Mujasan 11
461467414 Leba 99
463024737 Wihudo 56
464515569 Bag 88
472193379 Fafinax 17
472508032 Boto 65
472769114 Suwud 17
474387604 Juye 75
474690904 Vozero 67
475448305 Fizatubi 68
475874952 Pix 6
486413431 Napo 1
488223045 Vevosulo 100
496754350 Roca 8
498933088 Nuzic 0
499212358 Ric 82
499449700 Kal 48
502639493 Huzaq 91
505477125 Koyinuli 94
509586243 Ziqup 65
512365508 Xuzuyasu 80
512565683 Vecumi 11
514667988 Yojubis 24
515950552 Finikupe 9
515974214 Bopobuco 65
518763290 Sogaz 47
520830122 Hatabit 64
534724454 Gite 81
538618534 Baz 37
539654069 Welaqoj 72
543726447 Tijitep 59
546872608 Sasi 26
547353553 Behek 27
552193409 Yer 96
556092255 Huw 47
556689989 Huxig 34
560994957 Xumomawi 54
565423402 Luqufona 92
567633302 Sozadax 22
572282844 Buxe 13
573943928 Bamowoxo 65
576051286 Cace 59
576764395 Jupobaqu 71
578814791 Poh 72
583484338 Ciri 99
583676142 Yuyilo 25
584322917 Puloleco 25
584456959 Lileqenu 19
586624427 Mife 7
588226050 Calik 1
591349938 Comahiqe 32
591751332 Layam 82
595086333 Qor 9
595919788 Sacagoni 70
596687473 Tuxaki 36
602176873 Resuhuro 47
606751316 Vulilej 74
609053804 Resozis 98
610929627 Noyiya 40
616696825 Vali 84
617290906 Tifilo 96
618432021 Wex 79
618936229 Jar 44
620957312 Xajilox 10
625397004 Bebuxo 25
626675337 Peqo 65
631807785 Xebera 77
636019753 Yowegoda 81
642842253 Junapuk 46
644830099 Ditabadu 36
645671312 Yejiq 65
650760974 Feqah 99
652039289 Mizako 95
660005767 Qacok 54
669030014 Rik 58
674276945 Vajaro 90
674535978 Yupiq 41
677325167 Siq 71
683799494 Begeba 22
696086155 Xiw 71
698170754 Bawa 33
701416718 God 57
706702875 Xixaxefu 25
709406719 Xub 37
710654373 Lozuv 79
711255058 Cir 90
723461267 Kof 36
726819577 Danuloyi 31
729108692 Kukepa 80
730977919 Pipi 41
731984930 Cabejimo 82
739281891 Jobapa 94
742055653 Jajoqi 30
744543261 Necufaw 97
744628115 Pilizuq 91
747448045 Cubavav 93
748067003 Fiso 44
748473297 Gukicecu 61
749370375 Suduso 53
752074818 Sec 18
753042648 Hijugi 18
755968469 Kiqafo 63
759097211 Huq 93
760393858 Lewi 21
765687992 Pirinedi 97
772593712 Yuqom 64
773168136 Vamawovu 5
779231535 Kequroh 34
779246115 Non 99
781516631 Hefo 74
786405824 Hal 8
787987662 Gupa 7
788090544 Lana 77
789048609 Wuhexu 32
795879420 Ruqedev 10
799589061 Giqazoyo 28
804989027 Jibore 41
809599172 Kuqaqi 38
813130880 Fij 65
813578905 Secixijo 26
814915804 Jojiwi 4
815888149 Rozuk 14
819839107 Waqeya 34
824166441 Livu 73
825285819 Zimiraxi 69
829319530 Vime 69
830161329 Bisawu 1
830257452 Vobewe 94
830943511 Fuwi 86
830971228 Jefoniru 36
833214684 Rasunep 57
834533154 Terud 20
848086170 Wacojuwe 35
862047958 Gosujili 8
865585230 Jajucik 44
865843152 Qipa 63
876609480 Hen 50
877059878 Tiv 94
882637472 Mala 35
885586378 Kufodex 8
891418376 Tulogi 34
895553348 Dis 90
896130128 Seniku 76
897589977 Wuvadi 91
899055189 Nerizoz 34
899592913 Zet 0
902173637 Tera 99
902228658 Nuj 1
906951666 Zuv 44
907045851 Rucu 81
909814857 Giwema 19
914588621 Duhegofa 52
915658836 Xutiwa 93
921000570 Bob 13
921834802 Fodukid 86
930995988 Xolifih 60
931373468 Repiqe 39
932616110 Vodoheh 39
945952428 Kucoveh 96
946331908 Wubamevu 48
951860198 Suge 63
953011918 Nuliv 82
956463378 Fupoyeli 85
959856379 Juqecibu 38
963966110 Xikowaxi 91
968828978 Ser 59
970851611 Wisaweg 98
971062244 Poconoj 54
979256222 Ziq 50
979857190 Qifo 100
986006425 Cinuge 76
986265697 Loz 27
986628436 Wozonuju 31
990788736 Vima 0
990980217 Xorup 83
991213106 Qepe 94
996151755 Hege 30
997161193 Lopamar 38
997788331 Tenoq 56
998193767 Jorecisa 83
998830679 Kaxi 66
999769527 Ficonibe 30
