421
3273494 Mahem 61
6594219 Bojufu 85
10147133 Caw 96
11046831 Cidasa 86
11589621 Fapoladi 61
11742236 Cevugen 77
11817128 Giluz 86
14682472 Wod 16
15885499 Lodama 67
16422898 Xiculid 86
16486662 Tevutot 32
18441346 Wakumiju 8
21948774 Layezod 97
21963528 Lak 10
22116304 Xetutaxu 80
26708096 Mov 60
27469454 Cuq 46
29230825 Cekas 28
30058019 Viv 33
32100488 Hihuw 82
36635610 Xino 75
36802782 Qijoj 62
38590489 Careyiba 57
39461498 Deqivad 34
41125673 Yanexo 14
44404354 Noqowi 52
45478461 Fafome 88
49150385 Kudaw 26
52610144 Rij 90
55232769 Cuwu 90
56441061 Mef 71
79100704 Vogur 95
79342005 Nicum 93
80088812 Japog 68
84449862 Midurazo 92
85329030 Lulaq 38
88480838 Fokar 57
92024952 Niwivi 79
101890259 Hagizi 31
105669372 Gubaf 79
108277135 Joqomeya 89
110405135 Cuved 92
118532326 Miwacem 37
120567801 Moje 28
120976348 Jok 32
122455081 Waf 41
126874292 Nacel 70
128265864 Kuzoyad 26
130213256 Zuyiroq 44
132584233 Yavoxeq 73
132776398 Qepivu 62
133076230 Taloxip 70
133692809 Waxu 53
135512591 Quye 0
139963321 Xeqos 5
141004156 Qutowag 53
143253684 Rufetuj 97
146154408 Hutubo 62
148908809 Hulibano 90
149321698 Pesuru 44
159512067 Gomobud 100
164972184 Xiyuy 38
165980799 Hecete 81
166131675 Nokudodi 7
172541085 Bimeruj 6
173126542 Corekozo 37
174084781 Muvimi 88
179168483 Copuk 74
183414839 Vom 37
187237578 Bulu 94
191809136 Qojizeb 3
192826081 Juzosuza 63
196987024 Vezutu 74
197638171 Qav 19
198129964 Gutodiq 73
202632388 Kuye 87
206824110 Yejuy 48
207024234 Sawigaxa 16
207043536 Jutopip 17
208529984 Yepahi 40
213075428 Jafixoto 17
213858936 Fokixuc 78
223484047 Guqajok 98
223808342 Xuxegazo 90
229040802 Luzileto 91
230412090 Popi 8
231471284 Lorasiz 73
231655912 Sigoworu 96
240213937 Nuyog 14
250029017 Yafag 30
250113677 Liyidob 100
250398351 Wubofeq 6
254740784 Kah 98
255758250 Muqaquda 81
256105855 Nohusu 80
257779678 Hahule 39
259220183 Nah 48
259721614 Ciheraqa 29
261045471 Kom 84
262625320 Zevav 5
262953717 Fawepexa 69
263083702 Jevo 98
263971093 Vanolud 12
270639394 Yavavu 80
271540071 Beh 19
272746021 Pericu 75
272885441 Tad 90
277319439 Ligaq 71
280499880 Sokep 25
289294376 Gidolur 4
293902022 Hih 45
294273507 Budohuta 22
295526673 Yeyudik 59
296621252 Jibo 39
296879673 Yiwupu 44
302114071 Xigob 35
303594374 Motokuk 55
305914670 Fud 83
306590175 Yuni 33
307531941 Sanij 70
308168728 Saqev 33
309485637 Gulidis 66
311357687 Bogeno 3
311490570 Tukap 25
313473021 Lamemi 48
316114056 Boneso 91
317523975 Qaz 91
318055631 Qozuf 8
319772926 Poqagu 69
322279437 Temo 65
333500416 Bomapiqu 52
333842747 Pof 78
336157374 Guyodi 8
339560996 Mubob 39
339768893 Vuqi 34
340966654 Puca 33
342773439 Lexicuro 63
344141535 Her 23
346253593 Nafubek 41
350242187 Bejezica 84
350326832 Dinuwoh 25
357366735 Jozaw 42
361261911 Bakuq 65
366734554 Sud 96
367714875 Yulecow 43
368649552 Mukuh 76
374110645 Qayuces 29
374355884 Zucepuf 51
377187927 Kebeba 55
378195136 Wow 40
383329290 Bozosi 30
383961051 Widi 91
384317456 Mos 21
384395608 Poji 0
384484829 Lequsoq 36
389089963 Mosalat 86
391913649 Senag 60
392400947 Nehajofe 100
394856199 Nofeguhu 32
396409846 Qowoyu 17
399649137 Yunewi 15
403195416 Mezu 62
408988421 Xasas 88
410882612 Howorimi 9
411300091 Gaxu 74
411641156 Vif 100
413545562 Rajiz 54
414532916 Yokeye 46
422025469 Nejogomu 61
424115142 Vezug 76
429295343 Kibo 75
431170791 Xezuyoxe 77
433813881 Qirejup 16
435566036 Toliyumo 78
442821500 Detixete 43
443750184 Maqopo 49
444836057 Leli 7
451408062 Xomazi 94
455557513 Mipepera 94
457059557 Hidov 45
464666370 Joxoweyo 48
465467291 Weg 52
465516515 Toba 56
467414010 Sakohuce 42
469692787 Bezo 25
470654286 Mogom 25
472843553 Naxunec 59
475597105 Coyan 77
482425343 Makeb 96
484481937 Wixekih 50
487413003 Qok 10
487483348 Rakoqu 21
488470098 Yise 56
491619875 Cuwogace 75
496127935 Yufucu 7
496132590 Baso 98
496777672 Fet 5
499676285 Moko 84
499753922 Jiha 3
500285711 Hegi 91
500908503 Nemi 76
502310605 Wihenu 48
503468387 Difaf 49
504026922 Hotodadi 29
509086660 Powe 91
511013282 Cudupu 6
512167206 Vajeti 43
515129361 Xid 88
515637177 Goqibiyu 90
517471754 Vidi 53
518090344 Wozezoyo 25
519725269 Guxu 28
521313506 Rose 19
521429173 Jova 73
522163317 Lila 80
529209203 Henofa 81
529570453 Gaked 20
530385088 Gusasili 47
544569838 Posurax 28
546831602 Lad 3
552748389 Henif 57
556204152 Jihed 40
558062228 Hav 76
558575661 Fidi 38
562465009 Kahoy 88
562651988 Zisu 36
562878647 Mave 58
563049587 Sol 90
565737358 Povofi 45
567659547 Gif 90
567868989 Yudob 32
574907370 Pisusuje 86
575944243 Zepo 55
576560165 Bonovuq 26
576649825 Rovuta 41
577186405 Zuro 15
582310701 Reritoyu 7
583642797 Mitu 31
583701516 Xag 46
587732969 Pasiqume 55
588057388 Nur 12
598992271 Quq 26
606847064 Vob 24
610136087 Mexogis 100
612853687 Quyom 69
616217434 Weqeci 46
616453034 Qiyukot 85
617410018 Sekosumu 74
625130659 Voh 74
625584671 Jiduqes 87
632664772 Poqecaz 24
633880526 Puhed 97
634046036 Veyefok 7
634220261 Dafebazu 89
636892164 Tuh 68
641183844 Takalifi 31
642495391 Mosiyada 0
651900427 Mapefe 62
654370961 Nutiti 63
654710133 Hewu 28
655191268 Viv 11
661916128 Soriv 67
662194072 Humir 94
666407083 Teruxegu 25
668142010 Yawub 71
670697781 Sey 59
671128242 Yawumudi 51
671353694 Socatuxu 76
675013909 Lecuxo 55
676724355 Yovebup 77
677894685 Fifex 39
680229426 Gipil 31
683912089 Vixod 25
683914182 Xavate 83
684623317 Cewi 35
686794539 Zefa 96
687083214 Deqeli 18
688272973 Sizici 2
691488240 Cebu 49
692061977 Ruhob 38
693410667 Lewewi 74
693782793 Dexekemu 63
694727379 Gafut 42
694749024 Nidi 76
696126262 Habapufe 84
696584257 Ziwi 97
696619834 Yuc 22
701624185 Baner 59
702424989 Fozavax 6
703710288 Fogif 87
707014674 Gix 28
708512470 Taru 7
710012330 Tod 23
714926424 Zexofahu 30
716489635 Yol 41
720613549 Gokocax 8
720630731 Poha 66
721291839 Hahihe 48
722383693 Tutihi 34
724818751 Lul 70
725702178 Yay 55
730045821 Saxu 82
730460953 Cujime 28
730716216 Padivoj 71
732836685 Reze 22
733579145 Jigojo 26
734245673 Loqinew 83
734595240 Vofatep 33
737881101 Lawemapo 68
740697592 Baru 87
744081674 Yugacoj 63
749223247 Nozepawo 29
750260153 Zuyir 0
752944789 Poguqur 82
753766649 Zefeviz 64
754374252 Ruyafa 87
755876459 Hamoj 37
767894901 Tugivih 22
770447177 Mijucefo 50
773023632 Feyocito 42
777155441 Yid 22
777194894 Yatopab 99
778320771 Dapi 5
781391524 Lire 20
781557568 Moda 71
782596220 Wag 13
784185979 Nobomit 91
784805176 Pelekox 77
786809879 Foroh 27
787427676 Kuris 30
787460155 Duhi 16
792449300 Yaheyat 54
796017657 Ciwesi 99
796397657 Viv 39
801339386 Xilesiqi 13
803385785 Qojagesa 16
806527302 Lowumir 59
808726339 Tex 25
808885478 Desos 18
809540694 Qac 8
813061856 Kofazeh 19
813177473 Givovelo 42
814879924 Wexex 43
815009351 Viyutij 89
815066973 Coxupu 70
817139609 Vag 48
820326156 Vubulo 59
822468750 Pucijo 21
828665818 Zoveki 72
829153954 Nom 73
829868133 Teyapiw 69
831127290 Tudo 29
832487854 Domever 9
840908274 Bitegune 50
841108104 Bex 60
841155155 Fewolin 35
843325812 Sixusug 51
844526282 Yasayut 0
844915331 Bep 66
845179228 Nop 66
845573795 Puzigena 60
847646775 Xajerec 62
848440580 Coma 93
851123841 Qeyote 37
853511839 Zoh 96
854532118 Devex 100
859503118 Mudaqu 87
863586502 Xoqig 68
863613693 Tadere 91
864557805 Remoyi 22
868344272 Kepi 41
870341465 Hukora 30
871342897 Raduq 9
877882158 Cige 78
880557533 Xamigale 96
887908448 Gifi 65
893514287 Pur 13
900628061 Pejap 34
901318159 Vaput 38
903125170 Siqemera 74
904580732 Zog 6
907019701 Pikeluza 79
909575047 Watepopi 33
909778069 Sod 83
913315894 Fobu 46
914933337 Norere 54
916187615 Qezuku 67
920429186 May 19
920508623 Lirok 38
921877708 Yalekuja 28
923206298 Hah 39
925809784 Kidemumu 52
931799157 Fun 22
931808782 Xitenuje 31
933503674 Yonequvo 10
934081149 Xeqado 4
936561062 Bomofex 36
940073985 Vugoz 52
944806882 Vuqigo 43
944871934 Vagedem 70
945785658 Xiqenuhi 93
946651500 Famoqa 70
947766766 Wolecar 74
950251939 Cohuh 96
950443593 Gafopip 11
954844672 Jemup 43
956968922 Micoba 13
958257082 Hidi 77
958578207 Vevil 29
959904736 Ges 71
968231889 Dupixuqe 6
968773839 Jifaxune 58
969482467 Fopivub 66
969933790 Cubuso 14
970454494 Donaj 60
973725577 Fakeh 93
976752368 Hamog 100
979750893 Lejo 96
983098849 Doqe 80
989939738 Wej 96
995188063 Zoqopoli 15
