466
916561 Xijeg 92
3606045 Zemi 41
6078561 Focepax 67
6383099 Zez 41
8083151 Bexoya 93
11407101 Yeneracu 90
16677130 Duxozex 28
20719440 Ribu 11
21678951 Katukot 57
24039374 Zayugusu 64
27048062 Mupe 6
27150242 Buhapudo 94
31433904 Jafume 1
33180207 Quvim 85
34750747 Doligok 24
36243714 Xokavo 51
42237942 Ducati 95
45890587 Neyiyom 49
48905688 Gemo 31
49209248 Bawosaqe 96
50027861 Nadiw 75
51987451 Fujob 44
57387797 Hamem 63
63499015 Xafoya 14
63612497 Hami 17
66025083 Yiv 6
66856851 Howawo 91
69123480 Wud 93
69191633 Bequzici 26
69407286 Juku 0
70131466 Bidugije 62
71913133 Kuyuco 36
72455049 Xari 28
72912581 Weyemi 87
73664980 Notubuco 29
75461333 Boguledi 27
79816397 Fatami 3
82692045 Haceki 22
83400448 Cad 34
83709912 Haleme 10
83966517 Buxapera 0
89583104 Qiw 77
93329170 Huhiq 95
94211516 Rukomad 1
99139730 Potifi 91
102053397 Qaro 21
102997296 Qeba 97
103428999 Vaneta 55
103873803 Waxa 84
104559353 Likit 90
106598953 Saluye 12
108039383 Lutuke 79
109706608 Binera 72
112684912 Mac 17
118812212 Japo 72
119150464 Fuwoge 1
121101982 Jebu 76
121924928 Poril 18
123849319 Copolod 85
128272380 Wavabemo 79
128836110 Mohazu 44
129220817 Lef 16
130519601 Xaje 56
133251560 Gaye 37
134646441 Vaqaz 24
139634641 Nijip 80
142071241 Habikuro 51
142797633 Lajefe 4
144932114 Sewe 6
146692960 Nohe 40
150009378 Hudigine 77
153922248 Hufix 23
156730298 Werepij 16
157097080 Nafoloy 22
158157326 Yoseyi 67
158723950 Gitiqici 0
161988913 Xil 0
166122504 Hasis 93
166316697 Conowa 100
168380640 Bifos 11
168798263 Xehelic 17
169917416 Simeqi 63
169991648 Hupub 23
171669685 Biw 42
174375991 Tele 30
182841699 Wacuxuda 59
184091280 Puten 85
185695559 Zamiq 64
186854158 Royuta 13
188894709 Wuguro 39
189878289 Hawuqo 11
191519314 Liyikur 19
191830710 Hil 94
193584435 Qokeba 55
198606261 Lalojuxu 72
199919926 Vod 61
201745101 Fusejor 99
202985503 Vere 58
208169472 Zihoted 89
210220912 Cubiyo 92
214885943 Lemasa 69
218909175 Mid 55
221943834 Jeyo 41
228672286 Labe 23
230445848 Vado 0
235723504 Labarur 49
236115471 Hec 62
236914821 Zele 51
239009810 Rohej 16
240022110 Doz 99
243113336 Sequbo 30
248219227 Jikucuh 71
250734335 Rixix 30
254175129 Jadovun 64
255381150 Tabol 16
256210655 Gonoro 97
257762973 Yemihib 27
258288003 Wegex 83
258961676 Qufohax 51
259202564 Notesimi 89
260227127 Kaku 48
260736854 Fomev 27
263035220 Vel 29
265286544 Negakaw 43
267955240 Supa 22
269551305 Xetuj 41
272237180 Tukoc 97
276281317 Dofeke 67
278791542 Pabaqiz 19
280572256 Paz 0
284776862 Lumefof 67
288027877 Muxak 4
288595327 Yuwudif 8
288859524 Ciqeb 96
290339936 Fecewex 34
291679461 Likisiv 42
292689599 Xofe 53
294405495 Wot 38
299534704 Qiq 52
299824831 Laluvili 13
301710722 Jafanebo 60
301900007 Rel 52
304771665 Buvede 91
305492340 Fewenesu 23
306408875 Foqom 36
307322985 Gepifa 50
307536265 Jediba 94
309095123 Xewewa 40
311421834 Sik 98
316798251 Pibac 11
318425791 Devu 1
318557090 Gaza 65
322878128 Vopo 35
325544574 Lucikaxe 49
328793691 Sucuqabo 58
329021496 Teha 53
330238891 Fumohow 21
333731267 Wakeraku 37
336006709 Biq 42
337230094 Wapipofu 10
337812260 Sicav 18
338117632 Wimoyeko 98
338425317 Qewusona 11
340120746 Feje 12
343227127 Viqalohu 67
344207572 Lozoqe 87
351875107 Kiqak 46
351890249 Wilina 36
352837999 Yetoq 93
357461435 Yah 22
358825730 Nab 66
359238191 Mapareve 21
359692229 Sumef 82
360259146 Desamo 24
360648959 Deze 76
367791268 Jiwak 76
368427998 Zul 51
369475616 Pihaco 20
370863358 Juzuxe 61
371683288 Nojafako 36
372120446 Xareto 37
373123424 Zuk 11
374056948 Xobojifo 28
379985750 Xaz 45
385711491 Zuxup 36
389173375 Gamirezo 57
393901250 Sumoqi 1
393934400 Xile 98
396372322 Lekobaw 17
400656936 Betuwap 79
401431815 Buxi 48
404951974 Vakuzafi 56
409108841 Pakemu 90
413483545 Najun 11
413976259 Vosij 74
415618256 Kaz 67
416836686 Xirawewo 88
418554341 Pix 16
420722798 Sikigu 43
423073544 Geyaha 49
424646157 Rehugilu 5
425576654 Wisol 61
427652730 Sugupuna 17
428825450 Vayigoq 58
431632386 Hijoqezi 97
433070666 Sab 38
433250145 Jaze 34
433921349 Vobu 52
435250670 Set 60
443040060 Qagu 56
443648905 Sizolo 64
444824733 Xaw 3
446560439 Woyur 90
449951388 Hed 25
450503798 Xekikuto 78
450876591 Togolege 12
456305653 Dulaloza 98
458172560 Fehehuve 61
464145722 Mamez 26
467978224 Kin 7
469002326 Lugihu 13
469713671 Hivoqa 5
469762559 Getov 58
473964869 Bofuvowa 0
474372609 Pulo 99
475256703 Vasavi 68
477030297 Jopom 5
478476987 Juvifim 9
480757382 Wesix 26
484256002 Wenikuri 99
484612918 Beyenone 32
485627117 Bebiv 8
485674693 Qibugipa 66
486901186 Xipohos 22
487454187 Zowo 40
491688785 Ceruq 18
497781634 Rada 81
498838681 Yoxara 88
499895497 Kisitiw 54
505040891 Mulihis 78
506184634 Samatiyu 100
506688261 Yakewoj 61
509586039 Hup 3
510245891 Midawigi 81
510456000 Vanamap 11
512189469 Yidomefo 29
512326407 Bisut 70
514988346 Tuf 81
517533050 Pawohe 14
519413260 Nifo 9
520105505 Xazine 88
520119017 Wey 52
520393874 Juhopobo 14
521065043 Tat 26
524628937 Qofiriso 99
525349432 Regopor 87
528599050 Gayidit 55
530518611 Vud 35
531264769 Pux 69
532571264 Radez 39
532730221 Jatas 71
537711140 Xahajun 32
542652531 Renur 17
544941064 Gaqi 16
545318906 Koyemu 24
546412873 Jupuho 16
555705987 Gaf 99
557298783 Matufiqu 85
558762171 Kiteg 64
560544520 Juc 90
562408742 Kayek 79
562577578 Yopopoj 44
563742700 Zahayad 1
567358110 Xuhiza 83
567949617 Jahogi 61
571697560 Wejowi 2
572773439 Poj 20
581330972 Gayuxaf 4
581872185 Qujoy 68
582314240 Koz 76
586465370 Kox 90
588664120 Begoso 78
589391104 Kehifuno 89
590232381 Vigi 69
592688982 Newegipi 100
594730614 Xoqi 39
596975686 Gasuki 72
602401561 Bequjeha 22
606125078 Biya 100
606220503 Gigoh 90
606892273 Cedopow 54
615157310 Watuhicu 13
620471704 Jeha 89
628303036 Kehepuje 46
632472704 Kew 1
632733681 Vac 46
632876646 Sibi 4
638766798 Loq 26
643292568 Velarada 96
644780121 Qevabibe 32
646806198 Moc 63
648986637 Tuj 96
651309311 Saker 100
651417829 Nofanuxe 48
652142943 Recu 15
654606637 Wosa 19
654816691 Qemih 21
655643126 Daxaw 86
658816474 Nuv 17
660966895 Qabaj 13
664724685 Sun 46
665197113 Focegam 3
666149169 Poxuzu 77
667897032 Gozudey 50
668724908 Vocu 11
670942946 Wacig 73
673988385 Nigoq 24
677172583 Yirahid 73
677858618 Betej 31
678226096 Zow 7
681597277 Padiquga 66
683897767 Lujuga 34
684268662 Suyeq 26
685037330 Kemob 59
685678962 Kigape 95
686285708 Yuzi 79
689788768 Vesi 75
690897321 Raqoqed 39
691774859 Ret 35
695926408 Gimopuqo 65
699437827 Humoqu 57
699790992 Zegowuta 59
701883751 Nofahew 61
703894187 Taku 50
704514967 Vifuh 10
705541870 Dupov 39
719310504 Legexeh 38
720462573 Xutozo 65
730537576 Nifowod 36
730910949 Katirul 18
731773727 Muxeya 14
732697098 Xodu 25
734602773 Jiy 86
735147331 Fejeho 13
736143436 Fojozep 61
740515170 Guyoy 48
740670044 Zef 92
743311871 Herok 38
746175541 Qozasev 15
746774903 Dozi 23
749531927 Xuzay 84
751033926 Dukaxoxe 2
752641719 Posetoqi 14
757137089 Zuni 52
762376529 Teg 47
764506027 Jifosa 75
765130629 Wesolez 18
765923063 Qaget 26
768905473 Cip 5
769187772 Yogi 40
773475382 Qun 76
774304934 Roxola 12
775110853 Pajar 16
776945867 Yeloku 16
778461146 Siyula 54
778882558 Qifaleqi 58
782293557 Nehexik 78
783577386 May 18
783970471 Yodebag 4
784150566 Viwiweme 32
786118140 Jixuhafi 98
787505087 Tasi 74
792994955 Vepeka 55
793047701 Geb 25
794401042 Yin 92
794813945 Yokax 69
796038169 Loqiyo 96
796561269 Nuk 52
798963734 Huc 74
804645362 Guw 21
806183320 Tucali 21
810079271 Solezo 11
819904261 Xeha 94
820624246 Xibip 66
823942271 Zace 49
824428981 Xizih 90
828661816 Yadix 22
831493428 Yeqe 55
831666965 Divepa 24
832252503 Butakupu 24
832458583 Vahiva 55
833776324 Yurasosi 83
834057793 Hemuf 70
835192290 Xuyubebo 68
835653951 Bopana 98
837847666 Hibu 1
842257971 Yegima 62
844265192 Gul 56
844912434 Tuqij 91
846604949 Gixo 18
848952640 Quhora 59
849582223 Fuhit 29
850119914 Guzudaqo 20
853047473 Zehiy 8
856822731 Gahuzite 20
857264649 Xejazam 81
861373307 Daqeg 17
866729672 Miqozif 96
866794381 Tix 80
867908569 Qoyuv 53
869287513 Vagavi 50
869843249 Qototew 31
870362131 Xop 88
872102358 Zotag 18
876094551 Huhenew 63
876650289 Soyewes 27
884608204 Bicaleg 57
886759928 Quharef 35
887604320 Duvoke 49
887904683 Laqah 91
890235361 Wuvib 66
894882177 Texaq 94
898078803 Yoci 30
899438935 Hulosog 3
902776063 Wiz 46
904584852 Xuyi 83
909290664 Yalamod 30
910233308 Xezosofo 3
912981199 Momotut 4
920731207 Yafulo 14
925643208 Jokuv 67
932198534 Zifomah 99
933389124 Yan 58
935164416 Zebev 54
936748019 Bomane 70
937913453 Wipuw 45
939250535 Royam 22
940878241 Xabegam 90
942403850 Nuruve 91
943479422 Pavosufi 16
948250135 Mab 74
951288285 Teqeje 89
952122030 Cisibu 20
954299273 Kirabe 74
955487132 Qanaj 93
960876498 Dogiya 81
961261513 Muha 48
961570722 Kutoyuha 65
964169057 Cigi 20
964218820 Joziyuma 61
967928526 Lilonozu 51
969923607 Ruhaxavi 70
970211932 Dur 42
973464856 Xufa 51
974290942 Molidu 71
974750459 Tenemure 69
975005418 Julu 99
982183372 Ravej 3
987322530 Jifaxi 57
988250766 Kodo 47
989705857 Jihe 31
989885758 Mar 58
992079465 Hec 30
994065870 Miqikonu 44
994544863 Qegomaz 48
996021300 Zowixuk 77
