571
363751 Newove 37
2768556 Piwokixa 90
10566905 Zihos 13
18979968 Lub 78
21892864 Hul 76
23179085 Kavuvo 13
23740185 Qik 21
25908504 Duc 4
26347543 Rupimiso 26
26811184 Lur 82
26864000 Fatad 85
28516599 Leg 56
30266546 Livenif 69
30493334 Tesemaju 20
32592421 Yovanato 38
39837153 Mixapemi 88
40236260 Xadayiq 71
40425345 Hedebih 2
41153276 Seg 43
42157269 Yomux 34
44902438 Yice 10
45956702 Qos 75
47641874 Gakakuro 25
48161133 Weduq 93
48457258 Dibi 8
48907853 Paxo 24
49411843 Yuwad 75
50552513 Ledemoba 59
53006784 Kime 86
53497426 Mize 89
53749931 Cuceyuvu 79
54426322 Viris 7
54985514 Lorunup 85
58322940 Yegova 74
58516737 Demifux 67
58729554 Fafuxec 34
58782192 Cepi 12
62267483 Kasoyob 53
63246510 Geji 68
63475809 Zawejufa 46
63593866 Curenuq 35
63839421 Cibuxox 20
65819525 Lori 82
67676556 Goy 46
68689546 Lokahi 11
73107072 Niponace 57
78198722 Gaxelu 66
80115603 Saci 34
88368861 Liguh 38
89101541 Saqivo 22
89592153 Muged 49
90253450 Lekabi 47
90350229 Vajocaz 83
91989517 Vewaki 84
92116864 Gok 46
93358298 Tupujaw 69
95089194 Karoguqi 77
96653496 Saziwi 41
96832994 Zek 38
96983778 Duyosi 17
98202105 Poconib 66
99052459 Jacuqadi 2
99427581 Runocug 47
103278247 Bov 20
103454997 Giwe 20
104546843 Wetafel 24
105581475 Feveduz 50
107272618 Jepagi 47
107900919 Punozeho 92
108109631 Zit 65
108839143 Xukuloqu 43
112133827 Nutiw 6
115410773 Guvoku 20
115919597 Seraz 15
116383728 Cacej 44
116783639 Boyupoja 45
118348099 Cefelix 2
119339168 Panocab 31
122147690 Bojupaq 14
125017401 Bexaseg 92
125724351 Foci 59
126813265 Pomubat 76
126927156 Ticejawa 100
128108078 Sux 40
128276733 Jofadi 58
129477116 Wanuwaro 44
129683719 Yorin 45
130284124 Zurarume 59
131829701 Woza 20
132214192 Zezep 59
132540408 Buzanehi 66
133618715 Puj 49
134731061 Neluga 42
135917476 Qilon 68
136222510 Mexudi 25
139333865 Yilujuqa 97
139922839 Nokatun 17
140545700 Cev 26
144661824 Yin 66
144897702 Dajarode 14
146940993 Hetaq 43
149501116 Yifo 33
150035032 Nor 79
150084665 Pat 79
150372771 Qopuker 46
150947841 Xinotewi 73
151275458 Caxobi 79
152421422 Fekinax 35
155717774 Yexu 0
159115628 Xizo 6
159366056 Fale 47
159865657 Maqika 46
162376617 Qosuya 55
168956459 Fomari 20
170301755 Qiruyena 69
170490926 Luk 65
171182853 Loceq 74
172789904 Gif 28
175561740 Viluju 12
176120267 Vutewew 58
176750240 Pohubi 50
177496558 Bivoreqe 73
181447463 Pihijo 9
183130173 Ciguku 4
183552012 Lemefa 65
189611612 Vin 7
191628077 Faqufose 22
191948778 Megol 5
192806570 Baqef 24
195362684 Mekupa 84
200844952 Sayisiv 46
202017546 Cuzuq 37
207813899 Sahivebo 82
208763565 Fuf 99
212069917 Xivu 34
216644856 Sidite 10
217906066 Gupuz 49
218034526 Vequ 6
218187427 Jeco 42
221782993 Yihemer 60
222153767 Najikuse 74
223629099 Mupiweze 11
224235130 Hobotay 42
226869759 Yipirece 50
228541400 Coqi 83
228871884 Sasabadu 55
233093123 Vosad 93
233596590 Nusiqo 81
233602925 Darevefu 2
233889172 Qirerazo 24
239229486 Xodujazo 74
243703281 Zoyixete 13
243901822 Buroqupo 58
246073748 Fayega 93
250266358 Bihasa 77
250984899 Qoqemeye 16
252467815 Bayoka 74
254318071 Yoqezo 42
254509813 Yelesak 1
255246110 Furen 30
257990683 Denadij 75
258992756 Nodigace 56
259229064 Kuc 92
260791067 Miv 42
265402602 Venafal 44
267939237 Dazudo 17
268379416 Kizepul 26
268397421 Darew 22
269088576 Have 55
269380614 Vupevowi 92
269714292 Hal 19
269840944 Zici 27
271213191 Wipuh 7
274077637 Qoyixa 49
274428715 Zozepa 3
275225371 Rahagiba 61
283016013 Fociwava 11
283477516 Fabu 25
284072193 Cox 39
284784959 Xitad 18
285977982 Pohi 3
286178242 Giw 51
287142450 Nudaz 94
290286072 Yedoq 65
293138674 Sewera 79
298099747 Livamum 81
299013087 Jat 70
300404524 Hib 88
300730746 Voqo 92
300905214 Relo 7
301539948 Repufir 46
304566360 Rudinuqu 68
305472054 Heg 82
305592610 Xenevule 91
307076123 Gix 16
308884038 Cex 79
309940219 Hinet 5
310765880 Bute 12
313996242 Jigofeyu 62
314311441 Bujilepu 94
314334835 Sawupi 31
315780890 Jiw 97
317010031 Zuyac 61
319310308 Tadob 5
319423594 Taduvadi 76
320228987 Qacafil 8
320908254 Mip 95
321191204 Pevasule 34
323032296 Qaz 48
325303974 Cigut 64
326031218 Heru 61
326178863 Qunozapo 78
326368481 Layalir 40
327849579 Wifur 93
330828748 Caqogo 26
332461324 Goguxayi 24
333004089 Fib 27
336010469 Sajuto 51
336297701 Kudozid 29
340419752 Meyi 64
341894734 Jaqawil 88
347012230 Jivoz 22
347303953 Wil 40
350419562 Qam 33
351088589 Pefe 95
351812307 Nuqe 76
351936556 Ziw 77
351974339 Woto 50
352775520 Cus 80
355103609 Hiyesud 53
357894097 Dajozaco 55
359907067 Waqapaq 83
360641597 Qafevuva 55
363707117 Piceme 89
363843892 Fop 89
364028826 Mip 84
371128274 Geg 13
372321636 Diwo 42
372332653 Como 71
372659298 Tul 18
373458527 Mibusohu 11
373999657 Beduvovu 90
374338363 Vewoseqa 9
377108736 Dihevide 5
383388772 Gaboquc 44
384556714 Musatax 34
387855293 Cufit 87
391214596 Vemur 6
393091406 Yuluhen 46
393510030 Naruboc 34
398364820 Zetade 49
398420744 Guqopur 95
400205433 Gegolas 73
400557063 Vukas 61
401244643 Gitey 32
402198332 Weqofoso 78
404288679 Pekob 100
404439108 Zivewot 50
406866125 Havehola 32
407016223 Pol 22
408211442 Wudek 91
410303497 Dun 48
412688027 Dik 31
414978886 Geteso 54
415071166 Sufiyuc 96
415246539 Nol 97
415695566 Yisir 100
420979535 Yawezal 11
422768551 Miqe 6
423755931 Duxiqu 72
424765889 Yen 28
425965018 Yuteqeb 52
428508685 Jene 46
429776369 Ruqacu 23
431104467 Kef 18
431499651 Fij 97
432270548 Fupaso 30
435298033 Cosaze 40
435770133 Ciha 23
439826257 Goheg 37
440945463 Hito 53
443797294 Qike 44
445158265 Pivawa 9
450197074 Nititik 16
454411621 Xetidor 25
455586490 Jagibez 35
458262837 Xofir 59
458384187 Tecico 96
459326020 Cal 18
461167074 Lewasexe 32
461341340 Zube 21
467511020 Jiticine 48
468791574 Kajevin 25
471351284 Pupu 29
472830639 Did 21
473303650 Yuracoq 87
473761363 Gipovoja 84
476548567 Racag 59
479099887 Lev 61
479731454 Yevated 10
487133378 Dew 26
490159382 Kegi 38
490810266 Jit 1
491190546 Vemo 33
491917391 Zeyosewe 11
494930607 Tehilo 0
501039266 Juqej 90
505535683 Ruj 86
510682463 Tes 49
513117040 Moxuka 31
514624220 Rubivoy 84
519819157 Vanavobo 88
520507751 Jami 25
524235605 Mop 44
525023455 Fijix 6
527131917 Wasu 100
528640364 Zomog 54
529449177 Bezu 15
529450268 Gokeloji 63
531590712 Mokigape 52
536416264 Puwow 68
536690378 Joxayubu 75
539701362 Potilahi 78
541113839 Gufac 91
542986072 Fome 82
543399676 Xiwuz 90
543472666 Xiqop 69
543633543 Raje 92
544533104 Depepebe 26
546375443 Doje 68
553548999 Hogigi 11
554574697 Ruhiwac 69
556782179 Yit 79
558134166 Jozo 91
558597309 Hupu 87
558741967 Kawici 8
561269877 Roko 9
561540252 Jin 41
566342058 Qefuyat 56
568616933 Keniqice 15
574215503 Poqig 32
574339757 Noyura 50
576238255 Reh 7
577160180 Yerulab 7
578087955 Fime 83
582208689 Zajejesi 33
582604976 Qosabi 8
582845410 Key 9
587564344 Fewuvoh 49
590058013 Dewoq 14
594057717 Vecudoro 3
596409272 Wisoraz 79
599687018 Lehot 98
602936802 Bolekeq 95
604659876 Xevowac 25
605433480 Taxedi 41
606277693 Honutet 48
606791814 Qut 46
607041995 Woja 94
612032611 Sutofa 81
613226501 Celoke 60
615913479 Pepodaq 35
616283679 Faqiz 33
617893013 Wunoqo 33
620518105 Vogotet 36
622702256 Xakuhu 8
623413382 Minud 90
624311276 Towo 47
625092500 Tefu 86
625332842 Megok 78
628037311 Sisaw 70
632145638 Gec 17
635408977 Nocob 58
635848027 Molini 45
637595683 Tufu 42
639472063 Gibira 0
640850336 Puwe 27
641297915 Catiji 20
645256069 Sawuci 77
646130656 Xaz 17
646980901 Numorero 40
647944106 Jikum 53
649908152 Qoj 6
655261746 Wetekey 1
656098096 Timo 49
659290370 Tej 46
659959613 Sasocibu 72
662144608 Zodeket 55
663864413 Juyikage 2
666326704 Cikid 60
666439910 Linugo 96
667887158 Rolu 72
676032838 Rifal 1
676580502 Hemex 71
678019486 Muz 10
679440590 Buxeti 4
680218322 Zar 91
683325005 Dot 71
685357307 Tolek 11
686388873 Cogowu 30
687202869 Jahihu 57
688221981 Jadeb 86
689111138 Loriyo 46
690586647 Keb 36
692653991 Vobomu 74
693735201 Dirowis 80
696397783 Bis 95
697283325 Pisulo 57
697695209 Catiwiy 86
698505991 Faq 92
698683397 Vuwa 16
699593897 Pojota 95
701089004 Huliha 55
701837735 Semeyuh 58
702030279 Futo 0
706678303 Dufagoc 32
709180272 Cikumiyo 75
710676062 Niciw 69
715346088 Fetuma 37
716628934 Ratej 67
719445311 Retoyeg 21
721113746 Cituj 64
722471377 Likifera 2
725603326 Hacupufu 42
726533956 Wax 70
727589927 Yuteqe 24
728032414 Yubeyere 22
730099308 Kul 97
730388488 Lowuye 70
735480426 Ruwiway 72
735631934 Mol 96
735805050 Fiyuvoya 26
737026993 Vuzoh 25
737491371 Xofo 57
740009990 Kuhutog 96
740430569 Lawofe 77
740564344 Rox 39
741739023 Haheyu 40
742961578 Rijomoyo 78
743359335 Wedi 3
743850713 Yesewan 14
745054555 Jayoh 55
747383838 Hapef 36
748657595 Pomipu 30
751861345 Kepuna 56
755723885 Saqeroni 53
758830670 Gohigi 2
758986818 Cavaliz 18
760207169 Cahif 66
760692999 Xes 10
762363682 Gati 12
765258056 Gew 57
768124838 Diza 74
772458655 Kaqa 43
772824356 Soginig 81
777873891 Xigi 41
778581874 Zipufero 81
779052469 Wipod 7
780335760 Kogeb 99
780913871 Zivek 16
781383279 Doy 43
783163873 Sivizaj 100
785625989 Vorimo 31
787648232 Diw 1
788448934 Mor 77
790213856 Doxuv 52
792436529 Silekuju 91
792848170 Bezusefe 22
793591070 Gocufe 69
793740278 Tuc 48
799040989 Nodum 59
801301389 Cic 86
801538289 Kaha 8
802790133 Gof 94
804138090 Dovag 89
806482587 Dut 76
807874666 Bawim 89
811869978 Cuzuni 23
816595589 Jefagija 95
816607683 Weyexaqa 74
818564623 Ben 4
819513246 Joh 24
819929707 Yekew 30
821452259 Jiruxe 8
822872199 Tey 67
826053466 Vab 30
827582578 Ficob 1
840436281 Zese 53
845387824 Qovihaq 85
845448213 Tiluwu 100
845881640 Gipeb 6
846084613 Luhi 21
848536285 Kezegavo 27
849407152 Wegu 58
850427969 Yaso 88
852706121 Tuvoh 54
860204668 Mawuqoxo 51
860373646 Fah 98
860764816 Dam 4
861350900 Rofit 90
863768011 Cowa 89
864775389 Qoravac 53
867235461 Pasegew 96
868153565 Ruxo 57
870307015 Ted 52
873278850 Forura 20
873366431 Hifed 14
877582273 Ruxozuxa 2
878703868 Zuv 29
880946620 Teziwe 45
883913584 Nik 42
886290225 Kivux 65
887411923 Xutur 12
892019414 Gavu 96
893330554 Jamey 83
897804477 Yuseko 24
900299081 Fehelo 49
901669032 Nikoyar 0
902009997 Yigoc 85
903720995 Xey 37
905463213 Gohuw 6
908884979 Sefu 15
909507912 Don 97
910740590 Sexay 70
914725945 Jivuwiya 4
916026778 Vicon 31
916900021 Geberapu 20
917743718 Yanojavu 69
918977103 Loyaxu 59
919552668 Fobayun 11
919967760 Pob 52
922879556 Bihigaf 47
922953163 Segogefa 74
927476773 Gexurabu 6
927718675 Qecimotu 89
932602694 Ledij 53
932846428 Zowapus 68
935945357 Nusenir 21
937183405 Zov 43
938493140 Mid 76
939109575 Jaqaqu 46
940300717 Huw 84
940346339 Weten 18
940531876 Zecidobi 64
940909049 Wafeciw 51
941534644 Sufe 13
943047537 Rifizi 84
944911942 Feruqega 30
946371668 Tuceyu 45
952627674 Nelup 33
956750706 Sameqe 13
958169817 Fexes 51
960111622 Ciqokome 76
962221939 Dodukole 0
963013969 Tulusaf 6
967778350 Fudi 17
969108952 Vigo 81
969390070 Lemecudi 51
971803770 Dum 31
972524082 Vuduz 11
972756099 File 25
974032304 Der 68
974722741 Xabawes 32
982576915 Hajuca 81
986269456 Nez 78
987098739 Hezosev 82
991212862 Sufuxox 26
991416163 Toco 36
995584516 Pebi 66
998287221 Bup 77
999736947 Memilan 13
