659
1120959 Kufud 95
1803931 Soni 27
3000270 Xitukadu 42
5044118 Cumijur 25
6118554 Soqokuyu 61
6619870 Moneguko 71
8649370 Hik 29
12596223 Conalux 80
14571573 Renojud 76
15749939 Jodano 76
20924999 Vuqeni 94
21984804 Gujuxox 69
22915230 Bova 72
22996554 Sidob 39
24455796 Mav 15
29877327 Hifeveg 82
29908425 Sun 35
32752554 Metilar 85
34114290 Yuyo 24
35451737 Deq 20
36014911 Hereq 67
36341335 Xipuye 68
38993775 Fuhasu 89
39879647 Xubawam 76
40013631 Rigubavo 65
40442352 Caje 55
40491471 Xuqaf 30
41870889 Curi 8
42443898 Libiho 25
42655680 Lov 13
43309892 Toko 54
43450061 Zadekop 23
43992220 Vive 84
45234137 Qodeyey 89
48554241 Tuketo 67
49720519 Siguxuh 93
52187563 Rugusoga 83
55139553 Zih 28
55589825 Dedimexo 77
56454031 Zaqa 39
57675682 Ginuvuxo 24
60738546 Jagul 55
61023249 Xex 7
61133101 Lufiji 85
62366505 Zuzamu 89
63834434 Hozukelu 10
63903165 Mati 75
63972943 Gun 79
64181604 Xipihek 50
64331731 Vaqexo 34
64513140 Zuha 90
65690882 Livatu 57
67119274 Durefex 22
67770763 Coye 7
68928543 Xuwaquj 6
69080838 Fixa 34
71653738 Buka 91
71986660 Degeyati 40
73282089 Saxukuc 70
73623693 Kipudo 8
78626457 Qiputopa 57
80666685 Zetag 30
81791625 Dosedi 52
82789205 Lic 6
83864766 Fabivamu 45
84903900 Bifey 0
85557989 Bavipu 99
85841887 Misem 35
86261168 Fuxov 2
87617126 Qivasoc 1
87748934 Xey 99
95943193 Figer 11
99637037 Wezu 36
100808235 Nebu 2
101743753 Xiyodi 66
102988719 Tonar 55
104437298 Cesadem 34
104525139 Qewiko 63
105085836 Sabegi 12
109579634 Cen 75
111617326 Hohisusi 20
113821465 Joxufo 86
115045810 Nixoca 91
118131758 Qir 59
119927257 Bafora 28
120239766 Hup 86
121053395 Xeqep 39
122878593 Jimac 25
126005470 Gezuruw 44
128816045 Ciru 17
129256272 Weliwe 30
129516009 Bofi 42
129655283 Paxase 88
130942837 Mujiw 80
133442130 Tores 61
133461749 Yewizi 20
133600485 Ciparip 22
133967380 Zipalote 28
134905645 Cifumola 45
143454842 Ciwotet 26
144902247 Pefodita 47
145411548 Kat 62
146050023 Zediti 13
149413027 Binebo 52
149524096 Jatu 54
150629385 Tuvojodi 73
151373156 Keb 28
151596231 Fiseveca 6
152010314 Yekavi 70
153065400 Xomuz 27
155524515 Fujipe 83
155863898 Kujay 98
157457696 Fuyiyor 98
158150970 Wap 48
163981699 Yoluci 80
167701627 Zihah 53
175607096 Wuyuqe 23
177518532 Vure 62
178887312 Cafo 41
179215381 Zoduvub 42
179429816 Saqavam 78
180399067 Xak 88
181954769 Toga 80
182588552 Tuger 84
183197307 Codumin 75
184903655 Copolulu 16
185511374 Siw 60
186446216 Raw 28
187095721 Qug 1
188303755 Xutub 32
190712680 Ceviloki 68
192332525 Cer 26
193478636 Yiju 62
195956671 Leji 70
197124502 Fufamo 74
208504945 Defe 98
210352471 Loh 18
218057859 Luvuy 64
219610593 Dilic 13
219730293 Fazadam 29
219761876 Tuxehofi 55
223543933 Nesagoz 58
225998041 Gikuvus 98
227983289 Pigekuve 9
228302145 Nudi 25
233883715 Husutuza 43
236555544 Dudakel 12
239177128 Zikixoda 49
241466613 Yikijoc 88
241572470 Yeme 79
243523846 Tewiwe 55
246779259 Sura 2
248055368 Cefetoh 69
248074212 Mijinuj 100
249048215 Yiyeku 92
249612378 Heke 7
250351362 Vodojohe 53
250701628 Pivet 74
254496126 Vohaw 51
254903784 Barogete 66
255101209 Xada 79
255166192 Fimaqahu 4
255958010 Yezoviz 77
255993781 Fihoxutu 69
256819418 Hodipip 76
256989908 Curokore 60
260319067 Zoqor 14
263705028 Kodage 5
264031912 Xitey 59
264091911 Dif 1
267042877 Tuwuki 28
267992355 Dokoyun 87
268655710 Wumih 71
269096848 Rol 41
270360293 Mizinoy 69
270408345 Qopo 31
271425375 Cuyel 64
274046337 Tijujew 49
274478522 Wihixi 43
277356888 Kij 42
278057997 Voxiguz 95
279263614 Saditiv 9
280549129 Volovu 86
281590285 Zer 70
281718313 Duyifubi 33
283389013 Tovedulo 86
285230086 Fuyejaxe 19
286310796 Jiximej 27
287601605 Pedu 40
289425310 Zub 80
290736500 Kax 7
291162466 Lulo 51
292441340 Gijo 53
294476105 Wapa 0
294962769 Ludag 4
295731244 Polohasu 49
295754018 Cajigike 90
296026211 Dope 92
296101510 Fiwesiz 9
296615640 Cay 58
299659212 Nabik 66
301723011 Gemalimi 21
302646588 Duzi 63
303579125 Zelokuqe 27
306055719 Magev 13
306178607 Sogoco 0
311472462 Bol 45
312398288 Bimag 83
314531027 Mome 36
317009582 Cakexe 52
317340417 Pifeye 20
322041160 Catucifo 41
323038717 Guf 47
323709308 Webugubu 18
324449922 Raguc 0
327751964 Sukoh 84
329130879 Woki 21
329471878 Qijivi 88
333512540 Hoyice 45
336778837 Vic 15
337414271 Yeseheg 95
338326586 Nofab 38
338517898 Bihiy 36
346537536 Qofamami 73
348079504 Hajijoh 3
349640972 Pelifi 44
350401406 Qisam 89
350604539 Bihoq 42
352130934 Wozom 25
353729259 Juqi 19
356663622 Cujotovi 19
356993670 Vinet 83
357875663 Rerowafo 69
358258565 Qoqevif 57
359648096 Vulak 13
360296486 Kor 17
364852125 Bulogin 81
365206705 Jev 27
368580754 Xeroguru 53
369076879 Naxanu 11
369079676 Nazoxi 11
370139208 Feq 88
370841603 Migah 2
371161736 Nafimogo 72
374878704 Kikuxex 76
378199884 Wusog 46
379025296 Qewu 10
380891030 Goyocos 90
381604858 Bak 56
386839049 Gegaged 0
387739383 Yev 45
388984771 Nojujil 58
389708113 Soruzij 21
390253929 Qiy 66
393636561 Rug 7
394209341 Hapaquj 41
397620304 Tikig 98
398604717 Cazeb 14
402226543 Yojo 40
404435356 Gebac 69
405517300 Hasuzev 0
406275918 Xojew 46
406675689 Xozayi 84
407801695 Ximiti 9
409539749 Mofa 39
413469736 Bolujas 41
414313076 Zamumac 94
416520897 Xenituli 95
421353855 Qihenowa 98
422290948 Tojidon 47
425041043 Wura 27
426162394 Biw 96
427323012 Peg 81
429973841 Qayatoj 80
431181217 Cafi 36
431816566 Zodahi 42
432818400 Hey 50
433143119 Nuwebo 100
433517172 Wenaj 35
436890017 Sekihu 12
439660286 Tilito 75
441134921 Yuve 100
443194390 Cequse 13
444356457 Kalim 80
444718891 Tun 35
448255992 Vigiwet 76
449916377 Fopak 45
450567350 Wip 24
453942573 Gotod 55
459887361 Mapovoca 20
461813945 Lep 1
463717586 Qigaros 1
465413735 Cic 40
466257755 Dicukom 60
466333535 Nuv 8
468138790 Visepun 71
468492323 Juvixa 89
469091752 Gitivu 20
469783946 Qamamoy 96
471610053 Sotiwup 17
476739533 Rah 2
477207249 Dazepup 20
478357700 Peq 39
481325718 Ciruw 67
485806622 Pocexeku 56
490442183 Becumus 13
492326086 Manuna 68
492481848 Waqec 40
496770713 Rodowinu 65
496799847 Niyuw 59
499554704 Hite 60
500100470 Galoyasi 54
504177004 Zovesiw 14
504751485 Puf 53
506036727 Comu 56
506880450 Lupivic 8
507536099 Wozaxo 58
508040712 Fojixo 10
511155789 Doludu 32
512217931 Yisozes 7
514255293 Rojidiwe 85
514271529 Hidujunu 69
515102473 Jaye 31
517650795 Nedecuja 54
517990723 Foxakohe 29
519830578 Qitocug 74
520136516 Yuko 66
521321014 Yeyaj 86
522740192 Qeya 96
523038226 Vivobi 9
523267279 Ropar 42
526540181 Dixi 74
527186470 Sisiy 46
527411953 Foloba 23
528854220 Gequnuy 56
529123449 Mexat 61
530496683 Tuhiqubu 66
531676407 Lixewi 23
532571647 Sava 42
533948392 Jaqaka 74
534305983 Kawaxir 96
535376185 Sesenan 78
537231332 Fafutu 0
538717619 Wiwecija 26
539714729 Daqijasa 30
540050567 Foquruz 65
542098585 Hukudo 40
542118133 Wamu 96
542958114 Gegasoj 36
544181735 Gafosipu 92
544640894 Xujalewi 21
545379230 Jul 36
547604819 Xojufo 36
547777800 Yalaxur 43
549076103 Viw 38
550334347 Zoyanor 28
550567972 Ludo 9
553564295 Wejosi 63
555169052 Lurid 37
556090892 Bobix 82
557405112 Qucezayo 15
559840991 Toniyif 82
561429840 Tez 26
562143654 Habise 16
562298528 Xasafibu 44
563001856 Qoc 92
563127834 Kevuc 24
563531851 Texuqu 8
563997865 Maluho 2
564686896 Pahufera 77
564705196 Wude 66
566177567 Sab 31
567299385 Lop 18
568292346 Gayik 100
568368690 Vigokar 98
568926687 Bam 23
569546714 Bolupi 19
571775309 Pitizisa 90
573021184 Forewod 50
574845740 Gafob 22
577276763 Nodevoka 70
577987442 Bibup 63
578977199 Qid 15
579653536 Xaw 96
580834154 Keluloro 73
585309096 Sevuvox 96
585850973 Bezune 29
588611044 Butocu 72
589150539 Jocexula 33
589958040 Nogaho 45
591008380 Suy 44
591432968 Lehuxen 81
595462048 Keb 70
596094447 Zeg 64
596771388 Qabuviq 65
598444481 Loc 41
598604638 Notopoh 100
598902583 Qibabi 87
599229024 Wobece 21
599373132 Binohew 12
600507247 Lixax 81
601868642 Poqute 26
602585239 Folah 54
602661156 Mehohi 35
604772073 Lemeki 57
605764783 Xiboboc 71
606447549 Menociho 12
607443155 Xanad 39
609430064 Fuqot 18
610922204 Joyoc 98
611976400 Voyolake 35
613929564 Necuje 1
615523244 Tehihih 82
616900798 Mujet 23
617266431 Rarey 29
620418608 Mufib 17
623856876 Mig 93
624793262 Yuho 67
626280744 Laqu 24
627588997 Fulap 82
629366426 Wanaz 46
630796278 Cagut 6
631475415 Sarugoku 37
631511738 Vurey 72
631768770 Ziresod 76
635013248 Sanep 51
635200977 Mij 65
636753376 Nadev 14
636761834 Bahamebo 35
637435062 Bekoweq 24
639781272 Tub 44
642626971 Fen 12
644657675 Vesacac 27
648442040 Hekuyez 45
649064220 Sec 71
651709274 Qofofide 59
652120544 Zaqedar 41
652983418 Won 37
653572503 Quxec 67
653667889 Zomug 55
656228761 Racax 29
657934125 Yofaxu 33
660825408 Qub 65
661423410 Tota 78
661890713 Funuvil 2
663455347 Zupi 59
663459834 Pohine 80
663733543 Rut 80
665290328 Ziqoq 86
665810280 Xibe 67
665854571 Fumu 66
666080873 Vogulepa 79
666837719 Qoc 16
667090790 Reyebika 0
668836673 Gobi 59
668839084 Nuniq 4
670205343 Wusuwow 48
672593492 Cadawive 0
672994370 Quxo 75
678986553 Mojafabe 50
679611744 Lecepus 29
679848247 Fetalohe 63
680206821 Rave 61
686975178 Pit 46
687325285 Mir 0
692148010 Sinemo 23
692591359 Bocax 68
697277257 Lozumu 85
700248359 Lawef 84
700961153 Mifo 68
704440049 Jen 63
704833705 Faw 6
705556934 Huhar 71
706487864 Boba 43
708602866 Gixon 40
708903608 Vek 14
710543185 Gasuroy 85
712721679 Jej 36
712772035 Lohez 95
714076192 Pufesuzu 64
721237374 Joheluni 1
721774391 Suxosi 43
722129180 Cujamike 48
722238782 Xaw 21
722564591 Nej 19
724267828 Qoyiyemo 16
724988832 Cowafen 24
725683613 Cohuregi 90
728082067 Gukihi 68
729448665 Kigow 39
730852805 Hoyipuma 52
731057395 Pegegok 99
731748274 Duk 67
733378329 Wora 18
734361431 Weqa 24
737853414 Visaxu 14
739218051 Pajal 29
740365186 Bifexe 33
742467996 Juwi 23
744675966 Xucoyu 45
745172487 Tolop 7
750446534 Meyofeme 21
753796676 Ceh 58
754407822 Tolijixe 28
757356003 Gem 100
757565669 Nakewob 42
759342858 Vavo 8
760717554 Hog 31
768554127 Jiciha 77
770852861 Ruvayoya 14
771013105 Niwoleco 16
772630010 Rabox 45
772700857 Sonalu 66
776687567 Gaboc 51
777439326 Siyi 73
781877383 Yic 31
781967846 Qamuvi 16
783550574 Xic 55
784349505 Vugasix 85
788036924 Kihe 24
788613306 Coqif 33
789681208 Xixu 40
795436618 Dihoveze 42
796308087 Segaker 100
797534048 Kac 69
800566264 Vazo 23
802243747 Doca 98
807558344 Jicuho 7
811689221 Qivut 38
812817395 Veni 72
814102757 Zehemesa 64
814164708 Ricosu 57
814271237 Web 30
816243139 Bur 8
817273628 Dukoxuq 21
818229437 Sel 48
820324198 Masuna 53
823157991 Teyi 16
824295720 Jameka 21
824479539 Tiqolone 56
825432130 Niq 86
830220624 Rus 93
830318755 Xoda 78
832297158 Muzas 44
832616514 Peje 2
833840827 Turudeh 75
834156768 Caza 93
834458294 Zihil 55
835541484 Kepoz 83
835655208 Vowo 54
838332524 Cuwik 0
839262683 Wet 76
839622774 Gowe 31
841759744 Cusofulu 88
843042373 Qeharo 6
843788131 Vafi 8
846811392 Vikayivo 47
848593631 Viqil 56
848885136 Yuqawe 82
853645497 Xibo 33
854242512 Puvorup 6
856859750 Pekahifi 48
858348881 Neqi 5
858371128 Mamu 73
858705806 Raluqu 21
863574736 Fave 70
864085486 Game 3
867290354 Zacucut 44
868087083 Qaqaqeje 98
873245548 Yoloq 89
876306012 Gojoxohi 80
876816487 Jupisam 87
878529648 Tebed 11
880714017 Tuta 68
883211896 Yogayivu 5
883374704 Cini 38
884146318 Qofelile 0
884490598 Revodef 3
884936973 Rah 3
887062425 Dekenag 83
888622220 Jat 31
888700409 Gefej 4
892231699 Jobi 11
892712507 Gecuwuc 47
895384168 Cuwi 89
895630373 Sor 42
895764337 Pimuk 63
896813189 Yupuwafo 22
896895231 Burep 63
897444952 Nila 61
897687345 Regocuq 33
900083956 Zobemaz 15
900677030 Xacufi 94
902873548 Vox 79
904379952 Guna 15
904547277 Danebele 27
907610789 Fuzacu 59
908538520 Lolevif 72
911134902 Totenez 7
913259538 Buyud 70
913574285 Hotacaho 94
914291127 Vika 33
914614797 Xireg 43
917706937 Regof 84
917762095 Leh 89
917768915 Nulopene 67
917863932 Pis 33
924047615 Wiwavo 38
924115462 Woruxu 16
927118816 Dim 64
927577594 Juf 66
927915926 Dokubuqu 45
930732664 Heba 99
932477345 Jeva 63
934971060 Muyojol 6
936226223 Viz 72
937065287 Sepoqa 33
938463327 Mobatiki 44
938678653 Ragovala 41
939409511 Saxexe 33
940083828 Zodude 87
940115817 Fubun 29
940541662 Refu 49
944373038 Vuro 22
944457574 Wusipu 66
946373221 Wuni 36
947904082 Fehi 14
950071916 Mogamo 10
950705270 Koy 59
951982051 Ciq 51
954408984 Domoriwe 40
959574201 Xore 27
960364275 Goru 57
964245983 Vup 17
965425146 Wodigito 85
967685366 Cexeh 62
971289176 Secezesi 68
971337611 Tuqa 7
971384415 Jag 21
971863986 Noq 68
975576231 Suweruyi 34
977439998 Beyapax 66
978410023 Tucu 83
979148396 Xonihuva 53
979502057 Nirilo 70
980176605 Din 84
980905853 Put 0
985255932 Tos 75
986561928 Yaducu 31
987267754 Vatabik 34
990739415 Dedazice 10
990764259 Sopa 4
991919140 Paluces 24
991994169 Ruxuxov 54
992634814 Luwawa 39
993472829 Yorahul 34
993482528 Xiwaca 96
995529799 Vahe 39
999669580 Vubeku 55
