544
1015565 Xiyaf 94
1482491 Wazipifo 14
7110954 Hufijubo 95
15630458 Sapixi 47
21706294 Nafut 1
22835769 Hijukab 96
22923303 Figutej 91
23199621 Kufolaq 82
26086832 Nise 74
36547523 Feyi 3
37000222 Guviwap 100
38585250 Xitiseci 71
38946384 Pudonuf 73
40120364 Nofem 19
40455296 Rucofupi 70
41141355 Suvaha 14
42588874 Tukuki 13
44429766 Pofolu 35
46733856 Quwo 92
48824112 Sexubeke 70
52871001 Gob 42
54494226 Yejipav 44
55383814 Gitit 93
56584928 Botud 71
58836345 Mozoc 73
62165454 Fewetudi 4
63975375 Fuquz 69
67531406 Huxapuz 35
70208446 Bojegox 64
71272448 Yuc 10
72244321 Lawok 90
74721670 Pureleka 34
76767889 Wani 100
81818797 Cew 21
86124456 Fuzenofe 31
87052330 Pedoza 57
87252083 Gat 14
92073661 Dolutoko 56
92357643 Zadak 11
92796716 Jowaf 1
93148740 Soqu 16
93719932 Naqe 96
95269064 Fusedav 24
96107523 Caqal 67
96383897 Tetulibu 76
97295360 Xaludinu 72
97431711 Dekave 89
97773019 Niz 56
99046923 Hodabu 33
101988145 Cewub 46
107749770 Piqu 5
108117857 Luguzi 58
110616301 Dowosu 65
113954865 Kire 68
114626737 Jajako 79
116409514 Bifoy 14
117065341 Kax 85
117221580 Mavidoki 39
117464771 Viqimey 77
120004855 Hecoc 4
122557668 Bumogefa 82
122953663 Lalen 91
128489458 Jito 29
128493661 Fequxu 80
129194865 Qas 76
129594791 Miyabofa 60
130621521 Sadu 29
131711602 Kemi 59
135864331 Qib 83
141422861 Puwiw 62
141928611 Zenamenu 72
145735707 Qinefe 95
147226403 Xuba 94
147258277 Decunuq 42
147649470 Worizoh 10
147814919 Divoy 46
148565538 Zikevi 28
148767091 Dalab 29
152976899 Rela 85
156953299 Vuga 61
159420806 Voqo 8
161862112 Mihayis 25
162469102 Xem 40
162493730 Xoh 22
165390046 Bihob 35
166316559 Muniq 56
167533310 Yoricuka 18
169101122 Jageg 26
176126857 Xikuq 22
177285782 Sisoci 59
179805769 Yabize 28
183974171 Guhutuv 72
184698783 Diy 25
188604278 Behizo 77
188796438 Numeyid 28
189731128 Rad 11
191854960 Haxerax 66
195048420 Datujiki 21
199005917 Homesovu 79
199661498 Winaqaxa 4
200461526 Tumiba 61
201143038 Bewizu 7
202527858 Vof 6
205916646 Caqo 56
208269354 Joyited 96
211761535 Cotu 3
222454244 Cerejif 61
222535920 Zive 20
222872274 Lufiwi 26
223457604 Luda 8
224350494 Bifexuv 25
224410101 Suyumij 34
229507309 Satara 90
230111009 Hufiy 61
230699826 Belayi 13
231065094 Yaf 48
232989229 Faxazudo 96
234740077 Helo 1
235953492 Qosade 29
243337489 Kezarus 42
243820378 Cux 93
245419492 Goxurok 41
249304625 Wuqu 85
251490908 Jibixezu 29
257202886 Tixosex 35
258085541 Xilebubo 40
258510959 Fis 5
261002610 Quco 3
261577243 Weq 30
263285834 Jof 18
270916226 Godicu 39
271500030 Sumibax 38
272024872 Biy 7
273725390 Rez 59
276768355 Yoketubi 1
279561459 Mesaq 25
280044236 Judihu 45
280601572 Wacitolu 60
281480698 Xehinaw 5
286163765 Yaqa 46
286228745 Bihecax 58
288524138 Dutut 28
288769539 Deli 95
291835559 Vipax 62
292269054 Jolo 73
292564716 Watuya 35
298829296 Kecesiju 71
299502469 Vovocod 57
301869692 Zabi 42
305318059 Wab 5
305765450 Yevehi 55
309454909 Voyixire 58
313957256 Sojoburi 93
315442472 Gul 69
315493632 Sidamek 84
316315785 Rizeme 65
316539415 Qiy 81
316753376 Wama 23
319971189 Bul 54
320235501 Siy 34
323835698 Lamoti 16
326065230 Pay 92
327164608 Huded 64
327538600 Gem 97
332687409 Yanafu 49
332698952 Relayot 61
334264541 Dalokog 53
337277838 Reqici 42
337357424 Puneled 99
338077373 Yokezi 62
338483063 Mujuwi 60
339076642 Nuxotov 7
340032859 Nokim 62
342047718 Doriwu 22
342388769 Necal 25
343287757 Zig 93
343773732 Zedisi 84
347152613 Libemi 91
348100325 Gotaji 85
349044150 Jenu 7
351623670 Dazo 99
352810494 Hej 44
353355415 Duwadoy 33
353366480 Bup 37
354650900 Sit 36
354844884 Selataza 32
356004762 How 95
357993594 Nasa 77
359701415 Pukibuj 60
363817598 Vari 48
364903181 Behuzaxi 46
366798643 Yuwomebe 35
367899519 Yuhok 62
368543920 Xaz 79
374357785 Yuq 18
376415474 Kok 27
377403190 Fubohi 55
377747692 Lotil 65
379431645 Celifowa 51
382124373 Cema 11
382371299 Likukida 42
382602491 Fuj 62
389475710 Nunego 79
390322243 Coli 83
390458035 Lomisek 69
391531494 Vodi 6
392602112 Sarixu 74
393847737 Tecude 47
393922258 Fedebu 27
394502039 Xezup 100
396710408 Sugayu 54
401618514 Numizu 39
402192829 Vobowu 9
407962287 Jepevi 11
408963396 Bomev 18
410798456 Hos 35
412794519 Gakicag 66
414280704 Vagat 67
416884684 Kewev 56
416944631 Kipuki 34
421417731 Sireda 7
421978286 Cuwukaw 78
428330703 Jiqohi 62
429646916 Lokaciv 98
432120492 Buy 31
433272532 Fey 40
436488359 Zeroru 77
436621198 Hojariw 60
437481268 Casok 96
444898824 Zajon 71
447230173 Tuwunega 6
447392088 Gegameq 87
451090505 Sukaxi 10
452063666 Cujatove 100
453023958 Yabi 44
454511366 Nov 32
455514405 Mejeci 31
457618026 Fegujer 8
458905123 Tobel 22
461809137 Xewinawu 29
462734306 Lifunu 0
466037634 Niya 33
466949905 Rirapoci 62
468784731 Bik 90
471530701 Pemawex 17
479132603 Pereqesi 78
479854138 Taqob 49
484765167 Kik 46
485974086 Vumuvu 18
489882336 Yuhi 16
490348650 Ketuk 96
491986112 Pimu 49
493710246 Kebida 14
494816380 Kafiho 87
494954719 Xutigek 73
497947049 Masajowu 16
498718329 Dezohay 97
499249363 Vix 20
499715154 Zuk 95
499735847 Gifejey 91
501287346 Zepot 58
501345332 Lejijefe 24
503468300 Kuno 74
504570053 Xis 39
505044894 Kogac 87
505162583 Besijahe 7
505185045 Wiloxu 2
505356909 Cegitiqo 38
506577257 Luci 17
507671480 Sawo 29
508566693 Fepop 94
513491734 Terifah 55
515497610 Kov 90
518780058 Vuzemelo 75
522166869 Jugelaco 94
525369503 Gacucij 79
526778024 Guqiz 85
529247508 Ciw 1
530345583 Nihoq 92
531197511 Goce 39
531795055 Rec 70
533714073 Wiguwiqo 49
544760166 Remosen 61
545170299 Finaz 10
548835912 Bafalar 0
555826334 Nos 58
556550393 Silu 90
556832639 Jumeku 52
562670749 Yuweki 41
563196682 Hijeloh 61
563790866 Niku 14
564338737 Sebegim 44
565206657 Yozeha 36
565261779 Xumuz 71
566883173 Cogugatu 74
570676693 Nezec 77
573410466 Feyorij 73
574518064 Tiven 65
576315106 Zoc 62
576402338 Nus 36
576721081 Zubi 94
579245830 Cocex 61
581831519 Vakopuv 63
584265266 Yovex 52
585065124 Yekequ 69
588341651 Rago 58
591085840 Paf 93
593952530 Lib 49
594907654 Kehixuk 30
599049850 Fiyiqaqo 10
600625532 Mapi 67
600766287 Revih 28
604136630 Bimex 18
605395198 Yeje 77
606384046 Wahehi 97
607060870 Betatir 53
607365355 Dijahod 13
610184266 Sotozevu 17
617157491 Mijuro 2
617772659 Mexujaru 87
619599389 Baduti 86
620473994 Rucoced 70
621749244 Nuhakac 38
621842281 Yeganaxi 70
621864813 Duw 8
626382308 Xoxel 87
628445548 Nigayi 55
633363022 Yagujaz 29
634416586 Hariruco 24
636879337 Zevur 86
637865677 Pujimes 53
639270525 Mebeyaj 85
639756462 Hor 5
646422583 Medes 92
650806421 Qeceqojo 41
650824958 Wisuqoji 86
650835770 Covudom 63
654576963 Zuzegaci 35
655407078 Xikihi 42
657252443 Saded 77
658501732 Pis 5
659605935 Rece 79
660975752 Sotofaro 90
661149053 Fob 89
661167427 Muvinep 5
664718381 Punetuh 69
666344975 Tej 60
666533562 Loxi 12
673404084 Galay 18
674040310 Gofelov 24
677673602 Luzaqey 31
678902975 Copiduzu 64
680782091 Vuw 49
685319707 Xicojiz 64
686323010 Jaton 48
690564217 Goh 36
692033487 Here 100
693105708 Jozet 17
695415533 Basepi 100
696261494 Kerutux 67
698886921 Tom 60
705242665 Hezem 2
705376486 Vaxiru 94
705727576 Hirek 66
705964896 Bet 64
712069033 Xubeju 68
712517298 Kisopif 43
713664332 Tow 87
714500746 Humipox 55
715185886 Daz 12
716479242 Kukoh 53
719404926 Fenetis 6
719704065 Qicasad 51
719788810 Pegiqi 21
721484738 Sakocoxu 39
722608422 Walala 77
723551510 Tojasuwa 22
725851642 Livexije 50
726213399 Pipewim 27
726497016 Vagimo 30
729315191 Xev 18
730591768 Xer 34
732139512 Rag 26
732299225 Dudi 89
733487702 Cofuneb 37
737204947 Ceduli 94
737228170 Retafey 82
738109450 Pegagi 35
740081287 Puhi 61
740928063 Zane 72
743642353 Hol 76
744830574 Fiduli 62
751715552 Cuhet 38
753743059 Kafilo 49
754749271 Cohekit 1
757855288 Qos 27
758466642 Huvade 93
759135935 Hupuzeh 47
759417936 Qob 57
763806019 Doye 15
764794563 Cevezave 23
765659187 Zixafol 40
766289980 Botat 53
768105539 Jap 50
768463657 Hizuma 3
769318322 Ciw 25
769782049 Lusu 23
771370721 Fanu 2
771481071 Zuvez 15
776848464 Sorafoni 87
777833682 Docaw 28
780531057 Rarulofo 39
783023458 Fizov 94
783779535 Xizil 82
785210082 Fap 40
785234524 Vuco 57
789797001 Rojoyeci 42
791269501 Tiyefa 96
793493076 Pupiq 65
795710627 Zatuqego 8
797091032 Kicuvex 51
797553480 Cubu 68
802096232 Noju 43
803890673 Rofi 62
804263730 Hisun 66
805005357 Xatiq 85
805576894 Wazopur 67
807938626 Qizoy 61
810082301 Nud 96
810876834 Putak 72
812841653 Mejecogi 29
813994943 Hutawi 43
814776075 Yatabut 41
819283230 Jobidu 65
822560781 Voma 80
824217271 Mugupew 81
827213947 Bomoku 8
827686896 Zuvu 75
828759187 Wekihus 71
828917959 Tazibiki 3
832312311 Depeki 11
832544540 Dideb 25
833344263 Jiqomane 63
833572889 Kuwufu 36
834458447 Xer 55
835515418 Cibi 31
836147362 Qimives 83
837173769 Filisop 61
838024593 Yejon 83
838170336 Jic 1
842591950 Wibija 96
842633482 Facaba 79
846945183 Numavon 67
850379389 Gexizip 78
850649682 Cuk 83
851676830 Tokuxob 89
861108980 Key 64
862055871 Cafiraf 79
862369516 Siyonota 91
863919024 Dafayajo 3
868856463 Foxul 95
869182014 Dede 63
869288745 Qinala 68
869493077 Mileg 98
873029680 Xequvoyu 33
873949202 Cace 22
874168606 Hapuzuj 77
874747369 Noqoyiru 6
877362619 Xofixuz 97
878586114 Kaloj 28
878729849 Sukade 6
883064884 Quyolu 43
886059806 Fojuc 13
886891670 Liha 16
888710427 Jar 7
889595942 Gecofa 76
894776875 Qosan 41
895844695 Yizeha 28
896174152 Sekinimu 78
896580145 Muyuhuc 63
898452182 Tuneyur 49
902119136 Roso 74
903354136 Cune 95
904786980 Sefeluq 84
904926728 Motut 88
907549495 Mecoyu 47
908838615 Bamanutu 34
911159331 Jegufuc 1
911866074 Rof 54
914003883 Xilad 73
916100921 Pamu 95
917042085 Vaxoku 74
918816437 Vega 29
922782410 Jehe 29
923760339 Jopuk 90
923831763 Makobet 98
923841754 Dahuji 38
929399828 Kexova 99
930605509 Siziy 88
930938310 Zim 70
932915185 Cojej 12
933125317 Dadum 2
934484636 Padano 91
935702896 Bata 30
937063571 Deveran 20
937109545 Hari 83
938729607 Gopemi 86
939698050 Kej 29
941092536 Few 90
941326100 Qud 16
943007320 Mucapo 1
945109096 Sudu 78
945150165 Zadehaga 65
945453664 Cuducew 63
948431428 Qal 39
953656934 Veguba 73
954949683 Ceduha 99
955414950 Lus 69
956333837 Limu 0
957856967 Fojopipu 33
957992782 Vov 86
960500531 Hepayipa 55
960592874 Voqotuz 97
962921736 Hujujer 74
962975657 Pehiyiv 65
964269098 Zuwekuci 49
968039176 Yudikoh 23
971177136 Qukosir 63
972049962 Tifagubo 62
976596113 Toyegiqu 91
976928619 Soba 19
978426475 Hijono 41
978796806 Renob 11
980309949 Xaxe 70
983246144 Nom 10
984205615 Judore 63
984604328 Tuqowig 50
986068676 Vuxuwata 90
986387454 Gakor 28
989575130 Niromak 2
992247857 Tesujo 61
993121802 Zihuxa 100
993399213 Zifuzino 50
994196119 Rof 99
