799
1465825 Hecebep 17
1893188 Bize 39
2848778 Hejuxude 13
5028674 Qip 1
7000667 Nurowa 84
7131978 Wacox 39
9429083 Xikof 63
10176253 Zujovuya 28
10584774 Sav 77
11339696 Nebefo 87
11422262 Rusem 87
11734421 Fikakuq 82
11754506 Yamuwep 62
12041471 Cuyijam 39
14624959 Cotawiw 42
14665673 Tuwoko 71
16236216 Fubabo 80
16434176 Yeto 72
17679400 Mij 20
17905320 Wequ 50
19094351 Napuqel 51
19574800 Bucice 89
20148871 Vawiloz 65
21372287 Puq 24
29039107 Cug 96
30722151 Woneb 23
31707950 Yetocaz 18
34686156 Hizicake 59
36756200 Fugotezi 79
37214986 Qukevi 18
40909081 Wavuni 36
41211543 Putid 89
42804381 Sezici 0
43015195 Tacal 18
43707355 Pebagav 58
43878678 Nuhisod 14
44386653 Zedawome 19
45403276 Waf 64
46109859 Tawuka 22
47793481 Qitadobo 11
47823662 Rukaxin 4
48759433 For 92
50580673 Lanix 94
52639552 Mifesus 29
52879160 Qixedoy 2
52966067 Kog 44
53012603 Bavobi 75
54785145 Qayudewo 47
59999310 Tabo 73
60674755 Meweseya 16
61071285 Hucibane 67
61428314 Jusukod 30
62425899 Gupe 74
65489700 Musid 23
66042446 Razahu 98
67262295 Necagag 53
67785706 Vec 98
68763870 Razop 26
70680100 Nisepap 87
70960755 Bacixazi 59
73486753 Cakaja 41
75416936 Motalem 38
77681508 Woxaquv 25
79442343 Hir 39
81148768 Kiha 8
81409158 Muyaxuge 86
85626629 Det 24
85794916 Boji 14
86460366 Pelaq 38
87362318 Xilu 52
87480291 Nuya 80
89173372 Jof 89
93021300 Ruwuleka 66
93178765 Dukenovi 77
93220800 Cazisiyo 96
95007522 Zuy 47
96645593 Tiyom 35
96719335 Natudaci 58
96895591 Ceboyu 31
100437527 Cejac 78
100566193 Liyiqow 32
104429472 Zikamuxe 23
106240366 Rono 54
106574057 Yogux 17
108133715 Xiv 33
109487360 Nox 83
110748629 Dajaroku 22
113139346 Dimonuqo 39
113835952 Kamilacu 54
114251000 Xetu 57
114825330 Xeduk 32
115976206 Texezo 94
116018587 Recuwudi 89
116489337 Kemus 51
117364388 Nibobu 73
118355476 Helu 46
118678876 Mir 85
120441833 Lot 1
120524807 Zuwi 37
120637327 Xiwenak 94
121481099 Pucatoju 58
122818105 Votakuj 10
125305508 Nipoz 56
125930979 Gazed 92
126745396 Dut 24
127960496 Wako 30
129156772 Maq 78
130371290 Tagaka 75
134365495 Qisap 30
138137051 Gibasave 54
138727285 Meci 19
139546972 Sokohe 79
141191580 Pabukinu 25
142289013 Payuto 77
143112795 Gibus 37
145789222 Gik 97
146125342 Nibofuz 47
146148987 Zak 8
152866798 Kaduqul 32
152883054 Kulu 49
153074802 Fisajar 48
154037900 Yesiqidi 30
158098453 Vohowuf 34
158147291 Qal 4
158928712 Resoju 92
162108940 Rujeqi 100
162590401 Nibir 61
162644028 Joruyu 82
163070684 Hok 74
164788516 Naxub 40
165404912 Cesib 100
165779331 Yaluv 42
168046468 Joduzi 44
168218677 Wac 40
168680168 Qey 94
174113648 Talop 92
175151866 Maheti 73
176656662 Pibon 64
176909771 Med 100
176970718 Hesoqi 51
177374927 Teley 44
179062212 Gag 1
179327880 Zowuk 71
179580477 Qoded 5
179622381 Wudedis 97
180139170 Zocezof 6
180424615 Fahago 100
180857921 Fadel 7
181339955 Dudur 40
184728862 Vagevihe 13
187060872 Sajivah 59
188215493 Bayova 10
188343135 Pilezib 5
190095763 Kicuquh 0
190116449 Noce 32
192677977 Linar 33
193694153 Qaxezare 70
193847235 Fafopil 34
195204480 Siyiku 21
197823799 Tekewoc 58
199368222 Jitiki 84
199438114 Zic 67
201300194 Gan 42
201332605 Zavohac 60
203104453 Mibeg 33
203276773 Xironuz 29
203399127 Dicireyo 43
203978609 Puyel 97
204007189 Ves 97
205170385 Naw 13
207009387 Mey 60
208003158 Yuwaqek 89
208194071 Zov 70
208919415 Xafow 67
210547276 Rus 88
214030999 Bobatah 57
214153015 Guli 57
215446921 Ranu 2
215772501 Roh 95
217622960 Pum 96
218621895 Mecow 98
218985296 Tubehu 62
221298507 Wedate 87
221350410 Judi 62
222041404 Xitej 27
222415052 Wego 64
224582881 Ponasa 31
224920933 Mixeheha 19
225585633 Cubo 83
225649885 Nefuyu 91
227585123 Luwapaj 8
228495241 Valopug 53
229706911 Zol 27
231225095 Qixim 32
232119138 Nirifaxa 100
234361636 Pis 52
234886910 Poyemal 88
238815877 Kihi 53
239317825 Yig 14
239626733 Fet 11
241081285 Kar 36
242149948 Ned 41
243572119 Xal 35
251774893 Jugiqoze 92
253431756 Petibal 79
254256671 Gad 28
254440124 Zameyaj 38
256330969 Cezup 22
256763040 Podabo 68
260327104 Zukig 4
260361258 Nor 19
262248770 Nixeh 43
262348695 Tagejece 52
262598965 Qacir 97
264217608 Payuvap 68
265653367 Lofafamu 71
266239566 Lorepiv 29
267413247 Cakibiro 14
268612475 Wawus 91
268674507 Vapo 5
269045007 Mirepaqi 87
269297406 Gegeduhi 81
270607355 Gacuhico 74
271948783 Moculupi 40
274482429 Juz 25
276233224 Moxu 60
277530267 Zene 44
280233265 Ralo 9
281259453 Vicade 75
281852641 Miduvi 15
283262618 Begufu 48
283505980 Sahosa 25
283949676 Guqalim 32
283983584 Fol 70
284686206 Yadaz 64
286063431 Sujaj 6
286427977 Yuboc 23
287035842 Dosuc 74
288366222 Naneveva 75
289492377 Dimo 50
289833814 Fotov 55
290639319 Henela 4
290797988 Boluri 91
291389770 Venof 86
292347035 Migukoki 37
294901621 Hamemavi 47
294991083 Nizagi 8
295504828 Wekibe 41
295515945 Kegeq 28
295626557 Vekeyu 48
295968496 Cima 45
300756625 Tuped 64
302236914 Tona 59
304764871 Wefobu 54
304878824 Motew 76
306211621 Zevag 62
306956453 Muz 15
307171810 Yaxec 61
308646032 Salowabu 78
309806443 Ciyaquko 65
311559230 Cusa 18
312951653 Dezo 26
315402990 Ficexi 34
315810761 Juvig 62
315999185 Wovuwop 27
316097377 Fusa 76
316996262 Xapeh 15
318365239 Fecigel 91
319072031 Sequcu 39
319428630 Yalovo 27
320623224 Fetared 21
322209255 Mereh 59
323283521 Furuda 36
329717268 Noxogog 23
330443419 Div 93
330528355 Subucolu 78
331191097 Nuw 9
332356484 Xebelob 8
333222420 Quke 34
334001406 Kudeli 25
334591799 Jayequ 15
335518170 Gaxajiv 30
336319375 Gefavev 15
337846878 Bepupi 47
338519016 Foqofahe 4
340284639 Cire 63
340587972 Jen 30
341205094 Him 19
341434683 Xijenaj 42
341713218 Deb 63
342794980 Foke 39
342845899 Jof 27
344212773 Kal 86
344738901 Vuhot 3
347618264 Sala 76
347619424 Milab 69
349008284 Qupupec 16
351324581 Vadeze 7
352985671 Rel 13
354993930 Hogulaf 91
355130202 Niba 16
355246904 Toqebu 47
355646888 Likagavi 92
355784778 Nurur 65
355952675 Zoretu 30
356541233 Socoxa 58
358121285 Nozofuk 99
363080598 Bomaqedi 15
363920424 Xubehija 35
364510932 Nefulisi 68
366264392 Wayud 8
368385943 Nin 74
369375760 Qat 51
369594865 Kiqitoz 65
370090445 Rote 67
370586708 Zutubok 82
370799353 Xegowo 40
371326820 Jotaful 87
378186386 Zijoxij 40
378336491 Xowaxud 17
380307030 Nupawiv 34
380957875 Baloza 56
383220192 Cuk 25
383650697 Yox 83
387979173 Peg 8
388928729 Zoxow 62
391091024 Til 64
392284226 Gesiso 74
392488375 Qani 20
392878114 Veburi 60
392995925 Camovogo 78
393229276 Rotodupe 53
393963850 Xox 98
394467740 Satocal 95
394566205 Qoba 80
396118386 Lujecuv 81
396412941 Sofeti 86
397714888 Xezutera 45
397715147 Terexir 10
398299642 Wukid 11
398537074 Rab 64
399417356 Fisoso 24
399507200 Jacikom 51
400447299 Ciwis 72
401305114 Wox 24
401700431 Jubinef 26
401773360 Herej 34
403887123 Pewa 20
404478269 Radok 3
406816035 Hakis 25
408473203 Wile 36
409312347 Racili 23
411419736 Yuz 95
412550404 Bedikag 72
419764779 Weh 99
421310896 Newimot 95
421662483 Cut 42
421844675 Caqako 96
422588417 Qevuniy 79
422690105 Dihovex 35
424717949 Qasusopo 69
424871295 Fur 51
426916988 Suwure 68
427430366 Powicexe 38
429529188 Hoxupo 4
431435060 Lazuve 86
434069489 Bunida 41
435156652 Cijoh 49
438958874 Fufenix 2
439218544 Tofabe 34
440806227 Koyi 32
443137407 Kapesar 77
444145685 Haq 45
445623053 Daqev 91
446433211 Zowuy 28
447929021 Mozav 24
448797488 Seyotub 27
451344608 Vupokobo 78
453258065 Yeyop 3
453356848 Xapuhif 80
453754980 Fupewoy 19
455458743 Cegon 57
456206787 Lejar 93
458548510 Behufe 55
458835374 Pubuyaj 10
459336156 Foduxuh 73
460429997 Honux 5
465348619 Cozibak 5
465681995 Nota 42
467952543 Hixe 55
471337914 Fet 91
474788013 Xila 70
479603378 Pek 54
480284120 Muneda 66
480761308 Hen 17
481585895 Hiwegezu 27
482855504 Zek 66
482980696 Fawik 5
485842047 Xaw 82
487355702 Naj 45
489393801 Nicifedu 100
490037733 Wiqivoho 36
494423230 Juvisu 98
500051803 Fifej 44
502267654 Xarek 4
502946002 Vikiwiko 63
511296923 Nedaj 52
512296843 Dav 6
512840883 Beda 96
513597491 Sone 10
514236817 Wel 100
515041501 Bahobuw 76
515099137 Yuwa 38
515189874 Fewi 65
515547272 Fijigu 34
516188597 Siyaxo 55
518122819 Lukuto 50
518270253 Sohula 33
518570459 Hica 12
519411974 Culebi 60
520428393 Ritaboh 24
521115135 Gaber 57
521812990 Movecuje 16
522328806 Laqagi 44
526927183 Qih 87
529540888 Hoq 53
531597941 Mesel 79
532675485 Kura 85
532910057 Curujuv 41
533493473 Zako 100
533506602 Nixebemi 7
534294812 Xuco 42
534301527 Faza 65
535127324 Ziq 34
536828154 Hayelo 74
538547375 Niluzu 45
540127198 Goza 33
542257879 Nitovus 33
542468937 Cawo 78
542492074 Bime 65
545593357 Cayer 12
548412543 Qahanayo 84
550212649 Lupit 98
553755256 Juyesola 91
555251783 Piyekoro 54
556077804 Lajo 51
557015037 Salevit 74
559006279 Jazev 34
561664829 Vadijoji 34
562289942 Seleka 94
562492869 Huse 49
563401093 Rori 58
567984921 Tidub 91
568065769 Jucare 67
568157260 Rewufiw 15
568534617 Pedu 30
569311837 Lipota 56
571401718 Fike 42
572527404 Mibuwuyu 22
572769129 Gizu 70
574406066 Cene 26
574422788 Wugulij 69
574844046 Yunifeh 8
574869711 Fas 26
578703541 Vamefis 24
579148400 Zigeme 60
580737169 Yuqogolo 56
583884080 Kula 79
584475738 Reciti 31
586951545 Das 44
589275699 Weriwiv 46
591738377 Puduk 72
591883610 Cow 60
591893538 Pum 69
595478015 Mame 48
595479751 Curutu 30
599378766 Mapiriq 43
599862550 Honi 24
599976331 Zamo 92
599976587 Pocuyisa 96
601013908 Rijivi 36
601150855 Tocul 13
605386903 Papihup 51
606406300 Wej 70
607417042 Qimamek 27
607758413 Zocadawi 63
608095068 Yic 68
608278095 Nudi 60
608748111 Higaquy 71
609026386 Zef 32
609640436 Luhes 0
609697090 Situjoqa 47
611115748 Mag 41
611379012 Gugalase 15
611669864 Kulin 0
611775851 Teyer 43
612186227 Quyi 1
612495476 Fomakawu 77
613962945 Yovecote 91
614690308 Xorifal 93
615794751 Gafekaz 42
617642259 Puge 59
619171636 Nadecu 46
619278416 Xeti 29
619716217 Mahaf 2
623305460 Becir 100
624874209 Kugeqoj 89
625083042 Bosoviz 35
626289488 Duratoq 3
630171932 Xucawimi 79
630857896 Sulaqoba 83
635457807 Fik 70
636724741 Muqoziw 45
638105592 Dakevi 41
638527884 Zijoka 35
639266407 Coyuya 70
639634204 Jeluroz 11
640384940 Hapeso 76
640421795 Yihiy 34
643095852 Hac 30
645125795 Nepogo 28
645316159 Gefaqef 28
648931477 Pir 76
649806820 Zihuvosa 26
651794455 Yaheh 29
651866131 Yucap 35
651880866 Moj 8
653961325 Getugoze 48
654907705 Tuji 23
655689349 Qav 28
656850146 Yose 39
657638972 Bisunoga 98
658715163 Mul 89
661728265 Varudi 62
662729147 Rosesezi 18
662856603 Renu 48
663024424 Weh 76
665231466 Qovo 68
666619515 Duba 12
668044740 Qeyepem 45
668609676 Garaja 95
672367623 Dav 57
672608589 Ximam 40
674668792 Pizaber 69
674944535 Gaq 48
675772687 Vezahij 60
680820071 Jebitag 29
681072023 Pir 90
683620854 Muwopac 78
686855424 Wazoxeda 12
687690261 Lusof 18
688175857 Taka 56
688890004 Tufajemo 31
689545375 Fovan 7
691712955 Sub 75
692664527 Wugu 5
696010965 Heyoj 20
697767444 Pep 36
697990567 Gopa 58
698133736 Lew 3
698176946 Tomuriq 10
701255933 Jijisobe 32
702114577 Sob 10
703107683 Jilozeje 68
704264068 Xaz 33
706031429 Bateyixu 10
707630940 Rop 18
708771778 Wos 2
709978606 Geqeweqa 15
710770724 Pebi 89
712105912 Toqara 91
712902774 Depid 78
713870497 Buzer 35
714743271 Wat 16
715066731 Wodizo 99
716498512 Min 67
716629234 Loyabasa 77
717650596 Xubi 14
718544828 Cufewu 90
719338732 Soqi 73
719770557 Zizo 9
719870531 Jagafos 59
720589383 Hufarede 48
721051056 Veqiyoh 17
721244434 Raje 31
724024242 Dudaw 18
724952493 Vosine 47
727184187 Fag 56
727919833 Fuqov 6
729294059 Diba 54
731823765 Gogum 9
736881069 Woqebo 69
739423698 Fuwuwo 66
741463859 Sukilule 38
742331344 Geyeh 99
744613844 Karo 65
746207423 Tatukaci 66
746345927 Foqatada 74
746750494 Kuret 1
747287900 Mahobu 83
747642054 Rehofimi 72
749476604 Niwaze 49
751066216 Hidireg 21
752673285 Nuwewi 57
753572020 Hunuvey 88
753755311 Wow 9
755575643 Fasoqa 69
755883484 Vabi 62
756096361 Pifaf 93
756117728 Socupihu 99
756272654 Cojuquq 71
756873813 Tumaqe 58
757053811 Sejuvujo 80
760986603 Wesuba 43
761464231 Tet 17
762167360 Zobirav 100
762247148 Gec 68
762759122 Vuguvina 19
764691034 Geh 85
765473860 Jolelaq 11
766023152 Domob 9
767093411 Sux 47
767220153 Yukone 99
767667225 Wodom 58
768895408 Xuz 55
769270918 Fas 42
772198766 Sadolug 99
772476726 Yunuvep 71
772773907 Bipob 83
772796600 Cusade 68
773035050 Hicagehe 26
773507035 Doxeqid 4
773876413 Fajow 29
774229265 Vota 31
774232639 Hafi 20
774653522 Xoxun 78
774828576 Denobos 3
777771585 Dales 78
782505522 Zelaril 79
784688357 Rez 82
784928033 Goq 97
785650779 Lujago 84
786935977 Yohoyey 6
789171141 Zum 26
790153499 Xuguqi 36
790426652 Xawegum 33
790779064 Foza 75
791015293 Vito 74
794840290 Jetamin 59
797175791 Debor 50
799244287 Fufeti 69
800965706 Jebaquq 20
801165922 Coh 51
804165710 Jeva 45
808057619 Burisuhu 10
808506586 Sos 88
808991054 Rijoke 60
810026271 Riwosu 40
811380136 Nifelu 48
811496268 Jir 68
812777169 Vix 96
814569459 Tugox 98
815224777 Zikolup 23
815886374 Wiyegi 78
816337202 Nuho 14
817343608 Sokupexo 77
817706604 Xesinin 42
818146509 Dul 24
822130542 Cabewix 14
822162955 Xifotuxo 88
822756983 Rubel 0
822890649 Yewiheqi 89
823155477 Viku 92
824566946 Fetiyed 5
825115709 Numaneqo 38
825357095 Lowig 78
825809989 Raxu 13
827273357 Qok 79
831121053 Yolinom 11
833153710 Jow 45
840114599 Puvew 1
840576337 Borodi 62
840758463 Pirideqo 95
844489663 Goyun 26
844561529 Woqen 6
844564498 Wine 74
846786310 Palu 10
848139042 Maqol 97
848691584 Rosi 70
850306689 Yidebum 40
850515846 Qabahuxi 85
852062453 Zonumequ 13
852355353 Miloy 86
853970197 Tiruca 11
858182760 Nazon 36
860142485 Hiqeyuje 92
860836667 Hodigocu 29
861367122 Vuma 46
861819681 Tari 60
863900284 Qefobucu 53
868859372 Habij 15
869645546 Vegaju 98
872293056 Duke 61
873045337 Gepe 3
873427643 Giyewika 63
873758561 Nocaqe 40
875945003 Zajeruba 0
876316829 Ricimuy 10
877008561 Picoc 84
879579817 Ham 93
880808796 Deqotofu 33
880906021 Xehebet 86
881699808 Mugidani 42
882271025 Cidewed 57
882629199 Kow 0
885150340 Pohija 23
888780214 Cazufox 55
889661315 Dazimine 77
897362095 Coqudes 81
897638116 Ziy 2
898602287 Nav 70
898882107 Sebule 15
899765335 Monemod 0
900828698 Teg 66
906292291 Tuy 99
906943054 Gegi 91
908844776 Wolajusa 11
909035223 Qegom 75
909299313 Jilone 1
910813344 Hifeqoxa 39
912088735 Hiboduw 12
914830739 Todacuw 46
915644217 Pobivoli 6
921735509 Sagicid 46
922171677 Fodig 60
922467140 Nuvef 91
922702585 Joleveju 90
923365165 Keyiba 61
923746078 Naheyero 58
924250153 Kesutek 51
924556077 Sanikan 95
926188030 Sayipo 95
926608771 Suc 41
929353054 Wolumi 50
931403407 Cowol 65
934545315 Cehilib 90
934603036 Togatof 85
934658400 Mepariz 71
935337207 Qitas 38
936539869 Yarumoda 45
936800984 Xaqag 99
937674972 Qup 30
938622301 Gazari 96
939806235 Ruye 78
941519887 Gicuroso 6
944998663 Fohata 2
945074315 Loz 42
945321340 Pelayawi 61
945410943 Zuzif 5
946274485 Todivim 19
948048417 Yatezav 23
948489506 Vogux 78
948532038 Lis 12
948618326 Tij 93
948750213 Leco 74
949250563 Xedo 49
951753218 Defida 36
953708513 Tuhatij 65
953817687 Key 4
954179541 Retocaq 99
960152790 Giqehov 0
960757973 Ruvoz 76
961140813 Doyizedo 35
966121941 Zopifov 19
969724497 Posonac 94
969743495 Jaragize 64
970492578 Newu 87
970672140 Zuc 76
974430165 Tuyowuba 12
976412147 Pen 69
976843059 Mabox 71
981912734 Yuq 5
982856812 Nor 72
982908011 Low 7
983372597 Vonibic 5
984348634 Xiz 14
984800973 Xej 45
988143426 Rediqecu 73
989068102 Fehinog 87
989582037 Dob 59
990357028 Judokuz 12
991320739 Qozuqace 39
991852747 Sefowi 37
993754118 Larukat 6
995926063 Giq 96
996231511 Menozib 58
997445912 Nem 66
997927560 Fojufiv 19
999082404 Pive 95
