380
1308563 Soxo 56
4942205 Pay 15
5181644 Nix 54
6309560 Fedefare 99
8035161 Miwipoh 11
10547198 Menopuba 58
15589859 Jiri 35
15621623 Muzu 26
21504855 Pihabaro 60
24713766 Fiwo 26
27411947 Dutiv 100
31692636 Jowu 91
40472401 Hecaz 74
44172302 Rabixaj 10
44944499 Zixadiq 23
52142643 Nage 23
52319819 Lajegi 64
57443164 Difeguje 86
60014684 Wabav 58
61604906 Cukumone 92
62717651 Pucofizu 44
63693273 Homo 88
65271057 Rel 24
66905012 Begaca 56
67773159 Vig 86
68373495 Jobi 25
70756294 Gatoto 90
70859211 Mir 4
70984472 Lay 81
72190859 Yecob 64
72682326 Gar 8
73965468 Marum 62
74796305 Raxacolo 25
75858797 Riwa 9
76157327 Suvux 46
76201410 Xikavepu 62
79786699 Wapizas 13
80111848 Hego 6
80848204 Cozohu 10
83091250 Xilagopu 48
84053495 Hexez 90
85068068 Fujunil 41
85595545 Neguk 55
86300476 Boduluh 0
87290218 Gomaxi 0
87342239 Rugimez 18
88868284 Zojep 30
98819969 Mapogewa 14
99372457 Refa 52
101763529 Yeca 76
103265290 Xotuzu 76
103607319 Tojaw 68
103974342 Tibo 25
107678909 Vomohum 81
110011662 Duxoq 92
116752955 Divuk 100
116912085 Qataj 65
117289473 Fesojiku 27
117703674 Maje 25
120046649 Cutekul 57
122087276 Fova 54
122134677 Yukukel 20
122480513 Hosofawe 10
124931646 Vugubo 79
125222030 Xefunuca 89
128509233 Tip 39
129064002 Coy 59
131299949 Weyojom 9
132999541 Ciku 61
142661090 Xusihu 50
143317502 Gocasag 94
147248805 Xayifoq 75
150137946 Gih 43
151706850 Bedepuwu 66
160587633 Mew 100
164469984 Goza 42
165120871 Hakibot 63
165607476 Sadam 69
168244040 Neyisa 38
168315804 Dejap 87
170382303 Sexi 25
173257396 Sukahel 50
178869494 Xuros 56
182537430 Yeti 72
183029614 Dese 7
186385644 Cofej 83
187074525 Marafemi 53
192855126 Beq 58
196430649 Cofefi 30
197521222 Rebo 77
200861899 Xakiva 72
201698228 Sul 41
202715856 Rugaquh 36
203789511 Har 14
204140099 Juracab 5
208375658 Caveboxa 69
208797514 Tiqu 2
213674483 Reke 32
217034270 Xula 96
218455251 Qatusu 93
219797953 Muxawexo 76
222753138 Wakevu 32
227184427 Luf 1
235264584 Rap 30
238884764 Vito 39
240731697 Kuwagu 69
242573424 Jefeja 25
242578746 Suzaga 15
244156899 Fesunoqu 53
245822508 Beqiq 63
246639125 Vobibuv 96
259192936 Wipibu 82
259357705 Ciguwase 86
259799087 Wupo 30
261144116 Keqonup 34
266047654 Suqeg 19
268216774 Lejadus 32
269848361 Wok 75
270045875 Cetekako 48
272755423 Behawa 87
281597779 Zuwuz 6
282763078 Xuwezo 6
283187035 Nawud 57
288385497 Lemizo 14
290449921 Rogi 6
292402847 Xak 96
293455322 Tufa 57
297932078 Cen 46
300686848 Tusuw 81
301055394 Qipihew 53
304294733 Cebuvi 28
306299821 Hareluxa 1
307435633 Siyusux 83
312180824 Piweteka 25
314668630 Xed 16
317605827 Xofigah 98
320664557 Mefapisu 12
329319545 Riko 73
335680150 Moluxuho 36
338406493 Nuy 66
342980187 Sor 73
345317088 Vagafuc 12
346250609 Cavi 30
348235867 Lususe 23
348783652 Puro 52
348922022 Pegoxav 37
354432019 Cito 64
355172996 Wavaj 80
356785050 Yavu 77
357538416 Qulubeju 62
358069116 Zifewas 81
361759189 Xevikatu 48
363878707 Rewide 45
367014030 Tipivih 38
367264701 Nomor 45
367657105 Tero 42
373390013 Coqejaju 96
375335796 Tuc 68
375621617 Robovi 8
380062459 Litomug 96
385774248 Tiqipuho 22
385796782 Qiqol 81
391017188 Norugew 1
391150388 Benu 86
399919620 Bam 82
402646571 Wazaded 16
404178249 Qohijep 71
406438876 Xafu 88
409254293 Qutuxev 87
411669211 Biqigosa 14
412494173 Vefo 75
417458264 Qihiho 51
420020964 Qoqubil 11
420309927 Hop 76
428559699 Fetiqiw 94
431961048 Boviluwo 31
432355184 Dug 33
432362701 Goloxup 66
432712171 Xuxahuli 11
435091810 Cic 51
437704324 Yewupopa 17
441847147 Weve 71
443463270 Xukamido 34
445528861 Tuyezoxu 40
445740040 Bujemura 69
449264264 Lamusi 82
460335616 Xoxeq 51
467700821 Mexoqez 93
473797045 Wevu 16
476784419 Zebiq 12
481150065 Bag 40
481802004 Kemof 28
482405831 Cisab 87
484841044 Gonom 6
489685654 Pix 43
494546659 Lamomuza 53
495765070 Movecij 93
500527342 Rozedi 35
501752371 Waqovome 69
501861908 Hozo 89
509665580 Xinugom 93
513487251 Juqunub 34
521178152 Yagi 38
522421539 Zohilev 95
522874555 Pumaluce 88
523036030 Ratoxur 50
524168320 Kop 59
525745474 Sugak 90
531300600 Jomix 29
547692623 Lubi 67
548390086 Patozeko 23
551887318 Vukofoz 80
552487052 Xexume 25
557596738 Fiko 89
557691358 Hiqecu 12
559862070 Loriha 77
560178342 Xuv 47
563221399 Nofuyu 44
564449039 Nofo 62
564813916 Vumepap 27
565314140 Lociges 43
565505783 Qufufaq 47
578219528 Pid 68
578827895 Bece 54
582337134 Dup 6
584991983 Bequ 55
587871812 Hafu 100
588448693 Narayeha 82
588819157 Cekifat 59
592083263 Wariqo 46
593722289 Pomotapu 63
595368736 Foniba 80
597544809 Covetini 22
601757474 Qunufibi 81
606026641 Mekif 96
607378974 Tojoma 32
616755430 Yasah 21
620368804 Cir 20
624480581 Ropigij 66
627176815 Necexuq 41
628260526 Wutov 82
628933269 Rugi 12
635537546 Conape 44
636308957 Gix 8
638628541 Fumahif 6
644991302 Tule 4
645342837 Wec 67
648948066 Fosofel 22
649415404 Tekiy 96
651063492 Doz 3
652204909 Qix 26
655996828 Cuxef 29
656981579 Zohelupu 71
657874651 Tewafos 39
658389261 Wiyazek 66
658412210 Qakub 15
660018110 Map 85
660149380 Farefe 7
661191507 Pih 33
663837214 Puqufi 45
668178092 Zuyure 8
670079989 Socidogu 38
672819206 Leyibur 83
677497647 Vox 11
678786531 Qel 50
681321518 Qav 45
683906885 Bakexor 51
688866106 Dozow 80
692936981 Tisam 26
697538725 Wezocik 29
697996430 Kay 62
698459942 Dukoxaq 78
699585616 Gibemaxa 2
700014355 Gucaye 73
701413309 Topuja 91
702424207 Viweme 48
704618182 Zokolusa 19
705077206 Yejoqohi 93
705242431 Wezab 23
705273121 Yedenucu 67
710015826 Dijuval 40
711543395 Wikaw 68
712597882 Gowis 92
713080895 Maxepa 42
714114733 Mujicer 8
715302366 Feq 80
720284954 Heqovi 40
721221034 Rin 43
721251035 Qew 40
721570665 Fem 12
727523617 Cove 20
728941562 Dilip 24
739590645 Cudon 26
740432820 Kafeg 76
740575208 Vuzohaf 9
743760249 Xip 75
746922777 Mixot 85
752187538 Hoku 21
758710699 Rat 75
761945168 Beb 67
767379758 Cave 61
770920157 Hunehu 66
774943645 Dad 38
774971903 Dula 30
775669896 Kitov 65
776700969 Wiyun 73
778169445 Fejuqo 94
782030542 Decehin 71
785024206 Jupow 78
792688976 Xariceb 40
793043154 Xit 23
794983747 Putezupa 16
795150712 Jewo 19
796003203 Xuvada 49
804608211 Gekocina 79
811788901 Nenixe 91
811845695 Popiluf 6
818412995 Qalaba 10
820670936 Viv 26
820847018 Wipojow 43
823909693 Qijuga 78
827781446 Potu 57
831462333 Zopu 26
837593406 Rodiqu 20
839088907 Joxade 52
839107806 Yojupe 72
839924490 Heyawa 97
842340169 Zegimu 19
846155084 Xujove 72
846702171 Fap 69
847749969 Dumu 53
854106736 Cof 37
856217276 Yux 40
856221630 Goxeguf 24
859607848 Xod 59
862087089 Suvul 70
863837521 Zapixazo 33
864487959 Lacu 97
864609380 Borivo 27
865809601 Vuqa 27
866563058 Nateyuw 75
867937780 Zulu 37
869698982 Nag 64
874214248 Pah 25
874934175 Wakiq 41
877798864 Mabumi 81
898892722 Kozulu 97
903133345 Vusobe 77
909077834 Jec 81
913967381 Vomokupo 99
919985077 Xucimo 97
926811515 Moq 50
937737370 Jemu 14
941384102 Tonehi 3
942118857 Sane 28
942719610 Yuw 94
943251516 Wometa 34
947029744 Led 76
948689165 Xuc 70
948906226 Vojot 21
950719149 Fokic 33
956095575 Yusay 22
958206918 Hikepe 61
961873700 Qexanud 67
967718142 Luvoz 85
970154439 Xet 99
970512798 Xac 84
970950833 Quhefe 58
973193599 Hemog 31
979308745 Fokeduv 76
979475298 Leju 85
982437834 Laq 16
983793803 Yerizuc 88
986058236 Doyases 57
986878078 Febaqix 17
987746893 Koni 14
988039182 Huyi 40
988246048 Gise 34
994787730 Namasabu 18
997285669 Luv 11
