811
2198366 Soko 25
3398415 Rakoxit 74
3848206 Felakox 62
6056646 Zixavore 59
8197340 Wobel 11
9006623 Xugo 58
10162955 Dufuhoxi 91
11314101 Qoj 93
12834473 Hiyoba 53
16481155 Bun 61
16935429 Xezesa 70
18068399 Mimewo 38
21318631 Dujaw 90
21530613 Keli 25
21785890 Rol 33
22132929 Punikin 62
22613004 Top 14
24071973 Mahoxe 72
24592234 Mosici 38
25943693 Gehoha 33
26068991 Nehuq 96
26165758 Sega 14
27259393 Waqudab 92
28983210 Sinotigo 80
29004514 Voyaxi 89
31925775 Viver 63
33164680 Zutole 91
33372455 Gukiwi 96
34269163 Xeporu 60
34911776 Kaho 38
40478381 Vefe 51
41204881 Zegudoy 83
41854404 Sevi 18
42571521 Fumi 91
42790214 Vide 1
44953409 Vaxi 94
45273416 Coj 76
46926981 Doko 77
48727199 Gihuq 30
49298352 Haleza 37
50021832 Beb 73
50986846 Fukub 11
52020245 Kefegope 43
53048853 Cisacuz 7
54124857 Murotu 27
54485823 Mupevi 80
56678211 Zate 0
58033968 Kewadihi 68
58506606 Qekom 60
60043522 Pawanil 60
61375468 Dac 39
62534596 Taw 50
64175105 Heniromi 89
67220078 Cese 19
67650193 Wijopes 96
68130186 Pedefe 42
71069560 Hoqu 55
72606400 Qubav 37
73061563 Bidexuzu 74
74473673 Kape 90
76514570 Vov 46
77306222 Qana 92
79105037 Busus 8
80104280 Nujohu 17
80591274 Yuxarub 98
82279802 Kuqanowe 82
84805094 Cuderax 34
85321293 Feguxahu 62
87747416 Ritacanu 65
87974133 Zube 81
88104144 Jolowaq 13
88504352 Cir 7
90923843 Gimu 88
91376836 Hehexawe 86
93397864 Mulo 51
93461235 Wuyeb 70
94402702 Xoreb 34
94693250 Suj 34
94737211 Cequqil 2
94971029 Namopiqa 94
95325324 Gebin 45
95617942 Qore 27
95663992 Ref 28
101741672 Zujuq 66
105923322 Viq 94
106776113 Tub 17
107087421 Wese 25
109074022 Yiboweqi 67
110925220 Yaka 98
115654525 Hexuy 35
117696461 Fumiwa 38
118263279 Wusikozu 74
119162273 Jujilur 67
119188452 Nagec 22
119199466 Sam 49
119555340 Xiviqije 2
120614951 Jic 5
121272556 Meqof 88
121692715 Zuqemo 93
122855676 Yavemulu 32
126824633 Xukenur 48
127264536 Deh 2
129046233 Dohize 93
131835447 Howowe 15
133073442 Hupi 79
135027333 Muxetiv 88
135346406 Luk 20
136555974 Fonahife 70
139196575 Lozese 6
141166961 Bejonoji 55
142007830 Wexefura 21
142041248 Widis 73
142096458 Qezalone 58
144061984 Cenihi 78
145236189 Zitef 26
145513822 Zac 34
145745219 Xiseza 52
146138134 Raratum 67
147460737 Hac 87
147795365 Buqip 64
151407339 Nigogay 24
152532275 Gamok 22
156556546 Qebude 90
158371916 Titihavi 3
159768401 Talaq 30
161489869 Voro 8
162138417 Yaxi 15
162526883 Kuhaq 30
167378684 Xutigi 15
167645253 Roh 7
167761788 Dubazo 57
171557349 Lemiz 23
172145001 Sukoxim 84
173345782 Zolay 69
173376148 Giqufuta 78
173455460 Kuqo 35
173600026 Yabizu 96
176230362 Jef 8
178309487 Qivaje 23
178770418 Filigace 28
180319101 Cak 8
182011510 Pimac 57
184183825 Tici 100
184542645 Loyete 0
184991386 Paq 60
187333499 Jikez 14
189349069 Zugulic 94
189595725 Weweciy 98
190114171 Malakobe 83
191983771 Bic 17
192875737 Deduf 4
193795202 Zev 74
194167412 Kemejud 13
195481255 Ceyaxiv 95
197497397 Xokes 25
198997833 Jerokefe 69
199989312 Yahufune 5
200398357 Guta 93
201023562 Wujipe 2
201183731 Dabuwa 7
201706078 Donedi 94
203026140 Tedocino 14
204199752 Kijobe 7
204261321 Zud 6
204666023 Qoyo 20
207277565 Besay 91
208621741 Tedupiv 93
210363300 Boxos 19
215694055 Qixoquk 29
216233839 Raqebage 14
217427869 Diyes 48
217683771 Tive 93
217742420 Huvura 6
217904306 Keqogeke 40
218874621 Cuheken 91
219540201 Wijem 7
220445350 Xero 76
221300473 Qununaqa 33
224657627 Cexigam 67
224809198 Homo 41
225395430 Cida 17
226459743 Xihopezi 84
226535207 Nosonupi 65
231778230 Fafo 86
233472274 Kasev 92
233982184 Kokinod 84
236192557 Xopa 51
236319144 Giwidayi 12
237533060 Vupolona 95
242073392 Wel 83
243049284 Soni 40
245043122 Fit 44
245874037 Basa 84
246959360 Buno 16
250373703 Fefoca 42
250997274 Sizulipo 9
252721753 Xuzek 5
255555313 Wupibivu 78
256351441 Nah 83
261892631 Gaganesu 5
264506917 Wis 1
265258028 Nojeset 30
266546813 Subi 70
267678816 Hurojir 74
267939724 Foq 93
269590902 Siwutas 60
272181054 Fukuveqe 88
273142783 Tegut 48
274438208 Selomo 20
275034026 Xuhumare 65
275077124 Dayacun 14
276588097 Novuleyu 79
282932868 Tiw 43
284137058 Qagu 30
287906879 Zizazed 27
288563313 Fizal 73
288851167 Vavax 39
288910317 Jeha 71
289698937 Horoj 11
290089834 Rox 46
290104784 Yocakup 68
290619560 Qate 35
290775084 Qavilu 40
291084168 Kalu 7
292678109 Viy 52
293783685 Lipomeg 37
293820391 Burofada 32
293825888 Puciv 58
293936878 Tedage 66
294319302 Hujopada 53
294360397 Dicowol 8
295029204 Jebibid 89
296574405 Nepin 58
297335192 Beyokeyi 51
298088171 Sexuba 67
298410685 Lavubexi 74
301871194 Puti 89
305398775 Kiko 16
306444735 Yutidih 83
309125084 Wuhuw 54
310174971 Coqebiy 61
310657364 Niyo 17
310910808 Jokadoc 93
312842537 Mokinezi 97
314889481 Bosaqoq 97
322410725 Zajurat 48
322520760 Domij 21
324978710 Gag 22
326723390 Guqopiv 46
328419306 Mic 87
328885621 Rumuxi 54
330513369 Qizo 57
331508888 Ney 32
338561263 Qazi 35
340343017 Rurif 23
341686121 Qikuzej 79
342468046 Woduxigo 43
344859018 Yej 25
345601109 Poxifu 38
349461036 Hono 32
349998132 Jug 18
351897100 Qenuceb 35
354626347 Sahi 100
355886860 Xayokili 74
359049784 Yoso 18
363522714 Cabove 17
363636105 Tabi 74
363653048 Qab 66
364022442 Nubawu 78
365312597 Halonep 86
366997879 Panovoqa 30
368495673 Loyef 100
371446794 Tohapip 1
373150788 Kibaho 32
374519849 Gadopo 57
374702992 Zayohel 23
376201014 Wotizi 10
377151403 Limi 91
377548770 Bilu 0
378148060 Luxo 66
378495537 Koc 10
382012557 Hoqe 62
384523991 Gexayoye 63
384704576 Hofez 58
385756172 Saquz 51
386734723 Javoyuv 6
387791814 Xenolaz 93
388585331 Pukata 49
389161157 Qubovoha 67
390092523 Sacegaz 77
390152502 Zowikimo 58
390633254 Yujunisa 88
391258899 Weke 16
393873142 Bun 19
395283504 Fodeci 17
396347896 Dicejamo 17
396552629 Hixeros 67
396674166 Jobej 29
398459001 Faf 89
398742470 Dato 32
399326580 Faki 81
401836287 Zos 89
401878366 Sat 35
402376092 Hubipex 54
403392128 Livofof 32
403673900 Zuvewu 93
403809980 Cogava 8
404225791 Xasi 50
406611709 Waqor 48
407391073 Sodowi 9
408019163 Jeniketi 93
408642142 Sebalog 53
409308486 Cahi 38
409434796 Vokujohu 45
410444824 Salilej 7
411536826 Judav 89
414017774 Mucawi 50
415315508 Mivuda 12
417098167 Qikelad 20
421541880 Bof 3
423663036 Tulanur 38
425905265 Detaye 12
427717734 Fuko 7
428124424 Pog 21
428696049 Quxuqe 38
429696021 Foligeka 78
433304889 Feboxiyo 5
433420509 Fiwe 0
434020928 Zoriyuwo 72
438042800 Xiv 81
438785592 Cifadol 47
439211058 Wage 67
442958925 Tawawure 35
443117438 Sevur 81
443149325 Kureyiso 28
444031235 Muhow 45
444883700 Petakuvo 51
445415531 Boxasuru 23
446476904 Gaxuba 95
446768065 Boser 25
447062173 Qupa 2
448054345 Fanuno 64
448216441 Vedepu 26
448246757 Loluvij 46
449160015 Qayeloc 57
449795383 Bufa 41
450905819 Jux 91
451446112 Valo 70
455220976 Cetop 36
457995534 Gobawe 55
459378773 Xis 77
460015173 Xobo 39
460537181 Jew 97
460994149 Petakof 35
464341493 Jirimet 32
465213180 Ricec 74
466621247 Kifiya 51
467911905 Yaluroz 72
468944078 Gukeq 46
469592628 Newuk 34
470739693 Gomoja 26
474116239 Mum 0
474906253 Vof 60
475554792 Pezikuzu 97
477761683 Nezuqule 7
479062716 Qifap 43
483132717 Dohi 9
484242554 Maha 83
484914812 Gogajob 88
485970359 Mibomu 65
487676812 Zila 87
490802233 Lohe 19
491680578 Tinuti 43
492460779 Bav 2
495115065 Qafuteho 71
495143821 Nivotut 85
498314278 Tel 93
499811083 Wajafoy 82
501330001 Qegamex 96
502564433 Kelo 98
503606775 Sifixoto 92
506389487 Goposed 8
507709893 Fenajifu 71
509989224 Cinajefo 56
510861929 Canival 64
511855236 Toxudu 18
512057952 Rimahe 30
512426054 Kon 11
517165453 Wil 61
517863679 Kizazuqu 50
518079441 Muzuyej 76
518481725 Xox 81
521718816 Woji 66
522321962 Yupeq 88
523461760 Johu 77
523537270 Kobijaz 8
524156267 Faj 61
524267994 Nacaf 80
525636918 Tayuwo 75
528043682 Mutusal 61
528770343 Tod 20
529849140 Hutaza 73
529983166 Qukezaqo 89
530063074 Cem 33
531626940 Simuxubu 17
532358600 Hukoxec 1
532863422 Sacage 78
535126732 Fesuzohu 63
536131717 Zifa 1
536196125 Vanogo 90
536951699 Xoxuzi 33
537654256 Bim 10
537968894 Jux 69
538894346 Jituk 32
539899470 Papa 89
540582044 Cikiwepo 86
543452814 Gamepa 15
545443610 Paxeci 33
546492714 Fezopo 88
546531713 Tayedex 87
547753134 Gowiciw 2
547763078 Honi 29
550819242 Pazaqezi 45
552281826 Conu 69
554010311 Figi 8
554579014 Lal 64
556319825 Qiqaj 14
557868315 Nudasaf 58
558656727 Jizo 3
559258031 Bugafok 45
560228508 Govowez 65
560273145 Nel 10
561469384 Sezok 39
565273507 Jaqe 60
566562506 Letudu 77
566572300 Rosiva 30
566922020 Nik 83
567826085 Koge 70
568796519 Sesuc 57
569192307 Zebax 88
569775502 Yim 47
571648321 Bine 97
571729613 Xuket 78
573805838 Tekoxuq 76
574768274 Tonorade 96
576336427 Hemuyow 23
576746006 Zevivoga 42
576904999 Rayoveg 17
577553876 Zujevimu 41
577815057 Qiruboh 68
579497968 Xajup 34
579612730 Ser 81
580365868 Lujoso 25
583913928 Subuc 18
584586063 Rila 82
585248271 Zeqecuni 57
586410259 Heveda 22
587638738 Peqo 17
592488536 Jagabij 22
593409140 Batap 36
593902681 Bozaxad 32
594465835 Buk 13
596099003 Xemi 41
596389639 Punenad 87
597709563 Fodazor 23
598712531 Qogu 43
599077383 Keruwam 56
599822779 Sinase 43
599869147 Tuherox 0
599964546 Haris 19
600847784 Zoso 6
602426674 Hap 92
603672907 Gek 5
605328021 Vuv 78
606327290 Qidaxir 51
607387956 Qina 89
607621029 Vixe 36
609929800 Rix 7
611560278 Vof 85
614201189 Woveyazi 5
615784217 Ticic 21
616160531 Zuc 9
616616442 Royijoc 44
617945971 Gezawuli 11
621242110 Rajulev 51
621311841 Tum 41
624023916 Yupek 66
624728447 Nel 59
626937390 Siselusi 33
627185670 Qufofah 71
629599503 Pej 93
629912930 Gefufuni 20
631303388 Kago 70
631657105 Miki 66
631998097 Min 83
632630109 Vifiku 41
632887943 Mijogus 14
634461084 Pizuyih 59
635357199 Weqekufo 14
635400405 Cowuzaru 35
636254550 Foqica 77
637484732 Laj 12
639876255 Vepar 41
640230768 Ribo 15
641549806 Bif 15
641832716 Luzi 4
642663911 Camapuc 19
644120592 Xorifici 5
647870788 Zudibu 4
647957433 Kokuti 99
649692181 Diyiz 93
652856082 Dolequ 11
654361513 Zimeso 53
656009408 Rudaporu 39
656455702 Palun 25
657419617 Gujuqe 14
658475962 Vipi 78
658638963 Diyo 41
658689741 Biw 33
662171054 Tel 3
663410998 Degujel 83
665748247 Rarihog 79
665925095 Mekohic 48
667252541 Lafozo 43
667491561 Panu 12
668901690 Rure 62
669155684 Wutog 19
670014683 Lofa 89
671108588 Suzen 53
671709580 Misimo 75
674889558 Neh 62
674958123 Qalokoko 78
676406193 Huyegawu 85
676481562 Yijah 53
676540271 Qapa 67
677118914 Biyowo 49
677585465 Dobogace 1
677776017 Logu 67
678183299 Kivivic 76
679170104 Forifa 69
679414789 Toradapi 93
679895046 Lajebug 29
683186769 Retasis 47
684656828 Zaruxoto 42
687234639 Qapesig 53
687571127 Vukihira 80
690123250 Jabopu 89
690193184 Domak 29
691376773 Morew 35
692376098 Guvan 99
693205532 Zuz 89
694869502 Juraj 50
695844334 Qozisaro 31
700914480 Guzo 0
701543059 Buqamipo 24
701573827 Huhiva 42
702765330 Ziyunise 70
703099681 Hefucawu 95
703675984 Beq 97
703754170 Jidehay 93
705381199 Regakici 20
705619481 Junop 2
705909763 Xoqeqeva 72
708566404 Cacuyev 19
708578618 Kureteq 43
711506822 Mej 42
711780092 Ruhad 29
711897014 Muwoyej 88
712314078 Citabin 62
712385269 Letufoca 19
713128361 Tacow 22
715876094 Tuhitaqu 37
716368922 Siwu 87
717602350 Putefuca 93
718886887 Cac 19
722064427 Zaxu 35
722458158 Bavux 25
723257373 Qido 16
723311525 Xaxini 58
723865696 Qaxecoku 86
724824980 Fiqor 71
726177262 Xito 26
726386680 Layide 55
726606248 Jeyesus 48
728521656 Caqe 66
729078092 Piz 79
730958148 Calesi 89
731399745 Lihefode 70
733655532 Qese 38
734530515 Wahezes 60
735463647 Jowaz 13
736715064 Dep 15
736753918 Husor 4
737225396 Qes 45
737550567 Dunedo 97
739555444 Cuyogece 66
740786871 Yoq 21
740851864 Zeriyuto 59
742606456 Gekox 76
743262585 Hehapusu 41
744775289 Jawofi 36
746892753 Dohuma 100
747619750 Jelu 1
748758615 Jejewo 23
749189570 Pazerus 5
749192816 Pub 22
749525507 Xisaze 78
750425331 Toya 93
751041200 Wak 71
751914139 Sivage 58
752398138 Fazuw 39
754374842 Gafoh 98
755574809 Yas 1
756515146 Coyefoh 71
756764715 Hoga 30
757515800 Recaj 2
760253418 Taraxet 51
762916989 Xun 72
763072704 Gejo 44
768544416 Zayela 55
770606620 Gavebuf 22
771200525 Mujez 13
771406537 Newavev 88
773040092 Nesi 66
773196712 Nupe 4
773926154 Yoqoke 38
775354295 Sotag 4
776016217 Penulo 62
776396683 Lobihuda 46
777681837 Xinoni 22
782706922 Xakeho 56
784820083 Qofilot 61
789954319 Ziqeq 66
790494502 Sagif 39
790975585 Bek 29
791362720 Cawari 92
792747172 Jinup 10
792997089 Dip 21
794359340 Gokul 50
794807009 Goye 24
795896387 Kehohiv 100
796520911 Mizado 26
797623301 Qebona 22
798265802 Pemo 38
801540268 Xitawip 5
802578042 Yun 32
802632372 Cumum 3
802743857 Paz 52
802982041 Geq 79
804146954 Foqeno 4
805609085 Peg 69
806219983 Jure 25
810150441 Beqi 55
812078634 Rif 99
813067463 Taj 78
814471388 Foruk 60
814994485 Pav 46
815240072 Baqube 66
816599347 Ticaraga 57
818422813 Wurawo 46
819017781 Haja 21
819043463 Vikev 83
819481717 Fiki 15
819654547 Yehuwoto 74
820343901 Kod 7
820449280 Hoy 43
821186298 Gazo 4
821493219 Pocoxoki 13
823055754 Tucehoq 79
823214340 Tah 45
823655069 Fonade 95
825497004 Cocob 34
825968551 Gere 96
826599874 Yus 20
830552657 Sajeyayu 97
830657226 Gayu 60
830671796 Robiko 69
834485443 Cihad 82
839112809 Hopineb 76
839179413 Tududi 54
839857161 Yajap 70
840157230 Xuzov 75
840794440 Dakunom 48
841096607 Pebujone 5
842227827 Sowip 65
843348460 Bodafed 1
844020211 Cubada 71
844727757 Pipo 11
845038443 Yuperu 97
846127874 Sixiya 47
846340241 Ralulaq 0
846360756 Sol 18
850333014 Baxiq 52
851308721 Difeni 89
852487226 Cibi 78
853929939 Dozimik 49
854255828 Qaq 8
856059030 Risitej 28
857380410 Fep 52
859107793 Palufi 69
859372196 Docal 69
859388834 Cimoleda 88
859655271 Vujupica 86
860013868 Mapazug 53
860874566 Muvobemi 56
860950092 Qar 27
861681963 Zegojal 25
862464112 Beke 4
862465113 Yawirixi 25
862917538 Yesetuha 96
866660315 Cafuhel 93
867657885 Muqenin 34
867670617 Heqovezi 43
868803973 Kosa 22
869220813 Quq 47
870564346 Casi 88
873513693 Boyexaci 93
873744879 Sicapo 55
876198702 Luda 22
876800722 Luvejoc 44
876808212 Lerumo 55
879592717 Fewo 54
880556567 Mutijo 59
880654650 Qimi 66
881955322 Pageker 77
882920599 Reni 78
884230795 Pacupujo 32
884500381 Hebukas 18
885775500 Kiwu 22
885878656 Donige 54
886006536 Zuti 41
888072384 Ved 52
889072625 Nikaxe 74
890897842 Wuzuma 46
892914640 Molarosu 25
893268891 Gijuzaf 22
895083041 Negu 56
901740171 Pexotu 38
902610899 Nulem 7
903595506 Jov 23
904997992 Vaduwa 40
905801152 Gonot 37
905901321 Ririd 1
906423515 Zulareri 74
907273024 Moyigo 81
910277582 Diriw 88
910684675 Nixan 40
911277672 Faduta 26
913802805 Ciwi 31
914493581 Boka 7
915810304 Japomij 1
915838970 Kitaq 30
917192655 Molih 62
920193516 Lekud 75
922784919 Taluhiwi 2
923739319 Muqelub 85
924929922 Rawobowe 96
925548000 Fogep 86
926993344 Cisoxa 81
929380846 Leli 83
930857004 Wub 86
931675755 Rojunu 27
932074144 Xuliroli 20
932138999 Zuwe 61
932643753 Neq 36
932695013 Ligevap 1
934307131 Cuhi 59
934680412 Kav 23
934783171 Rasuzum 41
937841332 Jefo 54
938298710 Xodavi 56
938884607 Fecerelo 95
938900313 Pepi 79
939728513 Rome 29
940681642 Kihar 8
940890685 Dorux 95
943525746 Duquki 76
945539495 Fudipije 70
946262535 Bosuzan 80
946317534 Girexu 49
947594707 Wuqos 31
951436381 Yomahe 19
953332117 Qaza 62
954235801 Fon 16
954703737 Rowuze 4
957115002 Rozalon 67
957917340 Fap 61
961381616 Deho 96
969179477 Sumovene 81
970643283 Kexumaz 7
972269623 Zufuxu 15
973399266 Yuxofa 92
974594578 Qan 8
974813504 Qehaxin 100
976694842 Nam 97
978615084 Baxuvidi 55
983703388 Maboj 62
983943558 Lage 22
984065447 Sujomak 40
984086370 Tuso 0
986431767 Jafujo 39
991900889 Foxey 87
992103536 Ronu 78
992322442 Fafa 41
993451411 Kasa 74
993637704 Jihaweja 11
994162270 Duva 33
994208569 Geteza 76
994399573 Xej 23
995537966 Lobosok 97
998001044 Sitigu 61
