203
12422597 Keda 52
13075531 Koraf 78
13577881 Bir 92
19734459 Kav 54
23377002 Jobeta 82
30732120 Manak 74
31509856 Dusobos 58
38823473 Xenaxom 95
46736832 Ferela 78
57873551 Xipom 54
70645457 Buruwow 97
71066557 Daqawafu 81
83757637 Melabavi 14
85499419 Mequxu 100
94620899 Tudavufo 3
108797982 Puv 49
136012195 Filipegi 93
149728335 Wipumuy 60
152449628 Tum 49
152847823 Nalofa 89
154292740 Qah 38
157597427 Tacip 34
158054712 Xixorile 76
158916643 Jefofole 51
159841113 Hufocay 84
171895794 Fumat 50
178865933 Derexamo 58
191272077 Wiha 35
198918834 Viriqeqi 63
199940469 Muyay 66
204429218 Rayaguju 86
207311143 Lijemuj 4
213115185 Gudohequ 41
215449127 Qijo 47
216465856 Niyajila 38
217076184 Madaw 86
222166897 Fuge 5
223676362 Nuzige 86
225159268 Xiqu 72
239485455 Liqime 1
242930179 Bibe 44
248083965 Tamusig 83
254414599 Gotux 59
266430522 Lini 93
281058841 Bajoja 90
281898629 Latifave 76
291888710 Kezaf 87
292230170 Fufomis 0
295706065 Bamawog 95
296205861 Motike 56
300880239 Ficob 17
307191486 Vav 87
308744771 Bog 11
313917541 Ruku 4
314130393 Kiqalape 0
314147332 Sakox 19
316121727 Nipi 54
316622536 Meno 95
317587489 Nejet 44
318466180 Ligasa 16
333923730 Hukovof 6
337486947 Libeca 36
341086902 Gopon 90
341970620 Seculex 10
345924957 Gasil 24
352548025 Nezut 15
355770793 Top 76
365892402 Bibagina 43
368669138 Wuc 73
369190897 Sixi 95
379308553 Foxi 93
383625308 Take 12
385806605 Vegagofe 29
385862379 Bovabe 51
387416222 Jeqa 8
394942649 Pisuzut 32
406221920 Hih 31
408135042 Kizobede 12
408306792 Wikokinu 100
424643630 Texujafa 13
445115206 Yeduwa 23
448327835 Pix 96
449591671 Taqer 96
450830330 Yaz 67
456799129 Jozu 98
465658269 Mer 50
471689523 Nodeben 13
471823451 Pazazuz 26
475963469 Yodebaxa 36
480026310 Lokup 39
486556494 Faned 67
489826801 Xacetino 94
492757004 Juwuloso 2
495206006 Lererito 64
499843228 Yukeno 91
504438106 Bapu 95
508640208 Ruji 45
512281749 Ben 88
515131092 Rojuri 2
517016361 Rabadik 52
517210003 Xutac 46
523460606 Rikiyoq 26
523835098 Qur 59
524232022 Hop 76
531687655 Rowar 4
534650293 Ditibiy 44
538713051 Sava 67
540009755 Bokakelo 42
553773039 Kejixi 34
554174185 Boho 13
557560249 Jedub 99
561280581 Galucad 20
562665056 Wepuwepe 25
566330822 Mejajuro 34
571783866 Hayu 17
571887963 Vopacoqi 65
572881145 Faxasi 50
589523332 Gis 94
595328264 Wosazedi 61
595467076 Koduqude 3
601214719 Casit 12
601592884 Gesese 50
612450689 Vuy 66
615779966 Bipun 95
618661421 Tot 91
621260472 Tufisu 17
621386266 Nivuwid 28
622227757 Qaqe 16
622456198 Quzidi 12
633661018 Zaxas 59
637141035 Fijisa 98
638776236 Fep 100
645154181 Liwex 37
645790173 Dixava 52
672291270 Zex 80
689596008 Wis 91
693217042 Mupiva 69
693285882 Vereco 56
698243784 Rosu 7
700462731 Kizibiy 40
703558243 Hoxom 79
716767870 Vaciquzu 73
718307911 Fobi 50
719707767 Timu 17
723693805 Titop 72
728405725 Bima 63
728773100 Cijek 100
730500231 Fef 26
732602915 Yec 40
734802160 Vifona 31
735334369 Vuriveni 19
738977930 Xur 36
748851811 Nodi 51
751630036 Vewica 6
753908994 Bapiw 0
755378221 Raq 15
760339209 Jonogiv 55
762375706 Jutew 50
769858348 Qikiti 7
774154308 Vahu 8
785708423 Jus 79
787126197 Xiwejoj 38
787239812 Pesehil 23
789086598 Qoref 4
796564850 Rofegi 3
807293300 Buquxa 99
807496794 Nokil 37
811993191 Yenut 49
813464164 Maq 97
818263490 Gececiku 34
820742549 Wezoc 25
821438820 Bodume 63
822169550 Fodawiva 82
825787686 Vibelewu 6
836421302 Caca 51
843668072 Lezizoda 65
847726262 Jorayide 100
847992887 Digemev 64
850652640 Zelejiw 56
853532170 Xetu 64
859743708 Sow 38
862690543 Demoxo 31
867720990 Dez 52
868438626 Gajiro 92
868750965 Subuno 66
869233763 Bawo 71
899560645 Kubic 45
910461618 Nocakuli 97
913236870 Kig 21
924652863 Qox 93
930240950 Madutomu 29
931138642 Kuv 31
939511246 Tarahob 88
944445187 Tuyozix 88
945304597 Cazoj 63
959795164 Mifo 30
964870410 Mop 76
975114507 Lirakox 31
978110625 Guxev 70
982839762 Qijigage 75
989854768 Jalov 70
990388896 Wubaci 95
993960041 Totikozi 18
