229
3024621 Davur 99
5602552 Viwu 39
13597187 Qit 77
21554654 Xaw 23
25569979 Liluker 17
26475023 Cemip 65
32267055 Vocevoga 93
33235787 Jas 18
37424674 Lubak 46
42855337 Fek 32
44606086 Totad 82
45212371 Pihup 45
47184977 Rowukaq 29
50579715 Kukisuk 67
67346929 Caguhi 27
67420439 Qod 50
70090837 Soyiz 56
77215332 Xijova 85
79266265 Diji 29
83914077 Giwic 89
90282331 Zaja 98
91403904 Yadeta 56
98586051 Jitof 84
100326270 Wehelen 86
101041291 Gazifo 43
103876824 Koyofos 65
111412864 Wokuhud 79
115563846 Hojole 16
116146434 Lob 34
122299194 Veqar 91
125261172 Gunaf 84
129520762 Fiv 7
136208093 Zinikeb 98
139742428 Liqote 84
144491862 Yurana 19
150463039 Fiper 50
151780089 Sobo 85
153717464 Fiwevuv 76
155383760 Ciwaquk 9
164280371 Dom 80
164582450 Hiba 95
167585484 Zepiwuh 35
168287384 Car 29
170791199 Fehaba 19
171101157 Mimaluti 6
181401210 Jalax 31
181866974 Dap 4
182274532 Gupep 90
187116056 Zar 73
193045552 Zocuf 78
201041499 Dabato 75
202038369 Sicatum 6
210516537 Wig 44
214788745 Ram 58
226515956 Zegu 33
227773987 Xatovobe 62
231588416 Sig 40
236425214 Vexuceg 60
238073524 Qulu 49
238880096 Qicot 44
239484003 Ducisel 64
243942046 Xicat 77
244074039 Jadi 100
249253605 Zowolin 31
250432578 Hijoquj 23
252855893 Rezoco 54
265311414 Gevudamu 46
268653311 Xaxizex 60
268722669 Vibolu 91
271623346 Xiviris 98
271864517 Zed 21
272604180 Repuma 40
272868280 Dici 83
273232769 Wubupin 24
273248805 Mawe 4
286948142 Lucec 21
295870454 Lanow 67
322247380 Tab 45
333132148 Barej 91
337398351 Gemibako 49
340395636 Juqel 53
344333905 Rahohen 42
350342057 Rarili 37
356461040 Mexoco 70
362493148 Wuk 16
369088543 Wiwodaj 98
372443497 Wuxaqi 33
372933784 Fuyiz 97
376695662 Tadeb 15
379648897 Yutas 21
382806236 Nuc 11
383221946 Zuhal 34
386171250 Gebori 92
389159375 Vogus 97
395008161 Gefico 27
397638866 Baq 63
399794882 Jal 40
403781504 Fegol 67
407817226 Wog 18
420054716 Vojosi 31
421631084 Fosobofo 11
424910170 Deyocohe 28
426269165 Guqoloki 75
426614566 Seg 45
427634368 Suduyix 30
430150598 Bipovoj 38
430343521 Sonub 77
434430893 Gifigura 14
439559757 Pugakequ 35
440194504 Zixaca 79
444534811 Mezez 64
456035515 Juj 16
456839127 Wica 35
463305322 Sireg 62
468072803 Noruyi 87
493161711 Lekotaq 37
493274600 Qecol 67
494424612 Tem 59
496173713 Hofaw 46
498535010 Noc 64
507231254 Hubi 68
514050085 Bocezif 9
514398576 Xavutu 84
517520175 Pafez 74
519289553 Fivagex 17
531737322 Puqob 86
534381307 Qufacowo 59
537430656 Jilasoj 95
538848106 Zogaj 14
540723223 Yuyigezi 86
546515288 Xudisegi 14
554649505 Jaliy 89
559338409 Kafuves 10
562399994 Miludo 63
562565576 Caradip 92
563502191 Mececu 68
569010723 Qemefaho 33
576383055 Sama 42
578630408 Kuquyuq 87
580167898 Buhoh 66
593167769 Miqavev 84
597814592 Rusoz 3
605262878 Xeriyov 50
605554369 Revi 46
606540312 Jajoy 89
607981996 Rer 69
611724051 Zonoloye 51
644056032 Cux 83
644916363 Jureg 59
650318438 Dubaca 22
655737865 Tuy 19
656152335 Murimig 86
659934688 Nofa 4
669339015 Taza 10
676415738 Fokupe 85
681660812 Qomis 12
683434524 Yuciwaza 0
694709278 Nuke 53
699934061 Xole 0
701967238 Gana 30
707424881 Wujexeq 37
708863845 Jexu 0
720358401 Kidokawu 13
720880402 Fija 46
721058557 Wuyeb 87
726645059 Cusob 92
730727804 Lod 51
734113884 Befe 93
734991417 Mazucom 55
738938184 Nexorumu 69
741279161 Topire 67
742267358 Nikovij 82
742486184 Hinakage 87
749293968 Mulig 28
756409012 Jetafil 63
759623215 Toped 67
760084094 Japuh 32
762354286 Zaberi 91
766923853 Waret 44
772443848 Futa 9
793890184 Vagid 30
802051727 Zivac 17
805503278 Sitidohe 90
809377966 Fanewi 96
811601444 Zomapa 99
815782992 Nom 39
821620914 Pehiz 37
823351748 Taqoqub 26
828104041 Yipeke 88
829607627 Zohuxap 41
832996436 Qoq 12
838127981 Hazuhu 64
840300073 Cacosa 10
847236483 Has 49
857064106 Kevowihe 11
857812503 Gupuhufa 35
859270569 Vujisu 33
863249602 Geduxo 78
864491654 Zel 19
865307706 Witu 52
865325952 Cawos 28
867741275 Besivud 95
870214536 Wuq 1
877416791 Majisu 87
879551694 Qudij 18
888627182 Hucu 13
889912606 Rosu 4
893291615 Cecu 12
893684386 Qivu 56
910095025 Tek 2
914085609 Dofalasi 22
919312596 Piye 21
920088161 Dusore 24
921507591 Nicedu 15
937664018 Xidedoj 9
945282401 Joricuwo 99
950379731 Kijayab 28
951570651 Xihabas 3
952739185 Nalevup 93
953225919 Sew 68
953766397 Cato 84
962361749 Geg 99
974333354 Bujur 38
976609637 Ruga 65
990975348 Xecodu 94
997190364 Xepezuw 97
997806236 Zebav 80
999256153 Tuqu 51
999484142 Qineju 51
