692
1831489 Heze 88
2091766 Notolaq 94
5529497 Rijegut 58
7540033 Poxadalo 40
7907363 Yacuvod 9
7932331 Pobavag 2
8261897 Xiqeleha 15
9145463 Herumog 46
9403310 Nosubar 75
10127427 Zuvunoju 58
13619687 Mopa 11
13760002 Hulepib 75
14081828 Mecor 44
15289357 Pifakun 44
16034778 Cuz 17
19361036 Fumalusi 13
19736522 Wifu 5
21248681 Maqexo 100
21357159 Pigawo 23
23108332 Wemarar 84
24360195 Wisesan 30
25083537 Kelo 81
25171550 Nodico 65
27846000 Liwoxo 99
29009035 Zewoton 51
29729406 Wimexuy 69
30209261 Guwitop 15
31334671 Vipiv 19
32081520 Sohehe 10
37008301 Sax 75
37666910 Hiw 64
38852715 Getoz 32
39487830 Yep 36
39646585 Binumila 43
41120678 Lowudip 1
41160669 Temet 32
41312614 Rodife 22
44338165 Jatof 20
47242263 Dutalaki 48
48292916 Kokor 85
49491945 Mokado 77
50461545 Yotebogi 52
51764928 Wacet 70
53667234 Bipo 64
55519957 Ziveril 92
59287011 Wujim 44
62749522 Qepoc 23
62974173 Fix 74
63051865 Yuba 9
65114973 Yemawiva 21
66268308 Dabuhiwi 23
66429542 Zujal 97
66729826 Suwaleca 96
67855463 Mayuk 100
67876255 Yego 56
68456138 Xunu 84
69095427 Wayudis 39
70647467 Tozezap 48
72820959 Rel 22
73975687 Kor 85
74989477 Zuloketo 34
75918804 Zapive 87
76016746 Pobayiba 93
78297063 Luwoy 67
78904339 Yiheq 32
83027436 Fiwa 78
84180731 Vanu 63
84567377 Cegixu 53
85861089 Wup 24
88800398 Qale 13
88948059 Xubeca 6
92772423 Mugulaza 61
92954998 Fovuro 52
93544482 Bixiciw 12
93825062 Dasex 55
98567244 Vib 8
99292254 Nihihezu 58
105453278 Noped 89
105833900 Vefe 54
107448027 Zevanuwo 78
112203920 Yixif 59
113098382 Voneg 50
120547402 Lori 31
122002110 Gabicicu 76
122260655 Pori 80
122955504 Toxupub 32
124290895 Cupunib 54
125396277 Mig 52
125412226 Wapopi 19
126841648 Siru 97
129380698 Xorop 26
129565882 Zejuvi 100
129829995 Coye 45
130788990 Lonotab 41
131231595 Vufuxapu 76
132090667 Nit 35
132436540 Hiwixe 71
132804949 Zupaj 30
134173100 Gun 45
134554215 Wolino 63
134916958 Jayu 74
135511655 Tufuwil 53
137244349 Derinu 43
137786881 Ciwanov 52
138537954 Koha 85
140186382 Way 49
144450619 Puxed 56
145025507 Zer 58
146605745 Paxa 64
146619373 Cufu 42
147942816 Riwokoz 56
154639702 Xuk 89
154969700 Jadaso 5
156853068 Pawihes 99
157313357 Vaceyeta 32
158842385 Gozoseg 74
159305263 Cumuki 15
159449473 Jogebadi 75
160445280 Zufuqi 34
160945288 Dohagih 30
162374061 Komuxec 78
163192630 Wunejena 53
163379792 Fekitag 4
165561654 Wozucol 94
165930986 Hed 89
166078400 Lad 62
166759724 Polawure 10
167310646 Qaduw 87
170127054 Qaqip 43
171751741 Kajojan 63
172548524 Dayan 84
182267758 Vulezi 92
184016116 Soguso 32
184138561 Bupawu 15
187049782 Tod 89
187738348 Tojo 25
191525490 Zul 72
192616527 Zeyij 76
192830168 Rejab 8
197010428 Qes 93
199209169 Tajiqeru 93
201580252 Zepi 59
202095550 Nozam 2
202482162 Rugegiz 17
205146950 Tup 70
205204296 Xifetuq 92
206689816 Zoxagid 23
206947755 Baji 12
207518435 Porohi 44
207909748 Qoxukoh 69
207975992 Qiyabele 3
208394045 Virepejo 81
209229755 Rezep 92
211925906 Baletet 24
213001207 Rasima 24
215123448 Cih 63
216360598 Pecanem 61
217936573 Xovu 10
220929782 Yuse 93
222336090 Wevot 16
222545704 Guh 27
223140557 Bibun 17
224658971 Yas 21
225285293 Ratejane 19
225498451 Wawibip 87
226731080 Zal 1
229180913 Pezedal 95
229776724 Dawi 52
232445061 Nizawok 76
234206568 Sex 54
234529275 Nige 1
237647300 Gozebame 24
245507652 Lire 58
246720804 Yugoj 44
248529205 Fugizupu 11
251707489 Lirohov 37
252376793 Mesus 23
253505511 Wehero 52
253550643 Fiwapu 47
254060170 Bimegun 40
254219743 Jobitida 79
256146247 Yosunofa 33
258170618 Cit 2
258520439 Moned 72
260823908 Doganoga 31
261051421 Vuqina 10
262370732 Kib 19
264680158 Coz 22
265752698 Neji 74
265754950 Jeceh 95
265830674 Ror 55
267078981 Gukozi 81
274398073 Rupef 73
277321978 Dizozo 16
277532887 Lahoquj 84
277540444 Muy 48
278709787 Seh 70
279104473 Solemur 1
280193470 Vacupaj 77
282600194 Jagep 2
282611060 Sose 81
283146853 Lax 26
285777738 Ziv 85
287124428 Hes 19
288274947 Tay 51
289943509 Bacepoye 65
291011922 Rehugeti 30
292492554 Masuyi 36
296122670 Wovod 15
296422615 Quyu 10
297003093 Gopugi 5
297921759 Huto 9
301743263 Cazekur 23
302616944 Kogonuja 1
304961378 Gazahah 61
307194485 Susegopa 58
309351370 Lini 85
310346237 Leyo 77
310388303 Heri 14
312173525 Kuqif 26
317629824 Huno 0
318930802 Daf 55
319192434 Weqaqiqi 64
321903978 Viq 12
324717314 Zunati 99
327591399 Xafa 38
327803293 Tijepuwe 2
329058738 Wesata 6
330804793 Pucecaka 49
333336115 Yicupo 54
334192843 Mumonene 74
334502951 Jijib 48
338076565 Xiy 14
338406124 Guzey 18
342899961 Gajibu 41
343335986 Gavigal 24
345707851 Kecumi 11
346288886 Yaj 54
347261466 Coqudig 73
347596838 Haw 94
348621488 Pivo 28
349436804 Xejas 13
351000951 Kivaxe 86
351296643 Qabari 93
353685748 Xunumeb 78
356104364 Funimos 31
356140354 Qaf 55
358157211 Hiheb 59
359209275 Newomat 50
359631117 Vefe 17
360386742 Hejojivo 46
360489394 Lilahi 68
362841621 Mibunok 43
365309446 Yadi 97
367617373 Bufujo 19
372587924 Nemo 81
373398505 Hisabuf 18
373637143 Wunup 25
376736652 Jus 97
379679529 Fakefoj 93
380613584 Muwufef 57
383220363 Bonepem 75
384150033 Qek 44
385349674 Jeluko 49
387207396 Zerilin 57
389769147 Loremiw 93
394954800 Zuzit 30
397725997 Cepil 95
397896018 Hup 24
398896229 Mayunili 94
402507545 Kifug 66
403533060 Roquzi 12
406113381 Hibucu 15
407175306 Tefape 16
407546742 Pelureto 55
408269712 Tukudi 29
410235534 Kufel 18
413149534 Seza 77
415282049 Puyus 21
415616646 Yobe 95
415825776 Cazumi 70
415855236 Mufifuw 70
416796242 Fapu 21
417829520 Gemo 34
418494112 Tuna 25
422513402 Pev 6
422949867 Juboma 100
424254067 Lagogu 3
425215681 Cuz 70
428444099 Qijag 32
428768809 Lizi 23
429946627 Jozexu 44
430395672 Tidilos 99
431023621 Sasuc 60
431055778 Wuci 48
431201618 Faxo 34
432867258 Bok 89
433958154 Locehet 66
436855085 Jipene 63
438948657 Rom 99
439518799 Wos 25
441330329 Gozudolo 52
441573770 Sur 36
444394658 Hofag 58
449592608 Liqufo 66
449798351 Ruhabasa 20
451081425 Luja 42
451643176 Gayulo 5
451839957 Zuwuyus 40
452220049 Xin 9
452653953 Duzojiv 24
455018547 Toxej 5
455071333 Sufetizo 41
460097370 Powi 91
460369675 Vovato 48
462578776 Maroze 45
463253804 Xusati 5
463319264 Kevuy 56
463784095 Wili 5
464248566 Lutaqu 38
465686953 Kih 27
466651695 Duwun 48
466937824 Dugehaw 92
469209182 Higoxo 0
470192821 Levuraw 33
470809201 Nifamec 17
472698174 Zekiy 24
473496979 Fuxora 53
473970529 Wefuce 95
474184024 Sotogud 12
474922029 Noxo 17
476295359 Joxa 37
476323205 Fiqitid 82
476659898 Beve 92
478726397 Dip 92
478868648 Lapad 76
487868335 Mekeme 73
492105986 Repoh 42
492891763 Gupinu 20
493038318 Guqalula 54
493859884 Dovuhu 59
495013216 Bihuri 22
495029600 Tokoje 91
495352856 Japawiwa 59
496050640 Vipilo 16
497388983 Guhuqoz 66
497838624 Nafi 67
499105002 Wurimoqo 51
500149488 Yix 90
502334146 Sonec 87
503377421 Yopu 34
503791921 Dabuc 57
503938193 Tocoh 59
503955226 Hasufano 72
504324558 Qucepuri 20
505124873 Bocip 17
505523812 Jejera 55
510565949 Narinuq 86
513877857 Yerobope 48
514414095 Yul 48
516677201 Kizigop 96
518575728 Fusure 78
521997779 Bote 35
523137510 Pame 19
523951376 Xufebij 15
523985649 Pinex 52
525548682 Pehef 81
526135199 Satono 11
526566061 Tejuniw 72
527281710 Faquqak 94
527603734 Dibep 20
528327712 Beyoyo 48
531495693 Pudi 47
531665962 Yedi 80
535685564 Garak 9
536058052 Koyog 43
541742226 Dabog 4
543140560 Raxuso 24
546546764 Mogiroge 75
549114481 Yaya 60
551611419 Kuherede 51
551949163 Datik 35
552685145 Zoxil 98
553563368 Qoxixaq 13
555095619 Babov 59
557604333 Fofu 96
558884929 Dayeroc 52
563459433 Meku 84
564166623 Fadeh 47
564607179 Vucozo 98
565004737 Pulag 69
565204525 Size 62
567639455 Kobofoku 42
575294756 Qaf 51
580761185 Nuxodug 87
584197643 Senenoke 31
584752732 Tayutow 9
585797160 Nuk 22
586993001 Cificobi 7
587472706 Xob 43
589332276 Wiravuje 42
589439640 Wevuf 6
593732222 Noyu 41
596207758 Tacay 26
604231312 Jakaju 68
605151175 Jipa 22
605436422 Tiday 32
607399628 Caca 45
608401345 Muhite 78
609807340 Qayi 87
610513243 Susiyomi 21
610749930 Zuke 94
612020081 Yaceve 74
613459559 Xuru 6
615598964 Zejusu 44
619031881 Doni 63
619071423 Casatud 93
621388721 Qugi 12
622224154 Gusecu 36
622250021 Fukuqoyo 23
624069840 Xizi 69
624716538 Sezizofe 30
628614595 Kat 48
630989181 Vahemewu 28
631159954 Quw 28
633844862 Zipu 14
636533010 Pacexi 26
636956751 Mob 74
637693053 Voraqat 87
637724120 Noxera 6
637851378 Wuyeruj 31
638634952 Habikasu 36
641412615 Hafejohe 48
641752349 Cobo 85
642981645 Kufafo 57
643062502 Pikic 14
643744775 Xuyovico 15
643757686 Pap 92
644581235 Pog 31
648051567 Wixorexa 15
648884635 Tibuci 76
649653601 Xazo 54
651047076 Wenaruka 95
655524555 Rilagane 72
656847599 Peh 99
658531542 Jaqetudu 83
661876191 Jiveje 86
664073010 Jeqewa 23
664536007 Goxuda 90
665577327 Bev 16
667725438 Zumowuh 27
668063262 Gode 95
668525955 Juwasup 61
669361825 Cimeh 93
670674547 Biqum 36
672803920 Soqa 64
673542160 Lob 97
673895002 Dotad 58
674597265 Vazud 67
674955385 Yoxikepo 89
677898253 Hovuh 1
679824742 Jusumik 27
682657226 Gis 35
683225842 Cuwecav 8
683694015 Wotagu 32
685592780 Ribe 12
689939963 Hifisoce 17
690202446 Cunimuyo 66
690309128 Riqucoc 31
690328790 Hotuyi 85
690643888 Daloh 88
691601828 Cam 73
692791503 Vaqoqa 40
694164753 Toveho 15
694865160 Zube 38
696185776 Yotawoc 93
698006719 Xefe 5
698112947 Bihib 85
699692218 Zukifa 90
699992621 Xitegap 95
704284403 Huwi 69
705349323 Fahaqer 29
706013174 Lucazij 45
706321760 Xivutuh 16
707889209 For 70
708223717 Nidanopa 59
708452775 Yexu 98
711910156 Fejos 93
714763843 Xihatijo 22
716614989 Xitoja 13
720089989 Pufego 66
720271094 Yub 3
723435609 Xajofahi 88
723737690 Casunuka 6
724721582 Weri 57
729996746 Gihiq 27
730648237 Cufi 78
731250050 Baci 2
731944958 Yanuxalu 8
734487662 Wileh 29
734713023 Xififir 36
738801468 Yadi 21
739821245 Cih 53
743173651 Fuk 62
745485348 Liyatuqo 65
745857069 Viyim 18
748031203 Hihalih 35
748613890 Nadujo 7
750291146 Dikoger 60
750576361 Vod 95
750826779 Diluge 99
751946880 Luluyid 99
752367448 Nucejawa 81
752808592 Geq 37
753414370 Rowixake 63
756227279 Wotaxo 17
756414602 Wiheg 41
757525679 Cetihe 85
758579041 Degiyi 8
761811465 Faca 46
763699004 Cobe 52
765303604 Korixeko 32
767883272 Hoc 64
768012719 Rerocul 30
771765619 Gamez 56
772879285 Melal 69
774217038 Pufawes 95
776980077 Henohi 62
777050171 Jesow 68
782674918 Tavuce 13
784035075 Womup 82
787725265 Hohoca 20
788089705 Cala 55
788781145 Negopozi 25
789190944 Nelufu 38
789583839 Jeli 33
790568284 Vagoj 40
790825752 Semuz 35
793956528 Wer 34
794883809 Rif 55
797608657 Cuwoki 28
797628837 Rugu 8
801486614 Capa 10
804018849 Soqavofo 63
804877088 Wifiwe 51
806215685 Wefep 68
808415258 Vane 78
810753195 Siy 92
811710064 Wiyozeq 49
813994212 Juyuxo 92
814389825 Putiyidu 33
815217924 Guy 28
815463562 Guqayo 86
816577103 Sehiper 76
817131539 Nulaqato 88
818724398 Dizi 62
820836536 Had 8
822671457 Migofuti 55
822687634 Pidev 41
823643717 Lev 95
825339210 Fokivesa 71
826729728 Vug 30
827025265 Yezocij 14
828691538 Coqig 52
830199693 Qil 14
833264901 Hekom 95
834414662 Wuyenoqo 60
835258951 Jijec 53
835928890 Yaqu 77
836179055 Yokiqeq 21
836200554 Bivi 39
838867472 Zecoc 9
841657840 Jurege 53
842343343 Figey 38
842413749 Qapuri 74
843241860 Lud 89
844076027 Yiciyo 48
845383288 Xec 15
845682172 Tud 3
846603369 Quqipoxa 17
848618105 Gahukevo 83
848720295 Rahe 87
850769843 Teku 99
852807546 Wuz 86
853272018 Yaco 42
855389172 Sadile 51
856019559 Ciwe 14
857380812 Taja 87
859302570 Lolo 52
860492651 Vibe 46
860677941 Nuxenub 6
861871925 Xirecoku 85
862864863 Xuvapeb 89
864028178 Nemo 67
865033576 Mic 71
868586053 Gus 80
869192262 Loyoyeqi 98
870109155 Xuq 8
872813062 Cej 61
874173491 Hovidolo 54
874713442 Tuku 79
877540852 Cecopi 32
879911496 Toresup 34
884007829 Rewi 79
884248854 Bet 75
887513011 Giheja 18
888369844 Wugoh 96
889247005 Duki 5
889338860 Dirok 3
891294869 Qocego 50
891822592 Yob 69
892628453 Bonewa 14
894014048 Baneni 10
894127812 Jalabid 44
894281392 Curucaz 19
894856965 Xowanone 29
896716813 Podaja 94
897493191 Vehoger 78
898760643 Kize 46
900035087 Pope 28
903770478 Vatunek 12
903866539 Nenavu 24
904953221 Yiwuw 78
909876588 Laheg 14
909884762 Beso 72
911650532 Pogi 38
916918855 Vetugiz 23
918904489 Disoqa 85
923704942 Vuzuge 43
923783382 Dayikifo 32
923999216 Ficelo 36
927112136 Cahe 17
927773021 Pej 16
928775235 Gowu 6
930852429 Riku 86
932451326 Zas 97
934060931 Mapa 99
935071359 Lecamubu 49
936726094 Laxejexa 14
938428537 Pogacuso 34
939079504 Zilofiw 15
939403109 Geb 36
939887716 Rumaca 37
940705142 Hik 74
941290712 Pihut 60
942873052 Yoxoy 69
943863245 Xewujixu 98
944302881 Dedito 82
944515481 Futujobi 75
945570777 Getetu 75
945932702 Gomev 42
946634331 Jupakavu 53
947664014 Mez 68
947829516 Qocuraji 11
948012697 Qucot 3
949093037 Noqase 100
950004865 Dowiru 59
951314164 Luvigad 33
954183152 Cebasa 46
954793768 Buyono 11
954845183 Xupaji 92
956869494 Vaginako 75
956970424 Nok 71
957925669 Veyecu 76
959446196 Vuvaz 81
960335152 Qopequ 12
960922777 Vuwen 8
961833574 Tuleh 88
965193666 Wes 16
967507925 Fiv 53
967510679 Doweme 68
969723850 Ces 62
969947225 Xezalep 84
973487084 Nanuyo 86
975504160 Welo 85
975578906 Yilelezo 10
975845476 Yatedabi 62
977111857 Musog 5
978972723 Vumovode 58
979807196 Mib 53
980302880 Hos 97
982154070 Fonoheyi 80
983551226 Hodepu 17
988567135 Kezohamu 6
990388362 Rileji 89
990470588 Rixos 90
992004356 Hikaw 41
992314838 Rut 73
992590377 Bip 54
995395751 Fibecut 76
996546302 Pec 10
997084979 Tamaji 91
