632 697
277167411 842445206 837364000 936424318 496208593 113809691 356863837 207656354 585461108 707112839 165106806 348350276 206905743 6855259 838995086 564856243 130475809 694933810 902494033 690713245 969876562 963050516 360728751 816152316 361655906 66993854 492061934 482927372 492400105 374858064 917211914 925251402 704452327 299641830 693468486 231710917 753233308 492054054 628994066 106263893 606933648 722174603 400014117 560681292 730211787 825877769 432955638 452745916 39773268 254861748 681932338 24108832 458573942 47071442 889572795 494309548 401280435 142141244 977371390 561772962 900703182 71629694 89115718 752704149 994800562 642823244 218843261 153700387 84223279 97654570 129177591 36678779 460828154 450696081 178894457 213167806 675408555 351120290 942395442 663679170 588844520 440171232 998283626 640029060 692798663 563462543 810221953 111571423 810274651 504873608 669679852 633433487 633534448 529302694 509264996 68200896 536762469 249930174 2601554 913274446 978769684 626948009 114303430 59473150 676884229 290441820 924927186 571511211 327730382 500967907 352447107 22755438 890609663 568577560 452789777 459290556 211543521 216134128 482625762 495411154 85806795 204310326 985951387 916433111 28879659 696976694 242880158 154092171 56170626 438950075 476818336 324260912 436490861 326161174 678394609 653259313 809435754 221899105 841988588 195418030 352393074 615566227 319059436 650227301 387550202 302775825 36926159 742655597 102978949 494140983 893716590 134678251 322719309 653404234 748843101 656061607 777284731 446809569 735408874 261964801 541434545 826817512 891220222 157056362 280208148 261989531 413105349 210532032 309724511 795992283 207369783 528426001 209166104 78896964 752437980 252343859 313414499 414818890 563214463 400195299 191174495 941698270 338290739 199504850 466308463 734204973 527972416 747654132 719513781 400900247 263888664 800384512 842831180 246064048 604298882 676939373 79454385 727932817 899036007 518042963 439863444 744049271 641148674 523298666 558407235 118878467 763605430 34772634 595301320 993291697 807831338 938905618 994761075 885646150 714814400 414885727 164576573 42402108 475267624 951893801 388399532 688500694 119325868 475477398 947818448 917382589 662980840 698996080 839378551 358904128 148892904 123102950 12536784 29920569 622333766 609160538 938180727 108045765 924471926 562786540 645399829 633306888 939231428 572590371 618494123 309926329 2308458 594226244 916825587 811616694 683280283 12548200 169488871 877449289 415582123 158658698 121204797 167582670 318198372 424327452 647203960 49367431 898730462 855373548 972704583 269912955 766615305 145722989 50965426 985079600 521022312 930038615 519713353 234607504 389299708 91615133 887848338 401185457 230742292 154390571 640038498 990412744 893700583 557816065 721489116 702383262 67635106 663366824 427233241 463680017 72122951 148800525 425408256 761007522 482713819 872261731 463798787 87479342 935952950 6972724 706898164 186178814 566882515 638479624 166579875 156770387 931000547 737902646 45680849 83578871 497438921 693145368 497271654 907843116 13455459 167497970 203551908 140006816 466112788 982284902 340292935 446795879 885341272 987984542 264113413 556784219 155486236 631076938 676500629 497383581 419796040 86686046 891887046 492896169 173884725 507288896 947049007 736373161 725689300 290512616 45028603 100518584 964375032 115730371 448994278 926627720 799590404 20065153 833579467 994402795 552810404 700815505 88511828 315107470 888252196 697411455 160838853 691670660 473680732 30540616 394625110 996766729 173902822 236611454 309995952 534929256 881500481 545817169 264319274 168193062 99901594 721460006 930826995 91312081 74517405 193448575 691815535 181171608 644550654 727728714 428402639 664165362 614877804 195528521 548770767 598121711 296574475 990538608 342577205 905287177 748372834 338892696 626278575 211450407 747130978 318658187 878966794 833015795 457389355 161730586 504839675 464290771 981947969 241235444 203414306 492562756 108647942 499383871 90179628 899255269 269784004 139510757 344324941 243229831 77981516 656058908 482327443 438896122 382171136 533222797 414456521 519212567 900083948 246293493 834852602 836515974 477416576 875541759 352546415 511773549 711510118 884509030 520915572 920899067 202451750 312793177 332440900 504600876 586300592 834274386 212899701 214169645 616829961 141419004 192757359 742874861 281793096 612243955 951260517 409040096 512844907 965606782 189831671 916759371 421477784 384372210 638861994 167729054 552475101 291632683 370442681 714879560 593060275 947172005 304944729 925408886 758193437 415447471 243212062 139554747 909264804 618997136 678902506 347176497 883114541 135337631 516681107 301582682 84279791 43779144 905781767 366441781 787917266 451918404 650669784 907927870 184776637 372021693 81417741 5348171 832093743 374987027 771970376 769434258 184558322 687705320 813365110 956006131 137000477 258668853 882501746 87458535 908117284 658170387 815694498 167222081 997024017 46953115 773716023 671966873 857502309 218554732 393187814 911854655 264804218 331139928 854174431 687203445 248836338 316860196 915105893 561833770 505563281 871450075 256790339 275770790 23035493 183192538 676525861 406429653 241789304 663544484 230670564 232024901 982747318 708393634 73422690 707531506 755653008 641152147 510231286 658092860 953867961 548508450 767714946 549781269 639575216 418615287 298128433 952330614 893960507 284259105 808337431 475403697 747171811 613387422 892249903 711474577 727544617 697647838 312128922 268404828 178435553 410121546 234933280 652638046 699444813 547415379 780247720 958638104 569437433 537710547 321529579 23189252 514904608 812126013 405556118 310166217 906315349 658991047 11088659 390061976 919108219 847238157 802236392 431213718 737155450 405264399 980398135 822989250 923554234 702227119 778906249 651380948 227383342 855898317 851562719 385409123 77458235 424233560 149397635 874310458 252407566 457980260 578049 639979942 351004571 309553096 850172482 333098382 195030739 276059601 446961101 602946893 337012486 663014427 199707735 534579602 265244620 370085224 334318606 722337858 235935548 561005589 10060857 451646431 776044309 40138683 655556923 534580192 324978051 882806116
