678 6965
274843912 108757370 546959266 368908981 277457532 109887308 595401718 546363233 300906363 730069356 520422577 26237443 430671938 979264827 916572327 702080995 935237222 645829719 594499429 956660528 313847832 574025009 93709716 744236909 700544983 172293047 85248157 604131810 728212846 141309668 806767731 996572513 828910324 145550385 912672202 825785205 969726512 337290439 136718184 540065334 704921606 423532399 645724573 384258830 144684859 16900432 558315397 872033524 888683719 367901869 294235832 99094219 11327391 735316143 757516715 531653284 317997551 711356698 252387958 312009246 964251455 999278578 297778945 48090893 578356745 757237181 322962684 698599893 236826367 94250894 203856176 258783530 85317165 698716977 559862227 700073432 681088103 281052239 153378725 891391332 976291377 90686438 790748530 232903776 801899355 332799329 144883196 152657772 354518374 745419853 204654153 926849921 711932716 492162690 824838237 209577209 235887463 88957334 619250397 606375937 671619573 335335126 738249700 5237653 960200678 251706657 385064405 533706354 760646313 617487709 768415266 358502986 525455761 396492412 926170654 212793364 435664161 296158579 727338222 745333071 332126910 352527576 744429020 153165754 515056232 362682501 338026999 559725604 51011676 607872372 654973438 228963116 881032472 810913910 704462847 997478207 349497095 357434882 626777421 71505722 40750190 661719710 367502807 78384560 200978205 898570181 531201620 548888885 9936194 47206577 666477830 454297377 723141134 365891971 460008259 393794545 852394820 75322057 63266583 838890248 729929959 667337851 198163249 62395954 274500389 652295737 665184420 556599582 364195857 814342192 157742294 718486736 843005789 524492906 870563215 73948741 308444463 338437149 4483832 215904426 915420300 640105669 770175257 372497518 944557815 250163048 621941424 583683969 571118450 414091512 446405292 510288976 685351488 921719956 238289538 49541930 615852588 628219339 412294228 880044002 287718275 483823508 489929435 790556304 417284059 935489352 596281214 70087238 530200120 710694086 882879559 431109810 559356018 20893674 131532802 317922339 607143040 306618466 830297895 144513552 446353770 683308302 284768759 238361176 127303272 937264472 171922331 960438740 211171020 98094704 915454592 46311036 116249447 968767045 414761412 417883528 793293665 530554402 241930342 662518611 962082821 350033112 397419261 165234755 588921227 55535068 434288581 215973738 647284557 404140377 878576377 192533100 508309969 855805770 367232283 975505188 856111395 348289315 885228963 120722579 822105455 535072181 125147616 692854614 965838640 586307213 431995780 491627047 464238014 810754898 740093924 214994501 76163768 834354843 474030905 760732781 407754109 311426200 730288126 92640094 9780005 63831775 345021780 869519321 219079161 96844337 61439390 987764589 304212674 299787326 487257531 315447524 361608951 643804510 994561940 72965990 186915827 559543496 79654852 338384449 777020301 712089763 433529917 777540065 800853545 161492959 784570185 498688285 17533385 522164619 23556010 333360670 640854289 629659276 859050319 572184950 925516967 294214469 732118956 60622040 383304478 198505024 203559026 773947363 174441398 210961689 10001063 274386898 872159541 845663834 681455209 946097040 216782781 222892017 537292805 38717226 323035561 529441520 706770144 660997341 904026951 730543386 666934777 839753858 902294286 98329099 720561983 414929337 907414605 166774002 699605474 335738963 885604706 254137694 777046001 550829706 711705467 185195624 708290964 758090260 840448840 750949091 815952106 872055107 360124315 79409567 317721569 602177910 794083269 432884849 156484626 897224740 303061945 673630510 708277171 355229868 940069544 420322697 857347029 925260640 894872148 633314189 2256458 368921180 79018063 192114664 3635830 39938980 594742070 732397992 447363397 719623112 818028138 71086638 438529529 986251011 53864142 186677734 535769419 876035348 147273840 277650899 573628745 518468878 10305869 585851080 641553514 297151757 42672396 464875712 587129467 880487562 95298872 972813176 223221477 189609633 46997748 932056372 183704365 568426487 860666730 173341805 504981399 193558989 233884720 266177882 658400649 1679097 163332554 445906138 933573105 635285135 615335264 744834192 782963963 480057547 821250956 835327578 24529959 286285979 631461326 372493524 232794842 942178942 533825653 743888358 975827524 327364468 312466921 752254160 821520231 317572646 995036193 57141398 988854164 271293207 701909296 764464418 968331746 845856626 887865128 584915324 985095795 828852187 585697395 388781784 835492667 109772082 243774865 221052468 59361943 401019166 970620987 782700645 968065611 889207664 149975869 247850662 33044685 292750585 102628563 587669444 935988335 513662056 616115365 765449893 315309763 498816847 812174212 641475069 74204273 640869249 247182566 717267614 51456112 189635837 162307826 763041822 856692438 765581747 539266167 228935051 98482695 391104311 984654799 920061420 830819902 905264715 672105383 721307373 113189004 405076200 389247153 527675452 288457376 381124290 741476257 336651494 207037642 310806854 612616276 465265611 721188481 372353974 929981354 856990426 818094384 861960143 871995853 465390576 415996120 155631763 662718371 574073355 528126488 232315194 832547916 303663394 331039526 519327855 764997675 497277280 328754694 83328607 274420030 215836257 909401573 311604089 253166274 52239659 965715837 518998292 867734768 884697745 332278628 904974693 200879700 396718486 224921877 302505862 702808237 439273739 952134922 56549189 849452976 140442848 325883072 228930143 144725142 927037592 549553841 787487233 979603333 93088427 294882407 136898302 929150664 488323970 500577105 174465235 257172664 360621697 439902910 503248106 379252104 319177802 897659928 299527236 474317373 410984584 16957368 110528671 133918297 28123189 125747100 862735103 299804422 927068000 809160076 101162373 65641296 531160877 884331615 45913824 601285430 951613732 826370210 835973871 500451480 428096873 619965956 321646445 962753187 535555963 42308055 5104029 552521738 357099862 136746734 740642436 668373683 716476546 81613121 88876230 362554744 483768753 313870271 413955284 809570691 882480205 49794265 610447624 891397217 434572818 873683183 171584678 104469587 966281068 36837604 154965365 198004437 807893653 586935738 663037357 177292528 759113185 35650885 436229960 77799550 828511183 873101136 634693147 394751660 421929963 765636274 791352654 754815097 50223472 161131912 41853744 572536828 535582562 288522723 21353683 253283517 270350499 389212526 242293173 66854556 522954458 352627606 945449212 345979075 729882522 634188341 916337023 601117556 899283332
