234 7669
355888560 843457848 956134879 955937540 595743582 455980153 582809575 724154092 588165286 927461791 546738738 436849675 88588200 532623181 921243393 908121 519391357 569832123 581764417 360531528 93999835 453809304 923836541 417605385 109611233 909747346 330850308 322603602 531707988 642603944 513821442 704837028 157967847 318098004 182783836 187275599 261885374 962424862 176756151 466281887 978150392 994266981 400041974 246472245 470503562 27657517 404056711 482681274 823635743 365162002 669592023 764776670 481719409 762199209 183678370 281167994 513500184 965078926 445553313 120763822 262357268 188054556 893425192 487313740 485646598 503790864 201041243 746090711 859616750 779239722 591012872 681634099 839067609 923634969 998194969 321549088 616839756 449081092 930533033 396303786 334276355 7351282 3591500 859570950 183222138 6522701 127974582 414792206 212766516 962330940 121080627 72765970 669748026 675731830 591261264 770054021 472982187 792815088 965106910 137248249 499099942 575491365 466989489 174022928 10901966 648335986 375150593 151815313 452940949 570471799 191990219 711867392 596079154 882175029 941896850 264073931 372587661 41845494 531199310 218646663 996720574 449273761 796339152 322696011 807773016 38333170 151691812 309212366 747256324 443160306 282846025 385019732 552614857 421645538 645779337 365972963 675056016 735983930 459346970 345333638 679061404 499659409 603924460 700724379 653857754 399676688 199091435 960864783 715284595 720933861 874676072 204928341 858860643 563127118 699137053 31010941 893112419 774016004 505463146 470747044 624958576 662640895 653703212 397835684 806662201 342218887 800781504 34406955 650368676 599611240 370090069 260623178 327812239 214645162 315178548 407551605 53524082 762209365 711983874 144004984 946016657 44060282 676776636 695881695 624971295 215583780 404126049 333049948 741888670 738597497 347068853 936841864 78535724 145995218 60856578 915681895 167902928 679492547 771196357 668632855 12531649 448153804 335810161 65851423 182222142 938747660 897032987 552088264 730230570 789252663 339469644 520081456 976978145 339588337 489293721 594430138 497314466 729060685 210739097 742524553 92231086 712277230 770403787 773477760 811190837 115981425 516347204 385432887 401857426 225778366 805046760 740634790 100530774 302932205
