400 5688
582870505 400880849 913430833 89017367 558867366 312036490 711996649 753038160 561753272 861235325 801655306 969586084 243374743 736521275 301283828 514819092 786289155 88781342 687717617 893382147 104748032 899078721 130372145 79744620 180765153 180476619 808520518 173032265 993282082 621751747 604307275 594789178 775269373 64875786 378351201 949609190 909633465 96812896 897487067 322962677 95200110 606607163 509478667 920928701 813176907 980845815 399505786 125724893 836305542 506317943 628365199 729698775 345683644 207261138 197940206 918873538 375068405 848654104 177807508 151558207 242734810 803376613 37256161 724975314 562402175 315037176 672952166 636381143 28378574 532913318 895473680 869381470 129062883 365706874 783024247 709351825 538491057 270170396 889456304 630653848 340202096 367381356 105442697 388202612 769105317 742341475 431000661 214538560 242080625 670983524 452146531 326460700 577578573 63202325 513585688 970521509 251788864 825928051 690782772 166007656 897585791 420808886 269025486 6392933 667139816 624931399 433832230 646126274 334837676 116432173 499264882 10628587 848961399 672550661 889530081 26581491 945666930 458586546 928324311 468859002 79161556 937570111 467160267 511378699 438240904 358267548 979479972 56100244 677424133 147509293 823921677 61612696 593754075 291211337 99755592 149392478 961280476 670309128 320422679 412560792 990320446 194592637 526597914 112970236 925355945 667606113 301388095 173172385 975449625 901777183 676912577 564103470 264679426 537824219 506224077 671449276 729244507 401811417 826875860 204618211 935875624 5968606 59549118 220462402 392224873 116356140 506325227 894016379 594320310 691139981 645530123 847972116 341564703 342208450 266579478 287145338 740414060 306125210 50871762 188613320 433284844 575609385 687643 714062738 812204307 855095488 995939641 135533455 958045385 198147971 177507318 335388411 294544179 771582199 610439470 805806031 246436755 728785226 529813025 712864761 544320103 484144136 175411662 893848144 284376305 287201397 668747544 501881716 716797208 235734975 298103125 745239908 26536227 9961927 609652796 961670268 654212482 849112990 492089868 614371453 296116960 744894410 173787605 995217439 952147910 711560370 806170130 323650380 251617481 963349375 868509153 404457854 394607108 302351888 266324765 498783591 312218723 815233437 979644659 261447492 197978476 926749434 486444114 25058218 167247210 219456689 967103060 894417704 757775865 689438168 573617074 159197730 769916619 509499643 989098679 828135379 383426391 466439240 62604061 47465638 381113010 247007978 746606487 798926664 801997883 984941294 898013958 667709877 57321056 324325968 140459076 84941837 37456881 825951260 146532866 203759731 315865409 751600240 434345989 617705681 985833141 94333952 831560598 813856106 816356403 815136215 410249802 428792718 401191143 846886666 733378964 965661683 116585389 588393247 956292876 851698477 200676567 967878118 651887266 158037067 776205777 190617889 782312313 956545256 115734785 781308407 472915829 774846232 591229307 192002343 332772399 594779061 249893435 686446583 553389010 435728310 728530229 238795553 4830059 617720649 195100251 507525196 171739596 303651933 430697244 624225239 306619549 981025239 379640967 250548615 205031755 449721191 333180638 758752564 192165137 272769816 766338045 480932895 262466549 204374154 29312286 989761446 775898803 496921199 519327557 161904618 146183452 436598340 179114129 126987566 57933764 562423185 777407292 136180280 693163316 277156522 661406420 466699549 900014370 668005798 955315707 933683028 589727852 937623954 525444195 864953645 613954721 60105202 455175218 44741572 83827408 253005969 504818401 117285052 55117672 556120540 685826181 317199914 330279297 914558876 279611578 925675403 156924289 209425163 942609213 727549902 399064416 501927768 705816543 841713831 174656144 440123155 40451170 839572078 342489852 114602616 142818328 62889422 743991798 109272349
