685 8849
674976059 856786552 990824570 658429273 143577387 358735389 874746466 793526431 890985048 805581119 588503960 306971685 992887724 906006199 198454561 53648854 829647366 531599822 891567799 292566389 875414801 974846927 842574474 368774143 5210019 742022659 696873416 43266238 322079153 986728995 706127096 923828374 479871564 465334387 112607326 781611439 280433981 165843386 202993800 295380234 772609291 774382488 176049262 969437002 6800787 413107887 482244748 608009875 393127664 113122015 595744199 711587875 720744409 79499592 468291896 851885240 898841788 695457348 307056824 830304900 41825649 672135242 719298414 317055339 173561525 502293605 868253449 640260829 2561820 64236280 732941827 677653421 403791821 744744669 46977247 918024205 860422509 746624275 138268644 268546759 869708725 17803012 364191036 394772432 714305977 437245690 925251866 336047259 838846139 40798816 51777019 30283909 851667822 461780939 325461195 34725900 28859420 252625435 553354665 445438612 520542296 439795379 867915640 925772348 310321546 519921928 307900740 661220257 329642031 670191047 647608848 66590954 699346949 145120113 934433440 57388239 682694554 660349921 707449427 169179131 254908970 227582917 258144448 234363874 814169324 763184877 832708507 797454151 106877795 572355353 391999997 358823628 96328059 661402354 698806182 545013469 633060371 204721496 307998351 917785108 842798316 19049380 66161144 99966311 6499076 942222606 137093196 967244590 776610661 824188148 33926120 711086715 888978704 303152395 414491413 465909120 828135490 464227457 328345488 292886081 994612539 524638159 635842095 170828495 841541655 878211044 62828050 9861268 70992182 674869448 94433023 903568601 767819239 129761378 314800806 637347053 457671731 407873749 905984902 258107753 18112029 959680242 355914065 807802951 815998251 436798798 264393226 868115898 277081090 445867552 638647755 704611663 820647777 42079321 569751900 993278467 682499546 590603513 852958967 745741205 833341345 713325529 726279964 510478799 811625011 567896198 944687855 904131537 840024337 963753791 705537120 126875745 864027249 596761539 197469096 187396194 33671423 11111191 205094340 566851087 947970258 356574186 688241038 836137260 119024081 884605540 203077660 618746772 806580925 54227259 837120904 64836651 696082195 246868172 721618321 303348746 496488999 569803235 864131873 720919893 158905308 827144750 835835833 239714950 20789687 108713875 376869765 98528826 632268210 382361226 438110424 241783375 467480498 242292058 666532564 10545042 655439943 844730119 661300560 387298604 83188247 637060942 720907466 488789433 106346426 578854095 643501159 590843626 108302072 374046817 670591285 765277718 904316721 812416472 419787835 56736420 422394983 12087457 200369955 790942746 113853843 258574669 763295615 216817594 684915786 73595471 379625885 953184045 636368945 125420182 753416213 171757335 390682406 939453931 513029897 645036293 279985215 446540195 972569729 220811800 865716896 724849234 180440165 821405251 610474530 66676627 320858205 80824750 17207636 382837963 899100766 354201063 877648926 878937572 410221948 411125004 533801443 640863513 133630216 115698281 291704535 62261826 439156628 861817287 919664342 926846586 227814015 133945511 25145131 615200396 309497638 29746956 858556344 726219320 495746904 324396577 273331170 202289532 630389291 527040708 974469962 682683645 771699601 816653420 335943310 548646029 348725077 260696324 82045537 913955830 125115874 662670494 890191970 75888522 981655098 96850412 220095019 162773541 274615645 126376576 994305734 145915524 2754203 480077789 716643614 46641950 499536495 18888217 380237757 13785798 957675024 711403294 922304643 311908046 195167939 150290778 621895655 988557330 687908964 280545855 275539716 708926889 884845197 487685648 146747835 413751896 374729120 125408196 710397457 315763456 84035175 706060832 822378726 304737410 359776910 86095265 759875577 781717119 88936896 948116625 179923346 996740997 849774356 181175382 668563986 301836729 787376825 956839079 279753895 244723519 676859316 446851888 948447021 92686196 919337120 413215152 259956936 972187596 799806686 34985339 116407811 500801263 750241635 579236995 739667633 579280368 101792756 578297666 252902820 73295725 954177138 938692472 905415872 549482251 158737804 606494928 984099194 111781182 46715893 534490535 96085761 760126206 123952268 742784893 688900 387289603 881077685 174813376 619208074 52393092 168597676 226522848 26146449 718371798 24818002 609777797 597114980 937996342 720794254 229362754 780412769 687768326 559541858 748182150 743964466 226642174 70215351 282590634 851365471 585563629 839956027 521419543 663532670 855267667 442478327 125390798 118811915 913494743 528629426 184961343 776791095 993385607 901171585 31688066 29648641 797419056 99860660 667976011 164597275 765734003 812304692 419738584 509376313 486839747 860737417 380754162 219702669 844295325 948573281 247149316 481849014 123059604 693904996 594725871 183406294 268316592 76828008 219207769 813209732 254771225 681685171 614388594 690645062 432712343 430951781 814053268 283047597 678834465 537764704 799399050 156501700 450254085 266888119 939241592 331143280 935665756 943790802 672666383 969206047 664177283 623357488 472156988 301469909 145883694 826907574 344219468 859605043 631330342 905059585 461803057 333301460 54366544 542437289 316820977 879182039 844775317 856351642 312595090 740736683 67038846 954814404 200913953 614385388 173313173 594090569 120533315 433050124 806960960 191842322 496158718 118069614 751022518 139147593 922164090 290169868 224541037 812061610 782100529 106304226 755269015 595629157 439476066 278767654 412011416 11420908 300184688 310227364 434159281 995967930 384478074 532565759 409683576 803091469 742040310 297620563 111345281 396079170 802316617 414125200 788744078 836416832 55910954 284366395 56397218 770720175 886493759 493433175 41476503 461742038 658634331 373511764 993740711 921968627 990151934 448894873 879514761 436100201 648980402 67481344 566234273 995372223 945927687 664551776 16544620 827151030 838731353 312508429 253729956 777624173 139710254 341015013 602471723 523532081 687673229 855290322 359843639 417420662 811541128 365696046 297263353 322657020 264567677 590584161 743453893 68743576 267090246 268906335 103191081 158877931 369250119 949288978 901819857 996305108 609155032 11638060 582374030 760273757 895012840 961018628 877059136 648282584 194748976 481745023 526799406 751443919 360315768 988454929 819066000 711258972 860180442 338282115 962875916 532859623 626665663 893195152 554894652 945369130 890624304 258554051 833749044 629130778 644735924 25248188 443290382 252155014 341142528 692340118 248065724 720873795 124359472 299134442 694706399 914930536 396853055 445217476
