677 1253
397036298 306964633 794494233 658295585 93650127 969456180 517877635 387356149 205423457 986230977 206870104 960313120 913188453 970091150 82333087 261016841 550115788 527136104 424721170 402041332 982844203 836005390 4189975 603143690 920106669 156820054 862604627 268320571 646903796 735864161 582562655 698120875 934444494 909727856 163264569 319150809 437820377 362207928 100318068 535868494 431293355 590401714 982426793 368034753 823581977 547840871 939322841 396599405 605477626 815781697 904012535 297173991 402261233 278941614 206180838 665428114 743864625 856345367 642039198 604074039 858434946 370863883 504238285 696130549 201735346 382610385 581285913 658606335 360929565 200723988 4626239 26686659 372103259 454814311 688653546 55993568 895037133 485442712 744123510 923283343 343660317 95367299 733661639 425860584 548648474 955187498 342047121 252549798 351230770 28144319 797435161 843952663 989445483 193737247 773175044 841138077 13638147 791279271 217271093 47339683 953645330 937224746 426655309 972212862 877615821 190994954 696004779 809300460 70980701 304155072 159973197 53752667 926055260 872243652 815419865 959598888 265310685 84904765 215749068 569118453 47658987 348579012 334197096 430690869 353776997 138656186 548785851 485947558 918712812 104951393 56796657 491341325 594839110 702251774 166809091 744622125 74494244 598162372 441821821 990240006 899586223 80890615 845420569 42234500 570715354 689380913 31650815 33438505 335167131 702807065 816623774 933275850 224374094 112411770 315746977 381526541 918521555 598624564 317239648 335961060 819025118 984032869 638656436 132098665 884502084 260170534 426991602 757290931 615498999 35522493 981286162 16495861 204456126 21760003 263188317 810303853 484344630 403388444 204939886 865565061 97559077 525340483 82566939 935061785 35947533 815724888 626326492 467736101 558154696 393085238 579479134 818245016 861043506 225541753 919929782 511725879 709121345 150694002 43140661 420510624 766027126 166531044 384792989 749828767 545633344 770381703 972082981 740867447 798859923 992852259 957798383 398462760 115764852 219334918 85379797 615070267 717049701 587404761 640573440 767985230 901441942 441497520 986938665 787110704 573374692 213008444 716176009 975629258 566245148 670822184 475220964 483167698 91055862 155695468 910695033 757762071 847363764 345353664 421014599 64115050 428959363 538533256 888815016 822644188 457213920 178631199 356884300 686092993 612300406 685920996 345413643 678687693 510680070 277106519 619868168 293944085 257767483 582200339 167828582 398402388 758788376 410702712 659422950 391352976 602789326 678633014 921170157 710977819 905745335 659716603 221050936 561108822 223772985 166746308 545545818 655730362 640587011 166676129 271364092 155469011 869546447 188996372 741219588 508542488 362305451 895291331 561192582 238361770 525262410 290300812 752404288 84718719 58579498 477270696 225438428 885883651 582875672 497895152 325831348 670552056 917795346 334505189 514177074 206559395 337960623 113695096 431754982 764172244 266086302 530497026 960634153 827973782 552658622 424415534 35771023 752979919 825755281 137141569 796628103 755582073 370140990 210196381 883619289 793106577 962729049 970593115 244315217 153238366 709010817 100038800 469498073 31839518 983408786 446704223 69400416 936367191 128412101 792896441 506167388 130489000 272518246 873654413 310120718 618838607 74553405 290767983 793386138 15912263 160195309 360966547 383035028 706253178 54370307 693734340 221168240 950349 853291284 357626477 899415614 262299771 615312770 357976178 630603397 244573847 982879560 792523016 456801415 375406786 375446474 758133488 88391341 634067132 834380393 603683626 303406555 719399684 629487181 948549387 5547644 228259331 28603215 526807109 828117866 639362371 986364795 154470227 65381787 816295374 863150913 337767772 707926421 511691743 737434024 325440807 136551631 972076633 598653110 766084033 448680645 771348555 43058145 283910022 385782729 614887303 399616883 656224849 865067584 526364602 507888924 634107174 17272760 985747625 931745483 287631846 848408844 400291622 944783614 98587659 396337926 37868354 537807582 727561787 406485921 969005703 568095161 694007242 137406324 981121916 404944571 831792869 297108280 674605485 982790879 743456366 256510870 400368420 314647328 627997359 773264091 252449022 899591408 691667475 111993484 99400767 645282073 979065619 640471232 483612862 285827883 722821394 142804257 702367899 814347725 799283443 969698261 438924934 173780188 946061598 627895313 339516136 810551780 661983687 803777165 861892538 295047381 655011441 542196593 478988799 886055161 401730026 956216202 473786688 399189447 110870189 189971479 577220853 680155600 266593056 823909886 278095072 218926503 862270878 746235045 162308674 381691909 393503436 40230139 830687442 575902921 224878126 107603977 761542 428257747 494488825 57210318 799001090 385475000 897054967 389850585 226891293 422408385 391005952 132506632 459479992 581427993 297463859 688708332 598268437 149261638 89614342 140530053 16488847 589760323 595489635 467229799 497991214 288006234 868759256 637979892 185492822 13220180 900447283 555739477 207325297 621528272 173755854 237347193 524665808 302788794 897534993 771851253 884807183 414953708 606611529 886758970 204011935 435273661 481912385 798231965 717877341 9451698 305127637 802509033 240169531 957548639 389860237 76918684 932802018 555534023 600842743 180165150 763855529 154564950 697551481 982003217 476399773 962395370 153336855 931869531 578460996 562611914 400339317 154207294 296853843 938865779 309498898 128960356 891766393 512068752 863029598 130177761 214359338 588178256 522459541 869917677 834447122 79697392 434764807 235249709 195120989 769040551 357347969 27579709 766880038 600771726 546582783 903679407 737142565 726056798 726887199 141852633 971462024 759736395 459879995 899084248 205782407 956877787 877972188 942575726 724253329 348081300 264817949 195617422 804169490 843340193 608620227 897960189 928678243 668141169 739684599 620873499 788768316 849767545 762996916 730419922 618485198 256571565 26124947 716989776 599723566 256167713 723154783 448016631 695171180 15133906 985660829 758034240 637545508 703325327 219591869 5820283 255973512 482278400 966370287 480437625 78926177 212211957 627504203 910153493 699639543 182642639 359416323 573735299 147918902 205053998 926641523 118740125 158682175 124983127 708824264 991718107 82694458 992750053 406050171 381173832 949548968 755868747 114223254 214439501 810468345 294164998 816018476 422070993 830635633 269122488 779559267 986974803 44301674 366733589 110553383 412766017 739642186 25046116 169787294 480524074 326009016 958357936
