754 6170
853494015 801389812 189385921 2106144 569086609 928384887 251376562 541801856 798700905 916729173 858567503 975393921 832016915 524635831 176775556 779556761 211922140 855235498 854172713 802712313 222378255 349023098 993146266 617845253 131741848 62012423 464420693 169372951 365266203 919286411 163149105 375037736 893686297 331417521 859338315 581178662 794895553 268519982 911517137 423251515 992703902 386426689 990186724 605650231 626910050 25916468 553920508 629913713 651842692 286241654 837625126 967520859 777286793 546544596 666142535 10376116 789500117 956447830 536496642 865219390 151957715 475362133 125636829 74644172 523033610 824125144 250837548 633531660 556525991 67651977 295755710 439821797 630105747 301862079 442978163 83732083 353158866 172150617 960416972 26335885 227008092 783953787 985106298 632475107 859483503 15030810 147583531 979789023 345046173 368056229 13014517 119410357 620233974 444132507 534418888 833558753 653217144 402625717 904036153 566196004 544777724 735678106 281566633 813325598 246782947 110779474 886457241 846099398 244397043 760237281 725146131 914996794 821824818 5672691 904966469 203645328 252744984 679072119 734314246 539300812 834937762 605561968 30827200 87181195 90688610 853610986 810099708 602565387 58701352 647355311 830839126 412871234 752490238 841870789 947207633 679661096 134171505 809401428 339586666 916377687 844358828 485468807 58051150 600179293 772266561 900808428 146463078 261098567 303024852 609253503 278419388 713947611 972688271 737531733 36972429 290474024 443164509 704731531 34740981 343072471 826595435 49970413 509178216 223571595 914477446 391002106 949003792 519240113 695304861 686012534 171564535 116767642 562890973 583216567 107723671 260825541 604378354 431890239 734673685 944003741 799494737 716108429 817296877 758892374 614357218 115159094 498043371 187469766 185478996 72923452 16220340 31904266 720095333 102529909 29048983 530647699 39877474 188567929 340120448 715682433 828925346 94859059 346897076 984092312 700539496 3349666 249715586 170277707 382797220 885009979 643170577 944259342 490120466 15448703 716123742 971959466 443232000 499003825 232841179 83854006 47550032 733713379 377568374 215961670 960700537 727185497 834556330 200499138 631463791 384753121 685541977 756897052 707985552 42284708 553375866 953338904 588683936 209531299 122370529 172560472 728083787 18492646 2667564 867148965 56681442 811549 778392757 845436215 827638739 573270021 764095421 889244042 981417379 348418879 713988361 687938901 61019432 252738575 74717650 276058970 464777386 853279017 227639979 80807622 416431628 594932171 756863291 969357827 610051586 387913602 201872880 191300630 490214845 224794312 175483083 748845536 23833403 976996720 59581283 902823603 676678603 979316384 967736247 27550499 272485047 742460629 285652678 827170527 685029728 481533500 518932149 732074439 417707244 285397315 894593974 187761657 333963310 315545185 983846094 258789622 465589617 974803796 362871986 207378935 360111054 898078237 70858997 244867355 254057167 760426729 965899620 125168233 501222939 774954580 538366639 971824508 44671892 377069132 815579157 345608911 154219343 68900323 770995834 628176802 703478929 279332252 316846720 830707083 314138796 174433862 866761083 943509120 769585722 595366404 288601739 688547322 297327164 773827982 931842584 479304271 152682288 2544779 894824533 803294782 25471618 111383029 274229574 353153448 383893410 57636923 303010522 305317181 856200651 43727388 491590296 843053059 981852376 207337188 4576734 153002045 821933061 366702531 32979197 843041165 195587518 554679858 950761082 522122626 769716497 963637557 559727552 541872065 983810974 343790106 814993510 937163302 357881748 875106227 452569663 496224116 118689223 160597713 878467459 970543187 575788378 695259131 825565069 917024058 71041570 78543462 567347443 271543580 641071066 274611668 187976388 840423024 506416034 481576646 68773987 454054145 108729957 954926082 840726793 195046892 91594400 456773185 266196823 407243330 558610433 435313774 276038768 111721679 572259524 55241637 673297847 630342932 366692611 200139527 705589039 918453019 319704856 633276462 50636492 611472866 601270653 136537460 493016705 626225280 848558010 641914330 568318351 617625757 142897211 778981516 247592051 471706099 30695204 321809432 14949755 128948823 479482763 132271700 458206802 580729995 638890856 934115052 753264747 95543091 377736082 282268775 71266749 645212484 418322677 384242569 780264983 668381694 843874028 372262919 839433447 966984331 635316814 979483728 456972671 93928667 674215532 383067234 234349851 136043525 761318625 975763841 577330646 137943239 137539024 426503868 678612765 120606986 198669935 260515535 541260470 543630632 24854397 642429051 516080743 149960255 63011095 938287322 892560596 130110830 293965654 814314428 383106698 189356689 979288203 591673800 189653123 966197596 383291324 63936386 568231260 624379656 262372019 565644165 328655824 835673069 561305796 649364653 26152523 229563242 205417836 109281037 267048486 828002371 773978995 33543972 40952416 394666704 414752020 46977524 368949680 960401765 468214847 519106533 876481898 760982070 728965020 566179298 459933301 913247824 484641031 659842011 941805372 451796590 390947180 539178334 413559452 42805728 98581139 283414540 496817892 453336705 885361987 496445896 33754702 240599592 319177284 186724368 508336457 629416675 154558299 228990855 624692688 82172928 494971786 46557880 81229914 457116682 385691567 368188655 629625773 524007866 582749554 469327612 393191496 127398676 426400044 798273313 600358957 111960490 402987021 910065107 733531916 636137043 2168274 820538590 83917275 134826044 227883242 419839497 230164810 69193555 640202639 444656855 758830751 805583017 324443600 99583748 257274537 423064975 637395952 448944221 40047973 277202820 250802080 126780123 506160340 433719531 993351492 979667158 162114837 510166751 989270473 846316534 634465205 308787845 423902541 470618236 4013748 325360046 405857683 901060481 805232571 17257200 629417183 70209201 52765894 799776958 412115928 689930944 205731095 941734437 900398475 189283323 427279878 370088380 911759262 713721910 421792835 180683614 294568364 455216873 426253145 194340012 971926742 874363535 210557864 34484111 331569811 92623098 748583774 423402669 607203561 264262446 739998526 50828830 771440103 685127648 375539447 36686457 361276010 759532393 163910826 689717132 492565374 676780769 91469252 181701361 656245637 503434888 386185248 16301075 665597301 239147063 85005612 931852486 359387411 148076710 958339808 847152755 615877380 957478872 827716069 412446277 649943104 778690879 34288649 125411791 864955940 208738957 476144240 726389371 818105111 882010816 61136658 593250623 934392564 737880192 650447543 45494811 453973628 386794439 630480353 70004284 634041355 607988457 799511185 939668813 321193945 390525462 170207707 527394275 728233539 521983869 17194939 648427058 706117481 17181470 408581619 792924450 460797998 178668923 359658838 977199204 933475130 364988520 291587195 662392651 661167786 252274122 41902618 949257790 315419591 645474427 85635513 423180407 433789922 865867386 753733275 661005881 326599878 662144196 610530937 740070201 294417362 433639856 920202458 698496144 374218635 363718620 980548235 604434879 983532535 639302456 988226153 20488027 695376162 487616117 544969748 481916624 965408729 109378644 634173614 595610396 498556555 242354432
