120 7108
212333286 584886314 480244131 254968393 525370208 345331186 816537643 299913827 800178579 881213473 918920497 9298312 794775229 983028896 179437113 933563979 105674932 135408887 978506012 215588092 154332231 83731394 801601519 177024195 770427854 861692777 828270900 58266609 713917197 111681658 649677851 515645990 60036099 69756962 940241030 988136028 788932125 134922719 916671096 564579973 329029790 954356545 49238824 839311677 967909125 800355551 566005185 260450789 959420783 474157682 626195867 242428217 934111850 291384132 283809962 480146192 415345349 607255388 446507111 978393502 654823316 978953471 474251883 660940677 454212380 469453348 554151223 38534698 953837699 498220388 626446153 20596410 341694924 897196001 585906696 829836597 555532768 624718743 850999401 616199951 823833552 358653761 423631499 434845966 125961505 186055376 643981288 809322106 65192679 307101044 817763951 798840573 124501035 858471256 176881814 254373455 752765732 986321368 921714106 615787921 743875167 315262529 955748717 487631616 43726061 138448642 38645687 159731987 615751573 15612512 64901000 132317242 644590948 127135783 569970308 302902133 367801471 753417428 540286322 541113443
