32068 91778221
821608163 646391143 336802624 669579718 231911464 950624935 874855914 511976887 935352291 598454144 899550168 581618783 718014834 67212923 5370864 357194340 398138112 239032789 578941827 939455438 177585417 638604107 28519561 986390263 310050714 812729416 611817800 361990132 396728038 356360920 183164675 289814421 76075017 243746065 164090535 717695256 628898324 888181019 166618406 254756798 418479360 928241833 920861273 767539859 90072191 623612722 883920886 517945761 560171442 45714244 334222176 752326453 242794853 747842673 531025204 67043358 264183668 388936133 88855927 344983021 162443364 533355570 983469275 416381607 425838312 37983000 834838208 103204498 760439033 336531340 594877598 786806874 813907950 249929082 130738076 261192333 31802321 354176675 828435915 337196906 18039046 133560943 234818184 794677257 343246795 510954310 432620362 153942494 367680865 413956467 374632260 982673054 494753121 666265544 129660716 726902965 849927318 261798797 185175952 38025008 574017330 69978354 69459771 140526737 986140315 487475244 64700845 800785646 78237713 861535981 781420998 989639236 450082184 399790876 734754258 447502251 320086927 649059578 336467981 913884923 94021742 60910771 516926529 505238715 726242763 393718865 532305633 225602380 539573190 142311307 652431515 340362123 777188358 835741919 924009333 163040413 389940718 483523956 278946619 824096600 149317583 848410956 564279774 409073574 306873921 256645383 398050857 612205458 574259949 1182071 858337906 565172731 627781970 443036793 21447646 631062030 104189761 731243585 942167383 456034040 487133485 659759685 605269610 71776205 747024413 139028078 885781566 307524024 926162692 293631033 3230594 262515223 6213563 170036311 224671092 493132364 313118780 603857885 362605269 240299584 305340529 241804514 222901487 57929965 819502646 303512322 210125062 597329612 473611818 185912108 32590486 136290506 39956482 643018496 178086982 652735509 239378293 424201356 558408712 528315276 494372551 507222705 945679339 676115645 986231708 402079833 611572989 302651051 829736546 22846429 367905930 776624431 379518632 693841063 321015402 378384271 605775559 5049145 289100319 859625070 856827855 600024407 374797048 634972152 963303057 650253891 640264283 421556547 317185597 177706032 388096417 675832093 829837836 350402428 508276722 326005801 127555877 418648942 586983360 125610805 959149838 45730088 230179199 613147281 816563023 779771540 604933577 536313358 100795071 597105834 22653097 149523026 622350487 26318679 195461640 480809568 423768375 834820014 987286751 18565441 658744083 77514806 372763301 272701271 357415041 148643876 5266574 165594374 940705853 826363819 967817476 962861625 480276957 21575891 310586526 971648592 615088768 738127428 526260694 933855736 45332028 393950973 201058938 61498477 871716924 109273500 479915007 984045176 543054534 329085236 308295768 428982777 127211192 952732691 208330908 304616507 67784105 83620959 559993483 619599892 761298870 68307342 576152707 663532933 819589898 187825328 195295551 326217648 10544257 460272403 179332463 802995010 20521479 150308727 846679417 694209049 112418721 788006481 63332760 721943276 133681984 125707308 945879561 963418795 333274857 373087762 679389218 138425641 817157327 212726276 726777552 61039854 231052981 998899561 802691379 642763431 705675078 613065293 36388428 339641 977075288 317873873 479243821 290712309 525321320 740765227 544255942 841728505 187693045 605400589 282589214 564061584 38434344 321185757 869772650 911352826 945032570 616084176 75032231 156735458 629208652 50165533 730741217 463290490 949178879 466408105 573623837 597464404 890560465 824424962 809381733 429009518 118788550 707341705 677005983 637237225 566690892 450939819 739960221 60639203 112531294 735495152 995169744 155558766 838170406 993028993 111233594 254856635 9293193 33625672 58519234 417342391 686087706 469172137 46548408 707295683 903941317 831453749 208951572 708996778 410876111 371786765 831869117 548112096 308034599 788808528 863201409 569497352 844723164 385670647 691878064 141810672 924052521 304687224 990696357 758880579 611013476 412545220 182713153 890439400 520575228 369113046 237809913 335177338 158564379 156560740 435451266 184967226 888814359 206069198 324750425 488070830 255203700 448129998 555134654 765733062 943727724 479593475 727477883 135447392 438074554 412501161 620897401 309218486 406630411 635885168 975722091 961704440 906766564 619915087 265076808 270955236 930322224 79580408 17160475 870527813 719344752 494548553 876555051 66335040 376193925 962042200 637890826 69415774 638765197 965954459 843116875 172238063 795335008 419206253 680473738 575175197 694667382 455307335 254428881 193829742 704307170 51052087 601673031 817184464 143808654 692360864 93228052 413056218 902331895 918493083 224531886 267188207 706921935 87973683 879997691 484781432 550644420 657846843 616900625 688021528 508677545 96646975 655505282 437204542 220265404 127136109 114697958 568394125 887029669 268822768 21810851 771316301 290725714 316737304 90552522 943013722 237855199 966764713 499106912 472691525 921819907 974571949 293616166 956551718 874186331 131629647 239351957 586940872 372456684 443361961 350792028 633429701 622172098 139485895 314218874 265075977 316486344 412219859 664617644 383237351 430291030 457406536 975999061 201476430 983920871 202736120 378910265 67223967 358213736 840791334 563929150 96166690 844173991 379329113 843738413 953258304 793530592 580188364 414883727 568578988 614611169 137095071 12505048 862562146 234530524 444233716 546038573 261358218 781453200 227450627 376301128 644620639 5626022 531303543 219294413 135903887 960470346 596010083 887834821 541937508 380546253 379787450 805457900 108196480 839190727 53586092 709928242 956527490 218494121 460961690 117807057 640706213 696438719 863062342 586093336 880704361 595405788 147952031 105510789 853894994 805426854 26957356 200939556 614564769 289729060 603855138 666504938 574070600 453012072 408524283 919422214 384887 857523506 690141439 414721324 280589883 560526942 948945360 304592295 798468330 980354432 749143684 817459075 363869475 307430920 627621546 345586356 938575535 862983282 665498488 662053659 749637631 1790161 376390617 950074707 417510505 900324289 767386399 86386768 399355107 807074203 958260365 47747386 596527497 646707150 973486479 412161939 873079237 202238097 800610158 718175573 80455653 665183645 130070931 12325329 377159708 142497695 407310905 285543480 778868199 293174169 709094502 798676354 257501471 54600097 774845069 899528607 994898447 163397496 436407683 113823448 367722796 607399769 979305201 84612759 302093090 35880041 493733002 730193370 637801932 461953528 542367748 550222135 579229575 870204946 237158911 441481208 185214799 887309759 916497652 776555127 212017563 975150507 296734053 319664433 803599562 457299295 815036070 962540669 507545171 454429022 445440189 504784751 824967949 105965339 434943423 411021010 788779927 536160527 757274076 265776912 632449173 687284265 833731904 791635019 111835790 109288525 585970516 213353193 152317027 940064565 859274551 965787 701304704 478424909 921783213 82761453 868628290 705587812 888140532 741168204 304640204 647552345 888052722 245421123 256019036 442102249 424385010 609020171 231425574 539467358 575739697 116078712 473172773 186918347 324196083 601127321 855190357 855162668 693694556 853584305 657257181 413672468 754938511 338018610 396282434 232092359 118653690 901120732 458306777 726574013 868629852 776795233 201056608 452871655 176136562 418094028 233108624 493771147 151736154 912417015 594310974 134013299 131221686 214390802 723737543 904966609 162119521 919092026 479502013 248473611 69911027 665861824 752410928 44480238 808843142 718404702 508390846 943253849 788078578 701611990 522455037 984658412 198237680 810806240 788119603 307002749 682312058 948608442 125576997 376835102 248061768 130820107 111118982 972031873 122049515 255120514 438748482 82777830 340768763 859433666 274109911 374192658 50187441 802657978 732404595 893175439 474742464 424567049 412654399 217704246 387152431 89877428 589569516 771508415 221179057 984900427 9813592 851666697 83426088 587542766 15409490 685039795 748303784 773316036 451481140 5451904 162927769 66686990 404693958 555802766 633907187 600826330 327555104 128386790 893104732 502438327 779235131 355005050 309391339 204149057 144287939 399463289 29436113 314248428 642549244 204051758 223694317 442648721 308387227 451012300 338797866 72027664 205999418 952800517 842048702 917016796 35033564 221807673 175315144 481330562 173706677 555548498 677946760 391224472 675654795 288234106 936364185 257019103 362771426 740648098 313713212 381579650 964732598 68643027 53051780 485389886 828798133 559515248 692912341 910094125 7602743 679897249 284923579 133202949 297869289 47817559 123276594 635984650 509018160 415814186 915441316 174238914 3783 276787012 684397551 62197176 324239705 527838637 576895374 680583634 671279701 692901848 715225439 882965767 804988159 146603736 946754351 277613227 774315698 467236231 176692989 706444388 447007157 673455496 11604704 166793784 132907901 539663086 119926474 656885851 867913611 822882916 396225181 179470634 276636939 178633136 502791884 901113498 324003613 319578810 680528019 273016010 655657424 2137626 189776978 222995618 428973535 879886646 862508640 385454795 821786201 263518117 102789067 976478183 538016231 730893297 770595346 68023364 640971229 806297049 229716680 781825731 534202161 907962827 378856396 360297203 971938228 783798618 881618640 426645597 535743434 596827864 427211281 237637253 613622026 384334697 926885252 522320458 872561216 274233060 634268903 284714691 445568872 829398064 626160746 604903436 347867592 616300561 501084526 70958035 576123102 417972689 64999763 437574101 815863515 739600551 429416606 902382812 877441953 141025458 621591344 682680662 517657205 700254911 362482330 697889997 647301746 46484389 158645423 466719225 122030874 322418672 200697814 353891101 292139694 274476805 170698468 263780682 501387121 336174875 218597737 932179939 909506847 523166051 239015781 24188689 571865956 6527797 335112831 777107670 269182470 168111667 120456496 528286436 534815252 791361848 438712736 31370251 701127210 182214398 214799014 207554812 200699326 761532035 463543043 14417018 4654727 325481693 349160714 610887084 109193094 795070862 264299682 740528663 76529420 665908835 222843009 419958834 350279763 807045416 103933389 91703858 944622030 803751249 183288249 379087180 896325083 266745343 157298896 915654275 201279320 255553755 674563155 116387290 501350338 830918491 694924661 344969697 591740251 86514012 898572725 428068949 340086039 690797622 457345666 571291814 116915781 889310138 311282063 370239831 66124803 433516125 992447079 435792047 949845132 780279978 8714816 464658098 824777815 942708677 223624409 203023891 753261954 772009897 244487117 362068353 305309962 480195290 25472065 256848106 783027654 888840272 328755130 645242862 781890064 235258102 529005295 229827158 792711784 818312818 500601769 83598188 108558261 590446553 139974847 149501018 878655710 527376378 827042561 778082170 25353029 599594839 564624610 477048500 126268364 483751120 847517334 422937928 34441106 450162990 198098662 846261598 604435093 489312897 127219056 840874691 172270504 333112077 39247364 452341535 32830233 286803955 304007429 244824851 742013112 469171621 826047938 641939352 192439479 327206267 903332340 972511061 385187819 368730829 909131082 368522975 44498602 566748148 827893555 223726090 746067085 735522222 71850541 480632042 413093996 778057259 525407570 828195611 189521717 787980649 734699415 890020257 106371432 419816418 535738366 371589522 858604377 764625408 475372582 551630681 942540066 977261637 403621061 612164464 197379055 416734367 917764590 501752402 783224259 71307441 282797328 324108562 115617852 530384868 603454850 304750553 503326187 79473671 426286384 413603711 32820250 960657796 962349301 114006354 890237013 885558958 688200103 687387069 778458949 88129710 597695803 439466358 216516421 728658296 385935807 395268699 352946623 68723428 224961696 255858256 997051538 951031939 537442716 495913049 167821135 117227783 962384744 700512033 490372549 808712029 726978158 765335302 101725483 828881304 447302214 262976703 106023230 439190212 428084122 988602252 339187711 275288875 565876845 723275505 513297996 586889964 328285441 456757699 3063034 859379297 360109765 644077361 615032750 650950131 432034814 693479672 907649399 618626025 252044087 573854597 332280938 347521416 198326780 403733183 216616408 70907431 264167251 165350649 963497801 411817928 985197022 799080470 914898822 956203649 828764732 370850471 307286709 855120235 565851519 867701795 440586993 936355787 711831255 326446972 439846322 237327995 370384567 841127310 195406193 820744526 703478748 639443063 77970029 472466303 108323700 753970015 309546831 75508840 943913054 28983556 411928915 39109685 899525996 776692665 436935209 736844980 750865924 636388454 883483390 51256259 621672559 118248159 936381755 752383228 112794157 464082993 744040912 805992046 65313816 820612333 293665896 144558067 836875580 684799787 928011086 195638995 771418040 815640381 663099010 15423848 240649871 364546505 242076318 981995740 296130517 199290987 776925247 633285890 340614864 760822961 440828559 871283764 123204385 230367570 31679654 616583064 112048004 100417615 979079867 657274749 975453392 508045288 289054378 868988782 958871825 625195450 854802968 12543955 394006743 840570339 735351916 430670667 254682748 185623382 443584188 874996059 757946437 799893919 503936804 61036692 329468983 456749808 954640369 690647210 259687222 643230795 426113777 179800754 855532463 101828955 131432123 824012107 669739699 64508491 846763554 886149107 308587666 299477906 5738930 51234831 546802679 907856069 529227141 189518621 298086624 642289870 242207404 723437735 799176572 858225314 414649472 2705849 421468656 333758513 752271958 232018085 656472244 653487628 920783297 937279455 289413433 573307062 504485625 381953048 558006892 218811554 634171245 904266282 966504910 573176499 275123109 368117519 809603637 247026742 622434958 518794758 388181748 200082333 592909907 655883742 471056713 584688997 168761156 743679116 338904642 230165511 314411310 33655110 778823127 41796738 305369531 49292333 910637910 436647258 70651760 398944175 674540606 538333670 870617077 907153642 78961731 441743823 890036303 748063329 502593817 188167957 572043680 527579797 600621848 640927046 934100862 298400917 821261684 806297990 635791852 36389863 916989852 965703133 116519477 124268857 235310811 699753157 665982621 87761114 421175249 636258267 419201497 723145221 598346637 743294029 201467269 213664363 936297493 351352991 53163771 956548230 620640014 739142333 49893940 869133339 333493523 945216095 533158511 990847966 483468105 220232328 826727717 629187479 989796404 985950981 520743708 990673812 959081770 80204787 329652235 726919748 826831530 699325703 57539533 702488316 812782800 553628963 158203631 178653801 611766996 827761179 972533076 818968581 417186162 842795078 447071744 450538895 652995023 573686299 109299516 259845559 371555042 811624629 214916173 791321913 649527673 652012081 886242908 277013460 65286743 98886146 389058796 456169187 810899101 25355926 526917871 709473582 363507443 390616254 261114184 473701446 690816392 893601840 955170912 478927330 373037236 192011029 536576977 268320104 531148024 106408531 195356429 816223931 81644431 821963523 975206619 264296149 972280611 126141171 771974499 826425511 475730151 555289422 181564487 513309731 505794483 538529935 559249791 679483126 514674179 327095800 2626672 291049283 653668440 869127075 872405668 458326288 715674299 536961785 613857949 554671535 501858486 547623451 306962916 842600513 427137792 385226490 173869509 319960004 34117689 189973919 300865111 226161163 991663595 460060777 226147029 681408273 962043375 402379267 542067738 821489513 288079266 698641600 677480114 89770261 719110365 852055777 690436608 469505546 106902122 942568052 903709592 980066730 865421996 191625036 388713286 705174372 992349933 198839239 599358996 57912989 12884693 414746823 930373369 248920228 991997485 29224864 654707341 637103663 653497706 315618156 372451975 382239486 533074700 670875692 397837374 70986721 763013640 597537387 280343937 694721836 39822528 815913552 486664108 500576229 945125530 95092763 267944456 315822328 213913204 463673172 750514173 654998733 750416798 298866950 66701768 170964367 856953756 340531591 219176998 824656806 355653851 436890972 274148398 348368659 842848552 338761683 500858296 307846292 826387601 318215027 902892056 723968338 156650217 970439044 302973216 3773059 569076436 751621916 93209978 194108367 163957055 25699048 293652582 119206740 207510715 183051218 520255376 887691736 976909132 315236243 282632746 105412280 661664454 74219797 812876808 171804317 486798224 303670446 922409517 125992245 690395404 693941847 80158961 410278828 125142537 892690439 823019118 719302008 998467224 611416744 878447540 125575108 796515381 560136282 119185357 126580521 742176573 645618908 77679970 845033116 435863941 961542286 524750270 72495205 421918868 885158825 362611529 138875553 42594739 210747784 448313208 770213676 866431244 872819851 162422852 7918742 889274514 868965490 678048406 330914296 841580517 615271836 821660750 851371019 487198148 953594599 692772775 673011154 788463742 958746154 203672853 320860684 863167850 435140791 722609350 732689724 91806969 982679238 841103526 684910113 152601620 243079077 933123349 178860627 549430335 462894589 767693567 641509046 21671197 236234681 517184324 554616901 597730587 368705706 982353475 801235151 291383301 809811646 807798126 650848120 161833173 284763221 784497749 510282827 174194250 687576337 917122975 33406749 459323676 306754156 27330565 434765323 546788139 78615161 559131314 814752273 437268283 729476974 583329326 72100543 744562671 482942830 37605792 873764426 723450014 517965032 282997283 136251886 301983027 530612509 81098715 596020337 339392785 520639806 325981588 714013657 743191065 430785748 713497867 727662803 335536012 795081924 21313223 191099182 494466528 948189449 771075020 146473190 238542100 230939544 929254167 612509687 432144764 896414441 807680854 58573569 206824739 578620078 483485568 153664035 583853678 460757191 861209801 653331135 132422174 839123862 485552500 167089335 427770275 447291946 249400205 595839388 513546218 221658288 837419453 572324679 850518591 801031232 114457963 139921723 961050419 875881396 248739112 566066077 944865070 840111332 471553210 492706382 941147812 712347757 986105689 12999362 696550961 269818036 343707204 594935898 420353520 444580278 441056648 983872439 584897136 183844086 516090137 338879643 110696623 808110351 320065129 682772287 757648216 636042281 159810779 230308689 585456314 200325244 542349368 498947167 582793819 629260320 562374662 927671797 915358498 840929720 306688726 99880412 178374902 339496955 681639655 46713672 153014440 659341353 640985491 110379122 519962211 563431807 333043921 639188357 30819707 641510879 212292841 73799142 996630983 718853181 83401250 462473337 146213424 503945674 411459546 750072399 647022515 710665361 488806552 110275164 563317269 994383770 102130492 911510899 322092302 523850569 626690096 503802338 65294646 736048917 611332171 418247560 552081133 835895254 230467326 648947351 11708633 101682734 778156776 942907705 805232211 753700982 570496151 815618161 315504238 485329282 29022758 870358593 284454263 437838924 522637363 909302417 904215856 760542608 173728990 448062173 197725984 832992520 994074625 725526797 694072265 590055506 255597576 172623378 433216894 956616336 421579866 109691587 58268684 300006471 619919675 312730029 922770983 758978043 231206846 181112869 788897659 533893150 107161181 655570735 217011858 640779473 451339054 663521857 382342920 238362962 933849299 641637915 967741936 461863713 839940411 617112425 28142672 145856188 997347460 737374962 535622891 861184506 674879688 451079098 863330755 590453222 649920213 700833974 713868404 782619124 761114576 414237131 237384949 578930888 681117239 675573713 526448189 262603973 652657087 56816415 601638828 932581869 75731344 417356462 890536486 546757148 83198171 678694359 918313861 672243046 909996992 666749095 403361647 359137065 993853893 134076452 565871898 722799528 589919554 632751735 869425760 596479325 793687920 912247815 747705668 885384102 498873761 871233890 694991207 559115053 211454666 692886849 314149013 802320201 526466564 75658109 782212673 717536187 875100094 41396351 623511197 411033390 265873837 376410076 152158087 634842081 113814294 945193866 938111187 32156036 785683748 893401703 556011761 542424502 277351264 646649054 785878697 886603462 12848744 299758721 595034974 62975498 22039723 681123199 590378097 532718046 49572950 969391352 182065023 462200172 842642650 273909949 238937808 978241027 705012522 412574032 549191254 290293398 129991530 507465599 175189457 586019387 761494908 72341990 94737169 896098608 288371377 493023347 901684093 818491522 6083565 160704232 792803051 411830303 55598779 370624551 792947938 980267177 998918271 446090248 65330800 500580423 343188766 341487840 970195200 914371720 95721246 273071482 742274291 51013731 240976511 371029926 325438559 572087170 430113562 423462593 842008403 326137482 936825844 270905582 610412816 925487498 429483928 39294262 272977888 473003032 160734020 886130909 323703367 4687540 381169270 190894122 647924353 339880507 156643881 457897218 744884330 461235219 778862073 241120375 775911379 253855369 96069348 599653486 77476847 139031275 707034073 802441316 742292619 914281102 212341158 187862882 958572696 593262006 792355953 861783560 164137387 473161906 65024971 520040004 977430559 330062733 797052114 545875801 634464688 441254088 954585289 681982137 589214677 728831927 706406249 194496773 895210459 148905727 834441793 944211320 700979290 600444885 809468434 522071084 436677577 41862765 821201830 959367178 230071484 904954962 345719988 69917611 198674024 443685676 938668224 637094409 212309375 482880489 823993802 549278674 316650091 354217804 146995610 204526203 617912011 546678454 492704874 865141556 945918231 852165649 752041656 669585508 390598490 520235146 619578096 588009592 551201191 502096876 644534022 998592946 586814633 323519148 543886131 846225382 82358511 592778556 652590688 40688983 462435363 613541955 598772355 430576371 845475143 34074120 924737069 351292047 1692756 835120109 47211156 995711026 713932176 763855613 652822838 779448834 24005603 959395117 172967947 457333268 368491724 806256003 276976070 167790599 782302722 293335696 370390197 904867584 403491555 976057746 66075398 409112065 88083592 293115223 504173507 557402257 570142150 970996047 376683230 787354417 360970303 281936363 64335911 343562210 779965828 635400276 675206397 504646624 510825053 785996139 193167678 452369309 91853842 990578879 185509980 66266885 661106112 478444024 619268086 208180037 750596924 886705961 622957489 284076450 919655719 325126086 354678293 867501945 177231567 807054697 86108807 707620367 338835532 61700682 770328164 807272803 79799116 302385535 65397264 7963503 859638948 305071589 317145713 371037523 823193219 2911973 861409837 501199369 461356201 885577580 396067564 61895439 524689837 53662655 569174724 946497800 330774674 122315720 683720544 535734816 908749267 181829032 159490135 309851833 579703974 134049761 96481447 487144757 261730332 497833320 662302536 10070131 769089267 342001319 191496519 494710918 750401066 51623573 445295803 307702064 734117091 14549138 195316079 481069473 693531842 50714281 412562673 505910337 215894657 152128788 651105979 98635449 384234556 399814596 83902022 977639134 899298703 804802027 532653899 652815574 548567277 507329803 122335704 809477443 902594244 450312677 999768966 297351346 692931678 375663941 559022076 343036577 199966275 547020078 511988634 910680202 416738691 838049800 734578652 586087185 984135687 328271226 510076119 469632278 437169623 238803771 344749658 44382789 753076478 755335299 708891512 277634455 427734554 140731334 227510083 329395750 233261094 835671128 547172300 966535368 736383944 34382228 309755817 423023326 973529126 927845853 446067060 459736940 326881517 744987234 816660552 629225350 415473791 71197322 189615745 335813293 947335700 745724459 534752747 89365668 195370880 38138447 125848198 308101224 906817293 817514577 352730973 624188454 678793534 905052499 196268080 756464593 56257853 162203404 925491596 341069751 226801224 408260232 293640232 233983743 508868309 980578519 122634380 805789141 556253028 168956514 527586602 572341420 253092898 445524835 412151073 538497660 303541537 752912845 705620315 202439107 864217992 287900612 534081660 596262814 257910692 245305405 574086942 78753602 197878434 102977156 440918749 123644363 200739869 811492151 916174418 630743164 875292721 801501670 458523055 373843550 283542061 702207780 980679151 104545682 683978211 51274789 749895887 269281343 821228468 507184808 529071838 456352344 588181434 282222446 422808436 315183964 756693348 11443317 280810017 976020687 180327317 612606934 166503433 148037816 268931566 591956850 426436380 357376100 799448084 588026799 270549251 496101395 866322865 710106510 648053590 826215029 190617697 647474848 304379872 367975314 779537802 676089956 998682976 673204061 136345424 976995480 901799871 547363742 999310241 991649669 225229430 629117318 231011809 917291083 945170301 935882634 93171398 731682827 301613648 39974747 658012240 396502954 638025696 336226541 578092411 683969294 707580470 999950519 255724534 657542196 487124973 579757924 705510830 789294775 329852963 460993070 694002509 745395890 775080765 308932906 91094471 968846578 114112724 965721663 295031891 427691710 19191631 685957556 55541601 336986077 852853373 839674217 841373296 403580670 461995649 118811170 615871409 176261927 640769890 670572394 59765182 469530100 573622169 877853546 623909124 678130511 661527463 329859275 667576148 250565967 590605280 108030729 603618774 466232040 576218201 486729333 902992815 380523179 301259390 404518453 436004765 671326972 360866461 116524313 352265071 874136965 452972652 517605199 769771118 219543749 946239157 468455626 460096270 124739543 489263752 826591559 872783357 619243938 762314849 640509 767199824 57366840 533475177 257776395 117741671 959695770 969519454 156667436 41265052 26431532 696115190 955012523 269546316 387470201 784981286 208597843 470688567 358166452 73532515 788791995 163914678 946615880 156349054 773056462 910426007 848426720 855768723 849496019 114689566 962708060 182270290 253349655 388314007 993217598 312454984 150796274 440672022 761167464 311861217 477851760 124400030 852207232 530471928 359960691 940866534 491142246 864522462 374288338 619782322 434651789 984447486 899017822 476148929 527143507 439116940 956602567 411764879 794266928 620747524 271259892 181680020 19070014 888167213 114626402 655347164 826580468 809736550 464806757 799819018 446201269 774391940 313716799 210919283 260718428 181320102 385768867 137746383 683145751 579280141 422410555 306812443 610369334 47689877 991538416 500136241 323003287 382335265 988424556 733765847 638300723 773386031 776117588 294167656 512212653 659196681 721896535 812857950 319596516 863657618 399416249 699327514 941642847 642573021 551071750 21520070 624689239 937125192 581216123 228894742 449077072 382321949 140680583 320696889 125878307 485782309 178266887 596953566 913599864 205138594 439371631 890264632 423929268 973232009 239659040 367196733 435962212 378750866 837245629 726702361 11424673 145814484 771297140 92288179 108684537 733508946 670705574 134158782 507173265 188207107 984236870 672831481 3051579 147667159 404113084 750882077 329552546 280753479 33281816 289705059 740193072 343862169 85008876 980452128 551032424 390097846 281690203 503139426 968967263 68618871 845674178 442047594 930120897 111775888 899241470 648706778 439470701 27056601 34978866 305495322 182079722 217038252 234972309 982217199 585840996 26426808 952092461 530806511 553163988 912076805 691976784 968498803 14983970 173916873 648096943 207445568 998698077 877986020 20120639 177762331 177930946 670364760 668655396 587819444 14561848 938456557 246753276 984580752 691012603 723436684 619878347 398681907 709370408 738088064 567104606 219418817 251364075 367929356 374317403 615877151 290596859 811684545 124215890 914711037 257894191 355373214 748250027 988064877 779949823 898151768 180998853 325496393 195686865 347620632 474682897 567308787 504017412 143179907 996180955 535961509 502059770 784227556 47034659 180706066 310040720 334174659 835492403 744689137 74379413 893491467 752483056 34101372 351936220 951382176 566571988 827365071 148092435 83946699 756925704 887465913 88918062 127414813 477401726 402201455 562606041 681925685 741205958 786018186 86962805 394699498 231665165 363785168 399930457 409339461 490419713 504304648 897257944 229564125 356185947 767908427 269728350 779721975 14726309 499831204 240757190 737016068 586231954 155769626 243595458 83857965 688542684 608890682 794501456 903850166 450097713 738709281 542464881 660684873 985654964 900270039 991513333 577431137 601916298 21715810 503306561 48309289 754519463 618575306 504238338 794393533 396781967 183547261 569649891 122524539 272617601 916295698 584363670 606086611 12059907 13692809 344477639 429585917 531734233 13906969 474129146 805266924 7280957 91614281 251560390 101069421 305526275 939030193 531723134 615493926 847353008 642635647 945749492 220301497 875329510 297966198 391626933 645070248 761227522 797956656 477767581 467255815 299081158 247045105 843556842 688884830 598482944 759503505 617892041 754612267 873210132 692581138 251590420 678757324 178516830 303080365 147134089 256475979 668369688 25154907 753789667 4073451 915601337 64887101 990125321 366940164 278119542 948468807 503001439 744657353 646892348 857357916 841023279 794010771 459530096 145138538 914212224 103947636 533198282 242703825 928218889 515955590 203470414 552865848 783873061 249470958 138103483 620294475 309125153 440791043 492247121 164442923 727743318 561114833 230372337 632956805 993999515 968123787 833883725 371782496 453387209 759824485 437261955 874569381 262815308 573817847 433591572 143852044 855821174 27903247 705264962 475905271 606705991 425748930 24751156 186954699 684946244 271461925 22547301 608707894 591847443 96160179 170070102 459481442 499388302 325067615 876204789 620429622 280805101 455865810 826362875 699720800 887912947 802142626 175229748 994625031 320825384 43433495 222188434 747439879 817531325 71156802 314374054 982096844 944582762 753903687 330347696 606130669 73908406 709593215 785326428 697428437 303530815 869872113 945721899 263296654 179478047 797446107 664507523 421955458 629596159 273451152 480176719 124131167 421678195 296666021 270778657 576431734 450390911 207954145 696666522 557755563 682443841 28936094 275227048 481161211 898300050 771094217 594352579 771212516 132722825 61743908 890524731 997376956 373846949 455101781 444387380 41400933 387563417 865078114 371026258 715828702 569507821 75311115 671698062 275974473 297656632 8313108 724441389 60643164 639122826 951689821 505543250 48301977 205394397 299119020 421439142 828499482 923062381 291561898 106307940 397817347 545947695 871208837 83132914 940121648 498054516 636760291 677233973 727206315 175212185 9349091 366258510 105589423 297243620 875165132 539660427 431927165 111707156 482294171 89009400 567826734 904536985 196563838 978091420 372873203 665649702 10657747 252101784 669778264 752018729 661313229 97768527 187155532 507833841 415987525 322741302 129003682 880891275 168767859 239198026 35774442 733194532 902857240 189896588 962772976 688810663 924609541 883795272 61847419 486156661 197508113 205777826 76995418 902732685 900221138 981384800 320734434 701591758 796086563 601292664 924452341 136991635 657151236 757445389 737448697 733021520 640708598 443983132 724555641 15603433 452875173 361423796 78637648 22052238 439896393 47425400 349210254 466358684 382224224 685781160 773705931 550364825 576448803 928538903 610139538 813226468 759022286 959835045 46579565 108500523 421019260 311886960 570692925 787140750 958939335 862135049 793097731 526423553 772037816 861146178 628275925 301637618 6151532 646488633 2547633 889480770 889236901 243541930 700844484 919778118 732669767 692730560 211760147 259108987 399042791 546116112 966459054 767763522 65016155 117658582 773400163 489159074 817157950 913067172 860730262 65371789 343560824 158001375 403375137 664438691 740858530 524782774 465735028 503981646 644411001 31564953 626795872 701695855 128751670 816525054 390294318 50767031 949933093 750832996 307146178 547424893 360678559 101236085 455767314 397308748 400802009 127779184 42671 395132581 550592458 935985047 602474810 336581127 503163594 424171990 572968673 351508244 704483099 309671879 91694341 488715218 577295732 271098718 579543281 463399295 206810521 959058046 484383393 49381210 434092435 212644728 632651258 775034212 85298199 689480997 762124571 499520142 610372729 663593830 642360305 400870328 886465237 156037591 349424949 654714427 731361760 204281895 229755831 830386386 386287923 534183247 986207513 396016593 692531306 295439475 997041099 558843882 38541593 171182847 873643184 817393728 833729529 227293925 247161162 100360690 942069305 59268140 983354703 571040594 249860514 988908515 340885154 109858189 64041200 66706156 520915466 605936187 33108079 948056669 492782578 152780287 679642836 798225342 296294297 603670410 499437753 674724326 627290965 301208614 708553617 635298780 735602666 312359100 896964818 207027269 310556406 889276062 820617258 611956243 105272493 619828579 260361582 23937262 433642497 210165940 490939165 715332050 311764744 305415480 953352144 240210352 591705662 45612725 610478370 284544249 737475285 789086817 721330375 746357931 746297076 685303640 428729101 962947102 80997478 15124500 776544251 291310591 410810386 856755893 101470534 189394786 422460036 882532807 41294938 959998933 91792656 585966806 881639613 250777840 358789537 283805135 971737865 533602350 245925791 141595830 586116130 844432392 71259349 993527221 618121495 605318811 325193744 194166555 436143630 369763374 33207058 433964189 978801708 526983851 169071570 419553778 105339069 622318249 44618653 379098369 13098050 207764020 315249729 620232202 114150988 788681012 930210593 841373472 495387266 634293427 602404230 14777788 200010206 378161082 424495879 84362885 819793806 624115103 776453444 537857286 365349593 937251123 555700288 608439810 218761847 207816352 35540603 545827733 917028459 394310817 987781450 966917523 160248331 325853112 506987727 818189682 67472377 822634783 367889635 396028007 767794747 906293928 440463524 446900370 580470420 449361799 432827571 419323904 528696285 995569716 35067581 3468291 510922951 827867311 774505878 979195325 328131081 918129379 365477627 711509976 906383329 398730313 409882950 977436428 931572124 992066798 147764752 184999499 781916742 540094082 5202732 963999938 402999520 657019330 688143282 834446735 433927256 891988504 596077117 610006428 112065389 941463820 556838941 868352245 854270696 307389136 643779746 301363863 254896121 864239231 572631165 745449722 354859355 901581168 892459192 104792673 431250444 412335291 327564942 259458140 238034277 51799775 313483671 490507808 879540880 474774313 668273360 262204747 226305389 981302874 865457066 33619631 222699099 802134594 348153966 459898240 590488954 278686953 622731006 378728526 845257178 900712174 269807168 271391112 664418067 44737317 697908716 161526395 725905735 722095120 291077372 123847886 645023740 556065856 183406676 117691459 736336803 45205475 880139470 485888978 977398419 691337992 25374935 920963778 748313166 101305458 292513620 187960302 762458088 606039087 77531504 240277548 232904853 991091977 262182979 352072445 557271865 852741676 261664941 871888490 122813723 501699471 217130126 34386585 327405375 782773300 438096524 580386221 8543819 538802317 278667537 711366539 794883575 626939041 447277648 700801815 294201555 66597386 566380043 613952113 729179124 959489509 183535403 712261147 650433102 745351795 618258303 193053201 222735637 140204577 614142739 382579583 838940046 928395137 52508282 969395088 531762621 131919541 21653636 143345400 984218633 316432465 589130333 185497872 849136096 39485956 474091645 17687335 950499294 773242470 48858932 679999257 238959478 950120853 916181155 86795810 606143585 287644236 790322575 720410577 98117413 783219360 411018545 167000355 64389135 939093553 112729069 547370362 717366809 949662017 29793559 335786167 249406478 444365319 887069012 585196397 961467642 252131707 892923772 289213713 470330971 639681082 450270169 192328603 945838850 772366720 306791402 631141027 989643537 741024222 152426760 142680032 208458551 963776966 196632199 923943020 790507691 276391687 825925152 708490191 814436893 260392078 426323968 137450738 264156502 960232292 793886634 944252798 214806634 301659668 707765880 316051718 895033066 61186809 833879089 567247354 486336393 674778294 879786539 733791799 251660790 856433013 357354005 15889799 686730312 497619210 897853015 608069572 132177613 95090262 396545376 794303323 982803629 877098219 146250329 106382742 800844801 899427923 109775872 534468246 344221202 351129667 424152538 660391039 865495810 368800376 167938460 363721617 55394011 554128342 519538068 904132671 560334509 214860683 580825126 933221273 838975422 973331444 246110358 63591184 442242076 14362597 172177274 435855866 506406766 617700838 180016358 192403976 756194501 863341075 471497156 996200604 382357414 102572574 491502203 472765948 751383291 535139272 785850212 710251913 904629441 389287394 152792055 265100194 964893232 376774544 957848445 687938781 118023865 509604649 78405810 287675738 740825948 864164810 640561096 33396162 691305015 40259324 675075320 359304184 274388719 918130196 394662582 772559707 816873658 985687019 977512070 750834712 823684993 834340365 447199974 632225197 672954769 446325934 844017828 713333847 61271001 347943916 749035090 128155007 348082262 995102087 198824670 391282286 501849824 865754190 639578134 812868540 743947914 884424333 196651343 662032096 907106542 216055227 659263775 145660152 376849010 569356641 291341121 505208912 415270365 450668157 277293065 852985130 544990918 217115963 156227180 304861394 180267610 643930342 96682 786759578 936425444 289059737 848426589 498323686 720132051 482245032 461614642 459180573 465633122 127031955 498737620 705138913 490529778 901293201 314724192 861546393 965150783 422614109 501083767 806020789 347788885 707095072 700658872 901105426 834179791 516033444 257254443 445301213 902158173 84780641 554602148 689466058 732550381 366835466 499967379 99227210 457813840 432331009 720712398 220487818 710062129 40142411 259312839 949982720 107508161 176253269 232352619 155878287 500280347 133845487 823362432 693309156 149224719 644794285 303875503 524314894 340958683 406541797 465529725 768226877 565818609 797525797 352035823 227347561 169177010 908655211 376865298 226402597 868578853 593191262 197526677 855101123 101101221 314630195 498331923 663231746 129667438 639327983 202021114 376454576 75995163 550628907 231946697 231795565 45331196 780472753 630215284 758593537 156985318 163384480 228518058 339783272 320156230 527591681 568657317 739717611 11219471 528432567 977668608 810212176 783095200 174899770 489515331 694514029 912553178 549964752 240356794 632845264 809705345 244538659 572935619 845810679 795283950 913676112 758699517 725823205 367377564 69914179 70193202 983828449 49537457 778319048 551628156 900875075 666835658 363753528 826895489 904825075 637933866 21912576 126531316 225527123 192901795 862337387 233433030 248823038 312278286 277674505 130654309 772239905 323690073 549911277 881027441 543394555 853931994 202647113 616538363 548374729 808735607 516216155 671541878 52283872 112662429 633988053 436981043 749205052 171723508 325228631 274787466 339855584 836307230 487081152 610496788 922623238 17342042 807367926 84873126 991350203 554200211 560557677 755528968 194817279 802746054 429916953 423380871 166629281 511032372 458177881 706453669 504727129 140665846 695733425 887401196 939354305 654813885 732494607 740649668 500044506 530839804 824233266 992067645 568136487 61800949 469480181 596623656 983771262 735699416 771586722 150644146 428674970 739648283 160642501 292271031 925620598 891187263 121812085 492303960 994529490 153076853 288979589 257782925 587367925 545328725 542398890 940777635 112571493 618397766 250255007 842101754 754676635 417269594 512777260 303280165 331902533 426860724 801203722 558742924 986286470 164381242 78057220 930734270 557479000 155383012 561785822 724698055 798289378 529452963 32390989 931051271 716703036 239402268 635554045 831065986 359512274 246308876 584386058 708406981 436403716 807243376 119974941 636146700 839384358 672922340 323523701 404712842 159237586 282995677 23495863 447406764 83774460 15319926 646737638 804696206 548045098 993069185 862925085 345861106 548880478 559488738 337787722 202181467 654364660 781936111 670069013 298944445 482851892 11998353 779783782 993840279 72707021 257143817 498756125 301305481 71219946 735236696 947225685 530659013 82682205 608656999 434969570 146200219 877528810 336686748 230999376 437465544 597643751 376707586 837994984 370216426 912767735 843713687 570752458 979506418 598871205 743561487 59482144 656507401 285236523 220339698 481846007 76049950 169918980 326253153 785258570 847938270 859340045 803090518 673367951 434904903 296866038 154810991 77163494 708150536 829038054 772774588 232363906 650019079 828656441 59681459 864999022 36263290 694725593 354576518 168920626 551004756 397742331 722268113 235681096 272733542 390575645 238509419 831455108 618452024 732675460 291391926 640200238 479824756 215418184 685791214 916834834 357829307 998338316 103687210 420227657 502797303 889958242 690355359 770877750 343038496 812513770 577279398 758383784 462697788 911313649 545522193 592397422 936909510 110738064 655407577 567600730 419176567 767803280 509338797 715279632 4343578 909663534 383914387 192268350 71965768 533164931 164256785 779864686 770978586 363938845 782952176 427471925 576012374 369673527 181262746 729342110 61522838 726848281 637792272 524130695 954440335 86954178 776777436 705090141 531043971 657918587 80472838 981724090 795992486 75955790 958149987 881819126 834281286 76088289 286433129 41506772 160223194 308904559 875934496 191970513 122856646 521344664 572281830 409396536 253665960 293179632 875980206 273717178 847643645 475341421 100259784 87607608 162908322 31651198 141657628 933107780 893981058 816275977 224996302 129800899 458955875 702229922 297007529 465779835 648146147 97896380 676143659 498351985 392626930 655448449 965732196 251457177 765636641 400727831 725655120 795104369 183737990 182399393 340684538 385206769 624953333 647071129 787088949 525403270 372512412 402276866 833430826 248741921 845125651 219101236 161792128 988747228 951787706 47979917 41893810 321376935 275921130 660474028 248771360 457675709 505642413 785387014 565366537 117205499 137594197 520129808 770570804 603403287 279715527 518837742 664779477 878558676 505287080 442833284 986387131 814012817 414949384 742919958 349716667 381244748 985935811 883697890 155220855 334654066 775263909 128973793 431035596 554626853 599135108 893768539 315585283 280401170 792461066 655740880 653789305 481268582 162427310 969630455 69654799 710884757 611703173 265271369 849468450 498389828 46921107 346919426 735740154 860694155 112872308 989240154 834350865 93250980 4626973 763793386 307322038 163721828 606030768 757303486 950466004 231401355 63242403 301105009 784751757 824413319 626920732 761104546 368678112 910609720 446339501 847767324 422993729 119104978 125512839 934884382 254266897 651585976 351199066 803031918 72007779 467933766 490388540 177164516 264195102 111385358 691841787 514714740 515155118 180869050 876541590 676295609 927041330 670703666 703778219 437827494 11060761 57026701 344053812 607824922 127886921 412994909 368820651 931081958 811263909 597501333 868967731 154405961 366708933 771867129 78555477 162771044 208734668 684770049 93369715 623127406 765154408 581647546 36673329 165847741 716224767 547382212 39248097 262126266 302133228 621491668 957540060 334923046 32571511 745739402 381470288 349198438 631033306 508642299 24749465 613904558 268395022 437806556 99935028 959154363 72643603 450118279 627138628 1259574 985502291 857493670 540856083 955173371 447784713 761986984 11982007 649576557 594899211 383890957 614541050 941808149 995896472 679628643 233906939 258718183 187566600 825049153 523418659 734354327 258954011 784324080 280972531 550674557 616913171 339577222 144224986 630756601 184684695 195455107 212744267 188722623 135795376 817055994 160822586 571214083 190689427 459933803 348545201 135544274 261579328 238207758 599605311 938835529 537901467 878644414 832413320 862932147 242179189 113932295 709163595 353537355 727979012 382519465 482967523 785590854 514836956 663534335 429724913 629846576 531793409 282449841 783394197 965760575 599785517 977598641 855426130 868769462 273541832 899794678 986987695 774338743 554913725 439528344 392994973 892595319 475318682 555486367 283047285 550702684 10714211 431233217 163535728 771763506 74467297 352312576 525179136 199550306 652491213 970483557 58463858 291262417 105970750 663455507 340779217 830849254 86578664 642920427 878265699 287943600 131488178 666630761 365127278 340663823 856049897 113618862 139043125 192278885 234609369 372476023 749295562 179336457 318602935 638077096 432024805 451097887 973632873 342728367 595039505 911271566 248884041 696224157 89911849 736122746 307488932 870280520 790858801 289381665 981484984 84879867 107339504 94768010 746118082 702957346 94581161 160670382 913962938 382227633 31221694 930112257 362134664 159260681 371747785 970713594 9346051 888079613 543361801 231982405 822181547 288653523 900905727 179616560 406499404 781843208 432974012 666806984 508682922 104924408 933065532 208913395 407167534 344506057 26301214 328693240 746942571 423147780 852952780 776745575 903080102 965634674 697765375 150352139 961984959 160534655 163601190 164311230 131503133 97238520 342313566 541887759 588179201 432365763 734633095 138592046 789705456 949845054 196449054 323718383 362549037 255752958 19876296 535028059 140311801 666136739 418431835 795338707 871678184 449463215 90087386 774643737 940959111 779874371 201135213 446251123 729936353 76301986 257529021 128854356 342729158 876592062 103686672 386567310 503359827 454159935 225915601 15787877 10611186 243621476 890393520 628347173 553399975 285943207 175418354 230888028 997658237 304245491 336406262 686696778 288482918 564109831 832246757 782744649 424785955 266364190 852395343 577820786 661403980 996645869 944211264 114860195 292946055 13916726 803952214 525793756 204277418 93923517 982682796 727129182 659674681 283073683 631019753 483427696 196671037 226046822 656418474 951021272 654066563 581551693 697848318 672691235 732116724 762756215 272666068 861112275 899818572 245476153 119628332 768629592 226517927 412457528 531755202 216130476 848274360 804255130 210723656 488090706 984906906 869919634 395357437 758452866 832718724 8271435 730780932 171239057 339179478 147745222 182531574 356737222 391794064 270386036 941739853 973962804 579481881 807629988 95320819 883329609 201899934 640709714 526314409 737860803 11586599 508057445 453741799 347563129 964676202 878473939 831504853 45290030 222707680 568789042 360677512 982763039 380627446 348470357 532398919 164194203 737479842 737842297 747920000 297277225 656362933 430406955 654190900 392043225 263823395 900665060 81333537 736968322 855821302 203399424 628229013 460661865 726750092 84003789 543560443 156915905 635771447 964484372 489769586 449787829 160952763 680424069 375896385 154128957 732181706 933601464 114402761 680047725 199674198 316647531 69060980 208064336 770463890 390073154 312646386 194742096 537321184 737679017 890980379 439399074 933513947 49810127 418900989 759527132 590534994 342000635 354427461 570433507 369031562 692006272 2747234 122433526 157189823 881005076 233576853 288076988 17675436 74602765 426127109 617439417 461035483 426611660 353915791 778110645 110452857 863950627 159343689 201071747 731058346 84814341 813949957 310781542 3551276 472721909 954167023 781322550 587376166 329412402 139196619 767626201 331481584 841464340 982874138 345049370 947115234 763653504 777706031 197587627 153443048 692558593 80121252 127485163 193884106 458267701 273023962 954455214 652044140 589434973 820900770 995895087 142958003 768821896 353605129 863018401 330850230 478325379 859651313 407817662 509966066 880207773 744195721 438979468 263204490 267605156 69644550 100995820 330713669 254122478 729455815 624325400 745475129 664011518 686718430 717980313 923041363 714536371 877135227 819720109 907246436 182380634 317072990 852959240 210609881 766474390 805740385 617393750 107269394 437385775 543212946 861650990 947553620 544772707 863035809 816874448 878823110 700113471 109703862 541364775 780198692 215793568 999541029 394933399 506413765 865427972 535246938 829594574 387370002 502319017 206519651 49491500 102840616 83021413 732446400 188545088 113957040 968419507 174504513 552444650 56037838 409833143 602328745 121942518 641018881 439269237 252770927 519760179 192662905 132487252 95752050 761861093 427910533 835390654 819015882 47499022 522756038 613656669 393058255 488646731 593123648 185844515 116492450 686083578 777545153 522539770 960714702 309381077 981175567 207378591 808812437 271375479 375151135 416857441 365331541 906844472 568958364 79484618 846165140 11181877 467069644 924020112 933345715 461618615 204714142 207730788 281342315 612912385 734319386 273037033 412814794 657765932 898481637 570829726 671983935 595056499 833769873 730825782 305467946 41285920 209023361 773502217 561903658 256060698 24946262 911711889 854109321 104288742 239632774 367577959 577998624 872198460 890815123 31064821 651532689 660984269 607247621 451043346 296579063 235415024 736663470 546588354 568389553 990570883 579031910 586465409 905505123 962927168 742697855 147510153 132970056 892830265 645749544 991991034 816634393 922361499 348201463 449722656 907034342 101237225 848327218 955043459 22235255 676286453 680096074 795176649 135092782 776924803 7944146 703070146 481338362 613072147 130138569 680399306 268870195 587380981 176586138 475135874 871338722 327838397 503037746 462908788 574319089 720187819 966324349 959907509 477455580 682130628 218702011 965148591 547898389 191054624 986744050 633494377 651244921 613214058 191897016 583408188 271869018 535704827 774540706 658753945 436127174 252614837 888294090 679474605 619485081 587081929 871488189 917100062 876811385 55700566 971912541 404009469 402733017 819335066 164811356 600215261 623041356 110437599 861654750 275392028 467637800 807608895 767357223 393081937 482360363 388014456 491837811 21353959 649086683 303392432 41196093 520326461 328639180 576914330 899538652 915263001 177427946 599325416 133880391 265580993 508379408 495133042 312365786 53789447 336364994 718681008 727507773 395119779 78881390 203678672 129945760 8170929 145683688 556562359 573203089 854964858 432875933 972125511 961739043 524376668 286178685 836802617 516907218 398418342 328363567 560462248 498820642 814005696 231865335 593628604 567531354 729634477 997604604 531587727 137731911 547602985 150459856 989398180 509793815 813266671 828464787 518170202 404420157 538860462 587662105 850408741 373831522 148361856 100452635 103027606 673655284 407383027 826399655 513374087 261450847 742532002 715451706 39094607 844338861 988038043 494842661 502237364 242526333 25219653 439288773 843157896 577556386 600865366 8067483 493911805 454593129 991384166 641680856 581127943 895431325 64920286 489078770 323788326 161366301 636288051 511565313 495570763 943386706 820059097 925388253 905536428 425098955 391578666 108943321 431629839 513470071 118058598 666666885 493754019 118399039 815294317 433362640 883713083 271648033 772656438 134735456 694153532 54045469 755894372 637320617 470861189 847556606 776110312 259350778 520734260 182735813 435915350 111840486 517534247 287301045 698295871 276630891 633068955 818683080 475052213 440758078 832807060 908069936 984533122 332041084 262296623 138743554 925868942 226422900 290702876 663690203 297504517 219587647 70281921 212388793 259277345 860255019 728335280 514450729 511268270 416227830 808188728 572378546 416101168 680528135 168418261 821054042 742184152 635445598 61022429 279638168 944750917 233681513 453692539 544583461 305922781 717943907 34433420 133474737 665489969 862205471 446395559 774943269 384104126 222151192 400505862 323809297 410693016 645157756 508126393 973071139 72350318 325894318 671756156 878470103 219465052 482613517 721260069 912145052 400439567 943393130 362160597 594576426 707786864 37863234 7318198 289684976 275186438 371408170 626294439 696055251 772321519 848766489 154914353 438728765 571105938 941125675 834729362 204492272 811224678 703136588 806195675 748626495 444490646 195927100 205104953 917176675 756358369 819222761 937645899 751995244 435764836 907906132 862231992 724129826 771103089 357663220 596763550 960454223 456860050 19753153 42772361 963189578 301547542 832179698 87579259 810728217 665758772 635817721 500386511 846657970 102017159 59986000 132465976 610397570 992428125 798333114 392793582 954750688 340735985 404157061 771361665 944913001 650096647 679834138 223493046 980984561 273470389 386357826 89828355 101688887 59078248 593677234 296968485 969176442 102593933 972122108 855949731 920389904 555798737 43159421 655571163 218586717 606020714 48123937 336687185 863696285 906201485 554448124 781607543 199690405 387350647 371494639 566727720 397431655 192563056 876923175 408235548 190150288 229082420 96746634 743001311 858611101 740598833 464440740 721111403 326333723 145951391 475092528 82865791 277397263 43190839 997238200 680891777 184352140 38306008 625458028 551026082 407657459 4810738 823473333 619683482 685584025 305702528 444648805 573375520 200145098 790800261 33705175 568958213 155061841 992463438 937747511 789155111 213544338 612083510 4357976 460567526 431603213 833519909 964729193 614031515 921783934 261597254 838290743 763360451 893331560 713932921 53906990 614055391 454540154 477242761 101572029 936564320 994025684 798807635 146682281 278736066 216985278 141940027 664765517 499795752 53747140 599093475 676923662 356533348 334694022 675991839 431479457 373040231 19804006 837760482 711707516 90250456 374975928 435596305 462007052 66448643 109396359 499368485 618508964 391062050 989778483 803602710 302979460 494800859 577377187 154520637 776368912 80760882 738004467 855844411 677765590 344276436 366540117 135542346 265245470 255875524 776568723 512572573 103036167 306414482 672723158 610827006 728321506 32239512 605277385 688331797 427808078 689046772 920996069 718100804 212030412 171712952 530323960 513853142 718264262 14809063 309345648 460194767 449557680 372507659 578912150 403290697 574245644 570815153 499936709 555721480 837638873 907101024 619954112 748956504 314566333 217096541 300190265 679599589 835727245 144869832 349590142 447916696 584993236 401298827 486797920 620289233 398018340 343353163 929414165 538880837 980620123 734813430 464540888 414976032 723017098 370805360 81324510 725062456 27642363 663480037 859761892 590403045 823589182 29817862 255979501 341763942 754770835 212364165 409194876 999064205 656599669 836994187 129831351 623180400 760992735 714595859 380056215 148024288 459900966 996897070 572534286 507335197 742516021 849073680 46402117 779441881 945407428 29941599 690600335 500264056 12081481 979667974 44608547 935940111 480746159 942387801 68682760 948977484 25976645 792382273 481255036 180427550 603246999 216710889 570224229 700509829 757998330 441991336 831047063 122670546 850206783 933637614 89719279 300208868 796603287 666071520 799641592 944897300 993579442 289710717 216026648 516101297 998719987 221550309 957956946 952980351 997213510 331410233 711497228 357705103 698950214 428790598 298429929 453464233 905067411 284697564 155031539 238790878 60154532 720296514 113480405 754357447 204366924 736181376 297994062 729636826 214557456 842758393 95219305 20154663 439251538 615377873 831881949 502313374 372328655 434553160 915039387 399608399 228741381 501900045 987193007 658465292 906288560 236393397 378853602 834066462 752401483 339201924 601502914 139925644 239652561 62305915 650720007 356622844 449638664 238588553 341550093 488014908 35227046 814306257 433542750 659062187 898479179 379829644 102966475 315751434 407823023 527169291 96836534 197892603 376069867 654628553 527225471 397856482 762809699 581722396 52896293 170486698 649746929 596959048 268847961 99805375 117323235 28732063 552920428 294076501 434727188 866674232 290967470 43162793 971132945 241743989 586644262 774618384 493572397 839281406 255808963 404747103 395194486 575784297 458394305 215643862 169016523 879584548 760170953 615704714 423050270 867273190 470360842 634989489 803100846 407638487 219847898 536694229 204854518 957138495 780382470 431598379 664917516 873735925 767552765 308864457 536410149 970372988 492158260 45931628 632964108 110653595 983805033 335599198 361915605 436968051 310125937 159441733 704605894 433906226 38694414 285276487 686580349 213041737 717388623 479542771 793719902 742566893 840345912 42593107 206392726 330467131 963560909 46135406 581884054 121960658 831103447 176816764 553721903 879159962 150437102 232663734 594217783 949784394 304088038 952413525 339286067 278390315 200917267 658086452 214950035 206684845 409666642 574700976 616397313 476619982 601602914 592111478 832832484 913093632 396563482 733116683 951248234 941315676 499853319 577982173 42969093 268397808 261311803 454053935 391058913 342916056 200447749 312573173 423126865 221837208 362736083 967892506 512092319 542305828 473707060 693485873 666287539 909332279 709819455 31976312 478709831 346844656 708038734 753865670 702456430 311252156 59511912 161991939 500931790 990561779 131945502 120000043 517833273 785171298 968863321 255827027 912549684 817452186 913624398 433936233 490461737 182857251 979041854 984857974 681228100 869950892 881616764 17151100 887462374 578444454 272184745 619524981 267990519 39785613 377846705 276098039 635881019 255084489 392123832 427040052 179275978 421042606 917516384 772948573 637018203 145010934 43824499 786791696 247076688 453441231 674278740 822389418 968195138 152045159 729909335 547770850 889688994 876869025 920640579 856860855 880011224 713882518 309263409 151079760 586370015 194421696 255667735 246730239 437867567 68434683 39346294 704110975 126877468 100385258 484502615 618040009 341554025 868486270 223374893 829060932 494592955 588728331 604333075 97265517 581509065 139138577 15816561 141433486 709377432 911047423 612174596 911169718 565655241 457110336 258350533 755236268 177653875 760661679 591593011 832649192 610901675 849497976 273427228 793454718 112495915 660854148 317935397 354218890 978289441 705239354 305532973 572314328 685649151 411661329 342278412 95117856 86632557 769030234 5449131 909163207 34597712 790698567 949478044 966900225 801794190 912534716 207287829 39414796 252029103 526564753 466156997 54272309 257032764 539361473 500626918 418533500 884624021 21624182 347204945 480389703 123761274 928895913 776352314 966415233 161409232 611819448 78508135 441713198 890153528 767562549 350402515 785029646 504545259 522733004 504139904 196458900 447754645 87572850 839725879 808596358 976793795 990661580 890138261 108172158 359305666 370350934 946414522 685763617 710944685 158822726 926078791 93125698 208396338 337600556 768284184 48730201 481585331 654598692 941297379 397024049 354307629 459613254 679857710 385859781 17389263 809693655 129108365 431422846 696621384 327033125 87508805 84484418 656243322 738178563 340234617 348356892 624353266 850641913 383187938 234011400 332675448 574783631 82735665 578916426 239000699 981473900 729043891 158067348 746633858 160796610 223520070 558826173 109402711 423632776 179071411 580586437 820737385 63583410 610784233 271271437 815079644 58674629 279016104 806919712 357072457 471667581 970087927 934788902 336228147 35692550 752550798 990659496 82544000 430356893 285160101 12240116 91979787 515058573 952885414 404806606 460776711 493103308 889902460 625342818 370192226 630904896 633510489 550437689 239911428 655859529 181865260 197040268 104499600 617767924 429342030 849649607 860652525 130787655 557152952 209047608 93241485 765158542 29480474 762377769 843446958 642133623 498111492 44787265 417491105 73524467 732571255 895336667 799991717 946609288 805180372 645868951 101164222 558989624 703941013 913298 982157361 228165058 3861007 687446854 149149517 388534988 980808459 134104887 275517954 900608982 944068643 228992026 81980553 510461288 238254582 796019703 894001155 706592244 208610663 940226167 166747198 700231509 748723968 463438970 377308183 16148111 317475729 640770163 230874312 503990928 688248176 913114491 206592391 642799188 336993211 249782870 997769768 267757919 520269721 440824549 960482521 351489822 461640361 114092353 56705575 147978022 64970443 546053592 360879841 625003424 602892184 258132953 984258932 514665123 479261760 470657650 217188206 300178781 566372462 570467315 924877978 573639543 470654144 85269840 270739182 14184355 628874629 490917725 904867125 37778660 738849805 608968009 990620818 697278594 986960139 206719631 986870465 196889077 124286546 826973018 253235449 162240839 656525289 72665568 647588119 656705003 699350776 862937777 542263496 782730744 58854352 904698764 388759744 107307593 53335769 778261430 546795441 528440044 635974593 55080868 866849320 838933557 502472856 453730421 800676481 274553760 439089106 441885335 411505645 589400959 249335633 796512783 949241285 949579412 142473952 463510958 459041070 417026653 784298941 719297088 815352169 918823014 309453266 378424162 997862862 473069799 143777208 1150861 17772252 530093217 790953286 207645319 922578965 513526150 125303930 968525917 199716755 683238599 194103737 630590430 899486596 760579177 86173487 944510656 310955305 275329560 210049695 70943307 734626617 905366672 386177007 132819583 516710654 283891416 435490652 560532114 84971177 423369019 982205709 262970683 119883658 613398134 933870599 344895849 50032017 617214240 522945969 442424109 736621793 43395980 501724504 63130853 677597263 347038334 432344630 88809119 90264980 399185584 595784507 666448784 19209563 804650808 741236893 49882710 558128340 643876567 965931271 396571604 286479069 521997797 123614792 817760040 938001655 462053025 985677261 432021752 649302887 714868774 830906471 355696391 471153677 963596073 792005580 385867471 616791053 436569403 82654670 712649988 682760390 361542896 339732513 106738598 196793383 841720899 578742195 709032466 909311665 332836144 584965053 376522676 729113489 923294797 337862435 367073598 416652134 577914560 527437579 74821447 750843062 751056037 267711907 916583564 82109422 503359568 151264857 307808822 875415463 711084327 524401549 53194915 812193837 780815195 733678509 339526701 437522028 826800709 791408968 930373109 264781271 171178638 277066948 93861813 720925270 465142890 396842311 880907316 110369397 38735518 584324249 199811782 172572051 917748332 94818080 698487836 242182088 506071850 101019873 92653574 997422044 423434573 135540366 748502617 543733165 399702793 14513050 358270823 169251252 308551001 370290311 95589166 184789314 641430666 884818174 151508556 155943168 81001915 41065091 611532504 710972760 556306273 157777143 489023008 535762055 751856765 577732004 598455247 529927833 625064620 444757030 36766768 322189719 268249864 500289724 99426703 801109420 689054427 346713528 958392219 443545661 253379849 580042757 744859514 316649617 279853758 976790713 766211974 717665339 611340435 731871360 575725022 833043564 44815942 687995569 393155727 532630984 231771400 443734637 518289927 550610788 976751937 719885460 890099615 193272108 155944972 280867528 995810779 499980722 999498452 946592455 758611257 937949391 495522711 93470603 462728580 585648615 882295910 715258713 306472408 267758296 816849478 528579323 601968363 258261901 287279388 681020113 913821754 326970761 667393708 545117235 365640223 854225839 224835869 111308552 628825165 159222804 841905908 913174697 11616554 249980130 658246993 906113479 154013870 99358743 821944136 634837185 83887658 476491961 485361227 451579376 890788313 557814875 276603450 506140583 393653053 903616521 156072812 246591767 152629896 232336510 400129352 89148694 306541053 826148212 367976405 267559805 820789096 242845742 483198382 887223228 100655320 730245900 366753266 794168535 957880677 174844478 668937762 168562229 43792897 86026659 416008297 720597486 342597997 486576618 619218924 565161331 924198886 317187254 686213740 499765641 849843292 384294612 652075711 253476573 87740865 395081916 573130358 468274608 770817116 722449118 893402278 465814850 857611521 623731639 129110064 470663493 636290378 446967513 194242733 358416512 130176036 341357025 91515514 630584696 955025369 659941406 221171379 826033289 772302020 723740525 221227860 59348554 330748660 204936547 18880610 805940000 320997762 618828635 891754138 790836364 335213010 14511786 965647393 761885437 96549646 851112351 3985565 392651297 165048132 132705107 884494881 582044506 716910697 49359562 745802907 313907615 767977776 805154688 436067321 492592811 443218682 106752166 832622470 347991818 19341193 358558295 941982029 682415014 461736482 961571406 929040166 552018183 364249214 202342380 744447024 408129971 980083296 819032475 147583053 982404588 290358930 783614759 411738051 705685394 521750441 600159114 245800280 152246367 465153686 661001694 831698877 427205946 822117346 489602716 371740593 669189201 775286797 991378845 982457014 550504737 821588041 316037059 511288696 401031964 55634139 475728770 198449933 203522377 709129766 252221994 113657520 862784475 996800724 761762985 486423909 607180260 992832939 917626075 497167714 426698768 849880361 486973968 613177051 967724465 811949706 598292981 700181875 677191059 362691635 423407372 585680045 558990248 205360083 766998512 853039813 402137557 766048919 663830520 148226321 968638035 759599821 800076187 796502304 293290977 815717121 741037529 92391356 469519000 39967997 724079101 905224525 148486613 831656910 173650597 552242520 329151240 669591372 795838051 787128329 978678904 898533983 496084798 480476605 253724743 689470173 261634955 999516665 78601839 326605657 481715265 990134882 6868545 992293666 322810280 970771480 206025134 81278759 442452138 853461668 127857020 648855745 604336419 919544774 424764912 116197999 285054604 582799283 22322450 586503214 244805470 172292675 415831872 821101756 719389486 183712087 916763425 156694448 165418330 96600285 729063949 185718312 88472174 402565859 571341385 415706465 418456670 683881753 184369292 227706282 560957585 394336403 757944063 125118048 521204486 767536421 632739824 497338671 442486189 708329349 477448161 216421023 704728720 959515031 834368034 641317980 627861981 70494043 228416477 148603685 459814850 794173355 725804293 273212229 743601966 694318991 897489089 680242070 294519523 869889749 749318437 487368761 578905981 637583735 652758124 129628992 463027533 893609677 617438177 814036826 861671188 893945629 972184166 506515421 937360138 600771364 330013454 739208393 220117409 594151561 872922388 986235756 969399649 791060395 978916543 209402899 398750162 487076293 347879256 106176520 233776641 646769491 242632134 216752236 974088529 663739116 149074552 387023881 579217217 540569016 439206815 455454149 58321105 824243227 13904806 459770015 832151556 996586670 730021088 429420779 386157652 590776298 968071633 113946034 92120294 951700581 343178672 462619987 729502508 813666801 552573391 933116343 886251570 196005209 137666715 600893633 688155550 230535043 849446075 491704121 142990955 161763531 822829897 373060532 524403870 883415720 48864994 626784928 383513283 395412400 73039197 653132991 195142222 750498423 454887420 720492206 518203589 63933738 841789855 942642378 821988943 19625297 931571258 329883182 622149008 613732737 613377815 3974421 223307463 94622568 257615377 497454664 237275812 423311830 558863498 830307159 564764011 155639056 651274786 453432616 433458144 428594063 967934294 381289813 844577882 597928491 949993189 496080723 875694068 372932347 106327881 839798517 757662525 36009342 212018401 205756439 568553942 273800015 826564331 804173538 791408481 724502030 926769085 579998965 208250859 150065169 346194471 774243994 575017272 299283627 821997355 92353225 48528998 359698069 584161974 604845974 740664812 981886639 797295391 816681449 233830075 659984296 364550857 488320095 83851733 633863714 691489905 485230942 782934493 557483899 868244092 163286630 277782209 600516044 163277240 517527004 772203367 309386729 336393675 805167067 353798261 33018128 62702117 199790032 778761061 761321912 682831146 505493750 657148304 179598188 724100837 351593096 603905123 276195503 933961027 753272758 565093260 939457385 448493423 379280767 854481017 473142013 864799262 642037941 674135928 195129927 491571959 816351918 241689458 999797764 9236794 636921838 235701078 832630860 769724693 946937720 792411003 269393609 393788973 626938241 132846873 12396885 904380439 679578018 131850227 981803098 217883883 525473865 224519255 495820198 823520736 90693171 732358152 182450916 54911612 118076733 311741905 67852352 740570244 565755845 843544757 293292401 691211977 896112801 883339581 760859634 974826706 343585571 742099678 513049250 927210413 147699217 144705075 26138311 585989411 936084805 606143465 720003344 321525703 954357109 9985306 772136559 496865897 703695914 120117021 188439284 691209398 252187615 987259555 861006981 196206597 927543039 410121356 646122006 181491101 696273238 534406267 795730304 583464105 999377220 203649946 27978552 538544745 201248237 518746630 190961021 577610913 968103817 525235472 234030350 746924702 364726290 362290185 732950131 294717816 904099642 343227431 447277142 681461548 396299290 315512694 914055227 661221893 712384189 429364236 892087667 327587434 111669920 773115940 733682388 427737482 261317203 204235622 872592326 509313275 885576625 94953438 719096223 876668559 253500982 971640919 250422634 406695804 334702087 305759501 603192039 908268479 977901560 2732469 136225446 37794650 677250561 92863833 434147769 195000681 2410979 68951827 762326864 444557102 583880912 782702829 87155895 329432833 391636362 985702927 262041783 64492046 103549723 650860791 998691845 828360245 691185957 208203254 21572911 792791773 98695845 962606701 562302064 312045977 403884335 186869095 910084717 447299846 404558645 522107471 221518966 592536910 630772201 893282539 505946212 91844576 970495265 556731717 321942523 975591976 515403095 499830741 22353860 817543992 598796739 699209798 244349682 984492103 286828246 545394572 724202026 570189782 720363678 592535429 481004685 660331779 735486397 450780200 736982369 89062560 529591102 164883314 960042777 837464829 805215686 201068761 604488081 82482539 87592711 800482567 179291457 687200029 453420614 565172560 490269494 329872793 49915648 736522154 394585460 883309253 201668928 701742827 715550520 461107187 272661647 241212027 431153218 932994667 241547597 916543869 478230161 81410189 987088262 716976669 808417870 112407557 251199011 678750072 710078247 333463901 512362072 341256269 273823667 30375041 556674916 308696762 897697171 400312295 179721632 815398912 127262383 333518690 1303618 215593818 65699558 578998838 26069193 379300677 381668710 112789116 723463746 130843973 217883536 733598946 905913600 44636149 717510823 564668786 68469608 147104272 902528347 589313081 303624701 630492277 24646859 411286938 573860861 253961067 407469164 475952074 698202739 973195210 597216591 206983052 644970846 772555705 765501844 80365350 454456287 397426919 55188018 204577271 517589824 130249809 431665281 789793195 94779680 839160067 471639077 770442547 873547201 861986683 355668254 949232146 645568555 213901550 440500740 262815735 237895548 520729617 482683457 472332287 384692286 34598416 904986384 637816130 32574142 687027410 504423540 605458968 908276857 868084569 319437093 424877923 49844653 717633322 400551575 485866901 547254509 147888794 991274842 653992205 43871823 580997016 861264024 706042298 962495885 192002249 950349652 616283837 362121149 253588206 827615011 798567199 636674091 506402609 745832985 394575724 943964568 807216480 113957301 943088635 943877605 727130358 753335159 477795768 610756179 842695135 475786915 732195563 564679747 325234046 140246277 709546447 59706822 621471585 936753825 433115914 933098966 311922963 120601159 32918177 169081378 986533091 849069494 794614284 850221023 927763938 193566807 695571837 836320934 729845716 220589527 475128491 206293988 588461124 845680084 282932722 715990006 960494890 521215092 99322575 666051455 648317038 759168932 117588327 308626642 33937193 496268019 119338740 958034579 693774067 748591755 161476925 227110530 627958589 971421955 968130522 493860411 767844075 199636725 732437216 61442506 928765937 823848975 80330644 567295645 373036780 830098202 103805209 42720907 961562496 708089159 459152338 774322406 542122762 552610158 968761028 870945818 834102273 115006995 587535416 129586205 495792588 835509926 732118400 256978045 230059013 529629176 947285227 267154111 453759996 674647109 517016554 141366259 17337887 592418810 395430338 884273850 234998496 303936556 991712752 400248862 987798863 818624193 821468703 291667365 195731296 438338038 8503257 315544948 354255216 832553910 636229695 312508132 850184845 794515158 251430335 678020966 163546900 287896904 528221469 89138498 482746837 958410581 132353473 387292085 986512037 874441133 64919188 93058534 735716343 995396024 580831390 841123879 471917324 85236741 915430895 315258731 48185405 547447025 494825611 642102389 50901569 233767441 837237685 632998457 378832459 89338821 418225378 873972629 448167389 703239506 538346122 999516095 854430121 394127923 296944007 490875650 855406552 761569475 727289173 381585591 186226761 544518228 127463185 262299687 429150192 701382414 196282367 1458310 124763865 352647835 287779145 459965336 378409097 445835948 615181749 852196272 108778154 338860398 503844631 758649079 13214250 544090188 311412356 44693078 232821551 946480455 365268107 156206330 619824708 343952287 726307234 680797799 814691339 259888528 660062822 337395858 617082557 64063803 729834257 852444127 233707675 477173054 605048761 510062604 186208971 538461159 812008085 100432650 312478931 166722426 160082264 462817394 43382175 491780444 980301575 633372175 84461784 110850562 821681393 908839989 539727923 946307308 85656922 426172367 918104110 891556653 378705834 700621317 930895071 925290518 4804321 962092784 814913214 19669366 947580734 890104275 811531583 885577701 817135298 167677608 263606012 532340444 629732099 562640099 31680422 596781027 550192740 340816800 326710828 479592044 83511821 710704287 181412314 296289048 460153446 225269480 798560630 197565274 417778596 939098762 800124530 854130737 162758996 593831645 971597883 258562633 973147543 429675901 365850404 408112851 835502891 789285538 127660895 281146634 57864696 781032894 690636506 290272087 395614668 73848599 379353648 768905985 423854128 402532942 714566464 964972916 117667657 264618537 334798946 555355947 107771764 311198936 845665857 106082794 704738631 761260698 533577768 979388774 387351627 955146646 169934955 380233241 353499880 500741576 862483912 96614243 711108641 97420347 86612209 614530480 297869183 646769084 909131248 275738023 963938092 768807641 725116137 167466020 954001008 786966660 68818929 380983059 393872415 260798569 781706149 402817133 408181854 116543827 105820436 477449726 667633881 625863209 53186123 34905803 162742246 779680060 831001688 117369806 950720195 845427594 364174312 717331306 868824081 219706777 964955735 468071901 126945539 619486160 235253708 52315540 830885202 85696720 227208101 137809849 842343614 69837669 722403934 919314474 252181974 472639304 235084586 579533455 150824596 921049077 661231225 930424676 346825994 844093441 687172946 862351233 904288410 787806033 770732924 554676541 877008764 882103749 496755654 910863609 134042695 24369663 355878975 681494876 938478572 160181491 447231371 410379454 82032607 954675715 147380979 106461899 95254491 437477805 821298882 115904783 982764191 189897453 620213614 651665708 998187634 963140006 735041354 276904120 334649475 401589516 444628590 378506351 286332830 889297683 394564718 131603474 51540951 77341066 646283263 145011909 565243379 55771196 71527166 617678280 274998172 425598030 273858852 68414450 153461399 164197891 950604318 255367005 992116158 625638854 539168684 868722635 773641363 492826754 448947531 326950124 241297945 193139803 211725519 205914430 294878294 377057255 165487512 258990589 344133231 774060138 240505289 767628473 287250402 297850676 59617794 668382974 463065442 418878732 926593836 901698727 981426983 324514159 254902909 708542613 941132017 439997151 950234713 284270777 922453042 760845382 466751544 798565843 192707949 19613539 664298385 91153740 159495862 417973492 731708301 697358493 768198375 536596746 836024401 736879352 977345437 99639322 99523988 567964074 639829757 13511541 371430665 924479635 428091299 40595062 325406217 456995144 221589522 476003910 798100275 787445235 462191097 260251849 557401553 20545174 909351684 509850840 469529586 881409638 381255845 95848837 665247610 730537265 147176577 811649775 267652107 434060028 280518247 928602859 541028277 496157334 574714723 221425789 67663362 455543289 751699628 16826023 511781266 199498019 278182771 607658526 789953602 599153845 445765437 582120221 93792399 251830410 730483021 132647946 90644926 944730653 692793452 292617641 987475452 752000797 986611124 589585450 697349781 224514529 686025650 150768818 95754063 778385259 967729212 269544644 242170733 199223084 781258472 743934834 603400897 419212833 557517774 484540744 263626337 465381814 873479097 444288427 386340883 133178250 88807328 493278043 789802828 694574231 20186178 868834938 441246782 458571848 15967391 16919920 808448264 27019849 7173600 502888448 559900793 929345298 774671376 578503621 811672532 219608482 998721452 716939681 232084253 727902335 388211100 147055281 520399731 752779618 352803318 19002697 143135230 70595477 540826636 145602942 277536725 216745391 818665675 779988510 77866543 759231224 428131841 935163498 643891415 910177621 445447326 206152647 736719011 156761064 780855746 522225726 420267792 412012633 474180059 545488000 741397244 992257849 96460763 61543264 166307427 896767973 72063862 669836267 622069870 174375241 752130314 5405174 665224417 469151795 725839643 192282750 247700468 231654050 88597970 626361818 338292038 918536234 610318790 802069910 976879639 356560169 341080820 794128057 766279891 131977542 34370294 54849635 853025778 245988032 98184780 457941945 143084136 551089251 852023624 885526640 326692009 43827013 935768636 309975039 992337652 818331153 805572187 879227170 396720824 808485153 417344304 186040808 116613405 751007114 154531811 392081571 379522153 524589567 55034619 317027542 461124981 585427634 778928827 798409459 181043560 873561389 10254414 935170963 923410983 630670307 423834508 148334480 513728402 564090384 487876360 761164710 71345128 315268269 46730985 732350450 94802873 600267399 604623781 78078536 729010501 430731804 90572986 727282292 156859728 503942022 144578397 629097364 392474410 133053135 138567146 122759592 543107948 955789251 2623221 105848905 573956214 378198002 572036944 492925561 566829832 270336615 990030525 187315745 191865375 322993427 938393225 965376343 670968181 121573069 149484633 338967557 671058402 720011897 513062401 295152965 759791190 172783024 675639926 961414497 790758843 88686531 576398927 474017199 415057572 99263402 421736127 14060178 975534913 87725814 779646380 260158478 72872481 944063530 480138876 593409031 932556618 354612320 302736639 677469881 386959779 877861371 450716391 970890140 444150091 255827394 284900970 920280610 184232577 268505191 464897813 160405018 262321153 539455068 873515292 892747108 444137561 228912939 811149933 323250212 277396866 500597121 444499594 786517371 42513081 264182989 896209665 672670977 485416445 325792113 767992221 39959097 433107486 398926035 121902548 872487686 391010785 174477700 328672356 878827088 651876925 852225168 458730875 931635470 957749311 713252372 492045378 128772310 410198095 291978251 140777258 822980127 577261118 41539544 693422807 312579471 763286945 224764628 180858285 263271964 29750556 54279144 343343353 173882927 353556726 684152741 79202443 590000370 103413005 531145596 898460717 997274003 944379372 954170207 536237422 516501103 845668856 193470917 285032196 895363839 666658257 491652959 454754873 255086078 366427270 209484955 741311778 998825429 169091795 367290899 331951416 629596867 846431153 493006000 408396981 422159507 941791939 879263899 518185846 826979086 685702601 381657826 292315588 119404176 289631312 289982423 64598547 7779332 42650869 711045818 715576941 62675843 379311367 256737126 875942328 972451195 44869181 549514594 374387528 336727361 722858487 946684783 607445053 984404773 450114899 171907547 399059235 426453271 89387288 945060395 84241001 744046488 795836 604684353 347673794 949947017 887534420 344001127 519403508 590008458 997420471 28841290 375172333 410734362 28980806 981267433 317292947 689168202 902156609 259677777 684478154 451913035 355221929 94515115 359278882 621329268 875858447 850430658 851879743 536665008 914882755 968013091 402355438 995981696 874046418 781998562 479350189 896084245 297939146 221800411 911373914 454001197 792545257 881993827 264682290 959677910 57128209 379128589 828234876 185536520 173453068 650901694 247330742 383932753 962094913 469924715 253298926 511087577 739717475 755818045 64692220 413677415 287152018 954987324 852376669 548209263 420758592 590134035 31879058 240471240 964142741 695437165 867411233 397772869 283751168 467506142 753032803 651052068 865444668 759931627 216061828 769454430 884647658 978015194 443949952 714081875 791691829 777079154 435625555 540423513 825365271 404982458 145687154 125847574 372379791 121053864 980940058 139207698 333528546 59845633 89032115 675971871 827465370 933694079 150199102 306421944 581103063 126863139 591977637 260401355 709897718 380117168 130039896 446269507 826921595 750404990 882013947 777015855 883432466 793921834 830038766 670554494 444175558 846425140 259512958 975650709 911410815 416802475 927557904 993962932 304461069 11432707 800461242 471778204 107222387 496399162 348957814 706390494 224701658 43803178 335950034 981038259 926999916 490598018 413078741 140178531 468033011 645327089 238121907 681628570 439325479 59750659 458765246 320922330 483933434 544202471 950133387 992915264 668245478 472085928 706610701 103947405 901805124 915003808 140974605 563914753 364110736 775923735 684196218 11806052 541970995 594960052 294133308 735473629 586666777 577629094 255214477 540437724 12075001 156863209 733850428 491583807 272979232 907245212 635345236 868888830 247497530 872265396 131945842 934260048 890440184 97256793 760985380 599360700 101795560 113910311 401415561 857697162 571564942 511771652 564897144 905243181 561782021 516607003 38075749 858294466 241287864 9008822 860878039 666252402 576108268 267508778 950296196 163333422 672004859 36725296 827207475 443616592 458613478 16155026 8456558 991177234 245381902 880942607 441519906 668364487 334500300 382200310 278017254 813648731 871235865 802026517 406400634 97769875 766490743 265762598 145294413 620081372 758132502 599264176 701660378 173380801 630640959 431496001 919149822 311537795 303741021 46826287 775603675 891626128 635952713 257502580 18862514 930497178 216534795 980554054 171685177 188494782 354228199 18948194 709178531 389822441 84886357 343724558 268825708 625652746 809660314 351701743 600770981 587472636 878073209 185519302 124626716 212784296 623059670 906013995 524062839 304291070 766324932 771977028 177813049 452205741 859691707 157311590 922593429 689531072 618624890 374847556 175313322 45589173 343411876 563079846 428794621 40726664 554120531 238417691 967736216 372699805 917388249 779196633 401440886 397572258 454484361 557068322 622074071 69067872 100386938 127634417 438388713 7341971 806159897 615686764 664908236 696747740 1800253 173997313 209580336 483139810 540511373 491860000 682011582 462157037 517937142 542130451 263192668 70364294 844673865 503105058 694855365 884008087 331208937 407072902 102340533 380426980 899713697 552468663 692785791 247034318 588767266 704465197 805837017 698150447 876460596 444265014 117410602 783681900 818901255 895021652 488178075 939391598 537424644 280134966 204259951 656958238 857172557 521624338 303251668 683505556 160467404 336773594 264482529 216510865 368510540 314369136 268176648 390112950 138296952 533586123 94729411 190229597 389782787 879147860 508767916 620990462 93651607 448928742 789500381 96048547 708943558 95987165 781050529 822269542 267283069 581650930 109623967 516906950 202789556 832327885 767452946 759132504 965313214 596051749 166936601 393438566 873563589 415677380 833894355 831565869 379448610 14215843 363003438 233555859 507869893 922861165 150568567 148699406 601854306 320351631 532694181 462610611 679299934 708832729 196470055 257735404 53052283 462046347 17558491 765911341 29120023 921386483 851520648 636636927 118602444 417242258 184453565 609457892 745753558 676016066 599711564 898715658 851758189 347526632 579969305 64985533 550044500 371220876 309885975 251368929 933200847 708315305 190141985 67582679 304450046 380903802 195742347 148038418 774379029 754847356 615996477 381624527 734042376 715189579 660666175 611398107 71427782 467821880 482372515 314895229 59175494 307539171 564371256 531656213 299528248 263119033 22635024 118440651 444253118 63051592 145931340 370207794 410355809 264643456 331509512 231676340 194454197 196458252 679968795 163699285 67838841 422462681 554869850 930342939 382196667 537188531 330668163 217245080 370738276 76325091 971813925 753484402 532904471 64383335 101910958 112881531 889203520 252893425 944511891 298253109 294471499 95274393 233274647 721396502 197773970 875280365 232375394 423746262 347427536 282277123 239683201 170136478 135647204 265037253 878311118 528371533 470058447 92726015 319672585 729901706 956038383 153210817 820544804 146416153 158696374 755088587 718565525 639475369 776960559 634560580 172277063 848207045 200678081 865595826 606661119 263655737 545671393 75639083 809652850 534586013 810017878 937468612 792049211 324949113 46963694 897485263 72185961 707915942 403948730 369119857 740582863 503913609 463874762 160528546 386230697 165637193 977863784 296888615 837448816 348586576 891428846 235466160 785860995 881481611 651077292 143568473 544954943 598507680 858912474 678214047 445532739 667640742 67183995 615578212 395705013 62286403 81280347 247971390 47132552 712997032 658693758 126520351 527920265 126141357 447322111 688904753 192434152 421721492 868083213 625737542 311114762 499434451 126759912 920182017 783231020 498662259 823388423 627403075 31995736 415970468 648352441 517990866 280361094 583327178 730097256 999147642 216948920 122312108 653423476 526327126 899703938 969146748 973091340 178612959 558123579 463053860 328899933 623700024 567416561 314720006 417218304 23758307 398015225 914988359 628741390 298421362 200233730 43810757 958932219 370510836 178816307 716260178 691009427 288647111 577074965 971013190 84500736 541567289 778335109 744972600 491965030 785229276 514014728 869722518 974048832 163949490 676911807 624177799 6452313 63393527 379009764 413296435 481661739 283624072 866039489 722249355 469641327 655611986 462631160 849502098 194883159 991374120 888328065 50204729 371243227 580735384 800659201 229127510 107553883 75764751 509846356 76971897 9763608 707790600 456590013 835224795 136682261 159164832 664814218 603899792 681989509 959765200 775692087 999040459 719057563 942141310 86620232 770485249 858921964 318299687 215095861 691655319 957992993 723818405 236339841 611935757 816078465 804030301 556533794 502016276 676889471 912632708 107793527 407663553 810434837 453554347 358625375 136909569 375579805 807528590 519905226 339553339 549980787 955996618 675899365 648003518 949524304 193128985 173691631 46208659 173637923 761732385 432731301 177329006 37836443 18158944 24335928 173285592 385550269 6991325 96189694 50427863 129648461 63881941 426294464 994249381 258961723 530284602 177514084 920893951 792797260 131435297 369688800 849925703 298955754 686897667 284922666 737213995 841580956 669882002 71500311 413025510 333976972 70228469 451386333 467789205 86336736 664260754 539051735 382189126 77264855 324512963 160085549 863537946 374329256 962460404 128494340 116169379 828530834 849596632 833033273 489841459 189375899 729275169 196525981 52795215 459283097 654170862 724801969 219595953 846131853 759304979 877154606 119415819 756232439 731613372 503629369 184832317 113804810 272548560 804607043 6377985 902696641 798162579 94493186 632339523 764627296 743762747 878390129 382539490 69501473 321490781 861201158 514837762 111349189 601294459 591098394 677658576 720636199 155253041 263436443 95308326 508985042 157881632 343885596 591344944 933336346 840966629 11922291 133458117 740617617 973477519 416018000 686473418 863298884 123392021 836065312 308848603 290022059 379343929 608880072 487490698 23663471 853296539 50793913 769246734 285228214 463895648 572733285 487976555 873961332 450875101 699708399 887313847 195391584 93901542 86995283 777729303 41328284 90427526 380687475 36097915 495429537 578878780 591725163 308308852 599075448 150218863 192544211 78895556 692023800 672439161 856988660 620284992 929643658 652417793 413972835 279269466 593056362 624817637 372316886 438449014 25862381 737173571 949787947 770784633 903438923 177392357 321301703 356240370 833188752 278611318 407909133 478525864 283821130 149028210 370958467 60119867 450285141 874185535 720306242 474149312 205452400 928149254 286780779 201482194 528611444 519144048 425430852 360040105 785545172 890206920 79272880 327678785 698397987 36537369 163750007 541700394 361260414 732274836 527252481 187545431 809419580 812307702 996586180 380614562 482146918 647215674 810794359 806492841 868471799 72961024 13962772 140690823 689793023 971873772 683535693 863645292 947487591 808878008 698211169 875278491 461836149 216947371 281381343 392329349 387929649 449894125 158935562 63304799 589575581 858247436 162900733 613961310 561343696 133656800 66632296 364682220 903022126 506633226 750039009 500925882 710212720 295939196 672555954 172434550 42163016 652788083 313671673 207348963 922497759 649847176 412952922 879903087 455600620 567012600 892835802 287226141 756010947 717594133 981077276 144599984 348637862 8835978 691247922 253643194 499311965 878938042 341104681 486440577 949416946 377529047 256725826 472882749 744373519 951603950 422495254 100768409 357725764 336876640 159406732 388204086 780578031 629699117 220032703 279373365 142124815 35657798 847206767 876739616 429248049 746379221 428014242 340953184 150879539 123870637 673196596 343217491 749180936 274862622 819187293 782997776 686554534 295190578 196238621 547396297 100442224 846553915 482222170 527330528 182931958 717028473 233842413 3141518 425320593 647602480 92092999 954066819 374799368 793854690 377082765 462018240 63627845 744922010 9826181 464428124 522757392 552089250 461842767 951933073 450386557 569430326 725881513 95496745 655190456 985777332 224841327 70203479 726316700 333992205 760159747 468617366 247617994 118303568 289696879 370874065 403197953 456906126 508209775 16336548 856415766 444006456 694009250 709847584 304668961 802799773 829098490 761233301 186783389 392784268 548238415 379504149 374124640 857872558 281250135 982131490 624862742 445765846 262896156 144950 908243956 41375136 118028370 122335816 486359195 924043096 590247563 288957744 469460492 808538437 443846050 903878060 596288203 978851578 829127556 695631530 208190429 714065540 213605485 756551170 722061831 713710545 830668001 448228293 388422970 783069641 443821505 999009128 280563435 407675059 455008760 591856942 490284833 640602565 952010834 152233213 269551152 277256875 793516025 827385731 575462444 583145912 567138005 724801355 949488352 682500597 146405982 120625215 339333380 994824151 447935062 479037013 57354634 372794877 242312970 972674229 560089467 300667511 787751130 815925112 947436020 957355771 243837211 957702536 535599071 234923876 358741422 266851246 420242367 804966435 859261111 670958064 270040866 159320174 3338117 294798158 757183711 611385286 608646565 700551452 923791536 311155526 119365893 310551754 699274323 824596352 83431110 521276298 16654990 484083000 494435706 724344836 355539982 67222141 912369564 255734496 781625222 485105880 830086974 113719415 590571265 572039601 783835571 695896750 21171572 941378482 111722971 261332735 243202476 889087738 165832629 427321475 96164308 291229746 602386406 15588624 424870410 902713774 675565069 21161951 747972099 598154979 764866393 645072565 783359248 140995421 628098214 924567236 406106229 881392387 167234276 684108599 205904130 907112556 763696540 387345637 714481700 888866652 860329521 231147696 719617914 273478423 810983919 31195323 576380726 57998257 84463262 365686099 599195151 758770783 242856436 538199548 792414062 785465130 144929236 153771839 979676799 955673251 934158637 80372040 771358739 535841684 784817091 866498725 307410052 265593274 101543656 726253825 501322177 480150255 185739475 11670297 141395781 931626294 727896454 942158688 525869248 973706742 437707771 847470906 414751721 392760280 339361192 358723539 944043410 249872386 220042585 991116784 940969228 138980460 187859452 781764879 750379556 499002021 568190815 535731644 257824144 787092756 942258913 197911697 703496482 497918279 808614960 79978896 816885201 915710464 121355123 657619227 351447916 826356657 775797364 313302395 200917496 451761956 920050269 277419705 393064253 706787144 704679994 178272910 872159633 776936790 651866140 545050810 511374897 700135766 493621437 224550499 264319954 512840979 947474699 678416005 289538581 87075045 436242888 874263950 933830117 978148940 628503127 527712517 491382646 522711307 697174143 906839014 893947729 811627192 807199666 781451143 90810221 426852504 78524566 730450749 802230044 770936146 281524237 955413228 599905158 304644908 959027096 687423805 150813162 254482054 613201626 658430574 624955504 778307155 426875779 986791322 530535697 769187584 541877521 376669374 98720996 374496838 176462394 545968004 633497880 991339139 37295418 596192690 425622147 789734207 435726293 463321416 565889479 872813928 219639490 926322763 212098823 891895824 226750502 190690234 892675790 895712625 964106965 940668240 973432660 952974950 320920629 233184074 768056630 364160099 976823063 707180414 341892245 892439201 459259334 922928687 70602996 651940786 616579362 415690645 525924127 947992065 489034882 600628290 367462262 266805314 967494613 930555283 993548346 668779509 814100522 918673148 643615704 991356087 715472549 589734752 716763762 958812411 230100316 851122982 317958635 719502073 995198482 762409325 738029025 221901046 784294527 327569451 235113727 585642389 894827156 575303417 779225938 350443134 165127270 573301185 488713272 375591257 766196625 685867217 949075025 219550520 636513266 687654315 610687880 161959636 556417637 259195671 340840399 421233557 943127064 486134720 611799335 402240301 521043746 995493627 705377205 4927665 460361206 607383989 29345104 68534024 350530748 46484807 595443759 223675386 755905674 536249093 737570962 345167447 760742889 816742272 706210314 725368471 274921294 48927756 449371761 162075622 525204500 479578510 171343473 669246304 487142598 541901496 916156960 865208871 480304361 352960735 434527728 789516734 958802840 479645584 810324475 566663719 114763789 523072223 266089377 819962841 544453783 603532571 543831385 621243702 601993459 798855067 165569567 468682490 631438723 762327179 662328264 63285795 840203756 936546248 252016760 275638690 444892182 224720367 60997174 67796304 241641946 486588817 247745838 90582036 895252549 383098423 991590445 447679988 495097519 25850782 410279131 494335715 699071069 617106849 672487282 256880512 777304845 504916554 684949032 685902347 277563606 819715782 153802008 28528282 421021697 491631442 337473638 364744980 277988389 690288711 666872411 126704911 570236526 193335652 893491007 817208323 266458658 771193321 273927816 542687356 898982136 194439274 116080923 599982969 723566682 686342889 550355182 8416910 772785552 711614593 460869221 636283314 52158711 685041352 529397657 868473201 375301775 370608299 692170078 657771003 42931786 527330280 488648610 71679757 451155138 472581809 861153549 809170570 941914856 788814766 846655185 597640838 981084556 987799041 474679056 776915208 834713286 369592513 842673163 770207835 491958252 590351023 944667733 523747203 44988468 449218175 306003327 904870056 976040318 315640218 70307011 619816048 243893549 187893905 767803749 421572998 55099820 268861362 308678941 755770667 846811247 83624562 290670419 380997661 567643488 277195260 810676135 454328835 932646980 456185846 806565785 56596425 276430325 250292233 244528499 474095365 673989911 796269436 63060521 504821528 770309787 691547114 641647420 35356022 994841820 33305385 171175583 605760770 38985079 566317231 204063593 25499785 438168693 471873849 496087572 577705038 256662719 83506732 121500447 138883552 165401072 225625668 294822321 72622064 626590394 248458849 87768025 205584362 85878243 808291445 334105613 646702850 725557732 777346357 276994486 696833804 585345081 318266957 132403998 568738384 504121321 582264420 821294968 79356828 725549304 74075124 336479820 581831117 576807941 313411228 246987743 99492789 10456765 794178385 416989455 698268746 994002683 422251784 784888336 835764286 28361596 742569322 457638554 225841858 561280557 488949831 829157272 493768101 448383626 188890330 448931991 647112551 594428052 126931397 159427286 635073257 886458196 531443701 970893353 844776941 49842823 737714197 184074520 748339828 176672489 245748335 108246839 650574139 819363422 329353445 914472072 1334274 582118312 164977341 835762914 529340030 143968935 372256579 547973432 16398895 337519012 283461881 170533380 999931235 14243461 534179610 55387666 724903305 847884624 952949337 453985761 3674609 787478676 564902255 446117672 332096153 192577347 968418508 648466058 469459991 525285676 507028726 978957390 789964633 522652327 508845528 823077539 886171435 322359720 581389836 957507642 981186613 898385856 272325586 61602983 812086662 506385856 335821833 560015872 642555143 388530916 823443542 419871571 931518917 740786031 691220892 28884775 842751258 888751903 889564439 524315162 599638503 387214535 169181562 702981167 443536932 577638211 399660968 250587278 208695596 47806541 41340448 367772895 772594202 668785040 94547367 255168953 523880618 774954718 46901257 338528043 469166403 373532567 112857742 611586300 479058888 124850987 275475249 916424273 49133564 502522368 133226128 711863502 55441679 675684148 119027692 279221923 508524632 599859087 332026080 190004387 378264096 866250847 165615752 793105172 470697336 38160014 90176564 680203904 404722545 526476778 648717555 469644651 18751338 171670177 648560798 983120362 449779832 505763711 658232706 437094377 77988200 328592612 700489642 556722908 500890164 304379042 325072807 606609292 335700545 143979024 804862531 940089400 551017486 14983591 833560096 58546886 150218118 323299070 139757305 375291309 842114760 364893672 650551465 166584952 636001652 779284672 666109850 940728084 190509057 725720780 818317801 334046840 229623570 499764734 795398163 779313960 766882734 523640935 564202966 650030942 261147744 355564616 301698320 111574930 796577813 560638634 189475271 377102734 811011524 183788511 577918776 303516439 669194811 564518181 535519154 946531059 634607855 373902706 424871343 736769499 543104209 620032175 364360047 167946313 731216446 146496828 218504723 348248112 250713723 513845017 995767358 727148203 701097130 536740778 775161100 397667830 862638873 936757766 667295176 341336950 776866790 867292240 973422272 355176244 606201601 301553123 799974162 703098797 978527191 562193119 962975031 404468912 599663229 468168252 69724835 288835889 181941898 958979395 773114966 209866331 592903115 819566930 51782613 593793311 234222856 235666244 582353466 360774767 804962022 264717550 618101704 39660481 703796026 559693428 473394535 170886863 243014505 676832962 299295929 57384547 100120518 937623222 453862762 591823509 658465039 322174408 219344673 280343763 774741370 346633640 597321462 765927100 857914889 609046424 128518350 738637322 191877738 248001170 339052941 996122588 731830811 602841926 309375563 184088469 534483887 361759564 211629938 377233095 353288525 143728547 297032681 856029821 83750335 353455412 358720296 617204610 92086994 262004818 296735808 221403459 943168014 191742385 356757299 67340010 331694810 981235899 877668158 828966327 115128615 556055305 53236573 427051738 716655894 245517986 406257604 469796330 892651800 504731688 613712926 726255005 391089288 847896685 331438158 844602822 449967769 347337102 287002116 727651754 49595747 989749544 909896022 157862543 711347052 138032661 17484411 656817159 839144775 2639525 757653946 770650486 160511171 28968309 639265994 387742600 343956672 848159933 247311475 195135347 443309888 422215719 949315293 191635191 73058384 482101849 209428540 521518722 842666972 920947311 482841143 925311517 559192387 796675014 593262107 530255558 117391827 905654183 356901788 213865586 149344584 280760869 219056559 72672077 749360802 369198983 697186598 413995232 796902226 353235424 921150715 354312980 710642435 377156902 422258303 900991643 245101936 850450160 999903754 370907119 655926487 779291539 628896619 636049018 455986689 931296727 154531704 652535046 940059850 791119583 334009843 570569676 690159867 96354231 53474322 411752222 927521359 755755278 731060289 193448117 503287943 466526779 645657323 164653623 817838395 360938498 614255217 630396603 754370367 912790468 760264489 624835814 525194512 981932273 222118718 686629777 887822363 539154874 338645126 912752028 721394659 356327006 354901898 954975851 175458600 791843008 489327036 505413724 978903328 715846933 852231707 91003591 723861215 847428595 380541868 668292156 383041178 870692527 470267826 209488895 139402273 911766949 786369610 29001619 998455308 451082796 252399355 160781058 631919289 81808000 419845649 654907025 699847303 683387088 965512651 96297028 736386081 74521418 611052396 912097849 881769783 991387868 797611292 594098051 555419554 518315208 244951047 932298186 152974760 959294039 207324483 89003497 517554035 940436466 62868509 941655455 581204726 849653018 444257871 842610797 220216553 485991744 518389863 938658035 408053308 620108802 102045974 138601496 259514387 152471122 736719374 84227175 734913603 347933178 74013957 920378554 632411968 274136047 565469628 766128199 598793416 789395144 146363717 840432 340448468 902991795 944108151 911600721 342809442 854309986 175464813 398013389 949887403 396430237 768681561 947006337 209138139 987029668 567660331 917548049 387492687 965859716 79241741 706293461 486838288 117732755 482867107 530227122 902036398 482409815 262792538 694489731 988639618 259957993 869328760 703494007 228903939 29409628 669315248 643356128 448217690 829243470 242051902 82249203 380921825 708862492 306675031 754192604 621021468 694440880 421110710 781483750 238101585 298296012 18231345 331742201 636471510 776590539 552024106 45469979 620391397 115536295 523571128 568353666 752719636 12778372 831831240 327558421 594041344 666473426 338815843 485711808 209399565 548100891 487359209 919220934 625046548 569717937 284436249 958161685 669391743 394360872 89978345 115466174 207017522 664250449 334457740 66901826 877649832 324549725 455349207 520768863 201486112 999538473 849513377 335254874 626414471 440156090 445828068 191786568 905623253 295293733 697443989 7545758 896060279 439069911 94647269 51828425 943874576 244551250 867492739 860540077 959378099 473433586 594216280 10190737 113999755 854793238 325295550 158322586 702980320 935347916 448133717 162416704 207327019 265146620 398335657 288305073 722949747 718880975 951263929 644615844 460077501 572925223 599620022 482343096 143882290 254631126 385785002 536033760 548098740 506540972 511474461 631428475 496925406 963577070 213887681 683723864 68049280 851656061 591073070 670841118 559979864 534638948 610981727 145114518 699844783 391960636 71961554 705345479 310888779 524112943 430382909 998353203 837126357 545913669 530113760 780616779 395793110 877537055 137284890 852388906 117752879 600179466 67497313 607299246 473106487 407995181 694165449 559507555 956518839 322465098 319188521 604547060 368160702 399848718 850920739 176665497 76095692 686233425 663374597 72262231 3557144 800690989 170617577 930903549 942088133 12762275 187244631 698917110 921919201 194509489 942962549 415385979 212591126 830848590 210677104 66700014 819847129 86746330 959097085 485499961 580529325 103648138 992427936 180728561 469219298 133704259 989415388 340430014 823347551 784969 75228790 656999638 319561762 749326153 436683796 64520224 442635719 179310435 635247804 216680302 534170834 356822497 655979667 890129916 35025644 392991971 130244319 555520708 706207458 309330922 846449467 826340702 671869519 624869645 838555746 990652057 112378710 117817195 84626367 917104579 977238031 58017467 841450991 144604461 262065141 746565204 762174218 897288529 668090033 148363288 870521331 495779507 652633358 907995704 303957964 52646667 659713301 530785130 855074547 639304670 545352894 738620199 416488978 447544172 170202717 138256375 466808283 595811350 151167902 132946948 389118503 995825896 920494170 607777360 55640794 243385210 852358202 945759815 170328578 923512913 728960647 216705148 679196676 333636334 538660701 923056946 524732368 415785888 361308274 808471188 478392251 42744324 305708698 704596433 516054776 545327985 729745887 332588136 776481661 279973757 400890167 916949596 716560206 965230603 581378857 588748506 822540572 686990581 461036635 691345885 112624639 629304670 436899729 301245177 844886239 800534634 290015178 298027110 638848071 696295253 370791786 853172533 430690985 857576046 3378891 72043769 904095065 845097320 720163799 181249011 616755118 898750061 539834840 953250741 421938062 116188002 32288104 983030226 920190931 381328775 638885497 600922227 774649825 163352713 975899429 968203303 723843653 265356989 135108834 884234458 694496486 59454934 771919668 95258277 886599658 23204410 137126554 744707644 761588265 264890547 542853428 778767125 686583279 393364566 844557200 6140932 352092695 200173076 824782427 937297232 437526944 211933992 704066101 909211409 978716517 121744660 437008140 861956244 551196639 774496383 233807609 773574547 841039182 675670503 694185094 931211451 985826734 386317838 918829515 1768699 189081052 876057833 873162058 873201324 465064868 489103183 988787060 953030768 678747638 695223678 582910231 157886972 729881627 200798342 559455947 137150913 904319658 735329875 546162027 283436998 679452578 784350786 769093034 868003479 91980080 961462109 454843046 574851028 77031981 940567387 48957542 731075306 8919885 884661618 513769231 743852649 394399928 965025092 256710503 23653119 897273379 502862679 777663954 320953458 503170005 229810819 484727706 766485973 566222635 574545158 236949939 864165833 105088629 505441313 999034692 92986302 594721724 467862798 789926526 782982206 888548436 720928353 97008221 187471475 668175401 764323808 16822486 317037602 540517829 654630789 197179923 349905826 559134502 246670062 854618892 545321741 253360408 871395177 794042494 725634181 849285769 875728278 565169993 310340667 925689586 659227864 296653252 419847060 43056704 106912715 563403023 654694290 259256153 69199590 776067404 954226867 591893359 701061670 630011151 154200937 131268327 264381066 600669972 214604390 606911013 227184854 768946245 793488817 703262989 415706317 548956856 750477463 295738452 644170403 249820062 553876316 415948511 309170426 478725942 842393206 474145591 88918526 993167362 394818120 447975639 150827730 734663257 293636348 938606046 187946962 801814386 446570292 125238909 455349646 385144860 888510085 666437090 434033804 458483717 708086659 893931956 709936754 504443724 1397756 277544583 349320061 715341037 707068199 331093786 111006536 195974509 545403131 904592363 299370509 921793953 553213212 482458251 688459943 52565306 886343600 45815838 718995945 163703352 746898809 989940662 703698742 401438686 264926180 636831391 326804705 278150760 479690616 698467811 621105516 825899500 42668199 947155955 236725303 286515151 638547283 723008214 812432495 553666709 77092367 455198673 735193583 699727349 134238394 412933297 478176478 928664612 219135308 557558173 487716354 256793998 416574852 575179675 924496677 776812523 819139408 885404906 324717034 121031524 389406519 976805273 269042557 409198146 561260325 924148903 647886407 744229270 760440067 416573495 938031126 773461762 845045101 170409959 421020584 283630813 559602344 809421157 661064130 855979919 424901423 566529110 821476320 154793334 138923293 646272626 549887865 333946389 689238853 497671137 876763732 480364773 819127103 715218758 815073174 648605163 426893548 360713843 785654044 245859929 270009686 939647767 479987037 201503606 694844563 2590391 709750437 366300853 686900152 52184639 555033853 776076679 926277034 853700974 774899205 835991269 496214495 425772049 412182481 221255978 720474240 672548554 596587205 847797533 550924730 473398668 58460500 204244074 514216526 538279062 762733974 519618403 568260286 800012165 83192683 604309220 434688482 390667612 868848876 769443166 386524537 397221924 293502148 612093666 489609231 136597742 47210903 24279361 221128037 323872417 826761875 784244709 589789256 886183675 1779743 980740945 790434105 933422983 766063056 621113922 718318389 171074272 645209043 48512354 304149933 307220297 180585316 254977320 186881399 626595291 192412245 521878999 23250290 455643895 65438335 200332311 802915053 928960582 483096595 457887233 549143512 673039438 503140194 508651826 573249696 472543152 913634878 723640148 804520472 317340417 217034210 532877433 57251023 935601685 812574942 732554493 468128172 225387312 577246978 349496930 253909647 469637736 784631573 18771016 640780570 710748308 463027079 84856986 795113113 6180546 433721520 480651399 11267814 440109153 913411914 643357819 287081993 186480214 774532700 315957841 987719215 186556803 657427483 360706457 311228331 682410883 975702144 943959203 139353024 798855621 318449717 636601037 326204943 507777509 74655544 877019812 827676224 421715660 43788645 186021499 768296247 118455391 121136993 303092048 376640819 429218519 322003877 939589403 467521678 939234240 275899939 516781783 12455963 384277917 273442647 929303464 20721399 160273535 593759145 13237925 136433433 341011442 696258457 588882204 906781062 896566900 499699269 827526543 911073197 183459750 18888420 786721684 27302360 117471675 899038160 14854899 227528833 873762744 476217731 624632073 783976326 791988293 278739800 186134188 252057400 695010088 176074984 453241971 994511402 481900893 62281291 800674805 602931212 484422678 265601926 227971876 492366462 573995965 977261748 475246488 388865671 540865130 625867728 331134480 880676928 614826310 811104067 862505249 980586259 560827417 176879699 705080716 495482859 483709863 474402246 405388145 438584528 252882017 369280119 986346355 809638794 784537007 521128880 310247166 714135646 162783266 821271457 162128952 809592975 99030075 702903684 406159610 830811908 270974999 499638443 326185847 370385075 692524197 37034083 937174121 925446452 111601987 247330587 401996479 314331083 449374408 110330141 712126788 990944728 52364569 609031572 327692842 973994833 483407239 907444430 732959904 907167796 230001542 400004262 75885708 536609972 347698150 102210627 986797022 374270046 747243396 671878668 678622822 976674288 209656469 580315460 992466603 973600379 443547285 673124002 454795245 410637197 901661735 400522304 833923463 142302830 267844661 120092029 766999828 710901421 98592266 500885512 472743387 30054913 218046399 72320977 155884126 464990288 247909167 598811579 213003998 376384243 329176695 775310652 404867614 310503704 402284233 214138252 927994261 919938819 624155113 416243037 572827237 521647285 215513572 41769366 696665838 21780858 890798992 791475607 280339701 381057806 302248191 475420929 294397947 817620258 222152257 346454811 926531478 850259079 422173061 20240400 442402375 194635981 933846193 360312540 695558649 366147272 161123070 55591957 471687853 828169295 874657904 169743527 981458731 84832091 708287378 474971053 61725856 148413100 139503088 277921352 821278460 976783145 346278974 400080064 787522733 585582746 555871845 737976422 733814696 136406086 504903051 282579069 364314738 309694437 948535091 474502816 87308031 418403301 460163807 887592551 701691653 506298967 311278009 794918574 784723404 664229754 820000559 571738233 545816026 733118828 425281188 330871851 131935380 567825781 393491709 723569868 214831976 763180870 240041188 737258680 355145807 367855899 110368626 193817906 120491724 50206276 773790563 836547016 99036309 158642595 391400142 932542018 745034579 56784306 418384775 777890032 185014195 17697195 278395801 492366208 826302808 760362889 25698859 388651707 908352689 760437288 292475632 305459573 154918455 221714746 387787875 949682207 160666164 640484858 945518950 595284493 607316081 602977226 404845829 908677854 591697980 210017971 548891511 245076355 850548220 869954261 412017264 958340880 72825482 510544878 419347116 273890153 162683362 427999317 996607555 668230133 60289468 660534784 822757613 448838861 881282193 254338491 402603622 328272371 493469575 48709801 929096472 127388494 965756796 832962900 622082622 835240371 313406147 304076787 629226085 950617595 812375853 568075660 569863408 674352733 769291588 127714678 261646458 192567081 940517997 70998465 640098702 319627317 180655745 978293478 795918682 364251137 730399827 244904511 422664230 216775950 135282327 631131192 585165968 624853167 878553990 612181967 884352149 506307066 687207289 278794134 36101653 264914736 573563880 947810315 917708169 417413474 698954098 752925006 313001712 614631269 239940982 404671178 808379421 295239076 198116895 932716100 755041501 220907727 573171469 294527085 3180983 506384803 413772955 308210165 309429387 16231846 3593554 543025131 393475831 401385217 470151470 871990786 977827490 863784319 50279506 968664570 624516776 166892230 771675562 698670313 165408289 715373871 3059211 292037614 377360498 57640901 147184123 25709089 353685843 720384703 745261494 46382919 812049717 620566760 302496240 461843898 486925748 638604632 500985855 682031206 679633887 770143773 757752662 686193068 299969693 166187677 245657021 946641543 69439517 685952965 867541387 213528935 793349444 323721119 224854125 1854477 750541585 227504199 749746570 252607355 400606912 236229053 247368417 165867803 466893147 1348413 28235367 633981509 704348930 518186666 28463008 434145547 853790910 206169607 764473362 428007938 588613882 322581354 778139792 973500704 103763799 299661065 355793097 930209391 76154869 684662086 321072517 923730604 320436774 765901717 718424052 923649267 774018360 428213282 891098614 881988767 113337137 988506428 328784035 715667653 237323533 268498482 625378623 943330069 530910587 41429302 601148574 888729870 596993694 190997173 940518361 225449267 730242646 388481872 50107824 899416714 383960374 752082510 515692217 784394494 32711249 972494376 746660431 364993549 997679755 510900709 766266817 450659353 341341233 168947980 764261954 911385333 594347720 530993828 338770734 371117553 977721277 946286646 657632924 469112211 599257880 915673025 915715739 962333958 581957192 117518796 953291343 190284179 287076183 662450441 240061769 480367842 573706312 146367892 720166430 113673585 383494648 896356742 428090654 988469658 700060810 745782176 160527340 347089264 558902006 249781876 733383490 920488135 325216581 872747333 577786376 790605920 727980349 173369902 174408389 663855481 139380769 904943426 311641125 638755128 598062162 186415354 50201402 571044089 404581648 961579295 102618335 626440100 658607672 651019494 992087422 862713962 712471719 683831341 494880041 443576339 266491652 974107270 262696666 840420398 924313511 258130576 391338105 582813733 424060886 496557284 52567431 853900868 210485675 338947759 171629488 617651694 96621257 611741098 493799506 477051062 632723416 633739311 209982744 43831861 458949459 153525706 337380678 894346790 381753263 641758527 629161244 868238145 910329004 609791774 724729611 498233263 811670725 103171889 573064194 234970704 60827645 823674617 370216552 455637303 138349441 155247383 436684143 709744010 778074106 498177022 654074950 136945735 278393786 594038773 602470638 13765970 847681342 357071754 951794050 986688461 842619998 190055388 525372636 489910960 480496756 916838420 174001397 747485685 432395167 282733970 486704486 310271336 127028952 540785736 395608487 488755628 286012332 101311799 587749954 720087601 594452161 609749497 376217923 91027295 605895590 339083022 475399043 580978445 131004183 92130168 758165063 455080130 691725984 372216637 334452109 815467117 211557866 209951620 5196948 587987329 138032654 402332301 182190163 849508686 472890302 771894985 10282795 112550346 256821574 758938469 132835216 627902536 489498129 322483629 435754980 513902544 268150907 583536051 964899543 744701086 566561359 290038557 759611326 545514923 402070415 931763788 130175841 693562105 126262035 983814966 494097527 329853994 884043207 26064220 907032101 808919233 630820666 998452350 929303117 604717595 213221411 648054254 156859914 356702455 807119966 366883381 261220235 77883492 550611070 33288028 826590448 909432290 137299831 972171202 18748904 24462957 50344180 738592560 951606592 750304727 723828643 903715615 848342569 292051605 349541381 360856208 744333266 118577391 713681952 437029407 88690899 694818560 4096982 305188679 504873853 125966779 992484626 898804135 931779066 259982003 882071518 416823742 728616888 179205205 22600172 108767897 111951573 382605659 987252539 781669890 941609099 250411292 107230094 333948913 500212857 141988193 871616886 15357105 521898057 972974993 405425200 914717810 20411071 166801494 607856080 901895833 473536196 507375927 480568665 9818984 386954285 478026098 597178960 220038369 581779322 415113314 670211032 933396553 626533536 368740432 74400406 216028763 906434474 193402121 866579108 581622425 809875236 470302652 674690118 476676270 715245538 802538158 482451388 590469310 510412630 89629543 463916335 732297933 248545092 544646759 866074491 213039253 195135105 231354018 261702641 14826885 836068989 898266329 14438888 208308147 89432795 564109402 797169018 329314503 163670098 157597815 340984892 644705323 354703392 206604495 41710512 59429159 938768370 321550083 783866999 421827813 469067499 424995924 157506780 112450761 384322176 545144241 194459039 41052456 443607532 542428839 768103690 70960669 46888405 477670232 909560838 951465510 471817350 477700297 820032940 400680868 307977590 378090830 423484279 818524495 147858169 942537004 246411999 683805227 38448961 511528273 461833544 614522061 741279508 770664236 922833325 584094688 608772770 625067614 771599264 756251475 91206890 72336545 780602447 936532972 218239940 647480292 910407143 338049172 566071141 644670456 737440906 553216375 963040798 758611577 678952582 424466149 320150129 1875336 953887328 770353174 430660558 966832333 951857229 909365897 428031617 413329006 496355254 900079093 746885372 693204380 969765471 755175374 878989347 112102689 246849895 402819414 442175942 764721943 121926420 329741891 164034255 414634234 404775077 128404909 610775678 99938483 61909142 974384703 7281498 915037895 201682249 534112005 142930189 725024935 95269741 948415236 751755848 120683061 643117679 226592632 158222878 240478003 398160326 167347801 223987421 883273265 434171955 202076609 31428715 317015444 307931596 268064901 84924410 10708604 229476318 686182977 652331264 250400042 236212988 27560945 447501411 61475590 35695558 610578932 471110382 112310527 156158553 189264960 583760410 212984894 486151065 119409111 779223232 386173282 368666910 704466648 186934573 88004310 67384186 297490215 955191197 39601170 898239300 705741674 499869530 915329075 892628478 834761195 287644434 774317730 424083392 858079090 302562201 406434679 139692168 621960394 269977310 63235438 979229028 228194641 72095361 60416276 25100412 528918740 536034552 946741789 327137924 907684683 460421447 281720623 400668727 334856625 492827285 533286257 827557079 75105092 151347424 311147287 262003884 715985096 11926384 546694301 578369004 405166472 791468000 136311231 563125792 314583827 789444806 185474094 744103605 283984652 853139086 537170959 391768099 882381950 735708148 872472232 799291217 413431133 998902332 708541671 638728658 401404248 716795839 205668727 658345633 166549510 861490976 705582006 618287967 515163207 768716821 278102218 942046598 351216943 490603508 632673682 993476408 346101733 332440573 991684960 273041944 694755157 972061762 606937834 766398868 54203402 43996837 445204898 135046430 460692225 536577433 366244876 848707688 718488079 32863638 11899790 307444390 375299598 239327627 330078723 948515337 799082505 884915380 337859388 390662784 196807769 299562667 366195038 206994056 372500180 58883077 218322321 474828094 430899829 744291958 810815546 952817336 809028134 790403387 646448757 158026365 285563156 341074064 485612384 783662392 712451718 651405771 618728353 255206466 227798535 580735134 524657303 680747299 162119899 885118270 126793846 982037721 379748380 999494729 19795531 227641434 542843343 890985773 795071564 374422657 710943815 644768604 129034275 311645523 392594108 752493868 475219886 33237175 539718124 295824099 505693861 668221541 292508435 877299732 823644882 119953028 115144032 508007408 799386533 39055577 986134131 262706106 493466928 209457290 647189620 51229018 647185973 398324859 487597795 652950329 580052872 739197547 426538279 667009523 225176646 19840316 780895402 430587477 425467466 782043340 685724674 354177633 291838500 297106457 659366638 860609992 843757308 849334143 681131933 50980080 461532800 311531349 337072816 873225199 155603534 926665889 820609053 12823259 297855873 116028304 74206444 486340194 491407652 657513375 8647135 854552947 552596416 594476502 59971997 88915635 842126133 171172247 199081183 95737245 803021817 418851006 572953410 623707962 173724334 785047774 598353676 87477475 982500328 713130998 552128952 466760093 778653581 399171662 238539695 513257935 569501087 863308135 507806023 481400934 144749781 965208341 417349630 442826045 698756486 32909728 427469782 927817841 647899287 943337416 164195181 393328226 329897180 698645002 92865237 240704932 130622395 667920641 985012820 259039432 407795805 754548674 20747948 313004310 422798220 921512852 625435593 830090746 619041434 438589017 859155465 987916929 440448238 446406999 963837359 13143518 992625219 27036327 132732870 645470042 958117788 965056051 171018006 671282265 494633210 707283079 553367414 719770938 639935336 838191414 470049984 426270054 914122040 969226476 740988297 28419009 830216495 777067447 890360198 461143630 262659571 35223607 803845467 311918954 657869949 410779990 201166865 674542842 112090390 962652158 89051215 10213262 968134723 841677834 521116850 789594573 58774074 63284688 950045332 32593738 287632804 703861855 554710455 861256877 113234241 998481421 331477001 122015106 680423010 600140150 871679967 871152558 550364072 878085590 954776094 756047570 481759013 685420532 743671078 273202070 126829702 922851117 149451720 406558163 199076189 678961648 949991473 815654150 227903198 459878403 194706635 296147434 816425284 566769678 876299624 469606132 915582273 675098824 80186662 774261331 237125026 701868506 962921232 536616997 508313030 676241685 530381914 522482327 262299380 608566366 306545553 367360877 758491412 818499226 185175391 600037047 897896877 610469419 321877993 505767958 984803001 84886913 490110330 138947410 890584226 108560309 103100971 122992997 522856048 415790557 554833078 59700354 129729728 813632164 699473934 641331869 380063025 572703403 351131400 909204596 638404144 904419064 890035666 42865563 308217050 635523012 786116149 853087385 588036189 188034557 980643596 390710123 602877730 169419454 257663232 253563172 189580432 702280208 857462943 215550854 5228052 91582268 738569449 32764261 537212077 960630658 678056896 968367951 150468338 225900505 497034625 506879359 526829521 73288109 390639228 688791601 891721766 696139684 968663117 86113775 478084421 488195209 373009689 445367485 751522953 733278229 845380585 980030711 497447636 718281403 322880810 412019880 780606794 982438689 976066369 524406197 288024571 333736863 272766552 582506731 21943465 418362032 986983907 200556620 195163380 924662921 418405537 64934987 719732722 58474495 65378375 595857131 656535193 784218063 609914095 778691002 81613760 546110173 118988409 201588015 317098114 167254887 349663720 482439728 258438744 309063966 378678331 984401827 783192667 788671807 706731588 51168526 796553730 71205981 900826731 383311269 165180548 795738098 847786893 217447037 53954936 595008160 632185273 700547410 28567186 216512065 537387029 462722357 227555976 367436376 475425904 240828770 641564909 472862119 854074533 497711094 972192848 999628928 593131198 540123196 240635793 115208903 693383819 354133898 124749909 377810460 418561321 437298469 186606688 386909799 713465202 840196033 386072921 196574891 725466775 837158732 655457463 443089968 739927405 962473278 471242552 90497214 213520521 730725998 50054026 298041875 69230269 658438314 783033085 987961820 438539542 573811807 755687056 649307484 584391506 120896835 645834987 468616843 215473928 788338316 518608633 210822073 709124601 910027590 84572357 2388930 802030517 630843010 170111673 107844225 328718074 492138530 835873988 148921033 335122423 522632022 607355823 922615440 737715540 986667249 933245264 515216813 16760422 938830615 56205888 432928486 584089888 23399546 759668154 967515949 975718140 682258244 818523860 910789776 56366826 748896663 116091001 658143428 321101764 173685839 897591378 141059236 201993754 979452766 138357292 226773437 544524552 218293036 91645104 515385818 500832541 57797072 235413943 931005997 91730297 368928178 18468840 821820840 51288769 870125584 72064831 181563321 649089091 70500501 878587546 999015012 540056577 190309441 922933698 247182214 352463867 513790414 225425380 439317549 402086678 487226655 514692591 993246942 528754662 558299982 146071720 109777556 373720050 561649788 448943132 389393361 237299010 213069650 249897070 153546310 507028189 781997453 356060125 864133933 477868362 740477506 280372412 59720236 178451758 610997627 247450553 204832199 325712378 594863944 908011739 770243223 59831198 258558151 231810821 306162687 963727815 271099694 311177110 938245343 997633803 249733228 965947140 75113726 180031743 975938735 911770728 295591686 599777096 417898936 58260767 552577323 832790328 820572403 730901123 938105811 885060553 247709568 799210475 715521627 33281040 973169582 603760607 753058673 64584952 50816347 509790679 109838377 60581864 265523302 285624475 451709917 346774378 839654531 254079201 369715901 398778081 330835230 413291574 886905044 869682174 482974984 901477302 285828691 499691314 863417087 399125472 745444659 478456735 151399696 133408955 686846832 866178378 44672592 31514827 772354931 329092802 824840147 618732939 497461933 804285291 211521871 260181074 295286695 586626616 542005785 98929017 338817751 994531544 317050455 112710753 835619588 141803501 463244288 13957112 450157644 6942692 324714791 621161618 389714483 946193763 58473153 172293914 927885351 366591286 106883381 573678579 66509815 499778764 912550275 274535796 595714956 554843822 710993384 461629628 711726612 815468797 354835752 469102517 972678885 884857250 537252671 177349383 709611002 803387659 418298409 232067462 521988693 144677889 887673869 787823243 160539869 187476155 205489437 20910996 236525134 911765592 23973435 128120841 969191511 592715367 377675694 366063377 21185580 827393335 749521538 771887646 278821486 346005086 299036661 543492590 490081894 882115927 732507717 913085402 564576907 621448123 902784632 276505523 974112668 82774521 487922045 45103250 787924203 727569565 576677490 52056886 493613615 756349439 33825158 766394541 384832365 953842134 195749731 750601376 300546392 865107602 305796542 998149878 910575623 953527352 108995807 513966171 385122521 301672864 969397006 479773558 465804741 471057517 438222052 688850179 664689682 834386398 545114711 428113655 645179264 57550888 627999341 194508953 413411843 24417793 373581815 969840341 647885269 901937005 680220253 544945661 678841256 985617739 629318957 627081605 635518432 546920570 872425210 945824842 414204083 208497906 359900214 71155441 972627022 239403966 745085070 969469369 160993688 766808882 145821783 452818962 468314073 637873984 379748978 651052329 719877257 721447591 95148841 140467947 321007292 990729863 609119847 46214883 880246985 172363769 636728858 361223627 14687268 928091016 458538549 868937856 377760674 547530746 583787436 851707696 388226610 59113292 555669781 599313641 420726039 517661348 668037753 340218418 142253819 465611251 833606126 611036420 613915222 865191927 172973818 22369767 967676117 150719898 805888524 716037517 396444897 704889973 62889905 749155523 713669338 748472992 418154596 88144677 227843679 470627294 534901852 952335433 657220077 516645389 662412216 391126238 677795404 49333392 833937605 687901745 505555223 533072281 817513491 334785359 192461741 437166293 286248908 806126615 147744975 141831610 752272206 551724517 171961350 360577571 622922921 971014222 58751890 596780382 860058706 131628288 604590197 404493817 621252928 678938292 322658766 605008611 943221033 677749917 32123752 450646176 187046382 682096495 152213366 889673530 483721179 329991396 650419556 67582493 409254738 326683394 378386704 41101120 225444770 182472911 150956799 658366861 838870932 594384108 711517301 67625468 500648068 896254324 639075431 264178087 170560282 100674022 108247864 85607153 934117205 872080178 817527235 983009900 867079659 371014908 628759303 342300865 600443807 901266260 664617030 831068979 337117929 224406194 606787668 488210324 192061702 76327616 952742977 567692007 229412068 987360712 486234981 572226758 693738250 726253283 901579689 80024319 959447039 963475538 378461441 435425577 287405581 662919119 359725466 970053184 497178490 680332123 540205700 539592698 472614872 746914804 104170678 392010651 955551937 789772904 41268058 85347649 340402205 433290946 220810995 682824337 752735479 666231595 125002644 85292598 715169328 869193765 312291505 724720528 459762060 290265399 937504243 21588065 548351869 918837199 268378631 157225874 921343860 977186473 530587187 60645876 410113366 93243789 871279520 854922582 571373150 630650454 750084673 261409268 399237118 694352023 288735671 372062918 558190818 214497986 715488075 328454246 208654231 863916148 168917920 382757496 949459325 845858933 795158241 789635049 23271731 283506527 201456775 414357754 809263009 522771355 493079315 743123033 343487052 952414700 339158441 761895432 911435782 215594450 900562554 837861105 211125047 693294695 301167116 1541445 270627869 359995456 726571841 795514566 520791943 671656478 350593084 310596498 597181680 176169808 567920791 229946714 77862273 569643538 932432960 452360571 124807924 399280512 928946052 573740628 169715090 903193175 529593288 174324918 879448854 812939758 429440516 828643055 671621520 388795626 322114628 54277279 88209636 634794352 201391820 816565192 624250223 228868052 405062891 180502261 921555062 523787121 770940646 29541117 412086255 36213836 492238833 918804286 305048352 190095333 513819760 302253052 331878776 307224535 17867546 812278897 45938279 645904863 594836388 365989838 488023737 530349464 678192766 970003377 543551019 990016967 477468385 285486559 702254675 15241742 15032166 71697316 47266477 112895709 336108658 757995452 545696540 511393323 506044837 572423740 239319735 134232239 513155069 298817270 11027537 343742880 568736541 140936145 529120803 76360403 431585600 22540281 637410701 958868232 532847811 65209412 388829874 286775709 220645056 198658153 683739248 607522781 683778022 661628528 641859400 398628434 929138090 601648627 35612070 684625278 80745708 707671418 338843382 166182503 515676334 258326181 683783519 663539882 315179031 26029075 751311728 684881735 152326792 360848791 105805194 137817087 958511374 36368490 390390110 170100287 105794253 924147988 970478999 879710615 668758766 781922221 314890299 643876473 232612294 673947663 487718039 29252161 200126080 97319503 117109917 947291978 568162361 352787074 687299342 291001449 443400728 72015971 95166948 566884044 207252711 553293368 497832758 450546462 577082280 694124406 84712728 481166009 890819401 597361635 107723515 922297368 985066808 959538851 111176624 272427302 637467699 995406927 5304126 172839017 167560614 151408813 761203789 167112581 128381884 522480379 757311925 405703042 449211720 91802547 31191276 708813577 460207370 857078377 533317711 999155530 188736184 622874721 381647370 105746845 424747203 165660852 157335793 171575034 514291905 383370031 995887773 407907372 740641252 676628144 631364221 600578920 279983488 715590646 468720516 52287603 726996375 810480500 651630329 508223705 686449183 883636313 287757932 641378284 330085689 547963457 624767351 939108973 710785165 447469513 394040258 454387170 69205646 315773173 25022215 136024203 16576420 485834080 319707910 334484865 521466379 45421662 312090643 698200570 832274183 73597804 445898427 223246567 750972045 567538766 409006226 686578214 484857654 717680697 406185691 168624957 899211530 316670710 898947572 141280726 420701852 211354659 544064274 657315487 697048251 21405719 414415738 653510250 476092333 788453180 621604054 230038329 54221382 281386493 81879977 880381651 121220372 310902464 947625620 483244818 247904558 476766408 114701890 443371660 75059276 261626367 711750384 651823831 318493996 281629606 442604986 551541746 445114838 361872730 457986641 341827457 290680967 209757658 261636225 217204012 30708411 947194803 535796582 137589816 583389781 774771801 183380324 810766374 964822504 131209862 39024072 532692364 305541322 525849011 949407077 659389837 26970890 446478606 670743005 525796260 805567344 884590293 644841175 726067452 74823879 96175236 848213695 186363866 26169003 548993459 310832992 832279303 89658966 865298859 691278715 141967553 567115212 892490763 296655403 31859454 917876124 151573749 13889756 870687667 958473806 965273796 574379171 284455032 598554392 645358811 96546018 772411757 796372473 821664632 148152011 993760817 906934040 474925989 282948171 338800446 925326690 439428817 669562380 372730251 213977353 48258134 645068438 492666737 897292553 139801103 330777676 452883640 936768418 111413096 517156858 22257870 558756084 388106159 223899829 424830796 913917891 64076153 476429031 652557670 601850763 224135123 138142106 286314610 985513255 896835096 74055394 89999451 672797836 135603184 70778313 650503944 789521364 965484152 745081296 434708397 742675149 381231296 268747645 548879007 992796889 241645968 522708337 818055814 827086130 401315762 478451628 643977299 721082369 671533638 557227268 493326740 258865219 525052928 984671395 561917625 361754939 987043930 299079048 643359456 352167939 742249686 229429593 399506047 972675050 968983906 978128251 414382632 342901379 552939890 751399170 655920449 107340079 837347252 132113455 331658884 335392781 250428559 258264247 607615537 719643083 692130737 82609168 859873762 395275654 111582222 480178339 218817525 843420844 458115981 60787622 207443666 877090293 246168453 355715318 786785918 629402334 131156056 589819339 477127753 644637781 978855952 287651128 971430362 639118582 48786535 225940485 676553234 477538686 355914040 317142626 932141233 391206583 104082886 402963890 987360531 730298348 180939364 256766717 443698813 735742061 227328303 661825330 490586796 184673960 478563178 941539323 496056721 562746187 232763202 586438087 603634511 801011993 450599528 902014557 285930464 667778636 50835274 834171890 870095330 548126049 604749128 895767170 727442464 186779140 126098440 667220316 883907419 687388684 181494166 213988545 546923723 678046682 199626390 851669123 946758234 698109878 887020374 484076484 650510184 349784305 760572331 971685179 912240109 840883113 161272033 250132844 394373002 58031765 929587282 44077824 851468597 183851592 547300500 303091197 750056499 100891216 998166842 754293648 316541918 651403847 902145588 757570103 731834910 547088907 247244520 227490662 289234035 895762225 845181057 152372191 77502628 33097030 627342355 69723316 537929269 222866205 158610658 368922765 102491629 504848426 8155042 362486402 11619208 134147160 641902252 706477644 98447295 297275400 548915606 882244952 704766177 786496139 158818883 660711046 950385693 421086979 658332474 745170057 788731560 919445433 198939862 148344369 957639073 27713235 803657624 3842332 5323477 727869862 881354794 52570105 21076552 152992116 670073888 422304720 151257814 477182427 581944369 592582230 514533885 635276063 493572219 888908998 697770692 849773946 754341200 963234528 821347621 893251058 478495251 250596961 699255656 50151149 474914273 455725670 313733477 337996722 482351695 75049446 413540649 922098248 191629755 371488533 228084416 172326593 744915958 48125699 896221711 984828063 834768088 84157495 953948515 131522084 747367433 373465629 37235525 854782311 421101094 644135310 34184826 994025535 860565062 751468992 582843316 558195643 466700283 645340998 962208841 581665713 196598642 922190150 779256901 143934670 49854199 776723079 525104320 768587191 101674895 305589414 643331369 140490437 288954430 399518506 312180684 320237328 448796625 950987175 330461569 296499882 556602835 957468873 469770063 96928744 390691431 993524690 454737883 362482789 883733750 741254403 769331863 958688829 402230527 190745007 520828449 313027579 26115251 441497668 809617669 209393936 375327438 717650581 191708142 870780689 697529851 563392191 926517082 916073598 390028272 824892415 599673732 486857640 63345828 986733840 831495130 418466194 845953080 610934253 750873531 136666915 369963245 102723067 582361055 972461816 297523188 448278010 376783191 458644708 778377251 101104278 247467103 995705719 284829883 365982506 937500329 384007370 978320540 699408224 62740988 13513016 291894576 331571099 829486749 688121742 178202487 911034265 889127568 527545340 424377312 819619362 349835370 42656698 486339583 943215558 940056371 899615479 31812802 654163305 671607080 18827648 359816601 568428900 60553278 632787979 719769344 966544135 497836196 749146151 28871506 627542434 424284793 613280933 300088328 47216965 850513425 111601851 577297980 991941926 891171653 611870902 745651333 683691273 379322165 322089374 242012093 653633503 66351609 823441616 408202737 708858311 55411152 587570530 741984809 342186639 640062440 452677630 97058680 592058090 678474226 627650134 489947006 140236979 849651114 722323441 998402522 447813477 972828959 984297310 473114383 392321684 1706112 763370558 650051137 559614835 834689912 239819099 619789634 428879745 203294105 279309643 942315486 570619547 474345506 807387345 296406544 266652149 998952129 797125076 47970730 343643576 215727367 438540970 866197331 512487228 198333384 919287896 58958669 523309474 912629470 726533188 875523222 99263915 92366112 104125700 237078354 107533326 899634855 679765028 215405852 627161075 407308014 850020604 876201752 580855158 506243365 228417804 826569286 296151213 41177163 436424505 739037524 302582799 101922121 994792933 400931285 263764117 886968895 96603810 657174492 881735570 129544839 86570378 734506039 940218362 843014930 932522534 217079347 16727646 314944627 401974439 863543064 419717061 553713649 411412828 129060605 460486575 591032511 63589205 648907659 904621059 340211653 866526325 687415713 355316005 775220118 806148606 455442229 231776619 328142241 985085424 24347488 483839280 505383830 760587682 741286010 456038869 867930439 367586599 302004560 736197128 124526828 326106543 666519856 232357561 573974672 215183388 172553290 154533101 373742829 370700201 151463937 468200284 772741468 225094015 885928747 535851403 983374190 384098344 539593850 753576687 393260492 719487997 943334514 224330302 401757626 274359254 200475802 244985046 580871610 417044065 502135823 774388677 96758239 144033111 693678165 521397210 484083199 307000208 476530210 668742800 341538961 688106673 375047730 198377051 361703845 17262999 802913814 522608184 37304043 133430700 941035045 784133406 413802958 87435676 217774602 194751571 320250190 534493574 867800403 330558290 360169706 434390278 799387056 891678940 617784862 381320724 682307226 818861508 343476974 237957575 630042771 159419876 851468696 302667721 449846936 867909055 983823624 304496973 448438004 700356107 899867614 933767358 559995696 258418727 987231063 871367968 747469464 380029187 381470430 414476750 943682950 928696128 161654519 680964193 571107251 390915753 412876628 510766455 933655162 963782714 512563640 627939460 735874230 913034929 136959194 177490070 68454360 232567265 682091074 972038933 272433011 892562763 442845002 811992984 922533964 142955256 789155542 212752964 170544003 393520416 973650245 761085660 769309505 74249868 527970475 983800282 577157610 770341268 912790648 190379419 372781324 470631748 38762074 489141037 257522615 538049688 252003471 735337361 428877806 793835207 489504715 287453377 312355909 327992099 866310105 617189705 984491967 895125791 576070323 667487467 483144866 785769226 464865551 458196616 495184909 177570952 383486691 503022765 986697607 403564897 202273919 114577988 123640803 295803482 300048570 705670712 609584810 487061910 78899466 643383780 231224622 87805601 485726857 208939251 782595879 933131362 863720860 167219115 340962632 312873254 951802643 161049414 351012023 211072663 643867469 408450375 72753677 778783268 43413477 369371688 677363083 45385441 253802730 393998446 493513586 655084632 18551187 83148986 301092783 725300117 324868563 479363257 918003374 363477110 260973676 41132001 993263600 757128815 598689832 682861834 243454197 308287290 3582708 108534455 537986588 2272556 446029791 846338088 321066964 314901102 904629027 438087834 17667795 243971472 316137011 945656232 956330842 551901290 73395663 933445912 576550329 614898112 459562928 693007798 621190491 776125409 965706313 625852785 35335557 225837543 546320931 593155255 846027679 358965550 464714736 38082803 722209824 709415406 124088262 875601819 943848309 31735995 101058654 534324979 796961311 59439026 272335979 768520417 112614207 410220324 136830203 790487349 480464789 92458248 146493877 619669751 848050556 707236300 607696293 800621782 298472864 824734452 571435737 784684472 613514754 152039916 219152034 636356376 563848615 514661270 327917171 647339997 991279272 761540770 760779075 484547546 817429569 19960591 888493951 570745324 551728423 695517650 743590077 617751090 432964009 209647182 378000866 24023703 751636333 721822391 699655765 889441451 607897151 812864197 193148547 102447118 542859739 140578957 86059278 135443518 243255813 579008993 219549543 144789799 627021371 498568326 24999782 620743456 84242230 950499834 922107353 484896110 743727175 20721608 77837258 685838055 622395158 383250979 162265319 514895940 440129972 933982841 908488621 371132350 243237202 37729099 992231776 170983093 782742685 777876379 137787128 185101398 767554497 445936470 538956285 645739462 812282601 406741759 623346962 943044004 53228922 97271964 622301304 26235047 451791886 469575404 477889019 147237197 293558097 506586075 609170413 520544517 544779111 483267646 763457889 872249176 636603581 345566747 47625352 111054997 830505526 382120382 822711215 177229924 607881590 143898657 347562609 603567564 754704553 908352274 761019374 752058020 391517402 298618339 771599087 409853547 370182654 93260423 576425497 131523414 672993305 567017845 117166463 904055697 561291490 613885084 103017514 271946986 415159581 80149078 399789958 191573593 899457224 770514286 995280516 443579370 68909072 640803341 418004170 992184785 346793827 764116268 224080951 168000140 89920176 242422348 306289388 445794683 464486728 412564848 209061998 713585953 717153384 849132560 22823496 112444290 623174088 588210053 851418726 846381576 805806015 747242490 199565843 625112592 967753475 479537369 304559934 711959457 114765769 764947032 599232030 339587485 569057625 746485594 224099787 634445277 369980158 412674169 57255826 365550245 749660885 611292749 829153866 643882133 248901141 715646968 203729372 97525276 807477359 65775771 199136015 229951087 796561280 344808306 426837579 773984083 480597300 754142046 395424435 796266691 455482343 755754120 369748493 650214683 574435831 192096639 140983916 980830878 371890115 189161137 308503601 930592486 663828356 752865542 531940150 240779033 145619742 616948067 883135746 632661500 799973235 58315117 121907245 868006667 347888770 452703750 160179028 474427961 694399229 221746832 708566690 746729447 678876013 671565489 296557703 960934869 960360845 325380642 744943134 932417801 515395598 356086994 717013269 79637200 956381593 667150662 326580224 641560928 363039547 667598798 462154848 275511615 156868797 175119329 987678577 767904849 459240326 782242692 406767052 798571295 349131468 824573235 783258160 370546879 75972812 130693353 448564402 589895387 297129000 871160825 102057281 632837678 182517422 181209379 430725838 933345472 588975622 266091776 866440845 304212765 992852210 541222725 572027976 895835753 288492990 969069281 535011788 424086359 727431788 901861251 709083726 215160920 414169086 610248789 598440895 134699029 88649136 323838795 689764204 973698474 244699925 711049325 249348863 198606235 21951738 703424360 369859561 379378426 597917381 164573829 46579826 940575094 234877018 750575761 121963251 331616892 783000202 121367113 492447762 659201921 803450989 100770324 670708297 930683109 29267151 898696523 442126491 34434639 231882266 640343915 35495820 139369505 64775148 435418491 714183384 573086395 463765658 664169770 438621140 259358289 367770584 734984439 101287388 455958849 805804668 726809090 210606703 184618153 652304020 559134027 333141203 872938883 424631115 224652084 774615861 40953856 705067771 452708030 931760890 40757730 678062249 31350312 559236452 35031631 852829342 330508064 791956739 612699528 786666819 288378738 229184390 81790565 705169457 358523027 87088432 367215687 147221115 10663290 492765215 65809968 492011364 597794540 247569429 468830805 186024378 132873737 146935467 646828958 690724312 791356845 862036333 259555445 637389400 807487666 926336346 894433681 492599470 694280542 279347386 44890126 122113007 78024323 90502566 136441858 174906719 647911902 738287685 993990155 503066774 430984676 317354708 339144640 232999750 92917517 76489383 755500584 989724195 472379551 419099992 755425679 2865734 334865448 206664106 697751939 843449205 376498669 697292043 846251831 161935887 364545552 29594204 608881520 159086086 218454405 698493128 833750584 650923736 359918655 258160414 509388964 163769810 630377650 62040055 529890537 519112954 166517395 698431365 41570732 88946472 855523298 225708432 212897045 529458214 218485823 492325403 326104100 192709822 179112644 438102410 863817538 748134628 373649645 665961052 25211792 844416501 601156171 360200768 116370877 460616479 203891869 320580122 952271758 950444045 663839932 133901360 522902090 330934471 688433104 280840 194637431 842812050 73510025 155054046 3941248 732193345 416899548 47093183 984602289 110698890 331264890 182251319 747602494 324363200 63374946 686120381 258176737 723759410 346926352 685202570 788698470 448795168 390373171 463283513 305942849 18596281 530958692 46696309 394552859 953235839 60904094 244799964 570227572 267373991 301117396 675059574 594317767 960649659 730417473 222785832 799740899 883692178 415323462 886728820 751239344 13002186 871187803 622961272 751743075 950193656 992946440 77462323 68317833 10364028 213956685 7901238 132797159 250173289 409646422 401421063 415598595 367317251 485340941 861917418 553350894 35338419 525955950 92918307 786277813 767874449 571258217 726546718 988202767 671173028 630337173 376803903 103250375 177685346 171247840 971940261 367124037 827196917 262101940 95120212 178732416 505025327 643589660 880032649 697787882 652242634 153984013 167709229 678037767 881126452 790578231 495668487 515065486 53638615 804607047 629784121 500624923 861794497 594661920 2317464 585315496 309558691 340973916 256858427 780637103 855813138 714688802 932772975 712236812 312406485 146494749 707929058 788349329 35344343 561420023 873098061 570092191 967659416 66641234 614586445 861347173 493824777 22394280 778846282 829668982 538010178 265207620 92389340 24870531 790577286 395838863 512018107 803514007 170403415 881076021 717013097 910439649 771676637 643481080 305727254 412702034 641508727 957008029 744079025 302953973 206043871 873654574 662264126 418881676 553135743 923182549 185142023 581602231 665770602 20220163 192898238 761547374 140239749 993602569 525755317 458017177 273662917 409901438 33408206 675022655 205167544 232962041 19744892 419633061 451393953 592079672 927399637 366880595 700263104 647905070 549189541 270918280 383001318 291770998 854729598 395289634 941996087 239166363 632785208 304564897 755447565 637603355 158445388 992654427 644491326 554853926 727296084 812111015 352246563 971491637 737319917 685321898 976439683 33087286 368156660 763998386 902533889 482509914 393628988 31610890 527378395 409073810 79891632 370049760 660001418 209577431 77282638 140694923 335922689 161077856 657778849 211895432 957351910 691931922 756763151 855398499 669385971 854521474 272352497 996044278 5885 880791032 232657055 135393813 217891604 312449133 810603951 591802796 277936961 647870520 668595809 774604465 968084454 805932429 890906035 477147 53890584 854351882 133327153 922004561 973733266 485493473 391303326 614259209 217356303 253217564 807471878 997323910 949288694 5413067 308572192 228981608 259565788 98965538 452270035 440183444 479965624 358683335 217581334 277898502 735460239 637159441 613772646 453797594 733974036 917088004 126224360 873388130 977619181 522078057 51860927 509469526 572882002 253228972 266094096 405964063 818244265 885023660 963519320 794037593 800185390 663925253 363843675 739493068 380056608 617472851 637423646 784886864 788854246 621151282 32153817 952758673 128316950 779765384 404122540 571322842 200713393 478125514 161399825 794712175 466318230 37399368 525902989 634062111 388750145 186586772 799037958 337311869 756749898 629182753 298607007 707775544 893965321 613596566 383928012 695607131 986236386 913231246 266821365 182352657 485848812 350399969 237867508 882467353 843259511 90784029 661663652 647876878 274269419 996112604 942201768 971876832 418029942 656939707 823696670 313648013 92300963 693124086 675646939 545825999 867845259 478983089 629405703 48776017 266001709 305075367 734758276 681907894 732139459 89246833 515230641 59248808 678862847 351536120 540903593 78872086 902351860 541960019 355745413 302406837 914406020 65430695 64315056 954005980 201511123 220803797 301338714 689450318 996652343 826717474 370074752 862611774 748174255 898807820 855359604 741472855 754161136 175430237 605689106 893257013 814747095 574221050 972617230 300458442 405920606 278367030 452483947 360530290 417952453 777187121 897742369 314771304 123645116 265706478 426285171 213748204 744069254 991827021 765975822 144636881 993531411 359665476 553048311 265527493 308919585 294131838 122982948 333592498 200540000 832610128 617114846 672134877 897398855 950479986 902128313 453607678 757180427 434029779 631964234 576234872 191523872 620207164 14033279 882131257 824046069 407346875 9689897 951975395 728751051 525389575 813072791 951185719 362577777 301564921 478371885 304620052 874721462 812345254 244164705 639613054 198208155 699862655 989997201 275056710 166553979 633457054 757679035 470508654 800772311 400082095 212065185 639447072 39598732 438403841 777691196 851735968 241185643 694534175 354162657 954807484 316590902 783780680 323615927 454667208 95872744 817558788 95149338 769972636 776768585 112759981 376860952 426836170 19919816 520662667 437098060 148553985 780214437 27558488 259554639 533345725 831074194 728967666 414824861 74312987 448287 568799931 557844958 524848353 411283174 91933041 352103058 626951192 581586808 56364102 307345000 492800421 432517446 932734825 11093694 773097439 660533322 356696533 961547366 116481937 536932935 992429805 672871315 977066182 228353152 856090817 427691108 948897556 894631119 789858841 809287403 204771546 536190574 392493669 140853178 286843676 573891619 554959310 294251121 416177272 956348355 504192508 589119846 775835160 393789958 76340323 874691872 657736233 901255847 343885112 416909242 692434478 406599747 233584054 930819084 462641241 343153048 16823705 916998921 588934334 943790669 216082902 595836016 679269314 712552022 561814024 892962588 914581970 317825163 494198424 355758912 815570460 667843630 525982703 62796187 816237374 859351420 725535058 213656731 307324881 994527782 787008930 765719747 820214325 832897867 555510274 20637244 491822941 587184419 472628345 555163116 440011680 779748751 118389493 578047741 4055488 472834789 799453478 925309021 840300971 575380408 141568268 65287483 835558839 658648971 541906401 905592559 633005625 551017212 635036466 731055022 694800013 186807538 357990740 47436150 862231535 649864026 878696032 357340089 516859006 220679489 193146828 506170272 588904443 281171794 744974320 224182901 622393975 954919025 417932586 624417749 376502407 972107240 771918598 422456812 167536820 624219451 386934397 387694815 572627517 281534004 393498641 475852735 689516110 160680670 467281627 555652838 819321299 518366411 829361261 366834068 321549646 155943816 834225362 761020902 662825829 135810562 529111379 600474113 946524931 429836209 578837375 425609271 121606314 251882808 860229504 430088416 541281064 138363507 436732839 4027954 310158218 869983058 952506368 367908247 610893689 700333394 162124626 919630017 215302719 14979220 78915733 75630130 16907528 231497043 842957893 65453764 556226187 80433185 57606109 395783559 965291571 794211946 674563393 931932048 67370068 43658868 205685778 730672304 531005335 380201586 837485193 603243074 685594958 579651512 721946215 868482105 663116276 896250384 492746256 215651099 151004573 558881078 896626885 862831722 4046661 59351427 420254674 372127134 91551236 699735819 296684376 907722107 815119253 195852602 740642818 971879883 526990305 813659109 457848472 100990913 307652993 331119175 100390454 338630077 897342482 672254827 151134349 982568956 308099654 480870256 563642421 522582733 503503560 212989562 566809247 461738388 727021579 728750169 800074883 969774649 528019448 464382859 507635981 701935639 212624601 834098994 807904475 96319309 281108370 790150580 5504529 840865267 502114194 30317147 432381122 512504920 767474467 993351660 748781460 417936881 425425420 34274767 58258917 948176102 441196712 985748242 702106657 911793604 187688008 805935653 149394173 68085271 421880103 75750544 462549457 60067525 572561908 784979349 684244297 695179654 375014475 681739476 197982077 720178318 347705794 594761098 196225403 467714721 567200174 34619229 885128022 480576921 276764562 91497765 552561743 170398924 912076938 25495133 114314224 901196025 333686253 995317524 678978784 130770871 177086969 345063110 873692310 882714561 843559517 724852992 160902472 125831954 8366007 804369163 495488582 384156747 26364942 991486766 57579037 984451279 676385939 951548915 885407993 500114101 339868405 23040559 824876171 999965542 950948622 887121553 240045582 480368133 484369489 874240041 869221594 492867538 137630424 726629517 429915866 460542098 695097131 73262075 564775744 211194336 925821408 168839077 978829756 953570098 388786921 194333313 651923787 388389851 876900469 168279559 913939735 509526921 294527258 787811430 542003775 481041525 916103949 642280561 205453663 294052724 99331597 401380911 757621805 13548635 742708743 838675039 470414477 393923657 754480671 640536062 452076947 172966633 486164089 521871624 382795753 186980144 214400260 31251831 784452465 692652475 489379167 359760501 37413026 877631727 227905359 736439273 907011793 567526333 570915129 276610044 486733781 67724700 948179780 73629049 774618797 988378525 301398208 737307986 642427300 766472443 470790043 580275191 335583613 332222674 591557083 545726489 826132879 431017240 733271135 254981771 528262702 644220314 976068603 628275565 340572870 718024003 605216931 439358975 384819271 223653329 379939809 377410896 35969983 651717124 80675572 297551676 339311622 371423622 66483793 489207102 626624413 612542547 320794401 933755601 918989988 302207891 396564347 807586978 395930605 402169978 497284756 184590923 661064500 788257553 352252340 667045075 775753990 576412033 510280627 300875503 982096629 408442982 627833043 655591634 661270297 196963735 357173222 487128373 164700189 298834328 367576339 623067669 635886609 355896906 140387593 363033740 602630322 68654856 945725680 682097778 724407535 21586643 819523858 245421329 205335460 361697939 923380401 732373379 804224560 248647925 613685139 245589558 909276006 614411402 894200132 887764240 230366117 625146939 559046429 49457266 918861374 866325941 71762539 941913248 425360137 591880575 882330392 405281378 848197172 834520773 821318325 209943798 750560094 471031010 706295713 724764981 698670021 624576107 705710490 425615026 16419337 487973514 66055002 885641488 459978062 919928707 687561958 710877602 469758526 396668561 697975137 531986523 573588033 47802195 917991778 71245557 523932281 226225266 431726481 391995851 145348593 186459066 508015902 521810080 91280411 182933551 590271948 209883376 850906677 359060084 160416775 126396953 839818664 735292992 744062852 596614484 926841274 59316455 680283057 581148487 121652634 488943682 252530231 86664799 169454668 528081542 389957793 517127182 976992665 702443192 34975300 202881533 139572486 264632851 614861170 965084147 136836425 306712053 708480745 845366065 176926014 246038144 34283462 474593302 1721319 219526611 655866397 16969319 521204116 340191910 829313659 417085389 946391810 628774970 610210835 696666409 726491804 187240491 422772504 138429268 694482678 574179471 854432244 637914253 639481538 965781752 552341556 68310811 509340394 544618888 876586123 269838656 950204489 874781914 458695834 484738900 646138660 627315562 894093482 355465722 157990133 449836542 927406481 876573011 579808823 342640436 735923773 88157961 949849975 852131584 69845717 260582619 257697103 989663967 794713922 666874801 145097664 123362150 429730753 161874981 797978430 384251887 651183278 984560903 657192926 711703754 886641477 815958148 582054239 725014039 108488087 727984888 580479890 895366039 988968947 107194892 4830323 598797007 458680707 317931808 549848400 477774415 230980194 788959099 115306721 866166190 59757596 378507283 392272917 886704968 596233982 471426347 426843968 19214167 857785821 834611935 230091407 720376615 911731178 179841804 562479475 320683901 379918954 370801929 989964691 450917232 332589282 648377616 387133691 725550165 424344871 221001162 652078205 936126766 436947418 894046439 321502246 432053059 313815850 678394537 571273600 711957897 114334204 666908454 915176835 154933545 687062195 776469581 116051566 225000850 561480132 612928445 622694437 971449328 99725559 347544954 692357063 981187577 192830913 652282946 431892228 807125288 318892180 197435822 348410836 438763130 495219613 820301414 982497806 388215879 420406980 181023790 602242467 313590806 655666440 5345512 846333205 33450028 558125183 245491872 584826701 500234501 470911101 510683694 315336647 321167126 497763043 562896951 769787368 340840495 733919393 871786567 499181794 519138097 279803454 173484543 521992212 669801043 611379452 7287710 219978761 792302861 591454662 189724886 455084551 641067274 684753136 374918204 363290908 8637524 254638634 502472038 69770421 961612397 159865849 773538134 166512119 355391495 294373198 286275551 775810717 439992090 87816697 498600423 701135641 458999864 652371036 107058780 225089082 763792900 747093334 418981767 903402627 893641221 138314226 359557745 173836416 258902153 416016229 634282389 137943739 708200311 213035308 753132821 46006612 755415215 190511694 571168006 913845812 962263997 703320272 275869257 358590213 676411881 838784380 868763761 208646260 762257114 818607871 266879785 896925029 28611977 675443100 102064168 615496954 303650029 408691990 102805697 310217107 907117121 630835955 596091886 212988145 111376563 359840696 966125509 712614510 424265271 634977044 238262773 909802489 84984663 980410728 803676948 286537975 610562810 151219784 668458288 72099590 573396253 427275199 839757159 872985528 811513891 460148642 949346960 342419489 396310923 175148495 757141372 219965879 696395693 915450144 701750346 717737117 69399444 984335109 844528656 528237550 126244022 908113622 584584567 913763135 854861264 330753672 508582690 314207321 426636530 719310838 821150025 141314234 702178018 513022066 117015292 510296292 391811306 638767591 464487276 244424639 843756937 332610365 38046271 904856087 298723497 507312564 472208846 49474977 832794525 805093496 69734879 426335473 435106251 562814463 642439023 599146381 895927341 637319785 711118616 825500860 717320906 553118081 625972255 775026039 124405616 773219713 690744375 594832624 369269692 60269986 199923477 118310718 204820533 924547332 187535638 845757751 158436055 603566234 570858143 294044972 589338917 792658166 960254298 738458111 804062971 710863773 573263747 569233967 660133884 134786087 260559130 349363508 129498381 311787809 80648144 832749191 439011231 737472327 407980869 351285125 45375845 239526499 44325543 333754348 38494577 238807434 115372572 632336311 823789924 837970061 685845157 8497760 885860470 409251274 300347394 306537154 605381966 473822115 419029933 24856771 469293830 864247975 72302588 836728691 977823782 388787260 199848601 305887909 828782241 734916697 802641930 565443531 669223746 827705201 171416332 21825198 305421028 693545752 316440356 998773062 777298891 240181459 196696375 227007373 376110753 495528630 769014318 486214271 793913163 224517166 773313143 367853887 256598152 822071314 856897294 703138346 396751445 850778482 387055519 872116445 926227377 923890131 956805361 911045299 868731771 689427961 800989288 324563884 835521871 283996642 236867225 245598 966494118 334480685 118732419 351382057 585455014 986194771 566446877 4710524 21915306 513704206 245712127 882908972 618322545 699994280 444066486 196631250 463152017 766795075 709535742 910598251 441671407 185003968 778482652 964612577 887554351 781140365 642136961 753247907 85775046 670120181 151352613 822880038 879004742 731778517 599376008 534354342 611942842 20036663 52176723 784985916 670362527 67552515 704587218 347592339 100195940 214100810 292939628 502516118 589358262 762776832 598111775 635888630 23086102 49941988 86842243 431275066 292757636 752449358 381423855 454230338 992488832 685015236 473808938 590937229 656218779 317705965 42423991 35030380 591076611 895958334 283018362 759369136 137367701 837180756 11011707 920612337 708227461 81880889 601236561 277329868 432896995 638809056 717472809 14093268 977490974 832760715 213864171 984028860 469054368 489080554 476274686 461079798 929430578 697880317 113278577 832426336 303994591 996797685 909049442 522278017 802659568 418550033 36683396 64150594 832594043 723401033 93692412 581562712 611889291 527968567 949072061 676385447 659363732 888825336 318753027 485099987 446290528 126348359 663845810 580209859 761904517 511067356 632112973 620732341 409207923 460173977 211312780 376770950 200600778 273197971 582608114 836583883 392700208 125027757 92681644 886656960 87160774 106890084 654920170 937326718 322632041 759922652 887239547 676325285 782826229 491217108 426390369 753254971 2628702 665207188 15482612 702334020 143299155 405531068 481514566 660304239 296857600 947367146 554543596 888511069 525086274 907985701 368662397 962102916 70908823 772771060 94355315 646409102 816191393 210241023 572843349 980079626 488489419 710861672 632271182 286082453 723211863 806838950 377113764 296303395 424784308 306392488 419137164 806625631 368729767 193250590 313677419 637607577 278840014 470223887 491266131 390601314 144016183 865498037 670375669 384859208 969899844 206920193 932074611 77283378 901892871 483413885 839502190 881679195 633093819 200855554 31674042 710280030 267009694 957363562 451384223 685452466 342297255 343194736 225293653 446293829 60870863 113429805 666272022 454438973 22144443 7343948 2460707 152540758 356042030 554592621 256458880 107089359 193025706 677768822 851197224 861509129 215980596 654061418 204694123 53050072 980338649 936717452 172271283 717223827 758275543 975264899 8055788 368351697 828117290 216103270 464100101 776449974 136930519 491854622 122565430 286786300 341179114 102366386 807038152 754574626 944349709 90877726 364451915 601682211 824966602 845539110 891766390 954746176 50015015 216948924 523852582 564899585 656050632 779321981 611296764 272506815 762271145 310774224 534707153 833466421 839074502 910950285 693652742 494860206 346177685 184367641 434842193 29446098 77128002 930735925 480475964 629129688 18226597 318870975 557488307 367643944 408037078 567635468 161729616 278519607 826827036 841426781 678396195 377644155 442668948 97433623 826432535 641134656 969392594 978960179 517742409 621618981 57757923 50530040 342735339 323033945 838626978 168122878 921247243 386166448 222903461 669819914 246603384 375258200 368752699 533516366 591700369 897208384 206764277 182130062 904782086 394012922 524099871 904391351 75662230 103097522 667300744 148510160 181462656 940997504 957709759 572958264 976408608 252750282 339784977 840057698 159163105 453579183 272458357 419779187 161821110 903712247 328818839 707832281 319116009 30032770 505098111 134711334 916970468 884027735 792945219 886858985 648483844 40531738 546056983 841554923 348902747 322227658 357327298 547733017 755344678 266653586 955784737 980751898 772014134 900237780 384663725 541132512 304228436 778579143 534448708 883562214 872138072 596508305 476506524 391577258 550450502 354802794 995436305 856575021 832221753 619366486 493990359 930271262 482571345 835156631 917972839 107055649 708194326 482243853 905466371 492284337 529335976 211383840 779045665 540703782 822677889 107857016 435820965 715580773 791425525 928331569 174759804 949552921 956776199 732049659 532466708 1005206 646294776 300455460 193655893 875903737 89990922 953255710 656838935 190016867 716208240 618452489 683145486 447164523 136269599 789018223 887340551 246429434 292446586 184593627 632450979 592096513 245137835 882089553 592240373 509445552 283098578 888902944 459120809 550274449 411327168 345008703 145900385 185612139 69373737 188648185 33880732 326067200 378718829 950460316 15316359 721847178 881252984 796983006 798774178 433829245 171317149 536212223 382440737 647814499 669582934 567424388 246394581 900774743 151621867 60961661 827109716 831858941 487225924 274612403 812093301 282668416 42871875 498693906 222357351 591029233 553037930 951340880 571088566 487803243 681215261 200112827 742006724 401082410 845881517 72090419 240636081 699634030 597363671 991105791 472793291 828308857 304825735 733518505 821961730 816545872 25063028 419466169 823468816 989329364 454005340 452088573 441035145 908499500 492747833 578966866 659252227 296313888 674780152 384500496 173191644 979712129 101773783 211858950 534037918 686632295 18630315 406962101 928519229 766733108 964080156 797913507 496374619 128061825 159359352 601209590 259473277 341607763 908170995 820461985 89855113 680088384 156127928 161320586 5211659 103130352 799823774 549157512 228689356 939010039 559003005 645379920 261652198 537439236 729138274 800559639 543945465 684832280 973736888 987749304 727865696 623935305 687179778 266932562 852215010 972061548 224874000 748846532 217087336 643524829 500219478 905935954 923087897 281334727 143042517 387900083 16421384 348541765 844030374 537018432 32238349 872523981 629334479 163545278 497608078 833707756 911235130 968308929 486520075 685956419 405516277 288508627 975052058 598072076 149719670 177765350 727107722 449001503 153925876 816670426 72445982 365633605 304393888 362832954 72785425 420018463 633283053 38391909 481604145 557154614 624376332 296405699 420339724 302073235 262710435 921439842 824082008 502102461 672499339 711585846 670197033 603657868 101634230 919438013 163167176 602662088 837499537 744528325 199439717 35874342 990844226 302957515 580556055 11047630 20615167 636529351 655118635 347601168 711086026 152578120 201501379 360023496 553499076 141331727 629532197 426388157 611493518 506023448 937547782 658520340 244510802 939632438 886413364 493368693 744876645 44438956 174280180 39809851 138042084 772123750 713795650 356716972 894339824 780021650 641466263 13797 324059043 361791351 665454946 812914370 793447778 12053292 561512503 898763002 254361573 230307187 215597193 54173477 943311339 977539401 492429046 906866321 155074892 835216896 155891590 66130405 606994341 99032581 902454625 290531265 843007801 357217768 27206038 456946553 789345535 476466516 780323530 315189936 371892488 354425667 516371517 274285247 484451808 724747173 690194686 193172760 841094064 432284312 456640574 972316011 465468327 669981886 418284548 109382047 32640091 469422915 817333644 315199089 366646173 826481529 919202691 978925869 740487565 296200426 469952359 53412917 940467248 6843765 352463591 628362514 192231868 821718155 708105291 518334576 208720143 862134903 963017400 31406520 392154952 819146771 222401554 852206324 552019542 324681720 327896758 553537620 237702047 60917249 937478445 476692454 816836008 454429536 894246757 107606651 806207998 70546086 232090328 807431527 18653746 712557189 992572678 770572911 458095166 576430310 10057794 298098371 636892135 269090880 345462491 235250510 792842657 542859326 611230910 742596865 485171328 462113177 563767514 978624276 756866186 470690092 42390071 880241475 502832033 253436844 661108660 379722289 416793693 713182822 780753298 643582628 939391156 705161034 702376473 451971876 296292670 805175045 690904505 700896735 189387069 710206411 847636730 975739682 992693629 326992031 527024776 577847570 886872064 181885587 173583371 192757808 541432358 970842076 143756787 537262496 901335207 817127641 549773010 21513575 704397562 435515600 447709350 212605411 538674163 754562751 97132635 658820322 977152198 569305021 447771166 755284564 7079722 962621919 518824702 642482863 676360335 320349950 70718614 756432734 563608691 926930063 908908744 719585343 995048888 482877149 392886519 687194625 819812994 671052394 449092027 245443247 456294062 412396548 563350122 621504932 154040214 937031855 39058198 443013392 898752269 951378303 390423260 439714609 478335660 91738297 593508744 653430871 929361536 348811173 960567018 339936547 249186013 687953808 438845295 961023669 536331313 35667447 704170883 9791524 112714153 805807573 597704327 776250906 519853840 325152045 349046076 585461278 925478573 205125066 471840850 500705052 810756372 35529154 87635342 876460367 125381646 618899500 990700228 213546988 125214772 176087875 571724817 168847869 114486161 800935479 550901032 315575429 924277195 290171477 368142671 320864890 571637345 887058433 532364044 32144635 939969251 203941577 545721330 457296946 448317939 732014286 579341150 463118515 826456713 985999919 309032548 924899544 208423472 75213791 630747464 41331855 727638353 304101187 188543945 888276453 340952141 422348451 373162847 315780551 657438034 838697842 597690679 448866263 955821028 538567238 390341732 647398434 990195204 111283127 574360296 105269555 275336554 795719038 449925815 675749194 891682629 219358082 71382740 834798154 540193395 301177567 40689191 15192477 436319848 80378890 515875672 754008846 436095352 662016681 711230501 7978450 196248076 165746497 355101045 266071736 507478068 74462616 99409898 593267818 860159088 771150000 783457365 135189429 887759587 367621089 374925846 52929108 643379879 521198319 60626234 348773269 882804725 438840017 209374597 750789036 695487401 363278422 804343425 135376036 174199777 515411719 165175847 153642201 278902818 788810276 342824196 532419872 505597941 883888912 512396568 828075453 198699609 433300419 659562532 896054671 410860060 173061156 503410045 685769500 587335810 246136011 285340010 689310764 41217154 307906254 917559256 987213281 648346149 857884491 841771629 8507478 967699 226721855 823099162 573135629 141300062 600184790 32266330 5465919 298808980 767560144 187310537 942928160 533017712 298740471 703769349 463435492 174878475 82239636 374966167 466948523 166403068 192411590 361214108 729715220 249118456 52480751 727408063 227133239 805939313 668070620 773518646 651588382 315342995 13831896 395751027 348542847 360965397 998736120 948423846 703102129 30575373 700444642 213982060 916154102 683214661 129284957 510396082 578064594 385978149 246506496 841965329 272101235 453483649 332058047 334951421 658062238 394731491 9248084 765834927 328496461 157645045 753015393 455998255 873715967 595841594 268126051 267057184 287206540 424749071 74651959 278614113 209408783 185536911 912886471 726575946 290063956 395046364 611684419 193123907 780121619 644255785 733398276 275678222 375152368 793941402 589688645 372937870 604412132 953697367 92517457 67744552 440171268 683878826 236912014 291114214 198652181 356954658 436938555 620871814 939357880 919463816 969002692 537185593 723388546 815104322 985705502 380788933 281528593 612901486 743637891 532226212 485014810 964609719 527175361 18754248 60831090 203793954 403720267 742467908 74949491 448000150 38187426 775641901 957721824 919576976 32124178 849545761 700933784 901766044 352908512 138357125 81781838 39501793 527563811 527521386 841539223 37055117 547748807 944425742 115950018 557342667 692893720 731063744 1245527 405260697 822670987 825902985 833489533 408163284 107641545 232584409 915963665 367710871 537392758 642462676 26511797 32433804 732371085 551408083 749552843 76180107 733996952 173892162 330576997 760926963 671385902 154337150 790926266 427721024 904330296 619332860 714057318 995432871 515784614 451658736 274819795 614730502 575295569 848389790 787714283 388370359 388551347 394259060 263885676 228278872 238818458 6836539 851967443 120479608 841684190 38714848 883833993 394011769 582655981 965184828 719429252 935614477 189062065 269261202 360214665 104044987 601418000 558861686 428880887 531465489 625804068 262260492 161552078 348558224 683337102 337159473 858840134 372901790 156731895 892669794 146603333 675280836 52387802 220892008 499794368 990439005 338653631 728175235 795727999 278218767 839352063 19581640 839178163 69486958 543573988 444753494 860851991 757354640 182036452 488678115 342551068 600668234 325958001 455655071 206344957 974003897 620770591 282088605 73836835 234056134 226706888 482679763 742349785 616643658 177080182 948168732 846232580 516826993 944853753 71164348 563431139 159095115 446889141 637923161 346155010 642292822 371566768 436457480 873067227 21117064 246269159 738305316 786614411 816032919 744760325 929586457 543594794 252935518 22874323 668322803 199574037 405188036 88993313 466234934 627956646 864622589 315614030 249055788 639137970 73776406 760001343 155385676 332372352 745893464 873565031 884608160 353152440 611562243 179065812 894679334 898363564 482168749 636539227 615959541 729707714 46786791 401867732 493098412 153577438 426596163 162605141 533070600 192312770 134501971 55104661 868353228 702291733 185873443 35286802 327885172 268100963 579050332 974030926 296455843 662017795 935861076 769528307 885400038 970889854 818850735 450476332 43312170 72182032 457781855 305180139 226249849 405277425 519653069 47515322 232685738 521530975 829024824 363676765 492122322 580167644 741131510 459219067 831948100 977654025 506078414 216598280 229982716 997252566 629901045 205703445 215462819 591579932 483329625 524175369 750458595 37642601 933540573 701111667 12649952 446397850 371748035 609552414 566770720 561031305 29262070 624391148 592020871 278889450 778148562 596642467 351310293 12833329 243546894 81185885 651591944 255055256 160843982 516414122 43759673 257493998 922499086 580139758 569875104 923311336 851559444 159264433 117369242 610487409 157145818 919342559 791430053 936718055 946868590 200947729 195702150 368512722 314108100 625741102 477701617 783838729 75227234 733541917 132696892 187797964 791669248 592668802 799850055 222663881 422752878 216552086 779502216 222838939 572367082 999104794 671202293 698488519 127277513 272859703 696941535 824965699 222624952 344693436 863238410 9969597 90033723 779324860 516836255 548566990 640235370 476280407 600889288 111921454 908095466 747945620 214644143 600317884 356076369 52222932 223288882 948544795 513068141 791787416 514304265 310088815 239463486 500387158 360360 548794274 169724176 981690530 793171682 332877830 608915247 624749026 459070203 948509020 126686183 921943340 337618798 683323313 827026117 886708851 149836357 217258475 17930810 92879910 807042071 217171293 522375119 102671909 230264282 262287042 648523231 244297170 517836466 341465870 629399156 483062833 534187008 783230471 121708632 369711021 760773945 597663091 127611900 693268058 377576668 938463905 341013319 898475374 318634230 291988982 136444765 209020085 219702907 20472087 134347987 867529104 645153882 220105402 409119584 145989478 593955519 595468079 507816931 904069698 930362621 800347689 491176997 523615185 133557669 353218489 358432617 17290480 118794820 256113952 611727842 987791946 713621837 296258978 507688860 622018908 336066560 19648753 402675688 970031338 621458732 478248984 37534649 965461887 987935350 701469494 133465639 189465342 352323162 638355907 96840417 885484228 574082656 286674453 335188062 549382371 591288793 642042211 306328056 791898463 93785482 170333955 44353833 220705111 711172939 79778807 657447634 140288722 907907672 252221526 348193538 922975326 245127668 477427800 751161951 752481485 123291208 503193476 474750633 319529951 82852795 514546720 158943641 391884698 923215937 598237682 601094995 928525344 258529816 497843410 975043379 771529828 367679864 57528304 482735483 821425350 874311456 534980796 948371577 295304426 91869503 200849650 545095597 89519589 591046869 616739657 436867735 766654219 736316038 104083647 734261093 911860587 667705580 98334713 229172726 691504540 241337481 628394068 329881736 637002872 315573637 492328296 248967386 831530088 810934974 92847727 954624664 578867180 487104751 194051086 531003115 472875307 530077124 30662014 102429151 598735620 310446454 124895295 412161041 156898984 157904482 222412461 907109788 282087401 17146043 183759626 880087326 309278855 613923266 892046320 974507281 642882019 511755898 215221183 81526882 953299103 154197893 520657604 594491293 503404780 886414965 461104094 312704815 839065750 705800378 698832134 612120005 586739319 881113198 831090057 196736416 4443746 955268707 234055837 188671975 874456553 493562133 560450479 815676165 22359930 218406999 839741566 108577504 692631131 131828448 319459748 316418486 35057954 192127374 893510152 568966468 771615666 696512737 433476455 125545345 515775286 135175297 454284126 755302282 809364013 522396612 867355749 143620762 654325514 981307283 72835117 420196210 703821316 327266772 83666525 123617854 703999731 929025823 82027046 9594400 469843724 487057956 980048264 103898118 48200641 487293661 462703762 819156189 728185174 719643745 192891332 871094062 289192740 98193961 601736847 167498171 575177274 50868543 386015303 467690567 321085992 548644677 285471777 656526348 133387131 276474853 829825825 704658989 542565432 832635325 420233135 102709504 910443095 920325586 868662970 567344069 947860582 962867030 507732794 318253988 649568047 345468867 379343124 317544582 392152741 815194981 927221425 395839536 801875992 621964324 281928203 227722099 63641582 96189259 157534661 744429086 479440110 940261104 205198281 731851249 214550391 619220173 779996505 45962664 735945090 95829602 226807123 393890678 626096347 338560123 755268746 904877289 44111175 106865551 805135022 109771173 432960664 248151285 568757262 979172394 501201724 599740157 325151581 400625526 288973182 409663403 595038852 530764991 633433714 85217745 744884229 568230201 736611617 13047912 737027414 344280273 253807984 535575854 206811793 645381671 52024085 672426668 928841733 147062057 520329241 100779043 711629867 516502642 190789744 972904803 422364259 632573329 221020094 561143048 527610522 929505886 761802409 990454655 660611973 467963093 259306861 489412765 394062477 312214603 210280557 529697977 13790437 404575845 952609838 542147088 413005989 747065436 379049562 995370915 655046640 223843050 83920612 730360801 556125762 557574577 120606145 12230382 446441550 638334177 148340822 178878234 36695588 951227528 904041193 321950999 477435622 162135329 866262777 821514180 344815828 967973584 320442169 459877043 427635299 112840758 1661074 463446318 498802789 638372104 815951522 293378747 813713147 582559270 525062391 789630280 871713828 311392580 211615468 226117226 844513879 845792467 24928952 330407072 623229517 824895000 877687056 667417857 325479628 736380887 940811950 614505164 19662114 415567914 899033540 489428687 771626929 349628582 865689199 321856768 136236440 610057525 723551825 135873409 525460195 809126594 468147468 449162666 876692321 798727650 887070420 321951895 195959447 539709603 224305904 798294783 731536077 394936900 712002937 926637143 470677016 862286280 201774744 409804586 542207197 559413807 426818449 275621503 988954296 271478832 292008399 477487380 831378941 727955090 176140957 998551630 590293327 558219441 381021531 163381055 541674189 712019012 952778045 269502536 393086878 688127577 265220846 133595982 611496727 362530120 61155610 941066850 706207550 399239232 468861810 584690200 27261919 828403206 332666482 925172700 116688471 107892424 422437391 121152613 231827819 879227227 377913942 904662101 710580187 691363669 832568079 321729741 736926236 505389504 528332603 343878107 563442385 334452257 926452 454449915 344867649 175284554 662246403 974346206 748946927 858608534 963440250 714028757 312120473 723200392 240021380 385382773 385923442 182125471 864818049 858610582 414498985 864213634 940162734 130586398 648223722 182131371 896863064 92953519 891488506 665117297 876086275 707793094 33900103 516095710 464287662 529836508 59981399 749410345 62965910 276586889 413177039 929711894 369231003 824887674 459383835 940204200 490670382 456185003 343145120 579463899 568515849 424143796 247631823 36267953 118802748 375023225 524501060 809024738 27900527 290340794 111459167 949410676 631400303 126008546 119198578 168927496 964390723 255135626 754141980 200530039 252227951 794778152 254053382 621757461 91469528 696229153 937333458 326848870 635976271 340372241 883778363 450190371 702245577 119616818 753663833 646537938 60339547 359443494 614543457 444049205 99034225 262507001 888439717 927137754 550193588 535112654 727558369 8338513 274928335 995388960 433758326 524876877 896313432 628154838 710046195 234977149 173961638 335012226 937193878 192851840 359177436 856876835 731578479 439881508 627932484 697572723 623324209 361776316 69586015 555972092 749245736 68964287 487765644 162813538 377542596 479387888 535992556 307078355 567991739 590830718 271306197 415718184 983988790 690909739 244714592 158155454 660826599 4081274 930823696 322931926 239635936 407055855 246696879 484704211 189010739 840241185 236821410 739642290 369575244 943470445 710455249 242280873 39956639 229852840 887001520 893536724 189793888 576794262 958139846 916410355 942601855 605708078 362864440 658055942 11891426 226241356 861877174 135653683 383426055 445640257 744910921 413921745 375489605 268803626 25417470 690165822 133361761 212989486 376155405 642901307 85920698 963387236 168812195 375631270 539427964 343995025 481481052 369705026 15595478 834115152 373570455 125389500 109996554 240078066 870732507 13983826 918329616 49668986 409548596 140839750 300244639 383723259 901888355 64690829 153090529 20872895 445763104 474396896 689740376 402970400 115092087 277155042 295295877 485525975 327561184 376144502 33964348 523666041 908029427 16969061 304993284 232645002 443848648 47138712 192709266 855930323 964201874 427353252 832889976 486633452 619136603 88262911 983958868 822834918 920479301 140649736 376055748 534483394 582294198 26770702 179232019 383271892 594493269 116450804 726405661 195449823 72331186 251414664 372902949 798607363 411448276 534173948 845948582 310424099 835206972 287433329 333096436 444264630 363599013 235316114 542056469 459304698 715233530 930991301 710583833 326693944 726726183 432376762 996005795 323667968 396100767 116859117 43123722 252739495 376334846 723822686 587542169 932567267 597072936 757524011 64860868 821981473 257838794 656742272 532508016 760347941 536096199 870185940 290480796 678936702 393261824 354700662 577594989 705021191 733315393 406829481 211953105 492292372 928257570 447379754 994489286 376110974 901860490 448845496 602802778 901910856 282904352 55446405 830527447 423745132 388830658 331935473 361354518 668248498 87017690 34988995 149559670 160563761 958131607 409728785 849232476 181491092 824165589 380087588 303794046 820665991 3947934 331612063 983473922 50370528 687238414 945041871 207910125 613273417 627380450 614533926 682291120 114103063 820890433 712058578 292492123 884120694 135935592 826223205 95057429 384297014 765873533 208470070 337604514 836090597 586043613 31650056 831103160 807633202 73361489 96088697 95291739 645184081 790675523 702839499 703033840 116269483 516910355 687691706 676968658 669723051 733287953 668440498 128162458 143076753 980277320 984152213 17551712 504729201 569293531 896690100 512082190 12044932 941270341 705501046 770446638 654555642 712160699 181993832 63901730 65642378 26390430 789658092 717733793 102771399 320313240 275533913 739110313 948664286 543445774 657786272 792109209 271488895 100584308 800867634 934456705 447928799 837879511 832563413 678587103 640684997 496797843 952302457 886095694 543652034 363615578 580956939 840006302 506890457 165641748 545380350 32239796 816975952 606842410 359854432 168975501 893618227 170327531 484439087 438031991 560492501 734875308 754502452 324859135 342959475 631253678 696769043 461551389 458802786 337660461 266131138 819057979 383467733 246537645 600119855 307504342 330612724 296374050 854191697 653012497 812666530 140417226 995508680 272691978 389586378 672894417 437358992 857056244 543607036 208991958 194124407 467439401 578615574 516733619 340492946 774356164 367561157 499057088 269948516 389873598 842292216 48145969 604634571 229859499 366075399 913884871 465682231 220418883 885266988 146821738 119226480 357471647 886416866 342436294 84993512 28484251 443751691 4933317 318842542 27186772 762486534 725331935 720732297 858869355 69478111 826962072 976682926 136979003 387588279 43115294 943279796 652396205 410575232 802169761 711096316 399331719 395483221 239980510 242865343 828046411 4201089 285527352 815282720 58165564 893324820 925076863 8263961 197874333 27157019 543417300 731026426 691175301 662824528 376969320 92296171 552651624 939304071 82258917 299082064 859640386 185442567 200289282 675772782 152787206 805192200 569493312 848180007 141522792 394306792 447778046 752377960 362995066 436287587 53011108 479555630 997375856 384721926 325794 67385788 928888251 135291544 629612657 205950740 830773753 873104830 871626354 211897434 125287285 545350532 879333238 129622161 867042410 357874907 910449071 196804159 332670884 679280523 893031727 78388942 468952099 514750759 529869300 832831896 694108267 208615143 242706823 40704948 313973348 304345780 467446863 849413424 399794408 309419682 972543728 367206348 335509431 799754972 458263886 580208078 375765663 379707058 610016441 843820134 593078818 695190134 287192154 834022715 104443780 930105123 511425707 643968776 198747457 809377426 300899029 523893348 76810527 460313219 17792570 201529033 462248263 436802673 317046904 231931327 297046830 79289000 172828155 477468460 698725520 841724763 404285918 732503222 103103728 534351419 840045058 583958986 376725487 396288682 773552017 874600118 446735813 330073898 11055736 741816638 651131249 290657060 182471908 332131552 565964125 543418040 560988072 606802440 24431814 827393043 306697684 612066063 615135012 410436203 108899709 384438278 607294797 683009187 610223019 435311249 116637849 20570815 187924462 135595633 680860955 217466896 275756136 487890326 363538597 124114796 330117807 160474725 238083440 189467316 422784984 230643562 991249632 755532566 486818966 738005177 602766654 708227995 871488730 362897806 664155723 419652381 673531296 354540519 632108719 523913843 392655743 187403509 484481778 598796293 921065366 340313566 404132183 397613347 493257793 768421821 710120605 819804136 720477192 441372546 439135598 224348932 294862104 666444683 878917112 389178909 159918556 918795970 178231882 25850083 842626066 708582843 578461266 68639134 640866285 363264717 570293276 577453392 838365941 122394810 418802219 144907755 335934628 707067483 977774094 213551520 205057363 991957752 55209327 478578340 685269715 814058890 313161608 164406671 521526769 392053826 783085444 76204111 655878103 974157412 687190829 75648663 33145189 15347003 979777669 465261916 725660246 882328778 413852937 873793464 438954810 511244666 405647222 455391 698270422 707021686 411570253 481160780 73501330 573527258 907132426 239992523 168660806 690389022 29190984 778443359 84164556 524790272 87615444 591868027 487938303 994812278 833956603 90901021 782464748 955244927 947706936 296402340 376101247 414525531 943526300 267759780 591280865 898272186 881944453 866313321 732719083 250084102 234135763 352516078 371664323 650511424 949339503 876521910 937346713 131296525 50331506 85180262 422538633 319848538 927888733 778179829 519961491 54100161 832111742 274507726 136289573 468036342 274015454 470091395 653309200 218509780 656441457 67919223 105794373 300111052 383696116 355498050 670216232 965938636 884536353 756000422 586981479 642127115 761673206 526035602 90744473 595509673 998075203 487928324 270439195 899322565 192336325 511198565 114970024 252094230 206573952 626536798 109637709 688811450 641519493 268106678 363291030 9300108 683197596 501853998 145303018 825397387 58359276 934411401 889744018 659932992 997979733 542919339 182443339 577332582 118157527 467005427 114002965 215647880 869686996 120579796 335696693 913608918 577146151 10528901 856911970 164661076 252079262 843280993 159081396 480714520 886874834 891264075 369786208 853166315 377184020 502643285 862805219 725451646 733448261 722938470 800644426 343623510 299414536 222202862 220977834 646737907 811195759 935041770 541836611 956996759 688318509 182099978 787710339 74419365 788675425 145649625 393269298 946683398 152961994 954354324 413409596 773266842 854574806 211170104 961534884 408904899 882143544 137548048 545941518 838251368 867552524 690923487 601016272 380793055 659090374 253251310 416874947 785541669 300398146 308233236 667067131 271069587 12273759 701941814 16707988 66038249 935152268 624855029 256465963 886899838 734133717 170632692 833010932 487523666 27245348 502326834 804839609 145500953 978133821 78212938 884439592 945038631 878455029 296350188 613768888 890861323 238160438 401147180 997362361 896398787 259559532 97009925 114551530 435679347 484737702 114147872 106505568 349827596 560551756 232864513 610439004 396568594 785570011 151955158 657468319 319421964 207272041 807700971 911061927 499823162 839247958 530749807 806013900 621769921 117552907 128042505 530466228 936185448 439641418 368097708 704256209 914869994 864850641 92208510 870885987 186653591 883899914 692603500 73841311 997252339 181078554 398926760 618292170 703611642 434472857 909167927 717036613 928688874 509120469 900862469 2319719 706388432 717617076 68014342 792646015 79012406 775269813 988579100 998930002 764257729 93734551 215990156 197660865 307414413 207842051 717326173 628207170 847556997 568015293 944990817 705242012 848594079 40546277 497114038 684463066 867676217 740039028 165798573 688286241 953427444 969608157 593989184 140011108 321152820 902119516 23652791 951360683 236753112 301926026 253308827 23590542 583664465 267470569 534765765 239518001 290838944 601569150 289819078 454762154 28633069 874883841 163976257 681874054 569548045 594786967 55642716 656314194 974036376 57839932 991813194 206205468 907663120 306824825 373965900 934253541 807644713 759298213 943261685 699611556 368700034 109195118 634712874 620855043 477372291 870274890 477217781 410074213 552396712 894665085 638426842 318743239 41468453 240111836 638135978 268369070 138961852 218730681 280795750 158076536 910141417 901468994 557141421 500602078 202211657 847413805 225252659 628507533 150788856 25383801 197932014 780208380 504225280 451320743 92225845 811151011 230299335 405136041 701116469 714497612 942517998 214322208 352640959 968725392 970480741 34464209 10230027 911073106 673630073 825828287 719064282 167674089 95758217 262532774 824910259 653267621 375362512 960009250 178577014 140867109 615816026 947056968 837251961 278243982 894496907 451208056 261034121 590004939 448756000 511877416 532592510 199622362 223686555 866781980 601450617 172192600 647893615 800877498 550180464 819742559 506151896 116736104 32313097 978759991 922102941 189182881 646357402 239427480 941647964 427897512 646330107 470258985 754192364 330183837 694245564 565070806 632564939 515024487 423086276 983278464 68815993 990394085 638360704 865240708 846947207 546301819 612443116 428412986 114486533 759026096 343118304 168496822 132862155 200053739 628204571 825650351 58392773 808513153 347938871 360976176 668762115 188114760 987455394 567021887 288294806 80728099 817917448 583393308 585484120 708523454 477601771 160148535 717157016 130135325 863386552 973859718 20968934 626135839 6111032 168219261 30917052 453599738 99421125 318451735 199559780 283156517 51812088 524500568 134357296 439622397 237628152 2530828 454621205 150611779 994875713 622387277 357666677 984163537 604992735 827361623 323492084 401799922 539477990 485976429 929879540 227350058 707457377 882943256 824179940 735667237 698606990 250032392 53928537 90438936 824231271 868649115 357537559 20943778 926306590 993879708 933166191 425927925 442222961 362992359 736468314 141017275 349467364 642888864 382234355 6693059 81841590 154380912 504734997 549300158 842835418 772794466 279641743 935677978 352262192 168440680 583285390 667059094 741095907 194873238 990203151 32589249 58501141 458519202 308457447 549713133 72482962 878719742 871955445 680671516 468240355 9381796 290193940 713439035 608265442 636228667 265618316 852874969 788223281 7705525 443234831 663669774 685001887 839246677 841273906 728248076 521576192 307098873 184083158 803446876 344953693 663811064 477784017 795971298 820631128 779169007 190044689 379589045 501454550 708832752 189171594 818521742 976137186 183725011 287046166 411209885 470249707 5809810 103888895 413287773 480291937 923261216 73441324 140578723 199357706 692303471 707992823 520806476 754243826 495611038 314423946 703525726 450303391 463407156 127139550 509531465 153686279 984990203 132764536 205947166 997788357 525007803 25025982 113204811 678943107 82351600 388072761 659155870 468831716 690312421 263637211 635238344 324118029 920472352 178881802 231372983 186026691 245102682 802549625 565933280 986839701 526844826 114055551 464728174 972580106 400937941 455889312 596880849 8512663 168499381 338988028 300232010 125456786 441577264 572376068 776227017 572274684 966122442 816919948 516303542 171345708 903888184 53745543 530868890 961888394 1568007 229935907 171059916 982048106 835809792 917786416 53696880 131130320 565657071 341706944 341827561 626454110 115346760 720079857 761017667 114862639 403069607 314596811 500330961 137471892 255217878 818133850 164449585 459886836 117398817 626628153 40739409 432801236 43347958 966715445 189044675 890495144 854045950 691022660 633794120 867076303 8068113 557517170 20605884 888417 241300664 223346910 326552236 124007811 151801678 142454590 657738255 684712134 195088844 99794633 219501554 16932176 37224421 139863896 691209560 277186888 902930800 993710113 748450893 975506930 573947088 882480886 551103158 372558531 116597719 423063641 95425869 573667506 795685954 632578879 181135612 476861065 480076241 417561827 139291313 389441984 20411474 765240592 372057545 787052670 285243682 707329251 413061314 405990869 487357393 206666541 654880176 636257000 582161548 614669280 423912148 759187315 308788262 962728468 185495609 220263730 971558227 123328530 18854193 826742248 923500417 632656873 877226165 879356480 209148002 513161512 78250900 147538807 305801143 870521600 321348700 717631807 376695558 726150394 542055602 769470806 5251457 895124564 666090059 337857004 217800716 906319112 892805948 626803291 509090254 734548084 920344245 962876518 208080871 899529940 253762203 587852783 233122588 539635280 466371141 373428053 266933806 374447843 465877165 560152680 524283974 140267462 701410567 940423074 711702663 360901148 66241159 13996548 971791971 987549043 378616400 162512110 565430019 502965532 485459763 622655610 848028328 283324344 182719596 780709893 755920960 969910272 695667445 845272672 410909236 274211032 231348325 561478334 367575946 53495632 311406836 438944249 151755629 231189614 446364851 534372516 231394451 359916076 796493276 202028727 727862851 456154547 919699284 739947792 506502995 184225782 346714270 228149173 966785980 788872927 475990476 251002305 417198069 876844830 956199682 934599727 121017931 814585443 901572260 620940553 473907652 17013769 350326100 556857651 520613257 105531563 456527230 513813155 663346655 725862620 315819899 791581996 466933794 934672804 480612672 606643660 607616978 314187125 947235054 635980720 983869916 150097408 824780664 122878907 809391068 241185460 630984146 944548170 340524860 690698920 22878691 491293907 537263379 92359161 815916353 652082672 576273249 216861100 693773621 189966450 218632984 482655387 210039363 814777800 729252169 519686320 489319330 998003395 219785812 483358027 673707751 375255729 257761613 96651218 306828856 43331472 635401951 859568180 744733712 142068891 514601490 66341820 929435566 740025314 792974046 323034853 982000899 137380636 715915543 931092115 640267297 356670584 367585572 144794197 995339726 610542875 86899949 944629281 310975781 360682676 466753725 362197684 364687428 278666357 461704130 220064550 817198986 491727710 486605821 899007938 773244434 824724283 318797509 949098758 885748170 741415821 283394745 355960939 915695485 355663486 335855527 917866117 866834445 240521860 946647495 171824178 83014826 854985984 206192763 698316319 247015622 417515625 248800559 436616321 132761229 711095659 970145060 350296522 36152468 772899581 244350391 417222257 651091570 152550937 374603618 778289889 315742422 115491380 28753458 19078847 718724194 246016409 696453238 454010697 422287030 926824285 73783961 806060023 383753330 411984035 13939863 931501800 902837148 285222403 245925780 800771256 202567016 732475448 232343971 966150171 922638463 210172436 719598868 672704380 248625200 717882397 512716803 481562069 922817951 465085203 374589451 210411195 800241376 429420438 962025578 558605146 95611126 413570869 62459941 551861565 163914042 553504263 659538495 629365030 80161257 320440655 574257869 661625614 645342340 437910047 338246415 856362762 469012228 876126472 141657584 171618233 745429250 994379615 178220368 545484941 773735772 51678153 128169601 424398734 492845249 55877107 544006308 38571109 933511057 811287773 917642976 151135928 915847198 389897294 710602700 459067536 798012087 691177146 944268073 223364712 955095812 107109808 167469276 815459256 359395306 65590030 274333778 474167361 73573829 62531943 828705525 392632676 619450952 31571045 956991241 977589847 33481316 85562083 393926463 819141593 963599075 964989573 999157917 953383386 307915783 146724410 469740898 110684481 437189062 381745508 72245839 878240146 405565983 343092327 137006806 338154874 997480670 695302062 434308030 136070266 351312529 270034750 630811809 328706661 510998534 521332058 221349322 68576865 895015348 90747912 223374901 929832264 400875862 324061727 200479758 675134435 840159128 304585735 428960721 162556155 299482311 284374474 642993456 618836961 147011834 848025146 635942768 762209877 199085172 336705192 395992548 472005887 889863442 260580684 785804086 224514437 751412967 710941304 126934708 293036671 485696423 737445460 794530594 463607698 364394330 755047539 636888526 204788769 936794629 119027846 314937507 168011627 175593769 262627628 495006816 34936731 745705086 363748062 677601574 735775152 928463033 230950335 49264829 901648252 352978705 675707245 423503364 316694680 123260093 687721121 693498657 853789322 379713379 600225203 455550575 763830417 188814565 48526647 514551832 469929238 501222944 218769382 675611965 44041870 802222243 838460938 565515381 341838956 752110760 975179842 616036026 894017925 301531060 181402015 454668428 405138579 38579771 461947516 817965364 453719285 853486369 717889419 688580340 607973711 909470788 844220204 425686721 212580868 957549840 965644920 27879572 281714867 272166741 156886805 396677996 852651634 575897255 294785564 350019307 173852297 194667264 951796290 949430432 888542964 770588233 54712627 843154170 911414143 940555898 857050313 961160377 544562903 627946972 115571898 544617462 338871017 63280363 229259602 535965408 16211246 373234412 657402895 943767232 363689848 66841919 420544703 396891674 278858429 840856303 643431013 134122585 622116750 460054026 854180871 616216580 760803617 268238121 311295738 722852564 665695852 893372763 371033070 971899000 545603206 670760629 914273234 940207288 977000298 556637853 412646135 93064112 659359903 641335757 332011365 864863763 237169641 970631442 115837726 179870523 406664664 56741836 691383539 319182526 432403756 290020275 826380261 707344477 656630315 701997372 931935970 296032697 320599380 182532516 429853053 69872427 693169930 484654450 879032858 206170289 582966760 778358436 478732356 239878526 320954817 940578990 25380238 838328557 900113968 623734849 499615910 32015330 362796037 897058091 426253596 597472498 755198543 398182183 330951801 917179089 493137860 790565961 525442707 559522941 934089640 887227663 538750201 433787952 986317182 941370983 203279371 967345202 600497365 74898496 83984011 893423032 734705444 163763839 410567146 457918373 73611374 273604477 94009319 229506990 522337432 903784705 568212421 367098283 253969073 731194559 606149849 862309517 102197752 968680652 17954316 133728211 810724977 735894977 390191922 106777529 388409122 172304855 293958108 534127751 297521519 62930641 436059491 764518193 28687175 8832860 44722780 96057650 429358780 219205927 348670231 669145099 587012094 860959616 166362329 16622116 807561148 710154793 850317336 502562598 298524484 904756480 236135372 860865325 948821567 474342324 481151708 81771708 617662565 774746473 99825062 589516684 824067179 447076379 524929014 171341333 480259534 984185555 967983125 631126831 48033354 499690339 763768667 298173270 73406020 43696621 193642245 65293241 69973788 93212548 232671601 6462977 533774955 887792466 998544166 375614058 610785971 77968988 612218819 694713863 187499349 706513414 93287303 997894642 133836933 158954126 710632435 514715980 87761455 725005704 944550054 910127578 401874880 269966539 116438569 329137302 985659207 555773268 172262117 361371512 910206268 168367363 317742132 286252018 105889382 216471204 496062280 629262197 494684297 948822593 79636436 799745019 128400979 2720565 521221548 869378959 682360334 807473624 354861652 212052588 971210363 69434820 855999172 105810311 41463832 326847115 138058274 653463356 484806554 418397358 439861764 537125905 619096322 439930250 760388422 859434005 225673960 478850522 296238263 189730913 64561904 291897160 383331209 872640454 423630747 368632212 42489854 894776150 255378430 170694662 118740768 995435949 295274355 361314800 107468735 126585909 490134335 334043635 108296411 584012782 815997381 210137166 366562505 478436296 992999903 322159756 508712940 26819741 470661215 431732665 989692516 72199024 284933065 10609869 997274066 321637011 380736419 612988470 628701814 283292557 522299175 734798571 385056927 432563872 828916371 76723621 106832563 115339700 178038269 639588028 635542240 571151883 939460953 331377165 501587523 498252783 788857846 907922415 72057805 249365953 520281894 421742699 881156398 652737469 832037834 742184132 106424023 159988350 551011058 62688831 683153832 769622108 702139673 812114799 232327884 826926133 961064858 415058146 347654569 843101450 152405873 274234845 866225569 632408714 731452732 392320998 742821203 891249558 151735655 639438813 488123233 59765756 689834937 651044221 548158023 766903718 964860833 630111315 927355818 29676908 591456769 485585218 613643489 876830796 102677058 960032076 549393854 468781569 112386123 729206505 588548390 367490678 334039961 658470167 389143234 793113048 500021747 580805982 82493444 195569523 564023125 198835744 432738204 934102333 824731874 565278426 889382903 378754100 679356227 388383456 107628686 54327702 117727293 155979015 675398557 721141752 207163520 475752053 922288134 34592243 628638138 113512211 913568548 264585761 466533524 539095036 521031361 5759523 927147430 329971306 54364249 671033808 566560378 423156000 440535080 431995527 76947927 390237309 919080002 275939639 168777012 319059914 678178966 285289280 219763637 969448919 948538677 104489845 341390733 111198298 599701741 375114050 775894259 377316651 647342347 478013249 887068328 475336370 415870088 16310939 35442396 246462736 557919427 670274150 272832255 216433064 283471878 862178130 356108076 675895752 678405403 419163563 915150735 757328380 883497766 471151464 429848315 560768173 990064564 679778481 560906906 965163800 458803103 855985274 660162530 156071719 625230715 863844509 691245459 256660369 251830162 996090212 974276759 779894553 628425294 970016359 387217712 751449072 154050451 89844803 680000359 998626595 247305857 98154187 792882139 128870287 859428851 771898711 408596852 469658346 277412022 667796308 201432412 309890975 625054462 16410433 960074614 409779825 172136450 806708433 609335393 126432452 39692962 621852700 90759237 915649520 340999082 265412053 500561893 628295344 295685797 161557060 843262476 496378142 593412048 400199119 240449758 103728473 616561569 583334575 341404575 566101542 452445308 574665813 706266531 676094631 453844271 680389683 47756116 8109488 950061956 499476583 627989417 906959012 846976913 17862154 946070075 52957111 47671026 644660863 579083383 820587971 434391417 771553893 273201304 269454814 463847435 612019866 94621123 161477538 781381682 37605997 386348524 371730415 986621017 213166293 83002578 751023516 84050869 403232223 579333340 610551022 639372969 796450068 334189995 112925371 276677886 824910772 14426189 73679254 11806382 154152428 570020716 102866129 801982526 509757019 438946377 351438591 177152703 923476398 756050614 991448013 979308073 650312817 190103391 636760715 585441965 890888030 4031169 781700753 688794534 131773363 970728600 939846807 879955581 437917727 245475930 873008759 387358825 270987975 13174792 480413478 354048364 685890149 207753226 901108549 228423831 2704368 815910497 244611894 902536010 449709721 787974995 616832701 274414494 932048443 503775258 291718293 795808151 439306861 291433350 698567050 626218474 857828725 349387721 296522124 102438459 311360255 634957609 556719619 814209653 564436823 466949628 240393844 309834633 797597773 19903556 360932558 371501167 770403075 652305837 772191590 809087899 513079192 642656011 393868203 468059957 205281987 670047875 288952175 822942938 504753160 367720864 911397088 837457556 290382893 577148539 415701064 264353274 126347245 880039821 838603426 153234978 342551004 292517628 759617975 982806968 359875325 724175747 208457996 13881730 621777719 92184726 402400882 28137051 227340593 651029363 174690849 462466710 832448217 952580461 662965996 675542510 945208698 999602305 340418935 305423736 664850547 356454177 332303600 28378896 640676157 524020173 402625041 794858367 219506235 690824779 242985222 769598262 96787607 736154458 175321590 263195059 577622960 443896736 76574358 761387 429002856 946012978 950444359 422177639 929288054 984436569 177854976 852300736 332726678 920639416 842750535 497807064 501169875 159083087 118462799 734269093 246228506 414462927 231998846 251301483 446018435 111704341 122066769 61307260 185150347 215137406 667979428 532348272 687499450 934638361 125453123 309005586 442874139 127349488 994490808 325815199 751594499 960477818 26120264 698112200 835115336 132104289 640179958 472879187 900123910 300964332 166701614 941466062 312294842 885551927 752411614 204603283 380182838 423471775 304648953 107151599 539524064 692176302 503571912 282232893 523479102 391789939 641972646 316547883 326700118 65689294 532912926 681570075 342401562 25084116 951234117 362041845 367805632 133848415 133079315 835847985 959701020 202657304 339355649 136504673 817519699 465429983 794586979 640642901 642605303 238718865 78810597 543696630 533828934 386168066 605908843 848810283 112764346 890955265 128245469 172846157 43055000 584252414 838628430 70611429 731437558 562476923 833512761 607849614 86426029 914575475 576615587 314848529 152909623 532737921 903786656 580059549 256697851 773744875 570388448 106581801 442198127 117006601 919564363 772991709 113695227 566756417 826126770 787735289 18169879 475437786 885690436 630710391 207229870 732188215 645514089 390971932 881931404 165719718 509464677 789063541 499493608 641426174 393253920 260823061 382533532 680859441 952834253 276687165 41941245 922052800 994111377 290613855 974709835 913425307 96800428 15303823 260379153 441526256 650664547 116280817 240234630 421298417 637154865 131075704 305536823 920380948 974076047 864076182 215481122 893634973 874693223 945906127 201139727 683696803 795378057 116990991 966621941 182285118 119147606 743675398 634684231 483391190 415351155 631568391 827006688 573258509 639305710 792891176 618139525 850931488 909109004 926772647 746090290 354658145 940792730 873122323 134282221 947909356 120017958 222393322 855468246 108513752 399390834 964322272 480453417 996463841 792559056 419693657 674039707 651488568 931924386 994710368 244037904 564802330 743694762 367539519 125560178 227368264 659238517 834694403 630346247 262140644 810225279 749493503 691338050 916162311 848516689 782131927 954354546 468831421 348912302 569331834 238186410 30627188 780635228 982826063 71603110 122264685 100787948 836750874 146606533 925254038 383759840 749514236 949191985 160933108 838136461 647328655 768672810 941266783 447001682 19495717 563886628 760112280 590830083 522641132 843507831 758379221 331191650 38132013 760324515 186836605 548216225 27071610 221905034 803776567 337262291 234362514 269209759 483105009 385698900 355068616 772019605 976658781 309518283 895540746 221319380 872005922 459435619 228465887 882367456 300504698 79925191 705409449 786078183 371688593 581121696 912910823 577271970 695226404 311572237 686780107 688190367 39112580 618340526 203305930 477278317 256587234 687600096 663864513 906696650 31797735 309500299 131408791 452757675 954613504 409048271 759171375 167149587 20453515 727185549 967898497 137811874 713303637 783067199 328656191 428245101 843389597 309317387 603234550 354997991 876505709 357625785 260714461 911337806 444279494 418852852 505510673 261625316 179374691 756420355 321029227 173524614 112317347 357332382 466104064 690990233 243354124 765992474 56993463 185765677 927629362 223723544 51594731 180944157 987319511 72721624 580916559 857168155 862828638 303236292 954843796 288372153 737583274 427312199 577947077 477121905 181764935 128650419 301759882 740656418 228553917 813575248 413696265 450416003 605186444 574962855 536218533 700647398 742319289 440144808 141593199 730584183 575955833 832112095 475841208 705502175 225376931 86107369 890171439 924111781 265838026 217081459 564839468 508505143 785062092 189712310 964083576 45374066 848290545 805629651 581560671 501992536 955170214 97164569 973090362 342408585 951182997 251652171 629812032 360692474 507946967 798247957 745962683 938604116 873163937 872744644 41858598 692763599 616385648 433279374 628287940 800662002 257953441 377135639 469573433 613186878 637506476 474856445 338127585 58966481 660178179 131720688 615513126 399148935 634808138 227318760 574567216 775765785 207677875 912411729 288917941 692716885 833397090 294697377 545958635 359696606 841701237 568473393 422816768 455879570 16324306 440213184 147471888 770958138 251191776 666626088 197434668 487181289 445124381 999196671 525720296 587845571 13102383 286468280 402579508 11704178 881669838 740283566 260971852 820129667 48476263 287533497 722438521 98278585 728117583 994063317 735349655 897386626 860325426 451109235 213836352 722552969 344972155 125498997 435871968 304421174 385975082 788440047 331192155 671874205 428876360 515582358 764939092 29987876 28025678 731955875 945146821 738646365 288306871 87805970 187723255 562658815 712890639 496191264 976164620 48586394 969871620 709930471 351588131 437100556 446823338 433588302 570951835 388624293 847378597 997364412 977955607 537106748 127074574 337829818 17247777 255879630 540340462 671810120 729795930 12666188 66188490 582399591 478734317 115152925 272806344 797550821 304784874 471284195 514009645 924538515 258651644 946802105 463823644 253727393 978553074 114172368 589189747 711734907 111637294 85847557 632829192 45333833 645009089 619899890 128741330 965470473 458610903 559951032 473460281 227441997 339862010 240848957 690357748 186865615 803332803 92488430 98875326 239137763 143419078 293685797 179112801 466322066 256751583 523924427 331896435 190386371 400065229 707703964 484549387 424416289 407418620 981410921 743836229 581098321 996347631 491274522 186608871 93104566 538264477 59284596 234347192 734548027 293290663 881411924 409905579 74548063 641448621 371868320 798415741 853496883 833845887 216708018 543876397 937084825 738527263 598559340 709792852 306428996 568952046 572893551 745421411 434173305 259561103 661371366 442192882 172845201 836542181 947293906 894517064 329529694 950866654 802033075 354515291 63475494 302420538 272984937 91866325 520522327 776158013 775929190 700425554 680616170 815150909 956528047 15654200 682136120 469565559 116436456 455186871 208297261 601299775 318427829 623262498 340736279 62264303 444471344 186508517 907563253 377655967 412973208 146750931 746326593 870240573 484536592 890129095 206562449 362740079 851149511 624246459 882024752 360164447 696248677 620492160 234285996 730862500 298735406 699875190 28898051 769785273 918657436 223604168 534658227 279404500 600139906 345973163 134246325 43828072 3732699 900912358 106960522 857475089 929205349 315861628 178896713 633313950 94028481 407060077 844552770 873127354 538854344 759373073 663421120 197345418 695556978 182899344 629669442 851630503 496359202 383228406 106526578 370078903 252279706 815980909 212275697 839210071 523133867 722335966 71502217 855980548 777955976 154755370 901505257 584470799 379161004 371910911 691534827 754495230 211731486 988750277 440407082 710650714 496560286 218420652 153857370 725738808 852111199 450393884 260548113 832217632 87528981 241498136 854683218 512325898 263111281 330805919 139819398 345200096 927740329 138545845 236227444 519907768 484380822 199324073 548021445 670976874 925238972 848754707 972911597 630855260 327726608 973124483 341037678 47310657 453203743 229716572 209272092 238007991 908601543 248403119 292270992 876001462 50171231 854313827 901519514 139488697 108266462 794974246 222693739 822007118 538250261 212301371 112652010 116935145 548224822 130467648 317961397 165331977 410685842 34078036 245543565 449307710 706026188 609405468 713708877 914776438 495989216 612282495 344477744 151191454 477627956 858471187 379365682 77772071 602863586 881795916 788849149 46118667 129171407 92688711 348074539 311361290 148520391 982638377 450393940 184825848 611701126 144606737 413595552 741287523 854715145 47822364 211855095 480849315 542509793 99432844 247791587 298793416 701380114 40795934 298846235 775623484 137834054 899556320 170745277 967311013 579120527 981141496 932905939 545537707 470814272 312094554 993902764 553945137 946179357 306596291 520459581 82029910 945816616 90552422 665125578 148887887 133835633 436330785 511088696 453841555 176171333 69032422 310567098 913008093 176356614 838881214 579400179 623363223 113420752 299562381 641323690 451400767 486872646 877146034 358596272 898372255 3715649 628309764 492619404 862550633 482500738 87232334 324958214 983542603 80202387 97823520 954527252 765499082 56924809 788808827 164790921 791544200 199814670 35746066 776536247 384778900 421577241 411985988 61757006 280703115 312955312 918937382 195238628 117429732 478213316 46517963 494015609 295161128 122692202 413068854 899797976 526509037 34924621 533968342 925099008 904588432 802057312 164283868 434973034 149425516 532717382 156901967 212570443 488975801 111826614 141126814 300400592 250293821 956209830 151363010 942917152 892254499 452457077 751731150 836269557 487521022 899422407 346240716 976726873 557925308 160992497 631646461 430800923 672049572 612556108 498356938 484429261 93663736 661017981 85312782 701823290 210356772 925832925 805638096 191555990 889632412 713925871 574323051 757359885 290951434 120574319 114024187 272423955 99841023 473126408 507987243 731151200 360297340 657874808 994695967 262666257 213208840 725637058 996308023 877213452 872803045 770284932 158961208 213313157 234522453 448177280 723977503 45742949 324571436 849215544 697492140 553377190 765449891 355388938 31237296 507143514 119645644 220778514 89955648 369772651 909907987 70904158 117669130 158485416 38744175 545078397 462848203 244961521 492848222 967382463 567191867 632614963 639819712 417488835 471103628 933331049 239931785 971931207 87628997 381282647 64146846 82582347 215356094 616897723 553653154 455660215 319706430 914350145 372820254 312746075 691664641 692939726 6351971 214600924 39280578 812546741 461795095 282480840 770677572 325824143 134518213 193721084 697388501 111641834 113371850 606275692 36176218 391449935 260569849 24717144 979331813 725573154 620940903 803750712 64664955 392223364 68985558 481823890 936240155 511242606 300971220 523602437 762165773 115756798 301792987 930780194 946316811 210117767 571834626 898723953 658418626 619502295 316519513 249807519 339693663 137745091 730040472 412466176 179508384 647595110 426290790 119907925 749951741 706121604 478292766 695733364 306454465 761493546 928556919 258510076 314919024 392410212 495506205 702671059 723453144 864364629 178712212 576519546 162828003 489095819 508698336 382811221 337184526 328107484 704994602 288091018 771601194 121046346 427179658 499389435 588219418 159017383 142333703 38837301 827692906 513556581 608020142 687384957 520295915 311908931 497153712 534901439 30968789 474482642 872860291 810099776 266539845 805230341 749769035 525782154 345268702 108621540 851001794 206222652 392477560 556956157 315097559 577652769 945173723 160936255 250456704 172269830 885285804 737073771 204634563 994246893 481738989 93202443 672983897 77929032 75969536 840139594 806417465 123279143 908138871 604634540 816031366 101847646 488852172 311133203 561714823 197786615 317813203 333040027 304179072 13142078 205879959 267982680 76707956 377854926 534451510 336393561 256761806 155903066 847404914 101416150 231008843 57876160 130512703 350427961 169915380 805503117 49395302 718896973 358656904 92715749 947977343 430267283 747463689 952243651 695928867 966117436 558337827 400892506 465218522 411807360 602355810 583388876 958161144 87655350 791278845 245972387 271941774 151637116 281526611 987379745 411464721 125829825 725025359 732983500 710271273 990619819 476302066 826693448 155576219 219278620 868128786 262184425 290508711 336479866 540929118 324484193 957486250 98690144 557853236 997328652 688773073 307205118 284500703 386309047 46713572 527703988 765669835 385267926 402301842 88860462 857077955 514299555 982776549 636261196 894970114 570299385 432864031 988316493 910718959 870275278 531897291 338312631 796302059 998271586 617599754 325288328 715398503 252269622 117067433 244403462 754982359 790651597 311083388 331138405 322545213 348950962 147643357 806983167 584024740 538746418 715583226 640176737 484208444 547453013 535847278 655045568 652832601 64450321 898625931 549162176 538393465 670109347 931424704 689130399 96555333 83705842 582919971 234938850 513065506 936502900 228081272 633496136 959452783 390210680 924839672 755845932 439887475 514834570 608662920 694417260 108192600 435591945 830046845 410084821 654867715 133187650 855277756 875463279 265767485 876007260 877561978 451228830 509580924 910258411 440573544 78233067 555478577 621700856 823478287 154785895 3027158 69318471 26857577 165760538 156265381 55151624 497196528 976745064 743246787 751275491 748396409 898650272 87737699 472690398 353023380 268050061 13366290 380703344 755058898 295478149 442698102 511846234 926114957 750973169 102258093 840267321 954725449 547852294 701119879 812187233 526668134 940493759 881113625 713671119 630462157 655564279 276601712 580128270 305938448 138445184 585566686 562966282 807434296 666809489 790093876 453404163 898368172 470517654 201422615 838065311 82066173 723570466 185326941 530539148 836605491 645559520 44730176 163043124 965160724 391108342 280412084 412170467 61887897 835665543 515047256 857922408 143643441 699892669 453609017 599338002 992271204 703717550 204377041 571877021 718362608 400984527 155861708 881993611 271472003 791311765 464741435 221554367 239144420 316728213 85752799 552744437 291520361 148819603 508348613 252035102 836771825 862482825 638472412 961771032 767932853 595907083 528197370 133812836 986931871 635068578 279605540 921303731 862769907 743774964 412168722 824249171 630610154 465236327 66156234 973367224 647815352 194158144 993948755 709900886 434585561 809921685 119165405 908855244 515434258 409703177 834551815 739779644 982134710 673991743 628288105 255289604 838749924 472869680 573065105 368925624 586105407 65823779 739028119 812141206 72814267 443629560 1786235 425410971 215723347 772172467 439876158 772247193 216749309 323593742 46723495 119133303 570877584 107600463 938560568 260199452 278520854 577142088 406042525 716337292 454317802 737998020 123342125 635671845 201628132 450505226 285885268 800744284 376730238 275769650 818889526 811606332 281725216 239129067 297067968 113716864 331216214 69365528 833967552 330913259 985765938 400353169 211333034 678870839 975393114 322187006 832110076 86502672 522699318 170247406 579688158 251181419 155324853 202885224 39078818 120860661 615616854 402978006 783410167 956324268 23742369 321049026 354891598 952004396 732594187 330092706 934141251 634775851 528143205 399628747 486964689 395745174 931897527 363317601 836327450 331311412 910701247 313531785 626397486 594961017 609045013 313789223 66916217 377298125 284358491 489810038 143493915 425910034 785155116 895844189 825745352 524392715 390138941 20386070 665994153 408967533 369449157 445000850 118800252 861667870 245358239 321471744 166522069 652295240 437313241 123742928 132303161 452767520 512404750 521993358 731999967 840807243 851909606 379911941 539858958 888961385 516041688 821816144 469469025 287582371 484177499 567944474 536696624 991393069 882959117 954045322 914552725 661870754 622218650 582541271 261842852 420489056 339770328 640922234 79799713 72369749 471329099 74725553 339883166 888755350 634077129 581427028 449431309 436478885 976375722 995619091 396034538 1788113 924567386 360658581 588714214 168247 655830973 835554500 664752945 235640514 852245222 825642390 262089753 989107931 128561062 571464062 241599668 218650113 187913500 815607106 684098133 565748420 373522708 864915627 778484664 568019387 208725746 164831233 134466743 651803447 288904793 88970060 453990993 965939759 125801049 886215483 745118507 739844048 833189118 296595767 35163598 138211103 861642900 55490202 244448672 354149819 289363150 479920430 639613128 587487596 288099906 236392216 553716447 30724022 487188240 151529266 958543859 577065180 84592859 377437686 396084269 758610594 192034955 641713341 184333380 899174406 848127999 728134378 141532738 661065725 339713756 975015620 585321702 157883280 315187179 471918923 602697012 139814716 863823246 605749542 462248660 621548711 645072238 655891035 699310255 179414695 106257285 183007272 564105344 792035780 339677638 744283447 64670118 93052032 89739742 65006238 791587427 250475679 209448958 847778159 324839660 831870113 829507550 27640183 893172742 400614635 158344111 97950944 5280827 743715169 662311736 42542664 63069482 294691404 958209736 285975318 164095564 153169329 597813573 476534735 341799372 103579925 282291898 830988020 770392478 22147960 61605145 2721476 96857192 2704623 167545201 438376967 18748214 377658472 20391246 715271619 205523914 234689230 535424160 348673896 209719004 443293159 729633492 654078640 634275685 279908213 319824959 28931447 246386623 845497054 545506188 693513071 911188569 513448329 999570866 628439423 930649667 858121985 939887650 250677661 255810456 544754 219757298 648916392 13268129 101454931 139520971 10572351 727570030 449157753 676011403 19382161 277705436 686716748 808007323 913438451 236381674 664714782 150041538 752024020 155754113 969551060 529664253 765869022 203443222 966344471 564348879 307269697 74095560 542356515 704424132 784511017 773707167 102439244 882960573 89393302 507042872 271170971 436052074 723367572 717941786 837697090 905795360 313917069 608837089 200631893 574381577 143913601 430782273 361023118 410856561 357620021 564693106 73435453 111896471 629756302 731152447 657841734 400564621 50533018 436914650 698006507 289990691 744019336 50808241 460171155 160407590 202000961 551347385 980917011 211928036 550926022 618899483 218424713 589884637 534846804 954834460 667507584 332226133 527803019 199205402 725563148 638348574 530296696 629723115 725156990 970141755 460030687 498206403 285618669 956143911 375542671 593900333 499138252 442158079 880124110 754382211 302751018 601211998 992233664 696676685 323760188 651049037 568401686 836781868 963959078 946678398 847138946 922517359 873073915 904951559 120055292 373114861 320608351 779447979 620591143 81029952 508495860 780136017 636220525 979112739 793282639 614639982 852272278 30557351 810720761 216447350 945469054 712600414 767083257 594021139 702046297 797299510 758332858 102664315 405712660 124036489 255855277 890726982 463720957 827104792 13945765 12852105 278226235 564295955 363157274 976185334 529110199 922995831 120680231 657080521 281788102 23660589 784823267 940594488 365140319 898687342 33976089 508408917 719659672 16371076 404836433 609692755 160333585 116981504 293390641 569515448 714469660 352789253 391803021 968642554 207187582 544063854 6295150 385766071 25343442 825404690 81595116 331866238 383163023 863571491 519159029 112127990 102024442 439903793 476394075 587464021 40548713 239190850 872016123 272626087 333131533 976498039 897520311 930094334 596988687 925053875 862282117 556523384 662394261 628691224 549089974 159650266 392503266 347479187 74458877 602305616 541300847 315504610 408282522 690231876 848669639 156311521 969448330 150534908 512430901 643116429 370092941 872254541 334481003 449738581 151818053 181136381 450175596 67466756 31572254 745979919 839271429 255924120 36321945 410910619 992448567 366377439 345376352 326929868 12313859 437049506 579549734 959521946 702146260 135460677 794839514 458832059 516076063 113464171 11149274 70023221 223792601 122748527 258110334 122184789 376196566 598557396 432067894 420226563 243090060 701185723 253914386 828454920 968047385 324242725 60508658 969413380 729684423 324240340 579293903 364096781 673760690 472830882 479857985 28706199 652450579 136107377 299717362 777013314 980722082 779525090 991726937 454378278 597253730 211344803 203060089 12966996 100165043 478687785 797611608 992224978 572875987 915046488 172740121 392570054 834743901 386080442 313111842 32872827 212154752 418778573 726540525 80924415 235861101 914173309 440604120 389028034 845337324 912418710 749038451 694102289 397806813 516854765 765586555 656666273 452084045 571987277 82274718 282343610 78361076 356468466 230537092 171776187 107573262 824249015 245950600 676876457 624840721 762347521 675448262 84738022 199309062 378252156 480429326 336548535 793615074 642884758 208621271 48516407 629858899 634185233 981928556 354664453 77525719 897654000 225723541 379852689 409598299 846390922 902462247 952954341 862350851 143918239 406028610 191827138 563297824 535850783 431610626 749182167 155981960 913426901 287481465 157682891 678599337 577231566 146637378 413002669 503784652 425178105 358574028 230282887 31304 281870790 160955560 407094729 711451263 456279514 961584833 191867370 632626764 513242019 148165048 593127895 520705522 875488828 25646777 206237085 155305638 727379747 765543169 574863389 462339943 628902840 430918819 206147618 203819152 788739694 137589733 739279398 6155056 698012850 101910037 333966613 146976297 181048924 715560012 329880440 523408317 155909666 476840257 260253876 381180464 247983549 606279609 404192325 665679783 814428344 775400617 717131975 755723631 444123370 288924106 648995587 1285261 781721208 833157298 648412270 43646180 601642803 804787860 907787791 2157782 850484681 39081286 79505066 546733972 697980771 418299900 13941195 8577006 617455447 418057883 489341943 316491024 182573149 911700625 611466991 484388742 853737508 225609554 302955830 999522791 971994366 449761454 220483883 205716503 368838163 632462411 282635139 749846573 775784538 858996625 655587303 276878865 237369296 815227089 470273107 441414078 537394399 551838406 695090890 498924125 472100300 470649512 956863863 992848067 598146517 854818056 549512285 979772717 932890842 43059090 421276006 455025694 225362382 498047854 96941957 944636949 754244973 110938794 624428374 203931134 439867994 391465601 683914692 909714262 815117182 637209223 633689877 995864199 763876825 416484923 469887166 755678852 151747832 325326513 518638026 248305865 263576105 564377385 594261075 199471612 131647985 355295347 401374416 287402862 4553060 574430497 99095018 776021073 772381435 769921291 706997700 450430777 289550554 480739231 954017357 447497378 257802418 749936377 129376249 506172250 991677615 650744356 726336900 401308701 558660788 274410354 939309773 702445198 981049324 61436933 197624426 37613936 817344805 404068070 895379807 449324064 549605124 48445805 502848646 700439969 809482933 595950572 255040564 261722643 375235815 989798390 760523604 375782702 267830762 297244425 648075081 365990533 457574900 84512261 480350716 487679761 298922339 280589459 867906597 813327952 635428714 583094756 545741702 363598039 365757156 337885633 427080014 286692241 980957046 125245055 127029563 987328798 214608231 333579724 836283462 6238349 632467687 659419427 308000052 25921787 874324625 16527772 804589503 39297498 869301398 542528328 912126553 917510988 96289748 359839701 777773743 793992626 968154861 269747457 507565631 851641989 467872460 753165156 699840761 937608708 725347719 424481948 523729807 464283527 539283766 744869113 932756043 947120474 788795142 681208393 435888012 918895429 832610214 26771371 243305425 26667091 574645589 407887100 254768430 447713732 55977977 300584605 790455389 650324970 344652401 297775613 703063245 564219181 863446463 255505225 26015766 32701621 650862319 567720274 971367817 579255612 534759435 497259485 961641093 244405698 159410168 771432205 371618476 565588313 293820972 139571845 626654329 276264076 769241964 591909308 99322637 620012717 452177287 391771014 530716588 487832822 298295199 877673676 628559635 575012243 354437653 886451824 678499373 221182383 323385027 414462423 2820787 725635839 473283332 244188834 508553437 817484227 993599790 351430458 878308198 348696166 96750023 505827722 524651427 859256301 481404484 332166203 744015660 543543347 62629322 777651314 416552677 146982382 277040226 578368235 183661731 687463113 463848993 101109004 614572937 380466382 708925407 841043427 938053587 486032764 808347608 382413100 303908606 476661411 846457893 435262467 326416518 904981629 137940733 349622398 453144596 590209414 251658957 580841471 16201795 572076192 491859672 942786068 784994666 407026396 888260538 48250541 432804664 591973335 472812844 293326733 26435330 869883598 298094109 492433091 851814273 788804342 559311804 480106124 218750108 940855174 399604492 269914981 231739719 112990901 962109451 319898065 368217096 461165923 144650825 640917438 707399670 407282702 961724605 44116460 566427291 219380851 613592013 228979591 684715262 808154489 48768771 781764191 823321444 75407950 473548489 161465195 119425290 553585725 564629053 365658652 984255615 642697543 957577274 324290060 957933602 688786077 379566906 663025497 257009973 526523280 619040865 267919129 714898621 400448774 360671014 45051760 711013571 234014657 829060981 574322288 194238077 839656487 517445805 419522901 306121843 403277662 265054921 953767626 583390229 987313615 639504486 303183143 580056741 301407386 246153150 676327737 750024180 780097382 437096924 916854514 533497974 661224577 706013929 936300287 511543347 123339891 223351727 446015056 734500263 401151849 142039790 139645748 970631067 867007370 647165577 607680562 542258949 654582781 255760468 905695361 615511528 365895112 65347677 487137211 73456824 226881041 555169713 9951443 653060994 759713237 199418902 155574906 91764272 226850993 456610698 453902953 32437953 214594887 319665059 786219110 951550915 132065933 237355397 730468201 436344372 297487698 343705436 120434637 716618154 784363661 747883137 977845222 32846981 108172877 456495357 488163106 113563125 104811263 952276799 98034730 244241054 151046184 170892601 543027630 664031163 138261183 498059876 223517252 431728429 641688025 338479494 760948954 861838304 948159686 305204523 47936222 129585795 494411667 229450852 488128341 905987354 647404180 293683280 86856191 130820857 673390722 209202732 113292594 658055054 804155118 879186233 297694599 859412228 787052345 893525331 240184517 843556703 193756046 788156212 871928575 810195933 516069016 259448532 782989465 362254993 627302640 709804432 329091949 738799870 831847838 782396003 849896654 846445924 844280298 806538434 871653527 199634330 473080399 805463395 199201596 149559667 287823033 72071073 129181077 116862994 343690655 880210843 87283830 149027795 979606846 332562994 818438280 661157208 346044228 375029997 802173445 133349744 302673887 502321537 208984453 254032759 993931763 978331018 75327525 962348135 936229978 388590635 623436888 463682013 115275683 43837424 490580249 875735221 86779045 998828966 307201618 330601057 813825591 919254354 432815385 351115170 515895714 651004149 590412055 534528246 563097709 454306722 852675257 659795413 454304296 924273921 144651561 100343047 879573028 595620055 583645508 804183734 577981895 719234475 22088879 645129226 555132008 164352905 915553863 492990748 629327514 683282337 533425450 363227849 939920284 317796747 478515374 298943546 25683517 5835673 771953222 716433624 114984431 903503229 775706235 936212016 870421192 337874117 829176346 759900813 723156212 322377481 114824294 761099543 373594082 483214684 966519970 234062652 588533206 665851613 591067519 191337781 574564541 57786780 416766895 255731506 708954915 977241443 7765670 926628255 51922570 200968158 209479488 553880376 657062830 173543230 451646345 487485500 92121909 909081676 433736947 86454788 673879941 918302850 235772050 589287142 728604285 197033108 349393703 709700271 443162689 974456720 4350688 906967085 843009121 166083931 880869469 544670619 422940186 210808910 941417361 23164251 796403935 409756671 855485868 661286450 98680185 256662602 656805287 920875820 6757429 322929027 585831725 264920980 779876914 101416902 406515773 730939589 217401635 853506449 730822490 19641574 800856233 628058394 893397752 40573166 229207454 547567777 598309183 252355005 439343569 271768803 193339967 448596452 520251889 34564396 910883360 67398671 268848204 644766541 198165007 389697172 685374590 194970738 720775936 327178445 814020482 753994474 227554677 790022967 517413156 869950545 947261244 675957719 471016434 568685003 277490910 849115088 42579297 70571996 496741393 72299250 29025914 236401189 131770923 616618739 364966191 533739325 733102371 268364358 846938457 657845520 192069966 886502096 42908979 346630908 143065775 754118401 479436660 378476618 806658747 987426381 735658315 472920264 160633816 557971278 836234882 97459721 105402786 469134855 103993122 461149600 169188260 477571292 903495129 87420010 132613884 804261522 177721527 813448252 876380732 125416514 20244564 345816261 215690066 1251564 380870482 499541112 994669774 878483667 175208460 894428995 196744514 841305560 830803073 196390328 356247042 648503319 579014002 868804653 319327499 656382630 443116976 649945721 535311093 595401574 763914927 909175962 475793170 125671494 700095251 775200507 880008873 457225903 488781160 319290264 485660431 565831740 843456890 262646579 519494233 417779830 206616195 463986970 333437243 33218639 325460568 1240716 692447098 74982113 101236774 41622661 775273148 524080888 803972477 123425103 305113268 567098813 459827341 299769992 557335243 659116312 445271028 97543114 9901407 679725126 743363552 408163675 465467010 515491860 403136414 396146401 596115564 808488087 365969780 17752453 86941445 540207662 170547076 812130999 520096268 91995772 597485563 968946938 305141395 537740460 666911622 203562036 329893573 639990746 71031854 803203642 285147878 40479613 74203939 869748922 268892718 434716679 306137171 327722729 959808592 835913538 446572647 96798977 496932602 912927391 442144361 27785667 55736163 657957382 518637895 735153175 724450251 889584072 637837926 289457354 287159207 184311342 528108564 288312544 200600995 569134684 30748875 722337235 977210082 353508945 436325671 699138356 747748323 882065915 227555544 254053625 63277301 92460421 530920373 799619432 989970933 472037687 206770094 897008584 271401777 881538399 122594756 411278087 595960134 286738564 623599841 186942681 651451922 728892552 463983042 241579963 593521733 122297206 609004154 907871649 586554421 186255042 651884011 676329522 199974033 298855734 243016313 275974581 26707916 489458990 926065694 690360163 746041728 515590407 646316050 539070203 541913693 364567667 127952336 802874171 902907059 875621942 145875881 865984543 419039321 197222616 988849548 488532980 609247287 486618723 998363199 563910436 536885633 291092 175307758 450490959 986051407 428049406 12161498 592609469 644640379 159664293 555278826 389744210 387158508 253969554 470941095 588061783 361115734 433053024 159202110 143727200 204627710 598951499 416204345 147491563 163143050 320588718 796160029 847510433 54748399 785782209 277845280 753021232 124689405 22246321 29620446 727544906 192136126 676194899 759334244 199916317 12875500 29342766 363082603 812666051 800540753 270103984 709046479 653445900 356686940 393466784 727166268 364629415 926933014 504584364 58244317 972477247 804795134 561814547 38400464 36755854 538016459 208632439 90087676 865682513 575546784 6840904 1805392 820694205 827952413 948729966 929369395 183323386 922788631 269095536 797034472 483759257 299434622 637466168 741120568 613470757 630098521 914553507 234914298 454229416 276819730 609080331 277231027 849718276 434915560 962664037 354081039 489226695 802212249 473129898 395875434 897330275 331846000 631909979 981149208 355531677 628791001 149872214 192153351 183171242 454678379 973465902 683074905 39546162 569185348 911489101 219162775 919799023 34488614 598110274 841172785 736213103 701674842 269948033 778816709 723462920 802827367 859867554 749155812 961891273 290746132 265411031 890022589 826779958 928303591 871041113 411097899 227893507 812024568 17210225 392918130 170599208 152634129 369833662 18720392 527823623 414761241 873506612 503588430 738669458 517162580 162984701 928699091 50492321 188734168 691366414 827739754 220565684 44260470 160931783 408509743 213153541 707809859 59121228 69040567 674644331 841785360 513541540 200746979 940870145 895947606 251858796 107357556 879723494 175034064 196861793 921894616 860579405 302943571 845158155 456515184 478490851 297968490 438710232 273308263 202078807 196929596 920189116 805289425 564324094 789068577 21660021 98358559 16376511 637362031 167575469 790439106 311646950 747403006 989816025 681090116 630103123 642851497 179856853 346739554 955584882 264839786 861064923 277184207 518653393 131924703 834916758 746692189 739217024 755896860 322835029 149015643 714601795 558130237 516052413 609885045 306762352 77545411 540920553 262019536 53213526 351187762 870246730 765626606 512587531 886564309 873253553 658937728 248270822 978078615 114001077 471645400 112432578 946076633 924918754 245101299 189885351 348894701 857077758 503549760 178044228 564741342 893804997 976107466 580554835 329630914 330611367 470829243 609035613 432270536 338344376 395753441 960519843 265501776 120919656 535214283 788011946 18758568 569607157 403963713 818026596 719315031 809383249 371595800 787882892 571271073 422801259 295203752 925552194 797506965 222609040 609942898 838557527 917816387 6724239 678765074 898587357 945164919 235126216 472715950 805390299 672704679 478542544 287280416 305222917 187881260 590212127 623032926 468626664 24235156 506929252 381591648 67922990 269466083 429346249 291015009 461015924 985068435 664923156 101295194 155174863 629570742 444389097 355094264 193441134 559018572 957025482 560883943 806377919 284951672 253262432 656732936 682253096 289166699 143506023 978533121 498910583 967616592 946358156 15647606 380357902 315339020 245120620 538525135 910158634 294778104 607790409 862709803 514115096 719473970 182708813 223631934 487707332 497674235 828021724 652811751 49442193 935276111 392391117 983201611 700850756 605245640 68393099 36699146 77673704 667377910 803711335 9509025 20484427 109670817 418307748 472378827 576842018 139754177 927770664 276026906 309421506 635479415 882096275 93903762 467972294 665178510 613993492 135438710 139067996 454418570 934033550 747654532 921087300 806105247 498458507 35716372 48365404 446580409 866858083 131972209 704795917 467344525 351893474 35241903 121284917 483523462 71858274 151222074 615214558 406027640 904368539 583798229 251446040 649936853 635585553 602746614 87309885 522902950 506615067 94847889 383644965 559126670 620720478 613871928 18375582 220139302 229260684 787203199 234525201 822384922 936912768 280562330 139355146 380126465 295224291 920940346 50686136 423189001 411404731 421427521 480957606 56856934 252868259 470897469 657446760 399886879 108204662 45970064 981621537 904418353 878399394 467622765 92970596 113331946 805121325 314677751 50153837 183190519 577325584 298635733 780317766 946578686 346894391 546185492 788014451 746842908 524611640 99823384 687531920 962578741 140102290 1452691 720163302 195066574 941083719 240191639 462760964 910479439 971033808 709372617 404663280 444003338 391655127 580360158 213248625 769934903 349116871 164055133 572458629 812687874 209197897 786371599 554406952 292296258 624440461 121278968 409194001 722066796 113029544 412285001 685423811 819317159 959168785 980852968 184548784 887789881 527008308 750436132 606720873 243205575 422460679 282696695 876958200 896082321 332659905 624547575 957002268 99724085 394127596 659170304 552133839 210379288 936714403 983139072 980326492 209656760 452574310 44573248 831004766 25935475 760422227 251657191 688962828 555434112 710590609 126649170 528779833 216640844 468751795 875486533 220509642 644835097 293749167 437269586 122603624 429716450 176955278 770880979 864399753 603986500 323423470 255383849 396392300 866298095 535196367 383994588 725426655 505756603 623214260 968615237 417060007 152077691 313986048 668158969 393186149 75433729 267104210 448088660 184992317 279324092 687982950 278109182 774519287 792419699 141723476 845123305 918237230 569432153 281281691 344988700 77481656 720317604 984419196 115701821 643291295 325736623 425122440 364864674 810634424 450080295 126309701 591648777 764562909 854770964 195019298 604497220 342386737 994106662 466138715 55601254 15978104 700847185 25916647 85846439 7966016 491976430 620224936 830109006 67615412 947698588 788868010 508566313 515183013 444729418 930699954 235457855 936532968 800543904 623201860 900698812 158393495 569122654 539079589 332934415 329424480 27248612 517740472 50657824 67235420 660449944 568107095 268862869 238780709 496636000 703392276 828919932 325389122 75294444 408264333 135234520 133819553 645266632 186944672 643274067 756612144 649320688 35176119 791790769 446533238 281297690 302225158 265692290 317278595 176419490 651537573 247466826 635125820 266767480 538037494 498216865 864289888 946112269 278122809 885207956 919991379 393252106 802698152 928579979 11382859 397838352 194070974 948388319 597346445 37237202 276558920 512879749 13205972 759034895 424039928 518311567 735682963 129912009 198276392 844020939 277752861 366870084 75502702 384537388 66998203 551923316 186985666 925275484 190213457 241263358 116392919 74103222 261322780 245593699 315035354 558033417 800023193 512442840 705371343 799161248 397466541 517872333 387499413 148989237 345137196 526915763 552203367 69500711 560593628 331657351 171522037 189217348 673365373 345487043 382086437 920163313 842919540 959521700 472757894 372296145 262895892 553772719 936943885 828797920 402680035 37915666 957455540 459557 801439307 44988440 277764233 778254929 939623142 884074103 992710392 140860545 55214675 530144758 553630482 298206523 752903867 387111801 661491690 327021730 865062049 6467474 341098679 579990417 755780181 739673220 355520987 144174994 606296547 174409000 71754085 359898132 96013590 550497956 189027015 550400600 421411265 758049343 917033362 350181540 501384263 198307952 663790866 244961238 94551950 857388601 755019874 879477713 11020970 985012192 846535106 661229136 110471564 554260656 184293031 9249731 702362835 226857873 330288451 752607157 31415832 563064389 544847799 789423119 602124707 659613697 167515845 546501888 914117275 712542507 382150660 164471168 659001260 599052173 354940811 545194840 868702049 832499684 10420990 18521405 744953447 657330561 574659845 365234819 963454083 774376351 884979829 803035525 41123796 164114418 175091299 253203418 193397969 655137797 191258276 584322840 342313931 399115023 927166229 699601427 653266148 390325333 459957893 916540895 846153973 520927440 420199432 710949400 156498586 373412694 788957640 353953703 216236435 239004786 67347260 639724860 863484936 590688410 656817124 978215670 672623259 61580273 628923014 600991197 912116124 377536713 844795538 248865968 708035257 611661633 989663150 322205297 407010724 736386267 128339315 954860399 726125768 796337532 701608331 144683147 184706029 472767226 960435871 969705931 83658554 750469210 644489428 509033848 563841877 806339083 674133291 91672250 900001158 444123641 317957743 711320271 799188949 104507195 742494194 241969537 91030699 128529330 27364626 962931666 328434742 645730353 457256247 381682240 662696398 563224580 607360152 194136666 76433081 806126793 686205794 236361346 486634763 914446619 421824581 57928845 897548654 282955352 220596271 804154503 176406672 409381999 160201130 248708464 929773802 272477561 543970103 746145195 911230057 194234912 570400243 405712465 991296332 55159621 293357980 963256150 574546904 754058302 791069235 977396987 399707199 717083757 369556995 592718056 7382540 449302729 622046096 905504625 229339720 496716012 337030842 217182385 381095402 319992141 778498189 701898012 711036105 250373608 197032625 418648963 813650028 705196066 421216807 394813829 102654437 278703199 436584774 110964157 494057857 346462748 84894176 968208348 587197492 321481166 419220790 45543738 113033783 867885556 768124117 945178774 337242794 78240995 397101894 449911860 665974198 593680421 497816060 942875312 891801779 974587008 175728924 627521892 158496627 564839873 818836876 172472051 424025638 613941915 775857578 529416813 671360240 818728765 323527063 780046814 44272709 198050870 293873928 993610195 19059757 844318126 257434981 89326857 344134364 562495983 499304500 634115841 284934600 413152842 591128381 365454257 238751588 780960534 201311741 789354275 286813845 755544973 633630070 88361804 137013235 517993797 820031897 863896073 495487186 762711962 8938905 43919014 504848135 489237302 228926411 976441280 312838452 590492261 892236093 23971833 255415337 660440884 709466735 68843325 118378971 681684048 505974455 571512610 702345222 952464410 752843294 193729793 463574573 709792256 748329991 627043095 626917163 898367431 310850012 739352542 307267676 37959523 577887915 856150835 379478761 116987181 500566128 342668729 380840171 378829036 333878623 50884419 305841465 655631147 216027030 566178079 688495565 17564546 506841473 57168587 441479020 189804343 407073923 521834217 123191977 461698755 185058450 507517747 580515024 623200395 223655389 93712057 823281174 850849126 621765717 977674734 333982251 808156586 225387750 540571938 107139508 21157387 666417547 63838052 551080372 3513450 253574481 367232218 601092821 763339676 453733624 13919911 314494776 489656737 287368489 110850341 422588373 784614278 282386183 647701723 194841837 885487663 775280743 459607664 799372143 306446223 247450181 103452187 685820262 851438936 662277572 745081401 15683335 752135859 87210379 760629285 457528176 41890 102311851 685849057 674450914 990846567 872288142 216289589 527346509 562517355 266119325 961640493 376459804 377399939 546108451 549688146 365166861 651690704 67028296 426802025 702352726 925210706 412928386 395516261 420701880 431341188 600322966 966907499 681936832 675521927 979616635 826587229 25100185 712401612 180507275 924725121 751586673 655019420 44110874 863184318 563310497 307669054 61637617 931924336 642159539 339600659 789426799 829319378 360728312 986142966 789478617 939113996 526275774 676946586 788314751 986683382 973927359 552202296 502890649 354487084 505463311 722892118 473080103 816298848 756571109 505519329 473891133 93404953 158728520 58945735 186319585 557896680 80632672 685465255 944592744 544009740 565571473 438915084 731632518 161698980 189644396 846368558 299664373 935469438 682171584 74727123 338854432 313200637 559007202 612435468 215906445 438071012 694896949 954686759 793539177 910070267 467216655 386145397 335557683 788731145 447815275 599183864 344333613 62384913 808861463 226485405 732026977 176846296 818057922 286829835 949191504 13843006 896856008 571367415 927771261 238960031 893281701 459339078 671056101 186467656 536926936 694383201 807198385 395892338 20865629 361313402 257019107 698089524 401790324 739462000 368203545 312866643 442926380 810434711 185065578 938346757 878434247 137751002 790259418 810230918 867075965 216939025 530532366 778118126 658279913 833764972 607813534 779379381 194472514 233711542 127992348 980167409 25553288 481283537 452662794 657530607 905384384 885784518 637521436 481467016 684595488 480237054 205228724 49642800 523116748 492244110 80410877 557533263 962852275 21295619 845028433 351955178 353632985 646366912 833663843 229571673 562475345 29073418 507781277 686242526 617637234 137518964 636043155 601663052 320184636 426643820 842185940 16861086 342173918 738876691 536891502 690226182 900802439 344776460 493433143 831327585 392866134 291397605 994020689 808868343 533577836 740715357 244039489 288812077 881094875 471920439 932635566 255943688 524890974 926684760 353907855 943810277 739389811 680944279 949548145 65031536 840827519 70348347 136922303 964622583 539811790 879839441 977634894 990459293 897411685 774521277 92664237 703055746 385416454 695044726 559431124 321850257 25596462 778646359 749799061 173340992 508614041 530172474 429437604 942599897 788648856 222425567 969090999 622150232 38469311 222246085 81109141 112149886 987826158 481487279 410214158 982105572 403299072 946968804 413540383 569368602 381646085 582727201 161302958 951959175 665208573 380118005 526574200 668878806 936371591 497547243 709142618 616774699 800382571 585653634 118905758 917236019 304593907 11685387 336692732 869008100 809743888 866000834 655597315 424751984 284093969 7842912 536584770 253469598 535625824 975819027 436173949 350754951 515172842 505021654 998306479 346250131 917113844 822932278 604274820 618033973 68547934 423591552 641555020 259650000 916565441 429112984 174371756 65142740 761960546 895334825 244404033 845533587 938014636 656611216 383116177 632206170 785604195 183591234 605280094 958340041 199311303 913671334 197259204 295766114 82174936 389180095 522535234 222671671 518296943 482742002 744951648 773673414 956636940 375091068 906095155 338911164 77745605 722499134 905469375 479846329 310705149 704865615 691143092 187657983 415034917 231277826 674578015 331387019 258448975 399905389 19734174 871602179 383915384 411722792 217846962 823158679 621132488 795396384 700994988 33758352 52236808 920211641 268441157 220225929 953853603 582366529 43704265 470796484 225204494 363401410 330247795 183248846 166341773 399595018 323252079 317723470 423099710 495332297 824163765 11234332 379819502 175812459 456603760 378067406 130396733 898354567 923446438 113412303 856613772 483568117 287205123 140337640 603154994 438820301 581496060 338856018 949923164 40638408 327103613 840329388 804591289 999791188 265177323 298894391 592490982 323338629 56897735 530766858 514517665 943287245 824167743 409146860 783850979 299969430 384984789 982473451 748074958 173102492 154667808 437227993 672711470 428376707 119320044 671414768 2363874 980221334 844928498 676772870 323793005 14174240 205456328 284297866 266768642 532228244 219308240 475016943 305927165 888393906 336373852 315583414 993636172 593429505 915956329 16861084 165312642 562859044 402698784 785584722 430573248 884182347 401696532 503010934 102437857 905135094 978769042 22574549 495628819 692801051 442411191 629046721 651058562 212487370 588400258 698560818 164248962 764928299 878694321 391277254 675959942 535721552 405213112 794598896 484959074 649255872 715710932 857442329 933318794 607281131 91394418 101957963 400932706 577550181 742022144 660534178 545571520 911113162 893456429 791393403 550726335 331387800 63915411 264720834 809000017 868840060 288697186 907410770 887598273 4978227 922291179 933987 476408612 899315841 355938493 798795196 878202242 348935506 891094481 394402616 319019768 400893868 274318312 412887554 341735603 292683122 46436861 840836154 937815258 548175732 665523881 735740914 669474789 760307473 527693647 318372297 251848200 885766667 188507225 174746323 878022233 285360913 690923946 957093820 245075650 203180281 620122275 876560904 692926307 706244748 110962837 769863136 273056077 7563911 92126561 504397139 980245044 405497956 14468325 463248306 616592355 469593541 612598639 67305913 884077020 771370331 472185115 747514928 514425240 443605574 574937036 843828533 51249958 544570767 615797634 591221879 884074263 748527981 524823392 598243014 640031200 888298237 976024107 708698160 228076371 338988624 89649052 225581722 152155057 224259281 106266769 749642768 647774111 548807974 19277374 911414017 419526630 733938401 487934112 687787542 192480587 702548242 686362553 800120367 855712229 9479606 557473881 363583414 492084021 248431319 372423736 230722406 226196992 781760897 955058051 28385265 239687333 241632079 270033273 348482731 80810903 400819645 633737968 887806279 539006203 316311534 375713661 464502132 443304293 526618105 685815436 54013100 873663555 734439547 26619029 695152079 622769099 828197634 719632714 232885872 441788884 293183836 833527777 651508797 456832763 522419424 509839836 883591621 796109597 644201934 205598198 831901344 209802851 337761203 859003171 591183103 126648961 549761689 466969433 4328527 121079260 752086976 61797400 575068967 402310274 750197992 104293350 615813887 721200070 595724535 607330065 861768225 778488048 557683599 762682723 831005175 388827099 470049770 40701754 513379964 504782025 180710081 81275277 101753470 688605555 92870822 990091825 418105648 695049977 478713526 73983375 684988835 253787394 257920976 860980624 316460207 302595156 28695513 333544500 696654060 640812134 727600688 231368805 129702983 147804830 655761794 967243761 456657257 50307954 973659398 496595609 227069930 427214922 614980034 179942897 706319315 471896186 639037312 74583217 387093131 905817416 29088242 412449984 924639225 816195416 230941114 578433774 826418228 686153085 794197589 406508555 722609588 833602032 409065868 292571180 342998384 310391757 255742504 656983332 285686099 835601164 908184723 447102819 609357361 487602641 484174203 388378599 261053041 653596071 646873368 634111109 410713497 760706390 552217510 400832207 937452743 858135077 810435067 197170180 567533400 69555783 679358754 319147418 550928638 341539205 52305373 583397544 368206176 349693007 96099118 372397948 874315234 42196340 520227589 912506496 477840703 413362679 454950724 772394397 502856938 941806292 806650113 682137118 313671950 173902726 536777784 403430225 163349788 965041861 47187597 54346544 773227977 811964889 94537166 383159360 332648665 796595687 491195727 385399989 727624075 578377902 122952207 194770566 553488547 295272194 789637131 284188446 212690839 622629139 428386259 565762251 973104808 691787148 835275784 19238824 429925395 480196668 231452803 564261836 391730438 875245825 495758442 531005913 530052449 990526080 969135652 109317753 409603597 866710519 19329338 16214304 603261936 289329504 899597571 515419716 764656805 825220606 976738131 310195898 967224308 564993551 559722859 64512005 442345230 195701969 788291530 229202515 98026848 133494438 306878964 284579746 293162918 857736767 103383968 122346839 479213858 896091883 472439961 15472404 208193024 319923447 556180333 670298443 821132032 306481484 623823690 834384076 47689169 901233480 133815141 77097976 518295688 441865857 745809029 516178582 356400336 470804259 873241011 254619901 263714211 38224524 361690902 950802129 973584008 109210290 72298222 233603513 959064107 76661986 10201088 150936612 324906903 559929487 351283328 781486484 912690671 791754444 94454789 209706117 218343837 798740477 890360537 846463000 178174751 52502889 539632490 488186502 132270323 460523693 251553994 559629584 70250886 831718040 355556014 713438566 965437818 821463070 64391402 339128748 996455422 976108866 716977536 363044056 849927978 803977007 667351188 149474118 487417140 784996975 954308827 641390334 447358740 325732274 833216726 59144228 232527510 30131725 31984140 70494706 808142544 706276288 37716155 232804894 895653625 362266703 287942641 251003751 233609777 982786948 780074372 422092013 152627974 568440366 316347331 12097908 389779786 121697938 479370941 378443804 157729001 861319295 471870406 110855367 253526182 314881510 348337037 415671275 315769913 366960670 905662918 970868053 323110875 361980423 870512587 699558481 684598562 196837989 313655890 390043395 471765050 117493416 602049085 456275045 65177140 811161570 826452938 785530893 794231927 769248651 732777611 685352777 111220377 292852761 501781332 231865273 341038111 431967647 157031171 415872208 820393601 996253291 514248935 510467754 206749717 466556481 601339978 165086137 363730144 886648849 761675745 742226872 354850693 571092298 767980084 301020456 195246380 906213746 330436776 285792200 141607448 498301530 36238569 222555236 924017379 772528314 284248001 147259479 175705211 792064936 88960576 618555886 674275223 924329200 691630183 190937250 258849937 613474909 641949266 825114207 300215641 997387451 350485715 112239337 989108830 674240175 421799701 315846507 274832182 725770928 676313912 981094837 284406171 588827543 898792841 481322519 385299529 54842174 31412465 691839661 842228257 172877513 485479827 819458413 613619240 34277456 167001039 52809716 317979126 899050300 715869551 429704470 894560537 249506089 900201012 111415642 898132994 808440831 750832919 344451905 271338472 262935552 330367782 902788441 765298096 128646117 17027952 328203795 982620132 293275891 423841888 999502253 402115967 904348975 938075864 237063603 885757845 366129840 993332217 305411556 551055795 652613317 52972130 571501745 691955024 388936113 963472361 930009415 199711920 831561664 265587148 264854630 652973655 144195895 225118805 582621101 716830542 9230465 198482548 148869930 863279367 857327278 440182287 811850448 143784697 741082023 866080937 926758605 516766783 357386496 58543941 340820472 402486978 70216733 845796593 4257634 377470395 516797054 431806936 73676820 813803174 965267000 631235532 450338722 328645248 159156731 324798133 427145800 357084976 229257857 207701083 425631528 204218844 383034468 327684228 588143421 833188092 896031298 451783154 684346162 256609608 140922657 629014619 621861685 190647055 917722962 855631973 128088232 814021679 840817165 629837345 388290322 865363478 232796483 332016408 781543464 562356750 642406032 715197326 184992916 73767627 811821655 674469919 62279788 419410073 237572828 146733863 404885886 506517793 592089584 202949876 833425358 564842881 377232625 756002391 499519737 696733635 402236736 564078182 759713380 920915659 303807455 154214691 69819387 496590603 13161772 276675002 487865980 322543851 706610967 661318379 724333759 866419299 517227555 135928992 874423444 235743882 222135631 616266889 666435866 260041377 719225146 506269934 834292790 423480880 91483708 70296427 595781376 564789503 61443088 545622914 116767897 826157455 32025569 439750348 281526382 10847102 914850366 280569884 318280763 10694214 125325700 610428906 287779917 497537690 25881589 397423628 993305882 758409026 308094427 604630611 141113202 647697507 38240421 829957731 298973731 93351174 633730216 791971471 756920579 779384278 36940966 522519433 705455895 943897664 943948805 906041406 477886756 592761419 671575534 246469218 398805264 688483872 403068416 650452228 5814126 682982474 854704149 605906986 865248961 428712662 570645789 786697776 750570934 938746184 110032249 995874431 656852602 572114535 895030186 946276413 385398127 958056101 526180802 13831032 622796173 104588525 283429229 67050220 413771735 775586002 461891824 779560184 2869618 434112882 982306212 519216124 595258683 842653903 240013085 777535191 525329769 685390673 125050672 68385443 653371520 3058228 599114349 540011619 386099077 970268542 344159469 51180581 113328663 954600875 862077975 613454213 506512683 481553030 948436755 739984586 797664836 334399152 702317437 811917717 48279435 437381494 229075139 636223339 6523861 45971817 51802142 761098344 80955195 884724196 948254100 39116875 900586175 857798046 198692226 63936545 994284369 668410026 612837959 107281650 646072434 681242061 88788733 243712292 56770371 625533108 362979244 991143896 781610834 788187863 215118378 269099967 324337324 873537033 49774882 890285821 991556096 505101734 29353287 472337105 580583022 458641698 656707600 592275565 520754821 813672314 951296499 887712281 418057213 383622200 471186119 618031762 455190338 58927109 399353689 743786873 234273892 863460912 116111201 609259318 819366042 20295585 498917611 664216544 989989917 300401649 380692711 387526044 422875125 842477191 813099141 491723205 853731089 677737695 81615484 883957917 191159905 969325689 729270632 424920663 180993180 271217490 817473212 600739264 702402315 865207464 415758601 559815542 303650943 453620028 581696896 433972272 209763540 600248215 588965046 860209317 593840142 467690029 156518047 123425833 973296438 701917534 543351180 514144976 456367602 147578606 855561791 750593589 664776635 410349793 967676393 138249392 307504324 737068628 884082208 441324257 405799699 67652453 367492340 421187034 430605857 481267234 872805170 608955799 449371372 983277854 646754326 239971517 459092446 100435172 186072666 564059134 821979518 425938264 569709538 476132384 114645232 45621808 502404699 466498452 473172443 637168558 969780711 592774875 434174683 747131765 624462958 196274489 395380301 884561388 456319247 524531244 410056476 207045700 479635868 244994944 398420244 366268784 79954739 775266188 410033543 428477194 237739767 819523322 195134370 546377548 3266926 748831195 140853435 620260600 721798197 851035522 942515443 175171565 260710540 389503382 810449910 824039796 786698870 773217944 171327312 436690454 71717363 995897011 824621086 544144160 587553362 377075381 253868517 984584543 675716772 550804106 448393496 777716407 139575252 363674343 643251597 117700078 423568757 644481168 719744020 616762139 781418912 976669093 910298119 761931680 591808269 333088429 865782437 546344317 985204286 495488803 867740006 688824579 30680190 432343357 28265745 783258759 245395500 795461968 108351192 576209998 49602136 35684106 973651018 129437128 451549553 190418654 285564685 268266189 244565936 777868850 95110035 976569393 531158321 628914971 908913960 242493759 960612392 181736494 626646183 19485678 475996122 211780060 964102948 875121928 878912880 433765176 40723887 471251289 676268752 87040966 512156794 759373103 673853603 565382127 747724994 495207263 787228674 694784904 266603451 138730934 158353992 612416389 842849990 431107013 274630353 707432453 821386381 336454157 454520338 649999641 608255433 732976009 839197933 595080045 410023673 559258378 570209382 6799930 879229615 24038561 722906087 905123143 19811300 640365605 14572118 80003426 247046280 754414490 846680769 18713170 154222321 869955204 525685809 350016872 480483055 245280690 321147400 244112338 831959263 895160792 303397804 907567522 201569482 790495354 837229983 407531284 86528903 569484968 812604035 760581889 408718732 555887430 756319860 527321482 499011863 266259286 865861009 130152134 325548561 993835389 32071367 363468983 797834478 144106689 71528708 700731478 625659730 48019328 753112452 949515483 301840716 159723941 392188785 978466187 591037198 316417659 215001213 150704377 27284544 660215913 447631975 960147927 329546376 830317759 952131965 309434016 462548875 617912633 722368050 661137565 901477170 444611695 879479251 817879737 520500082 888237275 438720979 910025749 36504861 157608356 597407671 36221052 868087801 782351730 991926720 354132350 258495476 777042243 435422077 67368846 856015965 834734620 883105160 355296673 923135617 9626926 934313616 438033086 176398411 951061517 199990430 864238227 205103111 977332327 734073233 172254039 963310724 495094304 776824856 559685638 943872431 659104067 928194371 570659518 938770231 202114385 827299954 322749551 270270671 47461676 811181208 448856088 274617543 399219867 847364645 470252511 341231357 317636856 225328023 127965688 442825508 217203314 855447231 85607717 110546182 478505594 523695578 471155356 941303326 951780413 815261049 585616283 892323509 925790770 117284672 754514924 931686814 549347163 59673815 795195398 942132614 861989289 33870117 393400561 477050198 648950476 264358514 555341924 894826867 241639624 512915722 24609629 433785325 414880514 503095292 687713049 627277133 155998723 901920987 866600920 219070028 704875822 183966619 648396538 454605371 174450452 296584260 15910087 912163833 828007121 827261662 238636621 135645756 61277489 590033595 314785406 492670135 20449046 62510043 207314474 480288998 42980734 854535739 342200565 397825874 621287964 771976874 703196595 668258817 442161727 52853992 364210594 965484355 446179808 881135508 456943602 302039105 407193522 293063785 31986984 541952583 802141604 904498811 566059977 190080503 86915976 163935076 187077023 102644644 59291949 623980174 552221142 618214776 39788349 993590121 485962453 396045758 403421417 186526543 966979852 477526595 226434403 244941186 721234766 125252918 756619424 972066104 492385548 109333405 892877548 455471778 706818174 54752298 621543568 538441334 722772857 155578815 800206519 991755753 188008182 835001372 750215010 527767361 233652821 129651074 16055221 480838326 880157807 433391701 778356272 948825045 861271251 737012029 879717041 346787886 257453980 811979635 623588867 13899137 487623942 104765677 748584033 678979077 883514022 753968631 226991992 322657879 627348678 672667780 337574246 310226552 633252278 997850790 161883114 971949228 145655346 437964067 12302143 645700536 905570977 536694961 232594268 138965375 68577110 127884895 500699242 769131559 124419914 930919663 802284182 725874746 640191685 503911485 852861550 874902592 290762824 542216980 284875481 440254073 975126524 854930320 237779181 424748717 668734181 131929471 320513653 758296496 402476399 778136218 478879488 128116117 320616211 244611410 260303376 611705013 742225161 832736946 339673955 822226526 826886872 751847560 222421180 993753609 246337489 163757279 535104874 693032215 217474882 629487982 109942701 751958975 726844069 773656730 262464166 487948738 634782133 838981989 325754222 485857903 690073087 820673771 724885854 162674318 423670438 114974862 654674829 26279722 293729754 489029329 224367822 224249216 537942769 889592976 291627676 459048492 637529180 897015756 419903553 756663253 844443660 720856855 397890489 379727577 970070018 284174303 211408109 61499251 204758890 634703690 582000833 63688544 368337887 952254784 91617120 88037148 12976943 375265110 596697391 750345342 466871626 750314544 453676413 535249145 929501629 183482226 887824797 492326815 536869208 145548348 727301438 380902315 754360300 24839643 209366424 195342106 951053140 607622945 504272713 56259382 726909488 11239102 753402496 678975584 954889862 682361100 156590809 825987389 475312199 220860334 626806771 389819594 44680017 265432143 672889772 865670074 293927602 315544421 285737517 562798190 431188866 939646510 706414121 955808317 432344153 455383693 735263345 155768419 565786312 121449047 574392708 345940168 40670164 786488031 780297228 60339068 313784177 378507877 484454146 857645589 423078371 924021524 977996588 344238358 981375669 334239204 561725662 932738134 906518489 180376573 248868333 665713534 601007072 637082590 814287669 475949719 738293413 646742137 794293502 823313311 143280938 64120029 630438549 956174815 848339196 681298719 46576448 906948804 85397179 889067578 327847188 855646309 594683647 657213997 453009801 46445094 287566876 205728505 784493802 237257474 191841635 915314147 562380561 772550121 521846303 840444870 434385042 248863520 200620560 729159455 994315667 995951718 14655225 513747371 321467071 745325909 774842495 586683550 683983671 803211027 137278106 299740809 191622447 318368996 545603957 127318731 673716805 120453334 943859683 837166695 27401352 795356092 166957987 668536648 971888661 239561266 336671700 825960917 824445940 472002669 979029520 20687828 216726346 98150855 766620270 733920731 456262786 448912196 418341421 754664677 729198966 270867179 714504297 670725093 495533973 190697321 716951101 306780262 495161378 263714012 487376172 956039469 570337443 808078619 483442969 676900971 155977675 391473994 202902991 842691206 648211620 425305620 978757123 253226666 367196922 40195388 618810202 764606055 391505595 483758113 969329059 284126755 159178348 578373505 532940671 750022808 274991405 223601597 392235550 86754770 413550919 663369167 602866968 527820113 77894947 204626395 366972320 841520668 678104537 848067873 299039227 987013934 576026905 651336948 817992988 480700150 395809018 307890130 260034604 879484721 458446658 749272766 288640175 635805579 926140345 863836054 272899800 107621682 54989846 693165710 739501584 955235424 936277949 274754430 792071855 226993490 136073729 537945669 385264530 728432544 675551855 514809266 361016496 450398006 739852501 788949902 38614221 712475129 465484212 923199070 742868639 391575890 877661881 436643067 179627772 420828913 95575383 134493671 896482389 65357618 619686375 617529833 52120663 123927218 729808212 517003833 600641020 543654710 404751235 31110662 385568061 999232471 200094873 981129792 839183102 847728835 718670023 923682513 878017314 18438296 986803272 239480071 613442787 281703118 356341580 888960997 616026587 769554491 378170860 126685227 269569861 138342070 643888665 926361055 4707734 305617071 761251769 540862702 55546482 863510622 68742707 969760030 376760068 364342337 967639360 799979827 665577806 608731219 227071653 460959438 736491297 661179641 91507386 509573669 384170317 235599469 549483096 424570897 470786470 103098154 530581372 288918986 653030785 31259034 612098584 756023398 975951929 37214063 31840964 78147258 434288808 294012177 626913740 478425473 176547267 106245192 946826340 778692477 914188707 79823430 606897765 482377737 802832166 122524070 604134217 426482767 16155680 793854762 17203607 606587141 780925360 475934171 830458515 130931122 587870568 747485375 713504303 136150315 540685031 469765643 539592813 290081748 636814752 404002566 899824961 755300611 475973443 767618216 455175418 405212914 563437686 287121800 137186439 405905454 798642597 854398471 502827671 57380867 586421384 692153770 375581651 185137168 482726260 854719440 350387248 161433948 542207528 127041593 194230139 362354514 873851773 707212308 339332625 538967711 416343810 235129371 585685212 24350810 958209897 188972763 758096253 685731993 49663888 56389519 846296786 727012628 10807505 183327238 905594653 272504649 577109836 598055589 571022883 164759027 462623863 639941839 594460930 376037963 387862919 367995122 203051716 599201720 970405814 716398361 43135422 496754193 225702421 592597403 805728936 671849666 573186335 66401929 42171530 508192243 470784976 410598324 233048796 619717829 254029214 980518626 369251834 842628700 495848062 698957368 474217667 283646216 981303471 254845210 173368275 861161890 267824738 519772282 717723163 881774698 331773308 456445688 585485577 84485033 796007223 31437608 497850734 777933806 890607977 461818419 982233128 336795896 686294531 156208460 443708997 465104862 279420746 400629188 625029039 110491127 213596726 89819733 405524631 360825154 477648283 319303441 571173800 321325540 779520070 202462605 86269969 463164815 508870768 788282022 112225538 307108954 623023373 545431303 595067947 89110084 833194307 418678976 583330699 697695102 190351903 895522601 305780113 564898004 642399058 255068986 297828687 830332724 141500280 239417301 434573747 39334187 580242703 874025348 37121025 401526246 353433554 171761500 52788623 865982351 972216372 773794582 152002170 650154365 825296112 934739252 859176790 788634948 779460659 757018779 308002555 804976505 715214478 468319566 427229372 402460146 356751872 550701283 807373029 302942896 593434837 143246950 600000054 849475445 330039478 153432183 486004663 203339084 485933251 250476893 518826832 584815834 185012892 838107139 265001175 940552823 346826943 320703325 861142187 977657511 989033365 95302760 742661747 890823983 777438949 131387045 872103270 822098979 767260586 556052100 480033982 764071417 998214892 873603212 310774128 288559372 395422574 345372136 177582513 610255592 720759193 361291085 20024532 353973931 797334173 396317103 925076369 904075083 408248417 435431236 678052907 889470878 988785487 8945365 773810493 351244374 261641590 293881328 106565980 83106122 339074588 726923838 509226133 594406325 618186030 448995132 864544995 580574344 843379593 991121766 302420539 979904555 571211696 362070139 535356400 981978058 788458163 325395737 441094876 106678541 621842973 221857972 707393402 925748183 439171211 476471587 304165760 551709781 341936607 507003690 222663868 831856645 501684751 221752641 820475165 688701353 834045542 625998866 470922145 102353766 38474515 365444331 899521061 599858604 248126299 384854324 259904296 679129264 295013374 34669059 132524547 523372499 581227414 766846124 454486697 253880922 174268930 61322961 928184172 392353988 901848188 537231585 970827130 940624607 448664615 380210072 383285532 480768444 121461497 534744926 755805299 798622946 894435380 443617587 406881214 468707003 737435831 922521742 591221262 824396835 69827895 664921049 790323486 685680649 261254646 480970190 224739011 482415889 474210418 177955657 269922173 729813059 583214314 225533326 923592702 504406454 496283974 516711145 641688443 304772672 9565991 687014201 326251406 858812061 956961365 457180231 213798007 731235596 81248667 815385424 387786066 369565307 1320777 913602555 160300862 867853712 477158358 814057767 635321720 269329023 154926864 28084340 547919969 295174577 648930914 887914699 802437669 998022280 886606384 286009516 579945730 885093821 978167984 802500794 447523166 975392727 45388583 109649920 466596629 789857558 159200001 468698694 976861227 648770390 190935003 519049882 854387845 620220677 189010548 236962909 723704848 856724431 34098450 785067330 990605293 909108783 299845383 735330038 623146349 676432280 53027018 908887996 756626616 150699217 101792024 752648965 198938360 549483170 233488636 984789912 134228049 841410860 144272390 487512977 933880626 195779608 55795575 221460917 922113356 889135069 24426285 803728491 424827998 585885255 681452899 825178842 324346498 488573752 267044482 962348830 251719671 609467888 331610654 579640983 405413541 472882988 112929707 333410704 222918415 264096135 600406482 734195670 640563863 86385277 73634221 444801591 876320656 273480772 152971212 841944317 76570787 162099817 670872455 711340503 892753650 422687085 915530111 151994834 306202211 904967729 763426035 203412903 460853298 536436386 649905171 128820173 115283710 237256047 627256740 509531146 123300534 26761132 663174887 531036695 809429065 185371209 907442911 910302004 747375998 479613336 680869572 286218434 282313892 282971224 898481327 375921226 431958186 807017024 518825463 45790634 150283339 733377545 551322070 366037401 404246762 173675103 909067032 396621176 635246274 821560594 58649758 973177054 893648272 959687865 710345293 486323180 547364786 519042623 667470015 418944472 513727111 648203721 131164966 602175526 382904198 628319835 19285355 831633785 100896549 907715217 499249041 200193560 456702098 881484792 606143633 950059722 4836944 877292121 321610736 647870930 224080108 498758066 506219815 36391352 743093625 827442533 417370353 502045635 414363368 765444959 21620490 191836853 948588855 459269794 461615444 363690935 844567246 546087599 658108042 187270778 979713514 48968338 535224924 136675821 123851634 295891887 870666086 193470968 27522325 689588684 211866575 548864150 747398879 204972568 89889703 988141160 889934103 28980589 184823133 498377627 406564198 729625123 113246604 961460683 309857891 775611894 555296718 138733092 327249626 924129525 101409638 768761243 833897338 937267445 466497825 407994925 359151692 669237247 313517482 176525849 874426084 609196432 289621336 935896823 59146395 207989971 342110984 410802190 660114132 228085392 579960162 295776726 484862233 535085093 846024976 68936185 361457631 999245995 222762263 335235300 866885428 13887326 723936902 4591065 251233135 316353904 833770888 279434355 370934519 351560720 199606395 715065699 36767405 260008813 181667694 972722136 503659269 449702933 999722475 517861625 547847800 626708548 957211463 163498060 1384881 321772788 987919703 389581674 202120007 489526596 494405744 739069473 624166954 849898550 748651201 489494402 10335517 744047954 161807125 670172583 640032376 305775773 198439067 406354301 769443397 739508905 869772914 688944562 85117589 396683553 580395657 53278831 137237132 759956322 186360165 619448715 637154134 256408024 408102680 786963331 462700778 227666768 901146700 63814708 519252281 51844505 452990964 629402795 97387215 343184508 175498721 16559706 912151996 50411897 35992114 187638263 708049795 634531976 584253266 503542572 510397761 270351716 923286779 185946759 347446673 155688727 797917116 133757554 210459758 163585802 96629755 817307078 701091453 802409238 437978402 957095425 866773833 82812712 915717612 521707449 495428325 646252704 963181617 842875993 338069407 170559766 378373860 324085786 845251999 708795714 742210191 701606694 658545256 723433099 965415884 23246830 185877271 32533338 178520644 832968199 535379041 28853897 891879354 374008422 701306680 300526024 996372174 623736217 4302773 118742629 931108453 844476494 438028212 268248388 318336608 464825956 904548254 49378865 880852927 988839475 791045172 626661679 611225420 825651721 805832628 329713883 945407999 290641390 183330101 831434248 725697790 38544416 141510624 744070987 414581110 838935779 495563008 850599031 356944714 822118360 204561644 529082592 88421257 214862826 226306584 896324809 941773687 168195249 427803120 211418328 979871515 70912494 14302056 789085257 292659692 274604335 867924013 418348248 842027098 770136470 502777345 287761676 131948305 42135158 690094644 389711534 870980712 642885409 494484015 121133515 137534535 947379402 834450019 949790006 158075407 652201925 427349782 826513047 305906677 746690996 552213574 174135169 704878983 622826014 198858440 650609033 767686643 415633421 245280481 972936217 102312177 804865562 144215018 598132323 498539704 68936835 328839802 657923963 400974101 654233864 779044101 290472142 448169665 580348468 511392118 570924767 234993115 889641102 364002369 286194688 713292735 900988498 427023796 87932110 565631781 707058804 935695892 257087066 641666371 762875835 799143007 120967491 199865059 209821291 381650078 904559466 833266551 204376732 672859483 709812152 750638067 50082163 519003473 708550900 707014533 817167961 103794123 703688868 892879376 146613569 607666277 326553984 547104594 383895734 201461994 764450303 887589063 658407991 457802782 611647024 231712669 937448980 6615961 457656288 818014734 806228947 837143032 687406517 147452006 95968968 283091621 165459939 798283829 363876110 804895489 808930304 561142676 472331136 804780182 75842915 315219261 516068918 125258830 42926586 346023297 839032694 11919643 262586416 956281732 758464943 958484256 784454985 236382333 594122994 332044930 694221052 639479607 754589964 798802911 77888706 224451251 397022501 513127840 347188626 770167995 176176459 240101525 890724286 464242760 323769160 216725031 195625790 623333747 178382244 40517722 140949423 482947086 541191932 69283882 342177728 518823908 34351086 456550048 792705371 652370335 5939535 569056049 614536012 633756309 194694905 968895797 706436992 896253601 375910219 57456313 235833477 6976706 617134359 135200562 807501622 100725110 520655706 557033252 850672607 849115246 851253806 636578253 682366028 508409785 795772875 382326072 535669066 561993769 279047943 249226655 585097520 823510195 135104286 820365802 339750623 937753320 170304197 805008856 903543533 149491671 790322772 515527833 71368011 213476221 669002844 821937002 943107930 120525848 222661125 512439448 142802770 858894426 785331664 194827878 688742318 72122503 985116057 674204566 746843848 174890009 997768430 612673634 67895964 48730852 205225860 886738877 296228404 77589382 778188234 112278682 341681800 927873386 823980407 274422752 714712901 388301662 529150726 377364529 756996187 802560523 261724587 595525558 801031249 73521968 474709242 249423002 389390385 619544409 78296946 746392149 160876793 832319871 756378933 782483789 50411425 51623199 351325849 472320099 352251202 736964033 750165730 155815337 664565280 463853729 844249042 673304618 274387608 791498638 736546598 87285131 441545996 49730027 415529424 166506094 146312838 548491416 417554425 528433529 983711186 573463668 466767051 444222052 511202936 338912608 477025316 586368359 602985050 29587625 500644387 487275400 499304705 873971685 274641609 465908286 15159406 947263177 853533659 691865627 404665982 76586203 260257124 278029601 104515264 80635738 802365930 61780623 871818129 655128483 803435754 66519078 803502596 227527432 236529254 810766354 36190858 638117009 905372119 845414182 490659589 753120580 680150948 385824729 157034379 934321383 832503266 174575760 380600163 201741722 437912515 354891762 298983085 933589539 660101684 91982247 844234871 454963569 971645675 49647270 975318309 851639736 159761228 854968486 4413811 92199701 503349804 251240369 739301359 49171320 991404624 831036061 62790573 474809842 408137013 772302428 470125622 684095407 407613319 405456774 262958160 174134961 516864298 696769628 874445093 708550841 8632388 207707791 316949783 965122550 592852642 480912983 693281455 784180079 269964875 889403951 320940621 91451137 571979070 87051063 335019167 862640833 733224019 766283827 971155009 28493100 686989491 29266368 893619342 55984325 479633917 5053271 726146682 845854063 100102385 470870869 594313712 345723707 608720890 768897731 723632424 240367521 247069655 130162349 440820407 605140341 746366543 146902244 504259321 848988922 846147511 478497722 482151197 219495345 241003815 155260016 900663899 274148276 987152495 979686495 249510492 524653458 424841717 502070525 619975318 414982774 224708551 878402351 523551363 273305225 382138747 790471284 857452394 860452179 174874973 909592813 854445324 277482398 665482482 439196457 802231768 990593088 203477401 555767036 135327827 250467913 339744805 407388463 762194624 207458693 919590106 553864670 485846318 689046331 602926618 496514547 605881117 474027890 208025065 296654512 310002540 733553236 584842217 289118619 593608235 623022463 179728651 355304524 492658058 855789365 698341950 913912471 159272459 68836006 360895236 974063896 137700842 60294033 116855224 575877215 594214601 619602017 562491726 327135086 533788685 21136 390763280 862687948 33345011 244748482 463807923 927685122 472326491 765651307 459056591 648910324 929819762 229024608 498280716 764782608 866582408 9983130 975631836 424935243 432648210 990624390 598113659 699781348 440420061 875837149 575826778 119582491 966609721 529885754 87629379 554452183 714526700 294224455 152596772 999428371 580525208 781152324 562380173 784019864 858079366 650056350 777737677 555413223 991519686 819292070 596817001 574769945 11461084 984691927 914956010 824099902 847263777 93678989 711288403 180541975 714653082 709432296 467115328 200620914 698282011 133030611 968909877 792695682 174099103 619311759 542047973 582908654 834099360 750917976 283614940 114611908 360813861 690746267 612225737 815271619 500142575 503292305 232178424 831813774 734070689 936622221 214725151 970537643 213926874 420342118 821920390 684089164 429350679 283508865 282441530 600140524 544745959 4155951 387633965 726166834 996714396 456298113 686434594 580224866 200892484 680732111 656763454 787357169 476908528 571937058 819786212 107455027 598854188 155219197 483776430 18393897 896809062 658640081 40014307 212140423 788426311 453458900 77598727 42165901 362205673 944293797 55953855 45364604 44604629 351041523 525277736 680904475 624768307 648442567 303691247 142922111 953978581 80312594 800059977 890837555 468075371 16595032 225989670 117548581 514435342 330422028 797348015 798243328 950337825 410757299 969032130 213773805 142969251 130748438 518874853 667418372 888473169 683883894 86458587 606914690 9627685 8297387 145193724 878878961 244424313 977249806 314324803 348044629 939037827 982222190 214934809 943789604 652603039 529539391 528852076 736695896 813015951 901885311 775473220 173316751 147327388 9948746 178147353 415679244 124931589 287353531 262276360 737477098 703291999 168445818 260770476 639859125 492813091 404317690 774855512 620839994 896783038 688122836 427427488 489963673 641006098 484463847 323041298 280585062 333330121 298155 878927070 757411973 230315482 249394799 230762800 909209107 755316385 6937804 224435258 710773001 340962935 112441794 169627062 35346694 881156047 400734265 990830241 841405246 626581155 866609997 72058505 457823639 204863980 705083397 821398759 772262428 513033098 705831176 979071710 128339325 478645195 821061746 694724245 481004422 209337740 635576834 356969722 87907926 430583674 892209090 53332347 100724926 923585187 956221679 995389147 7074793 865725545 285336742 761016638 733414879 327655099 882394090 257404268 691136686 63783385 539209527 318714659 616424927 78969062 257780582 592356411 23856735 786267100 568488831 632383574 121438506 362836993 85036813 553446543 754944420 702447763 34224899 43789246 49105511 254565272 855383459 473063378 508458690 254103648 530419151 696069512 480888577 619497641 911359400 65649113 822156281 767453879 906445635 921650434 876995040 460849625 615091988 498280215 857964235 563828221 793945369 682743940 470688469 606694876 251696495 352312952 401436810 397704269 231377090 873391443 740789019 716857585 868790084 800598311 428465400 562173841 179818442 427648897 613023571 354456569 137859469 671860133 351415274 364851169 716348307 931937774 104755504 356009734 706938529 94827562 725113479 99946581 25013655 749355997 545004174 924095172 966310756 566770271 53247221 193344954 342268594 873370827 640726337 482669513 824767349 290489035 958718830 711894452 706227395 126439952 981053262 708948148 71384151 285646304 936634757 927369519 277215943 264227593 902868217 817529223 617430466 631979287 868807825 654763211 423381309 125982186 764877753 128476951 130290693 46340246 297815590 315329658 734422015 201556465 876241609 967524057 269082096 896808572 967940239 189949568 77974181 173865300 795315240 209201546 689713930 762257519 576991321 634103059 922798828 967245366 8484262 14867236 500856431 903941914 821833985 546967362 132126268 256695405 13375072 281540063 954625076 315994655 474027911 500241883 714023656 354206615 777367601 620597712 896631531 977186297 818855613 952583466 280208083 815466699 737356153 434323488 915338952 236144218 37330966 496024699 197326503 11365332 12832599 481634880 431118823 113515430 890206307 523018948 986768876 736571096 775604567 255503345 655344648 584605143 775755359 981930412 319045571 559250579 740383779 969486792 511825962 314302608 999889150 856547476 692014489 255454092 357073098 714148728 122914439 280328802 529137651 334381916 803826575 534259694 868940170 537770022 665746912 820988743 66769400 898913017 241861097 551609528 712033789 42122683 87433308 187946867 976490048 533895799 774719682 988989291 312861966 572601151 843910511 754253245 403066923 35447989 265172085 319049573 486202487 983395945 177845630 331500734 356052693 102700107 85463427 929858765 133743426 70910465 350613594 63974368 258505867 247775306 827224231 333874107 619472123 774703172 978791950 860443797 222650341 458514165 964953834 804014409 581867455 440939550 723670856 609685809 850878667 528506307 368880613 284652141 440727049 286287961 732055010 677839502 533684162 171521030 288170715 63946702 679157999 177723603 171754774 882611476 686758697 388869527 459233204 985103342 295359431 147843398 437308158 945748644 532681971 129864106 481326403 411541422 730381765 656189966 182723976 953426622 590663441 543330926 492700077 649734720 469242196 782276895 894479665 407229931 506945396 271146620 880149499 316409616 915261067 723974850 969890698 563466830 639461057 435435638 876199385 457234841 852373745 543913233 760976241 801576285 924218821 213254926 870931382 355034548 584996997 56392514 915511285 553007080 63565126 547874408 328328673 110002406 465789471 618584619 800132365 409798765 379139254 357287361 828125482 793513573 969045319 281423765 192285489 709434449 381393558 457306055 31639879 102915538 220615559 380836923 971809834 382487172 528167601 526125796 470172872 340610539 212507994 838909376 847168750 556103372 199022714 483385942 736267104 58528123 141999798 36595980 336643178 106790539 393469650 581282794 173729611 959580279 668086972 144579041 596928013 396109397 387456693 294686657 882270711 293057693 625040686 299337416 204771930 129338009 508050441 986078018 852711220 177674909 553476384 977159948 474172826 975842008 487738021 228811929 239953796 39125647 281346983 348977410 600112843 805045808 147974644 899435448 913082201 820229897 878290204 365996199 425255511 664975572 414683905 682290768 467384621 326710687 198520451 96965810 320623838 357563106 72283242 832195096 807465457 734237595 409824696 224327972 473281605 202660049 54632996 782092262 327807376 947706353 700387256 911698641 72910092 80239523 895664015 587375698 717221013 131242509 813485718 238308744 102269659 600765073 342021224 746698153 202916424 952471323 257536437 697176590 333990060 711880863 295620534 643693218 211284282 140379529 658495152 882689694 791740746 49532446 704761197 614597747 243726779 510949551 366587742 149734087 797125924 149281870 849451571 648123994 994768291 641659202 326584275 841456437 206814102 857161491 121831955 673284532 659233059 544906479 423328236 865608908 51592155 850592256 151132328 552999847 625655953 611512358 583699096 927908833 850671427 926115937 975543689 718031818 976007454 383379912 548950233 233791781 437081832 310007095 930743065 492383015 520683173 403726425 41826763 440654938 152020762 169494538 332235498 591623286 199253070 55797773 113367569 181357510 777419744 966647224 230072179 869461006 383437172 340091586 126763189 74078566 795054739 521264165 200555432 442882576 947612486 779855633 660368445 872298352 313917585 155736871 102704702 52356396 406695956 278531122 597584408 575816755 380959737 671417331 81917964 583731349 723634380 20811157 112112859 629162510 283390561 339475595 544954746 546945586 923313122 614274365 587017556 943388833 193767053 630865917 367773691 567602237 276323920 400084813 548040862 296980292 382263273 49038215 76272704 718638750 202176275 274277862 295035611 115445118 113728816 62607900 945010640 6544864 331950734 828339873 951078901 685741314 627342847 83983579 312972934 998989129 786320451 628016704 678270998 701706782 975015427 74440880 812061077 664684271 56474161 927172320 993000016 233595227 70639825 939814683 165987045 366136570 416643386 787986231 484458840 296152432 915578972 807200428 20137694 398637019 933905422 241559739 326836648 461505752 299639763 45592718 771911602 202935394 960360953 597021388 401666263 623854373 688536508 324907342 805913439 675193566 14875446 641561966 729844960 655881459 397979381 518702840 918765671 334185965 712488666 874804422 135472222 877527976 989556265 537383876 355603900 36436415 903808869 837273590 136641894 154931787 114558922 578707713 384183503 480003290 165853822 974343579 883439611 137618619 812590377 832537560 674473037 464017669 15537365 171792501 328560034 478330003 686456982 677705435 182658216 457388461 288426131 747516089 631802480 903133749 809681048 233140677 494645624 639597818 546983460 904298050 85439332 176049688 147673766 682492172 548151411 106038705 965557001 233892143 66195075 6560293 247346091 641145330 291984489 735697842 905901941 674403349 321191397 170826015 745598204 891053014 447002667 469755017 291158234 996743168 178374193 672793090 1035854 236725717 831842569 510309228 784259740 562885700 577659906 741780174 834576623 398691317 724205603 544831283 218386769 646791493 6213830 426449365 176523150 817674010 147475894 270833238 512498075 696693917 540988903 159098735 463660681 234920006 705561583 566861251 510105803 129046068 10078273 515318364 388991112 415048735 146243486 739061927 22535266 883967850 174621812 28237184 709143085 21289403 142816141 305755492 559501826 589200029 248430343 925454707 667114772 995432110 803709354 486390291 457403476 926170201 164194678 587590649 552201459 402279651 156635268 671342012 399974117 366786043 296310902 450899345 533445555 701333261 962455825 658217728 913456474 858769667 764661273 795328414 195150673 178471838 788018921 819304668 90893628 973783903 291717050 169072685 262837542 108712198 164610640 39552391 907867156 79097761 217766450 457376669 778219484 725844451 540853967 364449720 531053962 801653823 42610990 848788141 30373705 28536140 564967647 903133153 455285528 89545208 813687493 862485201 27227145 20559853 443335111 188783617 474793098 748672457 9568801 334647355 222165299 169086708 326543587 923112223 345777855 145406768 905266489 616549261 337919305 352344444 139899867 857067549 975287325 965909103 712492328 253605091 159633148 678958066 912736322 920187073 689295231 57546542 669563000 928953680 354250057 534521858 138351021 240116416 693233050 174641457 34109115 293891185 200433684 394213541 572720549 823583872 766915442 142413502 384992805 494078051 124735750 873150407 779370010 282885991 886889685 398967019 287929334 995653611 734628023 993118244 572732694 874237841 101421251 666540995 924228955 521559097 303540356 988808126 705234476 249861364 893141724 566139664 239370722 237179172 164823050 359691405 832314276 619555066 677430129 623289832 625924568 61874374 753096974 873417654 678480558 996625933 585159476 875018255 718916784 947924399 451696320 905846242 881148495 674500884 126356853 529825136 217798614 296803178 383742671 565291755 708646531 401236419 153527922 279883832 588368602 445600775 197466241 785638718 787813618 514289268 66445267 186454850 876168510 972088351 9925709 663174686 188284633 428633522 912921288 744397484 377962452 512110283 114427779 725313312 916559711 461160461 784822893 131459724 165586853 785164559 674839547 64777689 892790445 769104274 909596814 686293813 238709144 539512877 98840225 411268379 722251202 27128595 47724940 486028862 449632759 380181393 258400217 374921957 172174083 91764748 920644778 786267618 101716276 731291776 851776796 310594979 407342143 860131620 649096272 377291519 970784695 103685301 954467676 863679193 172211999 475039079 161181038 372086889 238553495 3748962 993529955 975546530 901123287 812502440 777544514 188542875 368260750 271851777 231605415 563468671 378776418 266849747 180114728 349252620 198594978 485056126 345160442 222533188 6649187 121097470 987528860 905761509 562495858 289478379 524434254 210462473 126275705 318519948 700078913 41847876 323996426 30393460 302346766 562627757 558045755 655886456 259030311 158056802 601995401 587364276 992307303 466220554 460833255 420574049 571561509 896326613 705166430 643340473 262482734 381616641 344291996 244061682 397213522 236686091 667753339 990943044 922284315 734659235 439593874 714772835 590907061 621298293 978368395 591541692 556148661 832980227 924216635 853212673 419791211 594343916 88065384 161889533 884060769 324230458 359718580 584928220 729031122 824493944 421270814 197725390 921475962 340395887 136925618 200453610 225656227 757570853 387851322 533631370 597123544 357215349 505738971 218534648 27370199 348100521 519135779 366730127 577073515 37522218 298747319 97154098 131395370 672785406 787269877 142160642 597559094 237111466 443625692 371850647 15321777 909300545 147335210 850699776 631613069 587404891 474323501 259997974 144079045 398633193 313909020 461184407 745306495 842018785 654154544 71311311 287030236 25762299 770891151 392054841 78225748 275581806 790297414 424562142 240847425 666787260 422764711 270461444 642485440 152615326 383872846 800167104 841844080 529037577 146429520 326467293 471406830 102384974 620503151 48522043 939247668 601867319 612212797 913700485 539757855 568151949 787967155 527378540 265476272 736110348 405859599 199667060 394430537 137604581 768318262 881885501 473876062 933417526 627965387 425792510 477037404 84698024 627217350 504224490 604155471 963351650 994348924 299982307 20087540 437743410 693247149 400320458 320040206 977997674 900861607 230767253 867084127 774741773 589245089 599444988 560810344 570229024 425413734 215458558 222386453 968649176 680738110 629500890 15354867 250003808 20978297 539626510 266045837 15762097 876837105 630260498 78804546 644730244 398960367 739107139 306255406 106066344 505170257 717187346 161253292 947588816 732277413 688208949 524864925 715302081 221191237 272348181 61866926 749008404 63588341 920817965 821893089 931219530 918828336 962673374 927327786 896292988 212828797 407241031 353608004 252034158 685152568 708525554 463859876 223885763 813237296 539737267 265884613 950260234 459055605 708042371 581000672 48142957 376893644 933017572 569356026 224053815 567135230 8311005 347189308 257148068 475923237 823891197 403838788 573506725 553347843 322101247 55774337 476897501 844512748 894401645 130316177 175858243 85149102 590797667 526932424 879777627 611281856 722116073 378962545 675963719 38548231 520951263 344514431 469499194 657685924 307036653 166007145 113887661 878576121 601455385 309258384 760431564 925698039 277193970 154301844 236740037 946910637 492136013 718215439 582045560 385730662 329683931 480583444 678576203 772327938 379554503 514443152 874695548 244545464 303308895 286879308 352545910 951215040 776185101 243630785 41672670 526330564 358556944 146312780 537232746 55429133 22719944 43896530 967298255 229027132 566864410 349145560 52008769 78412138 907808292 745200265 453839259 154205624 599238465 282800006 184100581 363491713 49247192 722113406 331180709 441396496 382484603 112851253 700522510 958664754 931546036 991618075 633161749 228612283 687472904 342770965 207468199 155874623 564349824 541919250 9465710 568357437 371186966 752922962 158729744 742279065 881348662 625548587 885206945 62198666 5096437 949301795 780686748 590807112 422447395 327292203 299315613 88853206 863758943 33873522 495847194 448634340 592249736 414826666 982229213 421651619 423753148 529094514 538963079 569903305 19961298 577128208 135142995 808553420 732347617 515644400 96189650 112104447 506133392 29685099 782949061 33561343 473934064 536816012 844299632 310869467 410962597 151536309 323070080 910327070 87210300 794650900 213793912 182529128 452275990 548690523 645687828 400579391 263035185 382730731 171144508 600900467 3454286 694824305 426922261 841963899 61040463 480383928 732924883 872907562 331690681 186214782 385402329 1866128 635073071 662471769 796588163 975352591 711085010 400963282 526085306 514258829 947562737 146483801 63048767 346984962 592687076 419915927 595050637 609841199 760771159 637415332 587466484 140977126 342871719 73342576 873949498 197597982 206352044 608758209 379581886 77671952 53429623 490488760 507771422 769000327 754808223 200731932 805788879 298058617 83504902 932405594 145293100 100251846 888773786 598894613 507459620 439358234 404152155 15131995 357552999 756963854 714383455 705652315 106837265 909473799 551446330 110749985 100509276 926754475 307739662 851537459 829483209 927820794 638424892 929352360 5733297 468018470 46481735 584813515 120844961 874000471 337972208 575634793 290998696 516522355 919001680 430741905 940145394 529073592 142132059 274838107 840221329 757949454 539793582 524627104 378030098 218348012 56396270 918663059 934049240 878068810 495708485 645188815 672186694 472318690 582386405 772185583 411463221 987002663 741107019 223574888 611279478 968506490 429703083 971022333 133221966 443910645 968985598 626368185 37506011 559878915 952171340 312282784 490118494 630979055 753936750 899043711 936881474 865463814 897096301 387401215 940270796 214520893 250497215 561048916 633740725 633092401 800556086 571524064 788330407 348504585 872313724 338915382 165502899 111178823 393558067 71093264 610557929 130292957 931136153 515099737 601919860 968173618 481508775 846007329 746105849 952841380 745059102 448776159 555113315 81564709 446267055 955571771 206470635 134328970 851417066 268237317 462656122 39612213 333530170 746473422 614178610 836856214 749739824 44247388 488629387 504152390 315548583 216025038 772350568 253117029 645162890 272117150 25592482 527323187 212751588 144233552 564123666 105498429 367650724 384569128 860084505 675348106 592488653 938333726 340680984 53728158 556699345 985631020 615447693 759090870 92843133 56360459 790169031 484921553 806790280 694616145 426865079 904163371 404415953 598356725 682378607 319266457 974703473 194114700 765774495 698111269 500413884 345882336 622250694 931597443 959741677 973447510 354129376 371834849 479656801 559360540 715594808 310149018 159263768 62730277 458832708 272747564 342499912 952541540 708610069 792117009 931703783 190852818 726084169 931738431 915490466 221654093 38130883 638417737 225669616 888415177 139750672 454537967 618205864 794524503 526274239 356298081 425397463 27271785 795136845 593620170 368080134 327462055 818544063 37707256 71178115 481779090 837862512 230852903 205684340 6721070 323100272 471507434 113262189 270443454 303980789 245624770 736406388 84918811 630775455 724637521 817809477 377460597 578530323 828106067 97981002 473134217 536608091 677668537 739069217 787970428 576070335 134072436 563454593 238046899 906932744 168297741 832992763 911787235 305643700 360199029 211145047 739211574 947081979 305765654 535755255 113832282 456152411 875029582 255249434 854654301 908253884 519222431 37171545 570989661 336645348 176495806 728107777 579176155 403865655 411389471 587949925 143686702 711871806 681725265 780802750 295300997 647027113 9166140 769969967 363927083 904048341 548246344 37929198 115945822 221128939 688509646 793696409 993975273 661286571 608503853 380940996 469050311 646425048 446662741 688714748 165425811 730963865 802587045 698194723 793538347 439860317 618359524 208013643 955012447 867936559 807296568 326078575 407394249 86630702 443959413 642998248 50322303 285042775 595950143 113061838 410743267 909510340 765989659 240462553 807125542 558041033 832100676 451046252 578302193 455032980 525722321 13564570 370837073 344323347 697179333 410046519 377955084 4683911 748892628 714634754 389282304 681904625 468020251 273248792 141954564 123431445 457237313 175469891 856617944 671588715 268633426 976121690 210294275 907007101 749160975 518521288 439130050 81294715 591798491 373019696 123779923 917065681 866387615 310329428 243844762 548268041 497859073 188725175 62806342 430745391 934320578 36336384 884908418 150145463 755413936 148944920 80698650 778370065 305760796 968360482 976082487 925015787 912640746 89324089 284375805 34073148 896456280 875783011 946229279 829427943 339229491 114432966 985015437 312399429 455996300 24066996 604829743 758918303 673360971 883653251 103128326 196906192 408439278 435660925 566678850 146174635 660618623 266405541 52402600 482476892 766957358 556129176 859984723 671607123 483943725 696440351 743248897 224133805 859362814 140258883 690445077 264891284 987360132 861776319 750205363 335253993 308355249 422627735 236959052 690254933 637198147 513947449 484376728 363086425 485258548 128825678 241659298 623503050 375192293 671599392 975017080 596810373 239677434 343650519 559274203 840644448 847322047 472632474 362790466 455886692 226813149 914557059 863115917 386676658 463530293 203096225 646516862 56491143 634663647 902086367 392919861 985638529 483104702 680856639 775094631 605533832 306649024 881127548 423460767 779132749 469843572 42550213 519199664 670014017 966262388 902325981 889015896 61984054 642513878 754378378 611807290 171997269 620904494 362391769 532266114 378578718 26292977 323199183 490049481 995842806 145570466 547307973 896678781 696570161 56452267 748170086 788384740 859206241 687886656 745210930 978543478 616661951 414076149 564147210 447264642 597170767 453031271 491949259 77513579 881154643 339746447 550493641 159433339 160712675 643817579 938053241 561960067 368319878 77074056 155221816 298579323 299357581 822314630 2526246 931240404 744633317 12954087 557818134 324309659 80882148 110415693 496701568 215084323 488283957 827515941 485165209 797354346 263623290 614137066 339047801 582589467 715629716 893058300 136767909 675399939 203723227 948099340 492835499 185372299 622647718 720934391 316439965 902686279 534268524 11265847 187054709 280893887 882521929 321980413 919412633 230274805 137270745 77620204 535619731 121590212 308434721 528938643 614467956 350464167 637926601 102685937 479895399 824815086 917140948 719444743 783597542 893249432 613228022 89828852 474196750 950123534 290902568 190839462 703760057 464856865 545912779 210434397 177123639 703437504 959233952 912507336 287577659 437825477 180062439 699722513 888981272 614563742 407081479 25475710 809690482 829017014 8035696 298097290 589948913 667840073 786298337 414797096 551044619 137393831 363825480 917363018 632087842 632024047 579292359 678599942 22215647 850136665 441259238 388361801 179738080 628867798 592108853 968563517 174893905 783888159 964491288 92667237 312795914 991973874 881148613 336076339 810095898 101546448 383290983 199586006 187639076 591823518 256818322 58211824 236321592 96575029 220530223 729399052 485370351 987998266 18476408 724009425 914894103 229597975 888485396 854155447 758632027 589268036 54868565 151033246 430448178 655119094 18840667 173551330 22530957 432606326 745805169 159018593 455379739 231825713 701989241 642884935 174166115 131115654 466289652 492781555 752551578 609512066 327574669 71045814 662628706 987068239 419602621 924640991 47294962 960088269 325236648 647681507 300633859 88705130 377268127 557474508 164376834 191545044 231093701 696604765 220946723 837753578 306006937 671328400 227956080 418862280 563474215 351654207 404533139 633337375 461030324 652905293 56555822 144869269 735367974 912280240 180008749 692446181 833773148 384460929 880638495 954932188 902381748 604884006 736735580 937194801 766954589 6484502 393063108 607259229 120531478 144781215 751000359 865617755 142875278 93699389 191213663 151549575 221691321 476022479 326597208 51480410 218879518 466463487 452432943 931003485 386651361 311472244 371988909 648459178 360218572 963967478 530208850 631623095 363478196 379727913 107351335 981803888 117059237 654244324 105541554 943296482 895266318 249943185 689011920 615603986 410387705 75696074 669731839 754583153 629924769 167721871 958864849 54769008 177231758 475821462 928632517 19851260 297855305 757794783 91516474 257140171 630152754 866224623 396425577 830308994 550506468 462586929 846422914 892585663 746987039 773579682 227351888 685288649 496051412 742171882 474906780 613584590 946912795 661637020 881256609 315486045 730305949 201703107 486831751 130974299 22578948 549112056 226638952 703232587 563903598 614104973 794155321 987041224 196063284 142224687 519852781 624701758 233332882 704154463 723278111 504523143 18443556 491667029 886285753 810544918 609977055 274887083 989819554 936249167 165711870 33227890 972807583 407740666 331136533 864836896 6235022 208445771 963117901 211335378 194975627 289146807 677978147 727750376 960022658 852550940 690614458 80436988 432395756 562968849 655393260 323009941 218771333 369936684 508894081 601173436 48895644 688296378 889155831 13356627 399773438 140921712 912178194 771227261 325140210 517897484 49986045 859124367 175649308 936176548 757564907 650152433 233863903 642720703 918354039 8537275 250020996 697947189 89934913 840730852 248084871 423336241 264552220 617274292 114003522 854510651 784694234 633647255 439421607 43489971 643800816 828780283 517593111 172146336 317814285 117298166 857668738 697413578 33435301 802751984 270327924 64158496 757074870 844762167 233199857 624931399 266764369 894889846 433202616 392561654 63432438 714452208 161038972 46662025 966401166 435966930 162672436 811761530 978875621 418899164 834947023 772987869 650179437 349484182 385862806 376247955 884558838 515701693 46993329 215925638 61099760 123003515 163349980 453554300 509821135 667642668 647682945 934741296 521236477 274669740 508301118 819031846 979791860 397582225 545429105 239140186 443880619 719606664 921209604 222367790 435986740 696779185 395494292 256035530 429548388 654745254 633287113 57401031 715646830 522561471 483636209 762588206 693887045 242871970 755438291 187746558 283054700 964214771 449380328 343854125 27620119 321983001 892234614 492255069 786895757 42526287 591849365 113412769 692005621 346624978 146257445 394109589 731273912 522272167 501483566 882790105 403131192 832001240 251162427 578061576 896589549 105828910 337335656 345825126 107685650 843271358 57801051 61435980 875852686 647465264 509624151 85318816 729465678 46943804 93747892 383139756 272203416 245096462 961938688 244149332 381396608 946027091 164367267 162590183 172545808 485262874 210762872 545384851 457959159 355097541 807215927 548437919 16764535 745760023 47109753 9087693 376759311 833757135 111514213 900406954 432784917 707885259 960543356 925150013 845023577 456344850 551767384 96028441 201246043 481723386 295560854 806417816 120723543 614094361 849698687 10036578 675134968 870540612 635751795 737216640 675428397 205541663 873950607 583975583 563779390 819070922 156525846 462662822 550204473 925235660 658116834 719925243 262095820 614518728 316429016 953553116 548947424 57608293 933703737 200214079 936197638 315430639 299300746 559141526 536068261 905625576 349501548 550272181 759451130 271030262 869391898 891836113 889614336 541442141 939225110 678095179 596075658 351831860 680909059 173158163 634436109 405790371 539705287 620690647 845690464 890434144 886254091 637471672 22226507 852275472 535027650 734552077 139036975 775337324 444046694 644136411 903503975 359441977 766430749 433051195 380278442 642144154 963655323 284171794 719218647 386543102 602718999 160852622 966979925 199452915 61341389 390406721 416876731 334246930 102302935 413567083 823307875 906998040 887257214 863111405 53215462 195873021 44491855 103444252 377639755 639116077 473444604 519174837 379968527 700943396 893439664 925284531 979099763 859060740 92658697 38391129 117140125 768167436 185178114 671418336 90657394 406451257 106715686 557027758 384683630 422090784 205277621 783958189 357416079 395125770 465694096 713604354 33668072 293975026 361706356 63017404 53620339 790452397 545657673 874908963 46799458 118304889 382696961 221746677 791435697 845242923 621202439 218543481 517506796 335597151 479992425 902759726 564830581 560803632 211721218 484038727 444358048 512469184 547104440 792220008 772527718 455668547 770923791 397134085 753809858 176799995 23392021 217926556 409277608 892515983 287249729 434318074 943825353 993136024 223225260 257750254 609027233 53306548 362707144 370752470 370589205 79642937 261343542 98768088 635199462 221879549 435877328 463547328 136415896 76034746 863017446 433611263 892858500 774921725 329466016 448059849 940300875 295415978 87977673 208672259 678701134 458411812 111999733 645907981 468694730 182514627 678309340 493472227 79615347 435684571 315101626 768560963 482573040 780655041 138654987 481442240 956450784 724104054 884001603 434502630 336736301 906594183 384876056 685248426 177382959 364285627 865095120 293939896 584093239 739227300 234761426 125388410 145283443 534962702 95884034 356912594 87758081 574620964 743567236 265524356 174250230 798944140 217965415 689257853 709533761 215831341 267685490 759499368 456928357 627600011 904923605 566093520 646457100 264772881 273155915 819792071 140806960 127178860 359415606 121904257 807036240 208438322 272477359 146144822 926746607 743455303 204268677 222590353 763578331 82838668 897168228 480105669 603470420 30047514 148301211 284164821 509829026 181036772 741722922 76255253 303345697 743320197 380761861 14861944 295085969 704511813 679309820 162985425 982731105 691447516 475222801 742604704 845027335 41546010 157501498 645168326 775604729 67409710 936488706 528364648 214262653 739331916 332795444 809680850 624062268 680711250 587069960 420687039 903602488 492866306 812761849 361392279 359057027 269953822 863158655 597323690 382242797 96218195 705480290 220694572 389557586 625140005 289673144 74412418 402131915 99783571 137263934 911149969 684357317 952737702 936388361 164458925 99649741 70029636 866750397 994131814 224011379 77191758 785147742 444808463 362259089 725366193 903077291 851371206 198774651 513190675 991483906 715674224 769691437 4460665 808696035 923928099 672322726 205672591 639190372 217427939 675023994 984634936 414134096 16925123 673031574 159645546 569071565 943406030 519369333 652005029 94217519 947333693 905119585 293187203 454739977 711439493 6392372 534412674 20352097 416324789 435501307 12501377 85765099 914106691 520098771 246183936 724183963 853254871 173269637 957074893 839109038 672374678 197980937 431565202 597356734 563429849 110220348 904148553 765884452 552233635 907448937 68255314 191674884 631327541 103822262 971342973 120352370 313640738 762879809 477387702 415846222 298751695 516394307 380208309 235640777 139213578 258884294 281788829 683485920 761780781 89919468 237945867 817700835 109574807 282397726 958240438 899425897 560565881 687176374 334489776 136676067 783083311 550606891 164827018 875714052 963115550 8914435 252861747 78464911 324621959 285834018 104639114 206707072 856206510 608755444 134618227 385754962 476440799 335327431 913281749 694418839 157666963 310038837 140907876 694131554 16130687 374620293 759075181 792881229 750086385 730105391
