54401 887714918
396743603 445376650 26565558 275891035 344190897 171108715 113122772 894031877 262161415 242454753 99604264 603234469 611001269 386109876 367460269 347846053 22415040 174289969 147304085 413527830 634009691 988262616 31110693 714469133 103782717 901615033 810224871 955698242 240046139 612117500 977358004 966041745 33506307 801948575 388304930 76453200 269406503 180352555 254693272 736322223 906640629 324288171 405291646 700270705 992211524 86910009 914981842 888659669 303967474 53915134 158543783 229176938 466922242 820511362 239323043 985649407 90253881 732478814 152513240 937889932 970968531 697652413 358111735 757330561 743790766 412363143 672736186 29713004 501843012 474641701 230675757 56794065 824913281 446026104 151316726 714895298 657316790 603414640 168834789 25848018 68701242 108868560 725640680 104446417 885220923 742177942 547779013 699148409 196661917 679157431 147142166 543371833 327639999 434432285 63636259 116014786 2144343 567878490 593038464 678499026 772686145 40451448 253923016 197199474 932432762 853627368 184911433 758680027 623661077 758316852 465739097 893331766 517479478 622977126 325439896 109307569 324293862 210094761 157449851 912376639 106572935 543384356 374248353 3023191 663239464 245597767 877539314 432102419 326601994 172750111 448789105 147648468 478879428 119776625 239526953 118096947 552165350 515320234 979775291 771407999 727442903 239090877 375501263 405771742 530747828 461958043 950053391 496907125 65066441 334503448 255231917 992117925 960893346 905361054 572991148 341101913 791135070 811419355 169016619 82738170 85332335 926626841 793936303 241760624 829103917 631152648 471957007 760480361 6230728 666717172 853772708 266874231 457126191 175276127 429610408 480996761 91470171 954640913 97044334 994281143 334270750 775968089 527066317 727463855 503398420 275392753 282106045 370951346 760607396 33743777 633638213 408405265 375959575 986096298 54732400 348275457 723952466 585241488 897257667 716930196 185666216 616723556 944199966 976075951 718423546 207814977 958722855 762569975 409033501 190373859 379018696 878913290 81154520 475474132 736842416 751775203 271136815 895071438 178759955 637738388 283312883 743194868 101270800 678439910 841271260 695199704 351916197 720629875 839376342 81620497 783034260 655697897 275097422 485913285 835988470 796333466 370937778 866731508 376905262 128816139 317183288 913235457 732835572 334816401 579566737 169367047 790517872 51794330 937899112 204058184 960423957 522316095 164596081 194115326 679120854 210738733 902100034 371530269 266997839 932611336 119706436 74948878 221026267 200251935 249446723 930844684 266343898 652025182 842240763 587098160 624030025 265966598 376320616 941955144 795035274 395154025 186871020 13540097 319687447 210859333 49770944 469074674 330942253 374676115 320268457 535048632 686995331 795273177 407481617 171720171 99317844 424271351 417464723 267580860 160171803 731821491 77040353 52697258 441508362 464804321 39661217 523228514 504852279 467972072 995874268 362652422 668543657 756650742 160794907 727204260 800445552 921451779 65145783 419265955 643844432 703386019 459550564 363554239 371497723 67317043 110134600 248629801 650351988 439179390 437080075 289241125 219486546 724602779 616170167 528106216 492313182 723653653 523265451 984296566 127890351 274119495 53076412 996210439 60661569 697818774 19875094 658811108 736497023 843438195 633171478 257294869 857846135 417449674 793706783 611109974 509119785 578906831 565199669 934398372 983972912 146183896 252018631 439406338 337782892 214768281 871849962 808113292 743061434 653819114 683592511 410504252 63149514 217814124 233967469 427232432 86448968 488408709 811113271 716707178 144222816 632447725 519581271 924647869 708547329 237732500 721529777 566546244 655109759 88735221 950407645 438932687 29518856 313550460 933775207 852226009 237123156 88947143 674615002 993035248 611074593 273805755 581059284 30914534 622299454 294877694 798570664 738650797 84945319 904550974 849057899 40663954 941929157 592566421 885049231 431545966 989106142 365849878 432490307 477390228 624821818 418329335 274080107 595089565 176119237 330595266 882941585 388942546 845791902 61975042 42503657 434834855 595090284 683540875 346742897 538086857 679568668 730798576 621012330 979906490 696978970 843519896 815261008 693978429 207811745 393030293 949910804 528417862 657840222 921541242 323574802 926953741 985581438 829034595 102097050 991608318 464008250 270609904 19882769 782287888 631473497 155137158 385507586 195511629 767330242 254002957 357211600 954457813 869098883 308646844 703256837 643998869 677571013 866333089 798768243 274819545 896678816 905266487 488539443 80756216 447860060 239400190 903074948 402895296 43011639 127419437 856261206 190730288 605898617 965044332 203755742 995840943 810802021 126156970 154460924 588808722 390079962 630190428 481285400 136999129 803531525 905136068 381125005 256577621 620779839 278610886 863073175 110738366 46129896 798550278 223902637 350063461 614194909 944562527 203458814 532745031 389417856 613015041 334359192 915181368 654958244 150047180 918803911 492005068 217582234 427509990 552804645 613283023 306239288 436084048 667342970 558363285 269291579 148819323 858513011 888677096 92685945 716620077 649970872 888348048 680710561 569072914 54801191 276090351 704855142 741180341 64262210 419353700 92416342 95249903 512998204 165326349 491304725 18932944 392827916 353994257 198202808 177901456 686335760 942094350 648079749 707848084 849244048 299418161 24665624 785656304 89252896 130829502 95749708 810652299 627525698 530238401 883711531 525394406 283129780 422567953 611548215 499733334 770148131 11006861 953078118 447688992 428596736 156140035 199138860 522254131 288444995 569167468 937081785 712315842 528392692 431999463 556698004 741218606 656953494 681988162 392400688 799701981 771796985 817804372 692835173 73940437 791464122 249017436 394791044 229149039 752490790 205205541 394173553 460221121 193794556 131124732 851442404 578860520 152156363 227449572 990672804 363640729 67171047 213021481 811649465 641013491 922207782 439298259 953628580 505934700 657058432 796183020 277072731 559257298 731866574 643734505 218120759 218056699 179910739 361258545 391748162 768621756 231601540 408373265 599977219 485088014 227714759 642209689 657619626 301409114 141297254 467083560 350467473 800090839 358811955 673093701 390949708 616485727 493058423 894558200 482028916 652531283 280997529 728650714 97899797 993485416 487483177 333077146 330950901 869755926 776374755 61954084 521572680 436250912 593275164 661514147 608838768 228313263 892428720 694716129 138181648 207451331 356248242 90157133 72273624 231818847 163110913 193459011 117687659 838327827 357820292 760712393 864280205 973769338 804219285 925848746 492313932 617575016 7296128 367943311 469445200 105184744 925173004 589202800 552736224 553122822 508650424 44196619 430872020 565814417 969001612 240023102 111134422 244634982 182153203 191282771 446410405 958264545 471647606 983071226 466592324 781851639 47040917 39872422 153351013 387728001 231788580 7514169 797630648 958874840 191510151 16591321 268006533 34234446 971861847 45821078 887174583 816539672 920049802 533488571 857643872 944528446 8947304 221707192 754375012 603164570 314244644 680941235 868445907 23307333 892648452 20365553 797655851 753448167 551578799 671482118 670481467 715456966 555325191 472822567 898180248 251029779 699399816 46495562 704830662 337100927 641331480 559784614 379308070 249274029 742094177 672709328 874997773 729895581 205636020 546702961 975602396 28600012 713606525 114612465 424712336 486741686 136600248 922755543 36054374 367183252 593153218 348139791 491641294 547017769 842361958 194810983 639440281 646245256 476197029 278329406 197780941 650449601 591648929 449198278 203400200 803565578 684864066 956607140 967353663 448819600 941943247 698567668 397911799 589841555 232006369 10088394 650591404 950121444 45697371 147532875 821403910 716032433 230997833 979264974 267054383 791501174 176534491 727804000 714552086 823948436 968726212 33216391 603396389 120663654 803395208 282446420 389454046 329691005 580763379 897187068 890185615 269654906 871981863 803129247 928118114 765847618 205648222 350932529 943211150 503770566 73526819 685616797 503879466 303238279 149106630 571897963 882335889 58011556 977987274 428612340 967463028 570556351 903012377 391132312 558404215 112472627 41375378 549889805 557177856 725468064 87604647 686915041 998743900 284884826 442558313 746464160 614595117 212324688 433646278 398264988 248281436 730468641 359912940 18327213 98241479 169164991 582631351 766571500 429684790 559716303 548909075 220280301 575648538 992904517 13146229 825453348 407066087 120034483 370432359 774526561 76704476 986361308 958100204 959824761 972786099 118467426 378960019 47192661 662543714 657911215 852205334 94745995 213602781 603202717 103072019 52900062 391219013 602528591 884127757 367357845 204429362 898504115 340214531 541542779 186653958 90792098 947358376 995328138 779616097 137901598 515913069 607089760 874328684 109519966 776772811 503490796 251105991 659360706 643340863 587484142 630305880 550955692 974599199 392004073 733726532 933375325 225086310 234032945 287653911 341725301 785067935 816872781 960219388 539771635 803949010 279316373 688049987 899398949 20258333 373788103 484063452 332665107 739600382 126608135 918704836 800359087 825386779 509759256 413982968 687398732 703374870 174547445 965380703 1605501 95123786 888887591 671327921 202333352 151986944 103739800 605212889 891939317 372420562 498189671 149735463 902848987 81520802 985766452 38496307 708074190 443571304 959914755 853336629 845964946 423331761 40151313 922173516 798489882 727034145 150178776 48247127 957568107 627388240 17505769 616170928 506042171 148148384 380683042 120927018 513675634 809118562 583770547 34766554 964921186 635984077 452454869 46290114 889787963 89169274 803946920 46884537 710861718 167980293 667876999 848751020 603936328 62107913 967548168 525657997 349455748 173795621 214154468 398186491 555357606 932174428 822924404 53036133 263275962 848530942 520399918 993883851 229456575 305993521 261797968 264740214 811153590 403516361 617369098 673227797 761959960 906950698 675354599 78529857 929169023 369634506 820611546 769942687 13457865 970742634 15207133 5669258 408586309 339998127 747056797 333817064 303310475 302728286 544811097 984472156 334623360 401606249 801207559 530463013 769176553 523834355 829211040 26015816 637803401 486442619 136563420 232061565 769806664 229677030 304980802 405524500 687296493 19337845 740118899 149652990 9839386 689025274 436989758 218951485 40550264 819409611 411044078 196145737 958263048 663303988 576712527 813494132 541402127 780333971 886972044 607930079 746453629 582276812 891899437 723764135 497999000 434572043 833296787 97191336 262471349 301424966 68497924 238842906 694172752 577953975 144041675 314738674 372400837 362462779 982654718 846865311 676519199 643465935 67838502 159951803 372543525 187176267 602292243 604896188 527681111 128895745 674434876 950390163 525692912 478783670 556688465 586342068 569948338 711343818 956879518 510073536 292325602 561808975 726417877 997069968 491426748 308909720 891110628 728590862 166105540 1107120 519421405 403655972 183137238 967140167 797605034 695379691 465939550 668592902 883095789 634932197 694457651 711191129 643800728 442483864 705757396 617115802 502771972 168530973 935330816 437192245 828327580 556410240 512387505 242478899 532098633 366812204 597625824 916745116 303066727 197045771 4662595 515667407 888539257 544853306 450015742 61163859 821314070 663451569 802199297 233497749 118899140 597255431 92809775 618086291 961404978 491039068 127273366 895917524 297283295 614402962 144333412 225427081 181569923 346771504 405722228 382452182 32915160 976518087 279510095 639659625 316242844 441984186 731670023 35547374 801005551 57003251 463615321 644480749 710082097 134170547 985694968 601855867 229535171 632962018 507837288 544689846 749827766 664780969 608509424 630769638 737249767 518203215 380717483 478180796 300010324 771445652 885016528 280612912 828453301 693149700 444680144 241864130 756322998 529234293 727351111 401992607 362142082 254275012 403553698 3452750 133291760 146973563 442167509 867199674 818856252 501121251 763008181 970177398 755613409 438218276 44636406 896787936 49051571 704740794 93835675 714236463 865433588 846935998 347901651 982881788 789429924 784275334 489484228 257925566 171378488 526448852 328827436 235114649 976803394 881411536 294538623 15132663 129198820 59994417 156778376 478869266 898115838 441328712 234506005 95700679 660101399 355433493 140433631 825940775 255453651 257042881 975104141 500940541 547541873 438962818 589790222 797467819 810967113 245027711 372070780 78425881 655309408 587212476 748134623 994964494 49001814 260389053 474338933 228551353 246326409 822326170 38211426 195375325 647760360 436040710 781727383 743294086 906987121 990349620 523195707 90815231 807948901 859697676 832187267 86856475 678911280 716164667 749607225 741354186 511419924 198791549 315508186 995387337 748847405 535482536 872738162 587194174 826896778 722664249 830714093 25074216 692335791 513477346 159528343 512815082 768235259 448302997 452611876 237930205 260934942 899874012 627107423 465184432 82058020 921316604 778623307 198263299 340692107 294185045 782421694 687364120 449440120 900570059 540995775 224688651 496389646 205788295 927160637 852315545 839103409 986735254 112742750 594716323 957138768 211149132 362505339 833968977 971601983 654181959 579672113 897824949 186617156 786614251 56556128 968135174 768355154 74261246 784735211 346091161 171378659 255067844 618111589 149129364 350098496 504865035 753561975 350712419 909595730 63776388 264297841 946533611 13041352 361423112 753530196 698378770 559702294 697508685 15943690 54695816 25898951 371952253 48092371 455832994 469528186 230528382 867670070 392190266 491401799 394349232 576140644 876382822 123226438 643562597 264384612 17507210 934782283 631648986 84881119 216066642 416615969 56664454 990830276 623556439 156487621 622732457 543220037 246724533 167246369 124115074 420109444 262611562 85017954 750889978 480343015 558613979 609583540 787026739 613067886 76395749 878974233 178196646 766485120 967114985 724064133 725686726 258827456 184590786 754926134 138619988 798129366 354743367 294213864 4951357 926228450 347615578 153489161 442529351 691874458 591211687 325978034 473321738 573467494 151439928 926562282 792424936 333285749 389967860 124689235 706906318 507864777 403354468 337404404 59249330 888523851 990186024 352279641 985358714 588223246 168299164 525647312 42775561 605737087 829697901 15481996 678592950 60704588 93421831 887921772 807792070 233660142 764881984 800563671 373414676 667062270 804206338 672164104 319346282 446873062 602459266 770144876 498896449 30010787 875887182 314474886 995805037 67666645 581618753 941598294 150393169 24389154 497280620 884617214 547955997 414207733 796888743 54759298 145094683 473252425 193153328 111686565 671750001 598404408 344310247 663675884 613117188 31989311 253428060 937625209 159948029 641266422 720434716 995869570 985302937 213155578 390502064 586751942 175423463 265252054 826988281 444125745 663953877 354452407 293945938 706654299 273146959 631424402 709820994 618418214 616368794 242121685 982128004 610311511 579022687 570876262 137107438 900244972 890532160 719456778 746575715 393748950 740683247 548611662 667473229 651393156 764021650 637557850 977067336 457809656 149862255 201763794 168802335 61371396 456583434 484824789 948431406 168191741 666069119 473973874 428992465 794927658 781347661 260491082 240542005 764478417 306873451 690474930 5293255 140603807 866877323 423973235 909301073 599477216 37046580 562459717 555343312 692987895 481569245 625682838 62361091 792223136 847463559 949553480 837159596 319534759 693258040 588762585 400680126 954088461 53125096 607084167 462603342 554464002 557358156 908325059 225598945 433986607 45622006 453911825 530842427 49939884 459385113 772250601 149654993 150027127 814839037 776978945 570756953 492483188 481371436 2387836 56027395 484478685 447730215 117866104 742121229 72666891 255185842 865978204 175682044 621960995 688334818 44505499 974123642 125261201 69424255 248710947 6935619 860693391 367404302 586475503 414977256 253186338 33280013 357704127 548924383 163767912 662085978 269167214 476518763 260068756 179763547 854347020 971773554 380036613 894160586 131725596 157448056 998583348 964153441 433279546 164286170 463856299 878051490 942645500 887827245 395567998 626328521 521479006 851291962 34660287 360763319 741773188 34664463 438105138 551029683 892864152 908289367 624934193 340606811 227752574 914754144 942644007 98612694 381893909 777744294 519585355 289617804 411665849 962822746 498001360 79160794 443892022 575089027 639383742 343420455 366182329 116020337 140844769 685730674 848887915 113945773 654127186 418773252 480817906 209200581 862537235 209627372 258422485 409847510 715892049 924471032 496397103 219323049 862756874 473633184 830263974 2035101 120331516 613002438 579065251 994592335 742312154 44382579 174869116 273884373 428032127 258016151 358252627 168046257 614335869 766760537 982140881 219496434 161830899 210290192 414504743 844265741 702874265 446373624 53960641 921359521 130484042 168105568 879881080 873179818 266095588 189178292 752705114 875242048 130724058 727510415 313447979 143051735 910822258 999572529 683333073 128032128 403957468 720398848 73540712 316725562 569378853 243773970 127979966 133734744 632402721 287010457 554755404 349474525 473935702 231024075 974965930 350497032 947279745 503589975 509147375 349421452 219468238 278093724 474664534 12612881 121606357 253579431 288870283 747936821 173511970 947898840 641015484 793526105 829196212 566897369 396160559 775026058 600938128 121181250 505825514 797424116 349286192 833377872 29027019 533445416 260274441 969802907 393681972 511745811 274554839 703565062 908196375 584831839 790396269 702311151 955252478 451253892 529580123 100415136 502310149 677654802 265760244 290721525 63409005 896713730 438886867 7654590 541668662 592448859 969678338 770125797 732895793 823649693 474618256 108906978 958567571 854630538 323904578 863075510 434690626 575306566 368239695 10229503 909984826 49823921 681121392 688463194 627466854 215727633 259989891 110499610 524373462 106727954 780976401 428877898 756543484 666432324 356082220 112424358 906806909 925758007 848326320 587848321 379367691 814456039 189753754 16222577 295663343 193161776 439720941 549347114 688348397 698625906 195762796 134146032 369774112 830179704 609437379 766234786 187461494 972942826 311377209 107214939 954153677 468159858 318327587 65877378 396383474 808638326 806440095 370465432 179134692 509994893 519485677 25498344 723404195 829524979 344118547 420823655 271980083 730846559 887379385 395927343 575840121 723907624 471167365 194160408 707632909 267209869 22062246 526514706 54136661 98190572 549318650 807592581 799336843 944716782 579147576 58421533 237513160 643307285 325731021 633054447 139851492 108194441 186900255 152361205 982195220 412423359 58386851 349654297 172669098 826282100 557941877 662129960 28859080 887754397 995064898 28165761 631151796 666760078 171846149 800921743 683668165 431933689 482126840 214056096 114811570 86481025 530611621 461335123 298118746 784551996 999749332 619539093 804255102 432872209 387538304 410779421 768221228 474989331 897952857 355391552 615431440 783039497 287820325 394581017 937550839 702279736 718540409 657098376 74394845 834795045 533355427 242700832 374397970 490419466 294676223 485224634 311386526 623490876 560396885 908668796 523800606 698759471 741491099 720107204 380211392 798772949 52119961 380311983 286057960 327980766 575627498 293367711 48701012 799584889 228003070 212179243 958774372 920683864 286593599 965158527 691712164 522682802 711101518 958593297 282717300 215551022 12676438 355351356 60649255 532835027 2890523 916358257 632692753 939938966 414993820 747662981 851696823 316713699 150054940 205569532 486843953 76074407 234483818 392780490 995163534 310571298 644815942 654003569 824673670 965667163 597498781 67608262 299278344 506449937 336922421 718262858 273744109 90537777 59739902 541176516 800360880 183219244 784242971 413743154 853229711 984215321 334935988 740446767 961425741 394618253 785342072 505613957 74772681 746363908 479772222 641193660 293263530 629946534 527456098 202685526 167542245 541798389 272664334 877106024 227902005 241727974 422750453 981829719 773669269 803089929 203331312 550421742 691708833 54716366 273419855 3004869 14012819 232157171 346505640 957719720 540300545 855624248 450509057 55902823 108154635 319467368 782709737 58127631 179838134 618552785 413387274 722731550 749955327 145975496 128182762 51413568 405967512 202490421 805490456 202776985 306428728 325113436 536119555 132087570 87286231 180135397 463582326 891138015 878805705 855456946 982567385 513052062 243638631 349671228 943340723 543311187 769536850 711017408 859064703 61523604 623592280 517972474 488486290 938491862 116586619 492297517 102174889 842450922 994380263 562459694 922164490 425811343 635024414 925504416 648573847 814271153 772104120 649199785 329917958 53902025 55827051 813760159 583484433 914824695 3030389 739956408 707067475 970277507 253727622 429083150 895439405 47299278 157304956 787166675 553504552 782647978 440828257 491827735 1563182 40612571 416992255 30206733 155003560 40213573 861849637 978508588 127157810 322805238 956035657 184380068 947495691 684393567 84905901 921076242 165307377 269869850 113072585 457398810 479714851 850941753 955836751 507162735 8276254 768203519 702299280 302747508 702160737 32079609 883965250 313124629 132355285 858925918 456523488 321193312 905430662 510431457 584364279 351283153 478535198 749673307 975100218 844712440 849036053 417588739 795690162 87005539 62574178 708275556 983997648 646441064 185068980 488743453 114996467 540004235 268455689 995072754 638357177 459969659 755382024 940840135 133449559 857188432 60438074 401998607 608258143 351909147 572153410 620277141 969888794 119783614 968699855 814745389 253791123 125449674 480649976 281122786 467707203 267380113 701467805 780663388 162512121 531964249 787218588 756263726 941626848 437156274 604922821 282872636 995499929 629739207 42491944 324790808 212408191 908319780 434108671 389134137 595698695 373238765 166132584 244954348 774882998 60813475 128057076 988963116 615239103 532718403 792778187 331248748 182142143 62208990 93317675 236736282 947238328 956569649 743427662 676643513 695275551 928116913 818099619 589088289 49896591 443682069 71346468 401846989 108888094 181100890 564146688 631454871 802093832 253195078 73874699 874913768 937812642 58101397 938764703 834429020 933238912 953755546 962117313 953752818 527060293 725804723 14491792 974181588 84261922 549273236 988037320 107577818 200626090 95376565 179638318 980425213 505631509 926900618 97035735 544304644 780282158 206565580 314507237 107108992 832125671 6202127 36080805 72060047 860368362 395731570 525084038 459415582 84775706 621486599 926451920 619318968 499893277 836268419 718613043 468452294 237687868 285240928 672792644 203975063 733187532 676672879 181077006 309545442 740473185 480577365 29617050 164982257 687919269 411712306 304809833 813096872 62500063 290267914 992236190 534985085 775752862 348040516 70118428 846488224 649471100 40673140 685104163 81976719 373169116 286570625 185425397 885536582 557631215 92054992 166973239 244643171 888464780 148804544 863509653 299812433 832804618 565713514 755533841 417578224 999180769 336918851 516943196 334928118 570692391 536214209 763448085 892202810 238729334 700510981 798094130 945847324 394159849 110667861 901367704 75706622 333554201 78273279 86370337 52223754 529906773 16989138 209121662 431631318 572938512 911680389 368896945 583790935 388990341 901353508 112271858 33881733 777240139 894188222 141443864 358758147 515849910 580117253 285229784 157773422 926641389 436324756 85559548 800842553 40001915 929293409 569496717 746168724 813009452 700205088 357886982 876341459 172627096 917826196 819556917 454994825 928132711 777775844 150567752 47889658 542508354 683140870 767157695 843339275 354730612 189397371 110564049 180216379 476507595 988908096 151238022 910180471 262076059 495451403 789416073 431937079 940673733 36014288 565516231 354465887 362696894 144111129 139429550 226688588 851871025 316110651 49187144 674353669 723724914 637205177 341913527 751044547 329621114 880701312 8057126 941595883 124898079 733310170 432138865 738989852 659780537 733689383 956508639 433512659 44389759 704042106 954616675 42089283 112437188 892176337 669827841 855614947 281538417 675713040 385228290 646656461 525549337 272714862 263602849 327588367 742972088 342624924 863674703 139304091 465759626 371557267 321000559 254464221 79501663 828369190 683431709 459483370 819949093 736019587 639004693 834508661 20813446 733869211 192090806 391207488 23064607 273619837 352919173 827873624 320806161 85764256 251202013 892699328 713149851 21167065 488048096 724037418 789860190 162494020 254677476 129305159 835643399 66908169 542662165 266754380 251674138 740526156 366421335 84560229 104240148 760988152 151956239 927730616 998159968 335789695 321767848 624184753 885618292 530459434 906682749 310203763 43192391 821479859 762867434 879691532 483157304 392089382 502278851 460966328 186690296 686328101 458507049 357331123 74861612 196546121 162463952 477799246 914399141 733371571 413928075 901872425 887019471 324501049 587266526 223107394 685320061 102409947 819467829 229114614 160268036 196429669 679833942 634575036 32934274 304630104 717968491 437886767 861488104 916963831 617382364 920650998 444091273 134859989 840444150 515910289 354708555 79780123 337953757 296649292 404258045 156229856 204601179 85739219 320326227 508260501 196689115 947503601 657318729 217542716 797581119 503769855 387632478 231511936 909151469 963452916 569893042 460513913 429124760 577282909 736687625 142927239 662058850 701853260 732472199 92180201 70339575 677531966 684162146 770740516 508154134 356425405 134429588 763459137 139595913 10633489 157818453 778974804 750520701 232226836 814086687 56839048 746865044 521284202 565050440 640234785 828223943 487726590 988487288 443396026 938310058 427492253 658602812 987293669 586652200 624627383 37245655 686697326 899617883 114133600 924447477 108724161 792417019 62067684 79592172 941974871 754233029 608058725 530669862 716745660 529604135 926491999 959356009 878478532 394810702 75394362 593645201 814118354 959033841 830515211 279147728 776217198 798681737 961090680 120530755 141286269 799619958 682646783 888780842 114280173 47720353 163308449 696801850 630792213 109270967 384169025 517771593 342129982 150079817 623711196 881112979 550140893 759393855 356293628 342958133 486720984 73154865 49786999 482056019 517624865 33839777 421473874 837480565 178708611 302157769 673313267 218900545 112965971 239300354 741618129 391346940 873495626 587182800 613009334 530574810 469702179 476092924 575532814 400688673 281626893 728895783 282487353 370723074 658041088 470123842 869011399 995673374 709672085 130520360 861214552 316452255 770919390 410060308 82972088 885464506 989218357 5512666 801355734 185830187 257103515 93662259 699519446 425010465 267198025 395540962 3127094 239264241 861808262 171727672 809887316 6883416 905889106 992910807 648090884 700394208 113453351 261538735 256680951 858016000 39229052 583350763 890348190 760355168 175471808 753141378 227309607 331724477 688636038 948241938 417091925 20838161 721328245 441097753 264850693 882465745 14629445 572592339 987029787 64989575 665496365 399160886 353237093 134122672 968726975 940759573 596197303 695567185 389756893 557357113 260331474 733329958 589775216 130365757 104125981 277653117 801844577 5157516 513643072 310976011 188224531 178657439 375359300 356637731 425312891 501102662 335761912 204940788 348898133 562396495 168782157 896769717 835789654 473695540 822047373 682375227 401475366 974210538 952237643 245738132 207503908 58057285 887186182 126234295 207845394 599084653 879280706 299138156 9673544 325535405 866443255 113603424 69000155 570630835 265956899 739341762 133866891 691556025 479609514 442387668 140490104 330702034 1103573 777274625 462818038 138506580 319764124 828138998 28936333 491958706 179134584 397332538 225997157 50863464 418973051 848411688 787161810 352909951 898062378 898021553 11535261 3314435 591427661 531986262 963568436 313752665 447083479 765597099 770003527 75241977 539483508 396259901 619918920 916249552 313798722 980060581 554669043 83608743 199174088 49080040 781403817 239837802 482932627 554764527 148655549 231018480 160293313 288516394 650865326 916857457 79354880 750560860 98493620 602496785 914577803 519904359 8087249 725256411 410910558 389094128 628053789 326206788 853279608 280360689 371268875 745762024 26900065 691151129 667512262 209264673 211654470 170801729 324992427 126405143 124278 642779220 583919702 236192357 254756926 172759575 283582679 632303200 567622746 96713661 489215563 646794705 487801096 673221526 345997450 248078389 648730448 512695472 263194241 896344961 703843846 48176339 696092026 869002299 460262317 411590624 613730389 334726864 54773265 57603315 839059635 742457657 173462489 497086860 763690826 264528134 208795963 302700921 983446446 976255636 287658378 904833899 520532043 104865700 384953217 268423522 599430601 34143282 706929131 846984197 115251737 791439585 9694088 35895569 177368442 434061432 792368192 717102197 269394776 186792600 943849147 853316865 276543319 686525769 390001415 245935396 61697068 566082155 579123337 447202544 907045555 787210528 27515524 643595825 817053647 953554938 44476783 131024341 825658745 136322620 266106417 677939118 550656584 963574544 988656701 21596877 152237512 998532068 375615392 189540394 272438948 771265121 275749513 521861448 198364304 228335358 40545233 976514221 652870234 255085071 58065858 406447911 168630917 665078581 513933230 192850267 297459279 349459800 125438976 487171243 649800817 237580041 297838494 477529154 726856900 283887718 937376208 701052416 859702721 659854915 784440130 910839003 412470887 424357460 919619909 750383269 313000279 182874281 163792713 774038958 523405978 747665107 764083363 54456432 132067191 757997949 948457431 152483553 614711573 458021766 922341682 399815872 316533312 214862789 833689041 809515053 944773265 361830987 488011729 316401957 830073992 498785091 609452276 170146252 851464363 279686688 393346008 31683117 325471331 140642850 26216460 187059077 359584107 88736088 623546341 705931498 989489450 606365265 594038713 555216846 685125009 616552637 138341623 959706302 698149997 277532071 812017851 430471477 37989785 793469474 399118321 378552149 722296768 533422703 816283032 347181968 436945684 516974374 566250842 444612785 441076613 201938310 331108229 130135933 746196631 830584841 179860193 450340179 679795698 243280685 546144168 602250301 738126135 552716583 155247583 32973834 755709534 867197058 849279975 25769468 981399649 824253165 669337860 592940312 402650599 252961396 385894593 533616350 118918344 431039745 87420815 464450676 895723609 349739178 353604251 584368442 998265230 302618249 514424261 190974592 375684182 506791490 979695306 717053434 415575345 617740800 575339368 179055937 240895016 702665522 832919785 699317516 197063455 113760803 951611760 750402908 600261011 771301148 796164250 311482499 837423699 340514359 250859665 328069039 476434758 841881140 248532178 77459001 381963319 695396714 255982535 483697297 256901231 66438162 822729743 724839701 638152560 905190687 127350538 314567491 86160502 315064713 878944593 984957805 48016380 48293246 782081872 388372352 431234352 43026523 547750238 504038879 742877274 125507935 36576375 976167173 721794157 547044240 729597782 983490402 98542351 450803433 609976109 757132044 350994448 369379911 932300566 743943962 491290863 85312781 637521305 872341493 654713674 980847272 660186819 500909196 727127997 322306951 320589222 720878596 906750187 899188259 750192207 835213604 90157549 19738671 279754826 151066564 233301472 929878390 180175106 806036892 600384372 561003725 675277363 700647077 891910919 138501446 136759527 668569813 302408676 626522247 801449285 721193761 456139728 511833413 813508968 255377357 73626793 440820728 546475573 32730880 756194044 245949332 218495648 592388849 571767368 332362231 361054877 404853012 135875945 65935228 41744964 35489207 689696693 170943257 639801179 150567734 273763121 112083842 988842707 536929103 338818046 997076442 652391718 222943844 452658565 333911217 869613377 46262448 343830936 200943819 850635751 720557884 917671775 853116883 8538982 271979995 917133740 200831839 809228690 861866606 38748913 640511708 882123019 71191055 25492270 596536442 311205488 227772433 716536070 420527343 777006169 778880338 888746614 344368416 391257629 272600229 780043527 670435729 821644371 651183335 280467776 262222009 595267287 496897858 909593127 763678299 346767204 274965513 284089628 561395712 82265357 856373563 864188672 344500673 182558260 610351618 530100207 709128820 470952573 549974699 321874848 505324653 192449088 421603482 141955801 797437348 737086079 727318852 622579695 67901161 318377859 311487064 763944503 480716915 283516122 675464071 343055841 809140936 738169611 219721920 198276482 238647913 789693543 843561339 632600306 869077542 671370590 597610531 160749926 203173176 592623725 105462665 443720223 426648546 366612868 531056645 526501258 457825964 873897398 607787414 676259060 622400888 317151073 449933157 54325887 628403247 605181172 239376979 427049794 143264777 556333170 206832672 194178288 710834533 129162210 360387961 399952797 983249507 99542115 881520123 421306686 583669779 616384360 952157734 490158242 699972884 136177274 271871233 968736343 655437135 353818488 815817056 444071674 25729909 213615008 607717834 112105245 743262229 5055679 261879743 536283688 128607748 804760355 76316378 82780923 373542980 840089831 582993118 746976420 611493799 350704998 556942541 181541392 389665007 957882816 525952831 485732533 121379849 9627023 127335643 203598725 589211101 494633313 192670482 249183944 675988643 90377977 639675475 986391201 80781781 853784946 929135686 198374304 794520612 152340842 471228583 710718462 743890370 4499447 520198286 192725854 331258887 416575926 548429554 51048197 8322923 818713217 466543320 549461684 717587770 764101237 377174610 321135000 309501708 683866329 343202200 221400441 813506592 485060720 10483048 869231903 498489351 894239611 197926714 562468350 285855340 561441107 814020258 812386421 739127463 102882249 570682528 625009687 567234856 102358080 88353633 375148623 984098820 825495330 408070721 949002362 819276564 131637842 92213577 693418617 170723906 662329475 52498610 32554596 303184270 779522489 789080815 770507302 459689158 508604551 789457995 337570784 617451177 849551586 848321470 601698162 695359912 355323146 833168014 32769510 509844838 938244696 234478352 840721415 682877795 240468811 761089232 298602821 62264024 208817098 63304848 870032622 705828273 325801606 590420136 253196234 155221241 941483350 16096688 34142567 247664896 44636445 504799934 511895208 169546136 855832146 163198719 185001747 804556171 172188105 738589177 836041170 151503630 242551759 621624240 596815268 92256406 590679011 184192671 26063015 426713794 442898559 700673908 528794027 422197892 5575459 548069950 156613602 153107894 856745822 548795555 118582692 29390688 663231734 975846288 381817825 792974069 438913314 891691460 247829307 910952773 289253011 689156116 363253190 876936099 138503704 478085959 460352311 461172991 236140919 397286314 978284859 637517338 474469173 153508146 794247385 329664548 529639007 946238684 485802989 266369303 905643857 892998171 668615041 705654744 143053138 176145552 919585458 892774086 755490979 682242810 957661776 933003041 14074263 403475912 297224677 877095752 994889816 502634990 884206184 244932640 931773978 906448837 443701799 207986862 556599640 43982494 789046191 40757436 143500398 365105855 286462438 191997372 769034655 283585803 29126949 461021308 595827269 561716706 556440308 900388591 839454036 798343954 473463134 892118684 559321078 505610178 365322884 508346641 218266964 322952533 978615658 204195888 597864330 756465572 754102386 524054257 724714693 798236583 852375677 313958041 419068230 522113051 417803098 161245102 733929027 155003587 339639422 604122314 225783 478592556 8665463 129215008 318806416 560214927 909807436 788347533 939726022 604305145 976082015 207881401 376968315 477535847 256944264 262769211 395933205 912479056 417684826 752177756 875951863 567563479 991231876 37291185 392281303 451113509 199380490 117042116 824127293 918207205 848436385 714395761 483756645 682784580 10530985 512205706 317768551 473466103 232068070 284483337 870678702 335513997 681997080 97842093 552032343 634638779 590969642 704047089 824070296 376588536 918226288 576747528 766405070 714404154 145834879 639595804 315686336 383239616 974156708 160243564 639255188 209334521 114580707 707172226 333080554 609585695 533377435 972568144 692121542 568611308 767149987 154788143 195964434 779684279 55343215 115873273 148194503 182860960 964771755 470379797 180675602 748192816 713279196 386444774 204704916 432427243 473739176 73599042 626552213 65969666 870392524 834233282 625831438 123345227 760879045 37404030 96771614 920876792 590317108 672378397 858039986 93844746 677381244 42975824 341830569 509346518 202641742 984121860 18123877 157081245 46091838 602553816 466036680 20678263 805634252 574532012 992420904 852631331 841974305 748241040 400080371 570930528 533029100 590289931 741639023 937833488 150775229 797495952 500306944 999308633 908654228 503224713 850364115 816716782 448142100 509314639 32219091 972454935 466510535 951329067 788886986 327447358 568104232 284690002 684314712 781215109 305475098 987999110 747918069 623558563 432954445 558297146 405965765 398623603 121337166 147470108 240089147 705633303 188890460 44685054 665158448 730144033 568562278 85393753 827850218 655127365 302344474 890070984 803513021 924061652 758360687 304253414 338462120 306653981 959365029 666236531 727815236 489468715 969496706 307827837 768905513 69838556 357506810 318295578 58188529 632874357 407410155 490894226 457768614 242985066 622792846 617240695 241888731 594884594 661727999 104267773 954397025 44636975 619449369 357027184 332772038 195725700 8621289 383062469 607716756 713292285 524230786 27620390 855000788 686868891 292954183 227790119 147983464 569295919 220661727 271386955 985853222 416385760 994152437 113207383 922787554 754840429 669863094 581906911 491046276 392412748 76258319 209639192 199060527 296201625 886486115 662138988 12726653 804426548 896816777 927432217 512859338 472793912 214384716 684958673 955295748 501345478 913059824 857878561 386973039 508043291 244946297 589503977 92800411 622064599 992958196 848869665 177103827 996406622 395972522 105049026 659112643 935437453 49534815 192170584 909301657 349583380 716843493 319548957 306023215 528275371 795440097 162392136 731461421 336269387 937409137 116865203 851344075 689447855 345804221 873707458 952618776 83194277 582778294 556547956 396625122 27852369 813669256 114306417 959294247 326002667 286495798 919971627 489050510 849531542 332159054 797177787 827178229 453646302 603036388 208642970 884066694 920490502 620169904 558769489 805274894 646785275 92736409 950728591 419972721 62409190 402596227 621100880 116101125 696641223 206789054 867989103 450313297 412126804 95654903 517690160 409556707 16766350 72251778 752630429 142886101 181630392 582728377 951520129 581384292 161490781 467359595 798930465 452061591 964526419 588582709 118134935 327621578 484978556 540407572 886379348 389380389 740488255 922683296 285241451 704666625 698088146 110490626 966726617 258178229 924648533 142398091 809577858 64520668 46199358 342783310 108948540 229552336 851993935 894468631 770454706 635712920 295104296 761816287 790763514 843893167 891975862 224447822 488436003 306677053 62256177 996504900 637081171 328912674 358852995 988621090 839631614 236291144 216514699 525388141 900242000 74642041 758284155 389616756 247638311 20857083 812482404 324938026 979129557 49263102 5109074 383079195 468105352 761707424 823506460 686046173 121703232 657658226 930469567 221516931 332030559 457154237 788162074 725586184 445333646 261662607 162040140 608522377 833048712 83476483 261808771 553133412 219912361 552819778 329770150 59317757 935845026 877681119 256385134 459738779 472240658 609445858 568404046 198138500 33001385 851593076 431178896 966974517 7134547 759856978 189740704 288375584 432293349 420709422 995682988 586871175 488811498 123699184 437918136 347207772 950322235 664178949 226762018 987846464 423949122 966452718 150432427 266310866 349911577 197250697 636677946 598097497 789234155 953615103 336825309 490182343 835408472 949157216 274028106 765847545 215812253 104209264 395669389 778176692 690972147 634039751 267019112 570265642 590497422 252419039 699596399 74757310 524473056 807571652 259364128 433888864 144955713 543508022 7569001 17188564 411050773 385250507 154422610 599603957 795794303 291785176 329027168 735159728 353964734 673376617 112625876 22934660 54195342 191712544 368354792 134627526 422321274 893304186 200559344 155331166 492244221 138269950 412811819 950305565 767390881 194974992 723623215 353169530 973054125 517755996 379880490 293139007 728181215 105290505 62468740 650354314 773826739 757253277 441988997 756213371 469980447 694429726 581575832 63365572 970793397 924323066 251184507 329108334 390571337 347559922 848959941 927136642 908912690 112950375 791105049 916823054 408679832 17479747 192988009 950423977 784337856 482698186 781969826 101791504 451612013 11471536 849855832 487062816 874006414 882296638 914942018 224161378 109524538 648741209 977255485 880972371 828211121 420258733 913223913 723801662 94062295 843335311 57440721 796483438 716782377 212032202 708699262 626612139 742571952 768984505 492415449 33049065 707108327 442113360 149243919 281497778 746185633 539316879 130727370 218275894 547466944 896161710 369516180 606316751 569851433 699187636 687594 586102137 729182986 327833281 824910261 921555480 843330954 94406498 86126654 767692022 866175561 727492815 386752774 217035951 808656487 436056689 462789229 837078373 191923564 165557629 130618837 866374614 410932058 446589929 849761871 866574087 305749104 642601503 386709266 377062069 612909613 180704641 79916040 665087581 502680073 523789212 356318622 122651449 767810241 646583136 126329839 527834029 23140794 405272045 421463226 569052433 845800487 849305472 941723187 813774834 812303278 450575713 172866465 701175328 89622577 480929677 328514240 836525164 990923706 228405447 654913919 757700664 938338130 153566753 224531271 228295233 994294096 785879304 583097696 791558660 764264645 562392113 157559679 826329804 331081352 342989699 408490332 799509012 182796711 806022743 284928005 858833537 460822695 822421240 708677950 601872518 327987053 255790103 543897160 103298930 843198289 150546775 539001993 56816559 380196216 953810608 742490551 523641166 623782358 903791844 584922031 426276826 896800602 431279762 40016699 887050623 647805957 346344268 916005520 306766848 300925966 527135527 689814054 510466844 550977470 387913259 928951663 50425214 624821547 12217610 216294942 794621758 132780760 929386455 438078038 108798167 74241279 424163733 618366440 895966831 390513957 266764699 9252826 569189996 683463501 53461665 575794263 261546770 233809487 599594205 393459087 586958374 293141935 931413400 613599552 450979921 306541379 308610451 237786580 793477694 891923917 796281223 691508456 208350534 418286261 769621409 4081702 669020109 622008118 179173373 395308557 195325777 717999491 329089744 398953609 65691618 769113475 23194665 736440013 274055435 769000113 740226757 265517189 14229545 78069968 165944805 118511899 974503552 56071557 685463399 866421288 73213919 856131761 581314691 163558489 940053213 164159007 745058135 426704683 44170669 6478877 364741606 933975603 581965307 944783212 122987766 651832635 746834721 327949793 874332147 56322526 404774333 354588252 534986247 275520539 110488735 908433924 934707840 922421827 573255995 628317018 727298941 558541710 846457873 899636216 410628072 177998412 443687033 63718257 753175273 686756721 533396163 656037978 385078219 153892906 221452344 44084237 940220840 948708164 970373232 311636828 988110885 90158192 305730688 480013560 148197075 352130121 224974763 47017282 572762021 770798194 581084587 216699971 963094550 371813292 687020108 356655838 580412801 294224687 465004183 410356078 674555087 832722638 599250452 924849269 589189952 361752507 465727845 32985306 498929260 513023587 983966160 526791526 728449040 456620903 842824772 148376873 264865685 397817430 185584891 921191975 416624368 62933627 181072824 585328016 224766102 762409457 157828254 570103456 355877657 851924340 251384691 28740642 155554435 597724826 783380241 295153306 429492394 344857155 270077470 397505325 549612507 557791766 966636346 437651674 774339922 359399378 704049800 833057962 615286808 960175794 948232563 608883406 70314147 421556339 574019516 938160474 652965052 261753693 480239690 462220306 560644557 468095388 760055316 866378589 597999063 15562217 861288248 842248953 256089683 968621694 798604253 37411243 687212468 202220366 930797622 169616475 524504963 795328417 932636736 253059886 200733957 59282574 659918756 735541764 114938474 723875205 611912495 35481516 988812465 677546281 918679082 552037372 902862854 88290801 865648091 11482520 881176606 15836312 150493767 373512854 994474526 665617864 300022910 736780596 399691100 829142595 414557632 224844279 119426591 846910743 248207313 177609584 851805911 92917929 208785122 904054276 306549245 621934791 545193168 400307050 361942175 666527325 12386605 961086035 43165631 545398338 444335970 589768635 992163455 843651728 3730828 519610451 452535028 362643170 265381485 536754109 461143301 135212246 542314305 737827946 420720652 492960900 260328346 261681358 318783698 338160231 629847252 417592057 766576302 138947344 548986053 765336941 521969406 702772325 101952478 516493541 820727812 581013908 614255897 709019057 84669005 592464663 197594878 932752947 917859483 780512672 763782445 622619860 411231657 869710821 365161593 236460275 235557510 212895173 802515861 513660717 120780527 649279414 512055810 124836045 78202158 765700533 586847383 923814347 529653741 763768522 758086775 817188670 687103451 212491722 57741598 543997415 482997837 680434585 893143778 866510201 252420410 565842917 575589099 747194847 660117137 572824424 293149477 890203996 304268833 286624329 69578089 460059475 925349037 762969044 10274065 640300307 892633563 685442437 253091690 571408691 628026057 811622053 157521898 234336933 180956339 245620477 50914875 338925428 841513538 637638658 784578818 575832215 951487398 707139933 183858972 455262975 861516251 916030113 940530545 785820240 737179254 304795563 272555339 152403454 652361014 527087384 818508735 846275293 716921375 952938365 490982946 288133965 351969428 603060467 591001934 404820167 197559304 139520817 46843530 464144876 512199416 297682391 555581062 926203585 758320375 461456954 870115716 243661419 925331885 138123672 305075690 946289261 458162921 819929109 367215648 945684317 710273937 307559597 600523516 816165611 28016564 952290024 988718880 349669888 351570605 887755210 603755978 951034240 483506817 105528701 236054534 972403508 250440038 219708758 235590564 611498321 985777405 253704380 698834697 719401763 961778756 684781700 122337709 438278450 871316120 886857521 79898172 113587064 483097361 800386689 553209416 246644268 523918784 580799952 773236503 815029430 436054582 50497859 358018535 151899146 996155265 181584645 682189625 720372218 975495520 227405510 436368787 6078679 118357418 925792512 49007433 262001464 371335126 561756522 137397486 294754450 383487505 476745214 185031621 55926212 687424005 281807912 842026734 170256172 654176207 731636178 354508300 374465488 197776869 160988991 888254454 807852804 524705085 525336467 56107397 186517360 591721676 767876561 874130811 940898794 845357961 750319868 785924669 500220170 528422588 740916380 872506182 948904902 968640655 804887013 6622790 601351989 122869297 273390776 88861439 224732247 641277038 571698625 735180865 888478621 342664252 580943737 146826130 581558954 748395192 136658611 107408400 887697422 664415703 924858850 625053166 938954 738987720 642082733 839241565 368036401 699184641 310096796 728248252 962719345 53176594 302983867 32373013 551423435 219042568 28802437 549879880 971280763 643411864 466018974 947913417 8203319 83919914 884467164 317352677 546534440 170045665 615148481 430019705 459296914 612953595 76563760 637467119 529135032 322049283 730874492 428774347 128458126 702173696 997960390 848283118 982514104 537910268 449468109 620555849 411647756 77594322 261455386 422879200 776954765 302742792 593477164 53817367 137494393 357334123 547424881 787575629 797248643 106560358 67803156 537024656 686125275 974502108 547683712 831158827 709271347 194732806 745017374 155502245 79809866 508497780 739769077 18001480 637809753 568043319 852136441 862995595 754612360 410956786 43099466 567150405 676292769 39575703 677403733 549597690 758278621 17670755 420335711 868560784 695827757 914003010 262301039 493876790 847937214 569383034 714560538 993404732 961249939 63354090 340238245 911879714 681320567 66915270 989150078 382939790 878728720 359338593 479805834 593382687 107795120 586449391 419716319 855528286 532033691 503854937 583295926 254562365 78442324 442032413 68993632 463761848 966361933 716418989 344287941 441905412 610388941 100634902 36880584 116316273 484271453 139704625 380553339 197070852 532625685 772697286 759777011 964962022 183533493 863994452 317814221 420235843 234810625 391247130 607405874 481448422 5329651 653481357 204239637 74040642 789424232 631607581 774458549 930802308 823062689 742334776 429982598 946899466 353303519 726961022 372634835 285396747 805871284 111638410 464373709 875236700 652461182 459051418 256643145 765604747 994272193 66276518 935801197 925539639 596893018 780739542 505974869 329296598 536482055 824525585 403290922 497429711 852325839 333338648 468496185 242604513 465226856 726202329 137873701 760232528 462580959 927047205 419053131 252910072 770352292 647432930 168585478 27699802 783843106 638234949 557501264 978485754 780445870 158423354 163522906 501341415 88840839 85391871 169522655 345214478 836140297 677698933 756291307 263857567 905578244 196687123 994840875 408521861 223260066 612394712 231022514 425844409 290810386 267863379 238158727 502355227 16917380 560054078 647980466 954283029 298706156 814298886 571942454 76797292 549945277 526227870 144057876 269837561 704053515 350857395 543259360 156656603 78702282 591111581 456748892 641351599 384945222 938798425 780280550 731201975 613983384 844170199 548615095 213061842 356844667 450330964 859700225 904652237 964619829 627288474 702241624 508496047 410042575 280413588 783891850 145869056 898826107 872228810 116112564 313492372 874446772 616571495 231048112 191156840 932885528 657139597 829398907 768925211 911084698 182878007 988364465 715419765 311885123 731109238 623658488 410853391 868224325 657745708 845347743 736909167 250534075 37684450 425508019 790267225 202761055 463294281 830178899 945357661 970830204 406473466 448623538 282845670 524450845 98140383 789854850 297288879 495454686 860755451 993476681 335545307 406141187 570387654 204171936 618974101 890667606 429189788 481947873 883359407 128961946 353176559 45035209 519293629 182147095 81221752 305659662 571396615 421042416 612673819 710797750 810444751 616649930 223173328 273689244 26002803 322688470 175018308 731826143 850929153 901029703 433245077 558461921 722049986 307675613 240679567 925470568 918167169 161517318 757776717 994382177 578878514 717999268 556924365 489270709 42902121 272622422 819339972 231516861 590651638 290774127 774196000 449368296 226625472 973403652 626814264 786960191 272372886 403503384 452277890 750623151 94364705 200304241 207829346 183606366 514161245 643622394 969571077 559651380 36476863 217642743 967643947 293084193 91562652 178059582 8590423 949523464 829397735 571653397 957797943 536931859 85357155 976258274 840460183 441457974 269645096 270521657 460549494 509782624 899140119 338051269 501451542 672756117 396651145 638316242 642188753 181122396 119399075 585147620 330491350 777071783 381401500 93650111 56632123 496567004 786454062 188511632 126503116 91528045 69871666 639139876 329864510 541725447 198674205 295822462 353797451 167955266 10795281 488698420 499147883 314728206 765811163 246538793 122789946 807783129 529234721 942686662 834501382 665681645 35459222 627274091 394470654 374899929 99985082 580940678 405106412 257986351 485138393 267412881 769588777 360135464 920695926 542597413 856373337 902970788 527643281 795020092 69329292 208326645 869488045 206340768 105013182 364141297 451933936 228813944 328414529 918024637 884277602 68841568 156577770 722629917 709601065 272569474 617116290 201826000 486455132 952767910 374619092 721578013 544404005 364435340 308925567 750245295 987264958 308193380 326624562 805357938 814951916 560622908 420803780 534814265 370795108 382970472 221078052 428694565 356893288 956983793 147246294 558741145 88004873 587668368 738944231 950197103 965140008 109751209 155700906 147984634 584544998 134586271 374566184 993776487 625824283 356944559 981283033 80945952 25521470 102405991 185939817 674489043 728614198 931850819 431437610 253185597 39669762 289788277 344778542 830981735 113400939 768900377 515593057 967364333 942306128 423371544 656124720 622368461 707214730 454298518 437054991 242904543 353725819 887793626 959013591 212932104 580576907 400189425 729034798 140549988 262499421 325997319 312655057 229522470 570833317 330075638 223410080 921112917 809977367 327955387 406222059 474218759 25834827 182855536 537269826 692984505 645972422 115402629 75385797 923811484 308518310 603521387 993605631 538934593 825765207 834003951 712107327 398845348 468986246 943174558 404395544 740482693 215398609 760102097 904718737 760478574 890707214 355564245 149218990 598985273 544671274 499162744 20557440 620336023 356597693 967210971 465332014 413295021 143088992 268768438 244857668 402355385 523695692 603479755 133837619 245043212 452768928 265230410 540472123 724795342 917802723 690524702 469906576 191208393 446227228 489821697 744984303 357599602 317050692 546189918 603412063 798014736 640775976 656779291 346718909 745493353 88182253 224696291 242805806 702249856 588480116 599670993 792110643 817256982 748806975 192248674 427395962 263791766 478789068 592215000 92328252 83431093 40037524 624303490 660053562 990991208 325896487 402487407 698883907 589572537 65951126 103782329 713045983 405127309 675903171 485577509 544020990 523392819 625220877 847462293 869001029 451771092 358878952 484273623 857175470 873341426 17812162 360375366 605563087 706051198 899537719 989948247 109481444 159896878 952838190 198109986 743771190 364328194 143407847 671031432 749310229 369749646 194214491 476043733 867677119 532979504 812588021 950001207 94222229 495373433 330774446 197527828 745479437 573309029 278018749 703157862 934570570 143576734 390430240 124791284 478154987 171380577 510855293 852497821 168763009 783727773 263310411 745430570 629483868 800048828 829356214 552590611 778385514 1261045 773134029 211540275 716604900 529637490 860347307 890336263 155221064 87134843 329068336 365201951 866996599 372485639 215833201 343492916 309188636 622475565 74646136 635899488 628553545 419839027 37114348 200857939 640180749 103473386 583921412 285257753 82364744 142003822 286956227 710790620 974798032 488704404 317108834 691060235 167269419 247075310 193310594 25534766 138846729 290692423 49109372 691620237 829349274 547015632 672205659 680346500 788979313 518223753 532728676 901191000 770170038 127051651 276751176 104230435 344903088 981174635 629970809 59855355 376619711 164255209 415660042 164597115 84325453 850176974 457069005 550411378 4827865 412974351 954952286 927943845 205316502 92491172 604335843 19972953 548188161 645862539 462445102 265557776 516740909 853221869 650374526 639930142 188474164 855319225 926915744 284583387 788956733 924078207 356497368 313310539 553260695 899201601 300617442 820910865 514726807 880242339 186659500 69974783 545525809 190797825 522555561 86535696 891990924 222077683 509557683 777058312 989453023 101995434 406100553 184139343 330120152 448267553 888869955 515035107 761152166 226260990 53212493 955992208 519665903 613963162 889827125 336870447 985868298 694118739 123205398 617566237 39094106 992074887 82983806 580648192 434813276 128839056 638245416 619296549 250066971 731396165 455653565 4434778 180332980 818803694 980692138 494846016 607453298 885291618 10758263 664110043 162462972 191189740 246193373 634574281 49383305 156004858 532190055 689428667 100734121 743521347 351541254 376822373 232353352 88404082 385850251 699117816 943410838 335747695 578814532 744998016 913087576 249940612 61958675 773811326 719727741 919149261 24522042 31841441 237662451 1549344 460166136 867206461 313923542 891194065 338943251 643062745 192788816 36352588 509691425 423582992 906286708 584130727 704005244 47790438 931445181 309998962 521003102 344250051 993535681 649887113 214326814 582362748 995211427 256635148 9077055 512661219 861756994 476083734 943854395 119790153 538741743 467460031 993290521 801572400 115630622 941364524 940320986 56161743 784512526 10647839 120576030 746547474 421235366 603287674 801006881 926969486 794541369 236840072 19593224 32917539 479564555 30779376 501432433 397250155 398409794 798738837 639423235 131450103 321449771 623525094 930995771 620491837 776461323 516927993 995742734 378410617 780252280 167954068 150679986 538326852 97469829 595360077 82080506 392148322 741447898 474648310 392155289 193648187 103151598 655035761 486046300 198517708 548801761 693850585 499749928 670546448 291845417 786500669 127213417 1980644 484617304 415389393 333328159 237976648 652434068 857003945 243342232 865574780 716883114 269227544 317349066 445712787 259008963 602925514 787285021 828346060 119396310 783354773 210557800 358602161 850188205 464629335 654074958 733075816 557599149 449543543 51051790 943023781 338150782 388822322 324534222 726713559 984001265 812782803 759854774 90372917 616476298 693754938 588640404 396733610 201130143 771833246 279648389 988187859 927277475 358674329 16115992 437839813 504840273 404149393 879079570 332428931 851552790 448122707 599535653 299220414 889692727 836076855 844977388 767086664 285960151 954240915 988707519 243347109 96523479 235698896 183438006 952838789 271583578 693704110 174151370 738090718 730336549 352440229 369447397 753551956 479518573 662318645 421384338 185016982 559616043 459424015 706220031 169587450 875420053 982539285 787970477 217368636 394780599 94802130 565419747 624803098 515007341 958620291 240509906 891902491 338527530 359826286 912484817 613749671 346025746 323014876 395009753 155718825 273044620 843780381 990293984 345941945 929600086 555134677 267871614 39797619 261543918 570838063 836208408 787762078 272410445 964190334 376380626 479000206 506090022 408730265 932196272 442306558 652729459 709350584 612877625 699486422 234572406 344987515 768303983 146800598 128101954 712741383 452599249 327952291 474689420 980596584 173155221 68871465 762453779 10859294 944810250 170078693 532835520 282243929 919159631 84765332 941261290 177873243 47142166 368651227 83487665 159732370 286381297 658889584 893559164 764834727 226284118 152828946 641670348 419166678 542377776 406460004 931389357 803964417 66150864 16540069 953406691 611563412 304026897 756330292 515723756 807783992 613436995 639951307 451016476 419967660 410034759 383190883 464773392 946201889 958938876 408609810 316011661 354092272 494615322 528186890 528503051 614942815 267984653 913064858 88021153 456306202 2178800 736012550 641805420 162358483 210452177 731355477 160190335 918031649 115992185 39537870 399115739 154097414 290701210 644625820 933655416 933255767 974451858 239156546 30931307 475606990 544487349 501567134 344868035 14027215 551409146 801847906 402855433 720973381 317688165 956429419 191575819 500730578 990773988 614881926 738044392 962077092 430069142 373705033 434723465 551123297 194650654 393897373 545189760 325677631 109051962 924188083 277989765 160275755 496716181 199805069 641575217 988441021 643795954 54150716 894345159 826456231 22264500 872748114 448758425 297009010 651805092 478185108 411471800 622311879 90300747 893757506 400264247 616020584 235818372 982461209 441421826 745283017 531773508 730848755 811637773 715603122 624845284 6204459 413004496 852287225 453131453 47928180 629731491 146311306 98348162 738978737 479157622 995121079 867907320 365871593 283973966 958768477 851536729 775816732 210068121 330900537 409189883 356701889 721752097 596898158 675057 240278369 59037701 97451902 744059046 790760565 30989973 923420349 441115969 617799254 676348779 86732060 100082974 958968965 901453311 26456008 92437021 241457199 259514321 578650422 661096370 339207997 164846650 924849485 215776734 475034430 827394313 771721081 49620199 142024220 538371341 554012628 79099051 989785937 838388110 35016365 200161518 685055671 63785146 933544342 789280918 733599118 359356035 380849164 917127801 673577305 58837276 309207499 1236020 773940763 926379231 632396701 239160176 60664925 850915460 845069070 855440337 430026875 229212251 895751138 416071018 68551377 519387310 662724422 809344770 472251363 170608788 450316922 852474443 291034132 766756186 612060634 88421048 785413622 600632187 95353086 995937796 765141678 623808728 522747747 69602311 870848891 844003588 955807957 30150263 246499260 617502687 413987565 802404887 513896862 180514564 590338161 181329730 992369653 916972665 446411574 791873169 204157862 181656878 100234341 165357595 121791536 395207283 604602368 932366651 196637558 906890751 751391657 219285957 874848089 937595606 442479272 941079668 744222155 566982141 59695568 429147417 817658179 985687939 296425367 521506490 151719910 730059052 71439787 557150573 673524422 73313834 104258804 680818126 728253999 415353928 380258138 568755826 537463820 372545322 856381919 911990184 349764838 494075817 516892931 841245519 766361696 134250815 832722538 917148110 491726464 990246988 229075467 634049487 246242626 919860414 613820094 461742826 58406534 327658347 766829456 671266549 702546714 292800570 519803837 548804872 951910145 506001454 931685762 426492101 223547837 168527071 181202527 141843758 793241889 383079997 224695858 304310223 754781929 853674552 269632494 534832519 500928010 971359218 780502674 702436978 253713252 878132759 950851831 374230189 224767039 690406267 798828372 280596250 534320122 589294905 535234502 319283213 748211069 747981588 269481089 92692371 130581124 626393392 28388210 665489272 507536198 566008472 309007798 307073993 623231180 941709339 368171931 905723186 885193410 527813647 635980562 754540633 346633664 331852751 267950399 932954182 764583442 99877700 994243062 289526504 652998850 400991441 349827916 790308698 161752842 551227054 531080367 520089940 572014767 351888865 924832999 863873966 296025711 368468165 831596949 82590429 170896376 503364888 212665767 116585024 328400839 854879989 520883647 638588753 933963395 613315138 357593478 253867215 445571572 21403611 60742584 867980103 117527912 926646522 838068218 755084533 820595654 240075634 947120061 915370191 935474147 342141632 494805410 989534129 390795766 135954257 844776394 946371603 300365672 900319527 99822744 592327551 143985263 550711267 358056671 667931298 25551447 668893590 399728823 407809677 59069177 924872601 638857284 966719211 674348481 559403001 563816026 813491206 401489239 69904270 144839823 332971295 504795052 177686941 788730832 181047021 585980315 584920994 85289698 233578947 233683130 223299079 675926530 709078150 456571081 618982296 353205351 661651844 867569066 621374903 343193446 286716074 35226329 573502216 74374315 837194640 209847616 548743264 728273019 869713906 437378820 275815942 370062540 58173418 570461633 306271557 468698119 165857380 913326610 824050763 578822958 970424343 336720041 816504430 741503204 202452157 896260089 270710483 252755147 629170983 181945877 673002940 61667841 24160206 442021342 194701850 188907344 657403493 970226283 155763735 500493056 770033440 317738202 369145220 869029717 982748604 240232728 401895463 477769037 891536784 87238146 405324140 361067986 446315770 946146008 833368919 137895188 733864324 93404828 630190500 300420631 69676195 568293831 819975104 308092455 140975666 709182400 842346626 267077044 740984242 650077017 485969620 349351402 786081481 902637703 866645983 723104695 190329505 296967216 952895828 608674998 63248387 443380386 369203978 87343992 524509466 481827015 486031557 319242407 216626598 142639467 904609313 171084669 276801878 866641924 12347561 944169736 19165162 51032804 89851379 392327617 471102962 713561396 147896846 88097242 453680265 885141905 486228450 779276508 404446432 317960307 646329084 654944745 331618947 438008630 289535431 307539740 273319753 649912288 730993238 887910185 64422527 910806623 640289475 360275778 35302641 10882204 18911811 543896029 344562929 516316517 894107383 181807466 763413447 23272442 577896062 72691876 280501535 564417105 822573360 536249009 765042724 826189884 229668759 283339083 880335363 716736196 197863830 332261327 975199365 548720823 256383256 569848892 184135127 138924669 706700814 556501065 553603712 877574142 487333055 469228495 563301448 984891488 609035151 236681989 185391586 243144748 541760437 539721815 700110522 18184694 310858343 445564281 855913247 592147754 161505838 826790976 491019600 150447240 30601580 706018876 610149092 885848273 251228009 189373014 314651938 952985638 453437554 749107274 946209584 678366082 454346677 778220503 157107014 845928475 897318990 196828116 543741747 906868765 192070235 376483318 153169976 776593187 403901026 622693065 352966986 758098862 333989468 204619689 813329691 42447053 51787759 200280694 448926940 689440069 951929270 279090220 387896991 154541332 732510414 828251756 212774865 481756037 807313096 33577463 170631552 462398570 589679133 809422444 950185825 198534786 929288659 238457092 146577257 647590234 477509456 863082758 397702488 584650293 584050032 794058144 503748278 913822041 353344526 356092075 703586245 52310716 878566084 886259716 814960559 271224328 849391188 334632307 819529161 654993266 778661946 711210137 648983357 472465987 818438053 771647697 383785835 724132569 634472280 179495926 9078666 898456721 213379439 825324474 782711736 587404179 446277941 915584641 706223779 566888747 589683169 130318054 766521175 211838908 675547096 516718758 974632549 966638641 419492970 623091314 418885417 486361916 249431129 70192033 427467275 207287716 639501016 299844107 766392635 19818168 971454819 443111399 62867277 394370183 20342454 313182131 281553563 406058892 71532601 791024239 219444937 38683497 80879453 180870937 504918425 534877331 183285546 994191861 703042804 641970405 811991005 211782404 621919574 184403200 245851705 419808411 302082650 378227210 277694369 979417601 491855099 340132174 930023726 553742713 128749563 791328684 370335446 858357486 999524982 592275173 494630670 36767850 483100404 917168607 654780463 708621906 510582217 762765762 39921780 591913711 261067388 249878684 128412924 305652064 781137925 840820456 400108778 788128519 869245953 297752320 264954943 925872642 198696924 491452442 627248718 143317596 145561148 709608983 563594265 338304810 115618279 768734244 647837041 625597735 934849749 11168254 492676150 136957019 955887561 741261583 436372262 112073989 805251012 403955171 636694665 204172675 735660728 350483425 863035574 526606060 173754736 14540231 286403315 461437139 45675417 372072517 103883238 712882648 761162370 968077852 326000269 65990288 536669267 481334767 721127406 539388403 288676943 930399809 259731602 727315874 686842581 632650715 18577938 876205897 921088906 964427660 64069936 93421183 699478204 649099509 394827165 7521887 862561406 846552396 614922553 486864584 119349633 743125429 133846557 286313825 134903135 890688539 735805061 899781750 237533848 881284347 755683659 908652580 806926099 150092186 140329787 393875525 417565461 538805572 456422592 255804633 28292136 180172513 493139851 741408798 958854727 342979822 490795585 413102808 562265947 912365194 645715498 674108095 258743965 8990649 198767605 283266054 284730926 353430483 839271148 838671892 178722775 595496829 342817198 165715634 370658329 774058752 553656596 359701516 789161585 301777265 853630666 823245408 916987916 506218094 240311583 941423000 716360877 376160900 754290268 732844889 368877519 95216579 746965540 550478075 817600940 79393529 258796662 763141529 168014385 955521003 947332989 388844077 273716688 889815809 302531107 518103361 276918643 192507483 897824724 972246761 876492907 236535324 246567333 412457765 162007263 588648260 322551626 557063859 925362653 280197623 911053834 99836492 269097409 9664099 946926102 579398355 14063328 81307695 953681693 611522991 270418876 167481842 888724118 566362549 602439169 251584995 668763865 679561045 175542142 263395993 590532096 522006379 611338251 962329560 574416679 208475110 501024904 772997672 791702366 857861186 800766523 377364032 654190090 956068357 923991351 689887264 438299122 349176152 288460805 131107925 235875261 540985175 441417942 77198119 477893009 519910777 728346912 183264234 182998233 705078052 368615126 736638533 579098560 626626761 196866217 799370952 558030433 167109847 139445591 550820787 88537352 826183198 65743865 862981763 168875988 788838140 654402069 966855398 778037276 672089599 194207019 359977138 213558427 698624384 967164448 369936046 119269935 986470463 171213700 226516830 673109688 314874836 82414421 31053250 967138894 65320959 311835411 2012585 558141108 417987396 487650318 928027289 558924960 679406679 868290287 436879807 344903957 59771608 793638952 169435753 735500765 675324303 717915632 75769466 731404728 198731221 459317336 767210085 461920690 463062855 432417711 991312257 32106734 392647806 423192857 567587696 754076781 69407359 223454448 57672698 650111990 855597385 587307990 178245426 854486277 53654573 406031107 492499808 46515328 233250307 297573900 337922266 168672347 906559565 431107373 25920864 931901863 639185697 351840695 112623567 192354622 344652662 627781838 622626886 813375498 417189596 862955207 183233037 463393370 403537433 853968816 277256553 515931419 564651152 80286833 102078158 495125427 431757560 571121731 28325765 834595947 423726937 179283950 142551343 332690711 801300137 898772884 639299648 66088985 483336633 635993237 622564837 884212770 395379511 636650715 272572592 760518710 350247865 441527459 951595157 299543246 350709402 224457999 366782986 26786705 744628298 230681011 602331872 200221256 405142323 421261860 351707075 603438193 667044542 883548492 672373190 847569339 105148215 210847524 427136825 58810440 995648851 805714491 457057700 10930043 979518458 976864154 264467066 146474629 580495027 250835759 33540144 659817071 123233569 259098181 782611391 189489989 753120811 309535108 685402748 978109287 26001223 173345336 557855563 670404964 38769522 106277069 162741487 13042515 456419072 376839099 604334485 880106282 507407044 947147232 482359273 672859255 338088811 842018537 515536566 754595389 205282245 915792407 5047301 879777267 834494449 455710832 559250336 795217867 611360322 875418814 641952605 641406909 761356258 900140148 524341750 774832176 192199269 90816623 80790278 953211806 811359224 619514721 396007503 579782899 334781816 717890085 222160825 37181238 15789102 787450648 168982139 190087082 831250592 364336581 191293891 628867690 262455255 41327639 492457086 338042134 664354470 968992468 553978716 131891313 235562485 994505415 906679452 425652004 998286618 287348061 5718653 902026088 983111468 722509896 501580657 625728946 331029923 368524528 201817175 416578139 612677970 495938321 581925655 433331613 745292102 950234390 694823576 483291680 764168819 455882097 215438224 982992940 323342566 538798056 11164424 840811055 669021925 502684486 92103108 148884169 17124196 893225702 463489736 534494668 104750332 461796036 931818891 268727835 866298805 286016649 579254344 740973212 306880843 296773689 271010040 416075498 392575607 975111892 759082962 564167400 218481034 320057811 857617125 532435431 481304833 53489219 1935404 837896270 658988084 674955737 493054547 212015947 667533220 204178816 542021123 253689976 147800271 343201017 385370062 523164057 186648025 682001132 97975241 85515827 24756625 257825128 883057639 426709932 546195987 561348795 878780518 816548772 241867706 626433878 635002727 382063655 516495642 182427450 337709411 218666799 67473679 16450174 3493383 923262967 73361646 46290188 158825450 275068246 549578752 379963763 734934017 742714490 244093043 700769611 793790010 443693930 755978696 798116440 539813087 883017531 743051631 558469755 761222687 788374776 206874889 897065234 748873377 821685134 52020708 809942384 937742164 363058689 137066896 51274757 595449541 229695530 950729352 576967230 867578560 450208984 867758409 634734262 188695793 46856456 517851604 580367141 866596387 73021944 569861691 971449783 972530257 842479977 638369303 479490452 205130584 79033405 874986979 185461783 52220632 15192965 906737157 850533420 375568032 714106335 437962320 497270540 46180728 210018087 258964039 191885251 322882310 383906896 897779744 553992690 167100062 911241261 532573026 237243193 2623440 524684297 602646321 234629936 329609702 530110908 13727556 190788102 822901527 332652619 99433047 712059150 879945845 751941628 460334635 400900621 676830709 72371335 139084738 613595817 160130095 98282088 40167924 759458086 186070325 338078421 868905609 638739023 929466752 42333255 629841838 20168440 503778473 590221525 941966037 324228694 495146503 945629116 54377665 749940852 64675747 242154469 899339966 498612248 302812981 417180597 521578896 227117264 664693462 70558839 192158858 219590323 587805146 48146092 467566378 545898952 312295255 325371892 78909273 169673191 553220616 730955658 880534637 101330011 701113465 332508604 102167745 286271986 976009728 31992261 627917625 200857664 997198185 365863237 671745162 477553587 207271798 737794236 101263589 529071012 261626343 711168341 228959525 495582245 556479406 111284627 904436677 603632982 738533278 94023510 228807223 622412604 87411163 647645439 175843426 954481862 826709070 537672562 167496320 511340950 348520088 193138571 827960984 170521903 320638142 785528878 303938320 80328686 402850017 951198257 306447833 296956477 586766742 284431229 533236856 409577019 131843872 890153047 257486949 618719293 555136075 235374095 148149727 265206909 17654016 791879118 195148803 693180954 150966876 818960106 752678463 471515386 288815033 356534640 714361470 291121892 41786584 114486315 353460588 945495583 482404329 626119020 974027230 484386124 500382396 712299062 551237069 562118081 139061833 876272472 312630474 816205925 32318157 137214197 222599280 442183810 915853968 327634464 194824004 519343711 346319248 611553207 442173574 316480528 399462822 185122361 191305690 913463962 101331835 599276985 899000694 158924301 454672657 563084573 251731406 293534889 113526229 452952509 256249298 210536936 813986208 440485471 973179701 471032085 747163626 528276114 640470844 831258965 562138002 97183782 723590448 934458635 901660663 472516659 991337514 302803711 364229260 262022131 70489105 365876051 913567768 666932924 104224690 927638940 105474838 687403867 915432921 978262620 505945570 723540861 393053793 261337930 62900888 188681977 405450062 213219891 724402228 967882295 858940039 978417963 975431838 477384667 89189220 687085362 764895233 976160659 712153356 212839172 695264494 316285023 134895381 176916294 127696590 409675594 365269544 319110930 895805134 159917316 670265239 471780587 865263866 877591174 882459405 227439570 745272519 628192157 812035686 355072334 295120868 683119926 295905071 985616212 196807175 176790249 939015738 84693506 195105750 490539167 645761123 868410219 904136584 556363051 558626884 248622030 611201051 512366481 770810563 233027082 313872851 531057649 358920700 955156981 619073469 105470559 665833683 351136009 478254934 527721600 656858445 32507108 156823146 121399470 755199651 831827722 36177506 918190142 526288150 606127686 848682150 82838399 200487624 226368835 35343074 70160387 703625795 77327902 531132921 654140591 16797313 159081268 932677752 823793475 560968363 67789504 25079669 691858588 200930370 260171150 190590152 684485122 978020125 438003064 754567961 225440239 246510699 792496908 728787518 297576094 226821310 339573707 429007710 364681645 150288983 457456849 600128856 62382454 366257592 723685847 862363015 404182973 852463283 782261274 796593194 820496591 193257674 4837185 603737811 229122267 460105198 925936193 895716760 198798419 819836509 37522758 710024366 857646033 28362195 148399825 903722760 505980618 439957260 451031155 545835303 10186551 385205232 554125184 99228803 67436917 677572629 339168690 997675616 647470016 771358395 392046206 562017505 893284239 274202282 432689662 197497099 851845612 176655114 216027341 947212280 685571661 311294380 822140186 553933955 797987097 823507975 370049537 189423834 288614831 384331460 493226855 814312958 936658268 39825543 84929059 875460443 179473887 744228733 772234316 397132367 729392169 163388705 439128736 683640244 18978095 482016732 733256579 201664980 15710659 977099893 652691621 695247464 853227349 706758532 803358358 322351943 452043315 565410472 692708198 278597912 359496082 356783107 823571798 585189675 5849440 61542125 978548455 804747262 553176831 883304694 931237550 94384447 813255643 463049323 429977601 841674094 975261276 745536629 756715386 628093630 804121032 53147004 527843315 870813956 969642585 524698904 427305533 189065408 541970862 918751988 655331640 768396748 470859695 340793569 468342884 34569477 302412811 432599270 564207859 782764516 130882574 788924703 977882211 799998859 723487927 385768740 720540751 30844997 229711749 374450555 554759572 301850113 840788026 802768495 30873548 52431748 455763243 434795426 690063032 557350234 267585234 824510258 39550080 80008134 78515148 37703198 503775315 756901425 923656706 555326265 882421594 119838613 410779349 774218491 536434241 995341746 451490627 204359312 839135741 430340990 78574374 456807812 97171659 721498725 678889823 256625500 221705178 943219409 462365591 934660682 459492807 400720374 300378736 981192097 777544849 241168839 790531123 793667539 955272668 491659413 930921912 343028658 958117523 25437965 338035753 923985053 207372203 81528957 495974394 327111985 375112041 610207098 473356483 457192086 87391273 818461001 951495665 844791999 652067715 395268255 998422636 699980855 632261891 527692660 567233708 155231059 677382020 538580465 284879836 577870239 722175666 700072843 370016792 997079150 237031450 276585668 303024720 310360501 538051568 481765765 850537933 937289071 368922664 339044922 50738679 171015908 823314617 466808588 125128824 112368706 777848033 811940619 293396949 278137284 733337162 524810968 374732315 333838639 136299176 149699488 493717116 632673629 761838752 487932478 324336124 322571095 754007170 349586202 416970529 197298093 533287695 749823360 692674431 858231870 165837549 348570325 131935115 383161821 913309321 711409858 307514770 464250561 643930471 173235784 988863364 383551291 684131339 32324543 314212682 468086874 278883529 90943159 150633873 293120473 822158618 213054944 149420649 685497320 881675898 575167498 548895287 231201893 429252935 930782782 403141433 821583030 977049023 31391659 187062603 526186749 568980070 240580492 660089811 446835578 928891836 970140330 729510098 145568566 277695803 28075072 883498625 72857154 586051543 166243485 463262993 206156176 700206311 391031728 327718182 235291519 880646738 974578276 788291070 451439608 594178893 723990966 983801836 735714474 74255587 182769473 985688456 489127034 339107225 935110709 422316630 601343462 47704430 830821861 858325242 13016500 864888903 392071535 998763307 860564862 757688816 109718621 400732490 201202685 198482144 354167148 497584945 829126287 704057220 230784538 20293874 357899693 310501730 623237062 328928802 491531694 879508544 159480964 448066501 121135241 224339773 387792312 938075684 936628958 22768849 451945591 189023540 801298747 486801983 165638929 922467112 384424944 156288284 696569107 81011767 583825934 459973847 880707051 962366136 82878679 947941009 337627594 245880488 696628896 258373308 374079289 947135252 1974405 200464950 458548314 326836847 272682967 544422869 420606412 995227842 711230412 357693284 456420174 234205982 586697899 389099628 382467200 10255036 141086613 797429709 712436401 166132503 93456102 225679235 777163086 92029696 929056600 446844285 943587062 555625661 521903425 936795626 368999015 25558453 792132049 160766666 714293420 475505309 547754714 16747883 970988566 227814565 890985498 706525099 578079041 592406692 501983157 800581620 709350648 654060683 628206479 867377666 984477377 476793048 15074458 800326258 820372497 517884734 946314959 688148393 938329925 280514433 653674093 682946407 8396891 463348493 337507698 763428952 141349902 147696213 677892582 871874413 153506603 862954816 834584621 410214598 276375640 478314325 611083043 970687587 297074208 667460106 419623836 859084436 717968870 221143001 166086439 559586233 537763530 237641509 969010461 662560167 30616647 233991050 543168329 933597279 170999879 421686588 262824369 580136197 966058216 155267483 638604968 935967775 23516692 79347267 967378270 351089264 76084783 967010405 827611134 24346305 140863990 833691028 210526805 649076597 695382645 244340375 456220070 653461503 272415582 340197065 143789758 301853798 552403292 653938175 149200101 448645074 637539872 593062310 981679969 76001726 3531130 38786860 607718721 165746039 570329525 490751361 993577887 434360489 586392489 465453599 238286340 818541040 265651111 97206912 905435443 37786583 268970269 323439770 217800292 300936801 344760023 294003938 620165261 712870307 742034495 311639543 45432706 522814837 125694897 799456466 556415300 782400949 804160553 93579639 500803809 455562774 391110518 23981073 225848935 992743043 922385220 131861553 200066212 319625652 518607721 620622537 970947668 389172330 73120020 153146801 353076353 514128104 805481897 258801281 183140805 82280794 710852816 369007979 494248123 530712689 37370538 757411186 632959497 229359969 63413469 968216354 882202609 121368129 32119430 756689285 524826852 898878970 679212826 109676297 235077823 167493703 482473818 256439739 716433353 726017032 872120185 550097432 347116083 677892214 36533297 604835766 551657912 568847995 449930888 359028348 766967202 153392095 808865065 749838914 395041343 821208738 377202468 246133793 896310819 529129710 832155414 637053515 314569701 712854962 802646739 106331518 354809267 325513607 404467779 680928734 396461859 797984808 338137721 77315371 731141253 178621872 241721253 761679814 344874022 617002098 762634244 383313765 401334560 72230990 509889359 37894144 547187334 981978215 96223708 718870061 960031547 448850236 373058853 604219772 450599208 8738096 630336531 651780008 870476084 636589036 36558783 516381035 809688926 697375123 648982224 676874409 210388355 862381162 153759473 756932900 700041283 842680242 705731445 666093860 35181724 532050616 666340307 134273347 844984603 447448914 312544755 469886133 543578840 937242983 830545280 750175948 710598402 66161092 124455649 687103286 673576026 689129865 194739369 922643450 808575930 2526552 205434850 778008701 185977515 667851927 92268280 354805192 913886539 21649501 166389530 494753325 875680724 599518852 902990094 551752295 898710169 517087111 481540650 132039668 828524100 711577387 36333125 421111091 58694115 813585686 198669069 82507187 198542917 9582851 479001099 864371703 298687703 974839747 30083433 218980823 115178329 55283442 208596068 54978353 504323413 284655327 175382616 84551906 294036781 47750690 374701932 199182207 123168585 310346206 306248573 945999128 200230524 448293268 546247435 451491865 114592938 789851927 660071669 639996765 563295110 35911043 536043287 421947617 651676823 569470340 590154918 919743662 824159091 688899468 217071002 627760266 511885785 97738862 463369414 69510088 495860517 352950449 714272275 591020976 994774270 68782100 628187293 456969709 203187052 971239922 621271624 215551910 709820157 37433410 986607957 252259889 880599510 142285515 940446392 909559984 2166888 332256008 478817606 478659294 855162222 71676456 476378911 221988927 796330697 529251675 964603283 448996383 582404860 355273408 802728257 146925573 418164264 49514969 934516233 519603404 884091784 548857665 336852236 443806625 437912273 451674912 144308256 31385702 847052506 177402435 251142935 623873054 972916781 24260369 777286061 884897565 427161521 339736723 104815548 593618976 977771073 583431858 433903976 221465667 74473312 772001776 130606434 316397118 738235428 851531229 598123297 38181584 725841027 866222921 327865641 93171508 88924659 506377025 526719164 251128604 881382242 705937920 668547880 197644808 765096768 939397438 233659253 631146463 961198657 6364762 428560933 554685883 824425822 19512493 305246901 588257382 681425298 466740083 528467317 835769426 791245986 927889483 330415159 59058078 318502237 526394762 324771706 562711550 260744910 733159227 123207769 975093777 71483807 236631442 77229664 390400441 548030895 810320763 837210559 418196356 49350180 808607176 981106742 125533345 959278596 915801203 135543257 754389686 760658545 310851131 179364250 688170823 987633394 725731441 988024936 840686587 311206993 359268092 243164566 742216679 535188883 425638478 334467973 579359302 734337582 214561496 534596230 771468728 171149058 704385203 81622980 924229345 236593906 969531060 967360400 366083501 319064232 107477410 1188254 296938708 53034885 285494941 723902691 266691627 357567236 368930346 966003722 431633265 691754927 676417857 302573692 443538540 444449228 628433659 799332955 253838224 627995739 225207371 898535499 949332783 621450308 549492432 736587111 947066358 814504135 441298172 680103453 957265381 252882117 320898359 746528709 479187570 123407575 216985892 729953352 987697529 26948693 141224189 663477428 670706506 281492979 72563887 392763577 673238155 977941905 432357404 636720832 165544433 514416459 668285594 226723490 404163773 967930722 796425516 301362962 120733504 195407911 113876748 48962369 637996413 252764929 557743794 483851846 532541325 826598120 637149753 853769395 247633830 862701368 910158495 348256632 176476379 513894916 82393146 645811619 897242694 309274282 863843752 541503021 339946597 37213118 652541467 94381118 868746165 420390592 504042944 679111597 612814859 466463265 917275776 290053296 710706085 746521113 138137145 319925581 763664075 746114486 766925198 998030806 93785856 792626703 174426211 595335888 262785581 74738530 903523200 698563549 111798988 299972527 772024042 607009189 819812943 49807170 61433126 327047490 911758991 603704883 932414114 302049843 216054480 821908683 916132448 163661484 247644460 121304117 728301145 128577528 414935948 485381837 140904740 730300979 692139605 647294277 439612892 459765039 826770155 33299775 194656453 416792057 807969080 538923264 349152883 338462480 777789597 767324214 609123800 221916722 28410408 835160239 604048056 402937864 253498952 39105959 801377705 454243262 953671584 873276367 318190704 56759126 93273577 944566695 253509435 253427580 480088365 282393105 586797085 46690672 10001769 445101804 387771452 913826944 182266754 773346292 19030931 854065312 533098587 16725687 216174190 930756793 906103561 194827456 369404678 925478914 988212321 350609919 777402700 672591190 561172917 913063519 242847714 663478572 377600666 205539985 584523411 364363848 762213492 439122370 972636868 406427697 354131718 600326733 576890514 580121035 482693429 295645095 19177363 237994325 631813199 80183544 655812818 187546297 911945939 863867590 207076624 312869465 421033461 46978562 742975090 442354243 963650495 204742274 89238 589071254 857725546 187246827 279897705 577428930 581779944 270955323 242574589 263042541 716010776 661025311 652905159 530233249 933268041 433435521 506554920 688970064 891634933 274654882 688627110 636108194 659197151 798023938 931930132 841832661 865725127 588763388 30221572 779291353 855322009 60599987 667163385 245677625 462603526 4315820 327226811 321322733 713045028 936220582 886416871 113386536 558996484 153281159 946981485 514399682 97221287 932278176 171472306 393040 967275046 996065120 153359402 559697897 686114101 450260610 873597542 820611722 303244535 948213934 440511316 897326874 207577199 967505231 167934493 174429196 623315536 901983516 564447719 166122398 705166720 890406150 964962914 202036771 607410038 982186052 654859309 117182887 428570490 563901735 549970631 659130308 355787890 846782773 910128936 661642082 700099735 493977969 305457997 993320781 56098716 338525800 15203189 50528257 737882053 285773544 69400527 739214650 120865863 189969873 297429187 564648974 878591418 187078477 668321622 725555660 595871885 715205817 638970729 490885034 826148011 169430012 167647289 922131178 913229787 550407231 81135758 351870204 927395018 444297722 815224581 206247629 845796240 333360588 285739599 463711048 587872477 868238362 200999663 49565315 757833825 22679490 637494899 118651686 440145561 871140024 446808551 447563942 218081532 864305705 63385922 302731147 231607213 61079825 306037940 290707095 208572428 378165095 46212018 621367668 713864803 962419638 610220817 217510717 666749283 258560040 965932775 409801474 2336088 931696355 923811639 204058849 699723570 921590275 184232665 357016322 79167547 741001869 96134847 500806814 184587878 219993831 437717383 831826333 117573607 720702170 549697314 73310951 230948255 569648605 426955857 20701292 224220882 395047430 781729877 990934994 58481211 672066513 152717777 929362880 159183327 228985361 984659398 320660939 93012912 926044544 921650488 20811768 66013993 944089718 633475507 905407654 540437470 192959381 935963178 985700648 598572146 407811270 512812841 86385502 247887873 605155383 378098530 459033325 403481711 376240129 539408272 889259955 21836889 143958003 997585833 356846311 607233657 295224309 8942957 278081719 775103016 134975595 456530753 568098924 669022357 558543487 935879721 362296258 582529084 892349295 95123988 162668592 509866838 598276447 371856943 948400211 380654846 911248044 583629332 619140958 191901052 82990061 402474747 984335146 623570273 855262313 949840986 813057165 727950836 476320505 192925300 236304434 254690143 892990096 768210530 197328246 138969670 277785629 15563304 820495362 128927403 399254292 447084742 475861177 264376756 161559917 902807443 260274306 78604781 162405489 379586779 944514477 899322612 350080079 802450236 610378271 707605154 50049276 955182420 200443225 93227029 832052483 807712619 199241044 268558855 850593020 655104526 815299305 257610484 693249721 745699891 849591770 114398138 784765517 786185805 144266893 64144407 795559544 719988915 964288802 701751808 826263951 994381071 100241409 411032188 582581739 434955162 103255510 819841866 76492387 50762055 969177600 511622216 278755028 697172391 224352095 806570197 563956759 737775889 731912714 149692222 328753993 400132917 837964197 300122383 968655371 822869712 508895495 371652397 74338063 356033026 474998658 331606442 94898333 316002352 542651713 603905781 404343143 503530259 480338197 450332025 731974710 299065336 89315392 226376151 6250663 149222573 277859412 551375536 185388641 10153241 477696231 862768213 562203673 823088948 431112546 699506756 283477367 503982763 968577003 284320597 286653222 350481941 951926386 136815033 808990045 966071514 93770819 487512464 702140701 843884773 189634259 847977028 258479246 746393 519860784 824377072 99553628 195551739 462607465 486401403 720724266 981947481 55719759 292501443 951822636 392571460 632473433 489733356 835400201 889917668 29389464 30495172 342977117 786060082 175629259 460089608 116268906 733319214 540398899 45886715 575490818 819428824 759911344 38649353 232942349 517037689 921968592 987507480 555262647 949295439 952903696 125129890 354904872 594249606 960515580 358921366 22571792 608710106 125375956 742732487 853045757 838668774 172362093 443762052 531547424 1590014 680721299 385501432 387498978 674556629 753154599 809930252 479175006 367675400 528541503 899315139 433353135 691331815 429044337 101144928 100346874 607203261 984209004 762067120 635652678 331709938 677734718 103735784 626129057 991004304 689018830 146130628 697138120 603362808 280321740 104456544 93702496 250709058 864213933 177390293 527720609 614328252 447166670 424081035 720527064 779881571 915055061 451249064 838229384 219941919 91942710 783742865 818748562 395546836 475068603 628693475 611310060 357788094 889155011 304864919 131417966 114184647 538764251 239957337 911917900 31641599 467488536 709137353 226387491 200776566 575693023 629877915 306005204 839573373 822785191 451955172 667232815 707744290 940019141 613472525 762499912 652251175 757163514 804344711 526769260 283511800 566575509 549922948 120123866 543576861 377295377 918427254 299514437 942637209 338959294 986287271 422887806 822543375 226360186 351569255 421974907 870043782 511505063 305762535 41516944 254761421 205768072 588018813 362718126 639727400 590280972 653237797 264217031 906950043 556134437 705323119 741670196 592575430 707720611 603865941 68202535 369258880 568350444 986036205 457869937 327758481 500036166 679042887 593363086 783683068 898067630 44925043 774438337 405927419 92517586 328230091 839501339 345878402 679783123 375921496 739463270 587489405 67086788 689299040 419765648 600654931 43968939 124209569 585742448 82559520 403277565 515793132 842200114 525029610 409947605 47217385 720268720 598272407 803111274 333414222 617970070 464597713 19177005 52792993 67033759 653966105 103348079 195787336 930881904 757683830 817576564 564603552 160586008 694815966 398420034 775665147 526693608 296895199 992210683 138373866 535398847 709801402 94173984 931554678 99692797 622728721 576116881 513301964 162562439 25374399 317458636 191993798 268017426 627940337 232031619 705908877 256813009 124092183 154137192 718167999 635858760 90354562 526926867 265548545 527777723 541875245 137032928 961052985 650111541 639054204 464985650 476877059 109349170 522097760 990337341 823079991 329621972 845586695 87332953 605253462 22626022 227381212 484079697 181111442 979645908 646388367 682681369 99571358 47163246 111437611 323392618 140533199 213017178 860071741 844407534 765718624 540663241 419453518 225632416 113530634 270697648 311566021 22760089 486489761 853603616 601560833 288026360 963577384 327768034 947332906 298475761 69408635 394828536 158533248 83414686 339971736 803272271 553691452 410541414 742322258 499756866 506297054 637303605 224127627 850456024 413352558 970365847 448639478 251209577 541905418 906407305 863640011 533121331 247282790 464513740 961248997 974272883 519671810 599790320 926977863 885533898 38835326 886996320 244102894 211533419 922449605 96217842 550793582 352453244 488919116 683485046 93821254 784052682 432771871 377285535 759024861 310250838 191001031 304599691 605575392 56903642 742736466 779838935 472183822 432121282 447283736 371227516 300133100 378303209 630057367 445075747 425873028 441958976 198277881 106057929 447104901 54561674 928536287 428430134 457583712 688693738 99375344 873895296 830892134 967967773 514221984 865016419 577993641 70432364 3005169 20624123 258941191 413269228 239591750 86261718 740457255 196857247 423943708 663155958 604361638 675157703 489201047 835755289 606503896 362866643 592903912 948426263 443191214 702568929 560316227 370095862 821439539 244044390 897141350 986922863 250736692 434938007 601010025 831709684 369494557 43823268 894941586 489410371 280177716 330795788 313259324 57928994 411619824 81843911 767962799 525422564 770665173 287732949 513594339 294492111 619174386 322878651 82832448 337063069 109190796 272041752 10620145 79821313 495859651 857075355 140428830 928138806 201738156 618802134 993331757 312153984 372452723 460361436 378357648 109144091 574445034 403328579 602682811 525853054 208666223 123333425 545084003 796429283 533062690 652781975 461905168 619569984 894044607 155938582 598426987 199686005 509301571 511889388 347600943 485970915 132002666 659578396 460109617 89758781 516999967 841968830 108796452 724255643 645184702 251879432 651501865 506034703 50512044 726920206 494036963 939873026 49091600 951955004 395714863 228943116 854071396 189834088 360744260 846021512 577101333 748270546 609459535 730028086 108995650 700347558 550786251 228563096 818251867 152335778 307378230 814083764 797312274 973186662 604609086 13139509 58838615 97010476 342914655 692074366 383277130 420961899 165309724 261617001 626516649 65695469 531431029 558356597 26415444 834640540 175123972 236289495 81407295 579780144 520415130 111593556 89986628 834513550 437867593 104687040 911711216 535634858 69382870 219205621 538956213 172298330 359642520 686373104 954931453 450212154 247089177 925630003 495718641 762053473 746736459 672861878 734134026 198855677 117032049 197793569 228691329 790691346 799025649 452188479 285159861 503119975 691817099 684726091 435451300 896808831 492368703 188701505 145473259 591539931 482686614 876289063 558094520 642087504 264186530 552974181 689647797 356835861 840735585 958737389 7717441 242913519 85930208 164885263 96766209 255695882 658997136 711528472 843237399 36957149 874041287 156890032 903770022 303788534 88227865 443616600 371355806 133934778 182104137 186823143 288716996 607969013 954487478 504688864 863821421 149504498 97550319 684968599 928852577 785760719 208225900 184044774 648268906 35137479 184627584 904035028 684668190 398357840 455459965 150785202 430134281 742785037 304197592 204541725 82052013 980884558 768206344 599262739 932597508 673631222 878590569 546536192 678279379 319494873 855818550 902050243 697768438 624591865 548717890 811343972 24732412 782864874 76612521 3174747 889929941 572018460 906140144 786295777 18248939 326239181 153212516 403423116 775265573 51569431 32739078 136535709 464602104 352254414 930031934 249585724 523291441 392512778 826261661 180254937 222071347 19639192 813646349 946392760 365545657 45101196 438419866 25218285 767452013 232250313 483838760 303552814 34032528 140069755 926233810 39253241 967046151 778350429 628646078 331378798 128651469 829102667 770002709 435395327 266116374 427493250 501621766 315030260 319603660 962037490 49493940 34603159 296058201 374457818 673837340 916521579 837397368 788417320 317105552 424452371 714225908 188086359 325529416 393684718 693287122 73788676 588506517 958703502 742096858 898902443 50171303 878266491 301552892 966582437 901446588 603209725 446167786 968321384 83585239 984801076 64539592 928592121 903098953 900069873 30461887 395986917 48161166 573680005 313653253 969090184 483241849 891193145 551898042 224446988 67624535 110191794 11993920 111530686 181368086 643668038 20884817 809858792 266700253 298231179 540536452 836860124 533909425 479122106 133951868 575656423 122194530 730456949 311083062 517349572 341549553 615893795 423350482 30893804 447487520 757524970 762362905 198899561 134770394 732608026 301476623 230232788 944254824 870405909 250247077 910213819 953615167 853911673 695045469 684113794 831925287 501407501 263733300 179127432 958199245 264993811 965870541 75921347 600004156 32908264 238325056 812621493 705957757 585909881 259887037 532405155 468847201 480726718 164005954 697623377 424071106 933205747 214617018 168257225 214155418 203553474 468832581 983210207 550500168 654790910 791661878 229029333 923473942 751153127 404292885 110213898 45426839 952790824 400025577 727163522 684169935 732676365 953754447 828997163 586948706 65018621 789469721 236838681 847987516 890165080 892198485 473348119 602910811 5371083 191675133 134902141 334545345 679306729 76089649 355924912 2226596 75246969 449090989 87311235 357196670 571213069 959514675 559646669 662439093 943905652 914250895 693971500 734405730 769103284 750739663 486111897 503821432 441616999 837588943 866450048 61897452 601137810 92982882 245875911 289801515 448903599 717703316 793985519 61356414 694439941 69058566 318530891 812470347 906117322 135147042 661622025 191069161 753224171 254393907 901619124 333447328 449752081 861839635 328875597 987060938 14324076 189416459 352374866 404777532 30287171 908589773 681242827 924878387 293300421 180653644 319490942 313948639 114181314 963486055 742032858 456204614 825141302 428972048 485221298 678908313 621757625 871118296 311203526 731988149 835340328 427815310 652489437 559625462 457398447 340460299 107023484 286896535 152057428 52785825 345902396 319507006 90646217 657569028 217735879 537549750 46240062 177450729 444644142 996460135 981907940 533381345 33754499 74373060 830430405 549222583 488294658 188561028 195216044 860950763 468394929 580259384 664282957 460269396 701628798 105327534 249062549 959292227 156311183 906845362 898895149 374454818 225660367 171684360 906883307 913656977 892978201 567953333 606181817 626689025 729950851 212754397 664106453 129207332 211808350 121542389 135268672 543608851 856735690 843187458 515669245 154678122 325369471 895651696 888127385 999601912 487037775 262256152 919724964 86684808 894740794 568920250 932515030 481139009 99282269 719622968 52106455 732069133 126517439 440477744 730925207 159466036 375665667 915775993 705934416 933897546 456433193 294216918 822713535 937555086 443714686 493785044 391984255 850705539 509718505 875941855 114596588 285117197 454464992 431327855 404499876 355762284 653918179 565615050 480259224 468905954 221118030 658364271 649662684 358959668 931371867 483908785 927235977 955271468 510534414 190412934 675983391 202910033 204881606 976885690 418470688 94433423 902753805 243879826 251163222 299218054 852989529 554266765 680184830 58226449 127151409 184461888 627070062 174474598 449850342 550713057 785176369 651700345 603123266 890736273 175891275 419871274 103103960 762152486 723520516 426774047 171250499 202051523 149639967 753887355 552132866 92962074 807917129 401886306 204007496 901047100 216571112 594393973 586291863 227756830 919608476 944182872 946103476 225188324 450877312 726872189 443413732 920326093 368834802 865922344 424966952 597758298 673575917 814571394 943496299 923366779 125189602 687669861 184070183 794379263 206909071 630149166 424984131 150302698 214575365 347451779 354991688 230163208 594453594 416808757 872545391 13819041 270990787 343656999 15420004 653262245 233816914 892344388 389057909 563553291 424693459 585038009 659591976 564525034 405989007 638841307 452758082 980323683 265284422 36702275 489381225 790936598 308347671 162756593 130486318 611947603 486245707 296661677 867799549 944415809 643197575 352320448 281873889 670432735 73996179 908817824 389829844 86033171 433336354 796653281 809905881 95391072 641258516 875013765 82367071 356319104 671211119 104243556 907141465 162100528 508473666 355149247 546297752 497497674 804487816 960605059 474664100 747153109 216596421 938057265 8853276 256538038 512520138 966445332 955640826 498735891 52120989 268061362 639499237 180486085 658599809 747007477 412009166 509605538 11651335 965139080 597521130 639265158 312772772 54889945 17601781 806269455 60245990 777213674 639013192 330227532 531622463 937774214 495716420 784781559 420961825 122674390 467572080 485629847 253602796 684752211 785141731 413713567 375152946 85472286 170864109 59740525 429841378 540677596 709413071 932537942 353779288 929979536 363201184 212174422 245270389 960729154 16300863 360368376 93758506 170378975 209955750 810547427 552912225 483166905 344875646 882115641 775601167 537397600 686171489 205998475 99587656 671205645 911589753 258119567 304072242 211685790 546636699 439243265 246862900 335348361 431463177 971384635 820399419 196214512 540374215 892869978 794233085 696167443 884483665 284268575 991497767 958548609 297136445 649128126 749753501 671984190 638503408 325607497 774462869 662626788 76338411 645663369 216627861 691356689 979807958 176616556 296354438 354096183 516649010 133338527 127084020 181781795 400976123 545467966 550256376 568496852 203947792 639597525 378884461 735370092 82327690 579788234 481884527 563960833 236448536 889969428 337629245 412797238 203242606 477597057 940826498 307351476 533036942 309525420 429815642 616710346 128913555 477557854 291199047 988711428 193076355 772603272 930766932 573385904 217039325 301104979 77607397 651386985 281689011 783069376 108461667 659384164 370691167 818919985 326017304 429673159 858630914 352269574 402772411 728745170 286904655 908204773 788735311 323344441 939275895 369749552 272067771 298796463 880664508 719907265 404596972 622409187 163439871 603410807 620544862 141104128 270952165 500518734 444079432 617030849 416957044 899741506 918695492 185482400 677997011 826336582 192070055 377562259 705516259 531603152 301309217 53087823 120913682 260427989 65708464 967970703 166833558 444567368 261689408 103812974 30888253 441904797 29293144 238643752 918291175 262754918 756255160 736227816 647043194 245580799 186262516 845757683 982492321 367220267 719691255 180328501 600196022 755291380 820837055 367075697 138990606 487698577 968539809 819370663 793809450 435479173 395884878 472521463 200798699 88490668 106373026 861158118 956095601 873248480 67537869 747694133 177574358 637621983 369863006 710025935 375927374 570234727 580017076 119233444 22002003 357297755 654671016 244577074 575697493 102182283 407992914 175831080 415347400 672052172 846148943 369176018 912136373 248560651 594208503 712538053 339737834 270308051 469930478 364298917 919711671 336615344 781152754 931119780 135844561 718472558 709011579 231101888 948934890 175120528 696406928 260467739 75840190 569347840 521276863 144661196 151569173 641618997 22620787 389694886 35618712 337583276 515811794 709162951 690716515 886786309 238002586 780997919 578787599 194091905 704290942 513454496 284761146 862941352 778807177 476993 780470959 343812253 138650512 836071202 202390429 456656677 619220051 16512482 755609947 593967991 919544697 994007989 716229290 509742401 141010705 776557793 855175317 966081821 901427579 783345455 290355418 805959490 438694203 104268446 335229551 191686019 858490608 985023714 876555023 705807743 21356676 908273537 803574866 728577195 649710556 105007690 961706089 456606965 65360751 189030445 969404474 153586411 640057641 315670763 616288108 178039349 931812451 930275764 317576067 395854332 813709256 410617812 553623751 269074319 67080750 396035049 81473473 249864559 421461723 355184562 579640026 971211039 789890340 643693564 981721188 764263911 51904806 950765594 471869328 477980301 361158950 656132723 751780000 387896781 607887908 21299372 737643780 912310054 918803856 301222021 448785381 647309319 279536477 585728907 429992635 910157888 538207706 391429365 619018762 925303138 756566364 810484316 342947082 151368282 247866076 118408965 202730591 638014305 471638273 152459675 2531719 346249054 101604484 794940250 343093189 278391547 66462839 548316581 264415545 401129309 164578967 628660407 785155886 463795333 929849481 675649803 564443824 470975953 394182203 811036263 561890472 795932237 831234701 673925276 105804363 295173537 9748818 27073070 68963892 632301382 658738222 74143137 748605025 722782873 672148729 177306659 641025504 233955118 536063884 658489536 782844852 479363081 684407580 229466858 661669346 91320130 107744952 390975031 172985020 609340038 845895947 831126907 298309909 772580714 625819905 752507115 930119174 280598346 795382952 877884466 193831807 235561750 422567549 676003317 132018876 401488629 870601482 399143619 204340926 800523557 570976288 795072582 253098563 894810634 923086385 526552986 422029067 718099920 88555085 658172929 923912085 831125707 248297303 500967854 857592303 272334178 437128888 744281399 387877244 567376017 762131709 869635909 90324031 500708365 209348459 516220797 368722134 245192000 670275033 664144372 961760780 757731120 754148511 969922064 884488489 218029682 395253900 993275707 508439575 294395933 309815621 130209219 334583546 788449212 980112815 528984846 601138593 600625189 463561152 894389302 587571643 482774279 317800728 478221867 883097196 826567540 880416089 764084394 371508373 673962718 624156724 800881830 540862873 27289333 615078339 473154823 474155407 542288907 890889378 309122278 696667145 775998987 733304030 444776023 729948115 880531915 26784958 686435656 161981615 312184656 938809597 161624367 676968963 899012232 72584549 79513710 534515855 826131671 625884857 499913537 535132888 539138479 394312107 557176620 98299302 653108535 612333552 137704238 545797645 639678596 814735203 309675020 540353087 482612936 9468204 963866380 187502298 702964398 758780102 358641482 383342006 290632508 430595627 450794388 389912180 624627787 126478944 359153652 302614757 520499386 185499704 559964522 567048012 496079572 154643868 84881835 40059254 121009455 623556317 422021615 155247498 672139811 484626848 750264282 374394590 26852053 701539786 147694928 592142758 838361884 681667937 286226311 907176315 455744252 577737709 968459523 683773908 15934076 65091482 568588234 980835137 507378173 921054198 467771844 695935174 845982666 750688801 146062492 111794850 7360636 397083957 192897868 897424333 40674058 438781642 138886857 482285641 182538609 693588964 860883494 763292717 979007365 775074817 315562775 150113617 267657050 276667119 226585977 752125231 665374154 742991015 313780928 825852180 196486592 617686961 362594992 373658716 726265182 195305716 167335279 13169033 128690931 470667924 786594951 588390647 542248941 95249336 132640210 398235534 669324859 371978516 478349173 37914261 333704401 711607920 142893860 594612953 172887653 609486488 501136221 58731276 932345741 51492058 701818395 78024800 745303055 370697841 237741937 184552420 766872070 898871726 646679663 516185810 686770873 849001359 625637898 995395689 340982545 517436011 602247920 691417755 456614621 345644466 338257793 443964478 444734076 378308962 172481902 386356222 637890819 700949058 224061745 856614670 103419892 16219490 96197899 739032655 81379598 424791136 338899684 739274932 819831865 984791826 25773556 902869166 613824665 163862323 814834078 99006329 74749605 275192282 7056613 774041882 900675918 462616810 393606393 959139131 553171642 845345554 198642509 73037567 526016168 612898680 275124552 528373878 78565717 326998999 919072169 233010760 395078229 905280470 755915590 847650741 289574287 749896992 746945454 179636488 377321307 292389668 683094851 577547197 810812286 162139673 811702511 501007546 134624668 782649907 502627102 223185517 588274582 325679679 369799124 552382980 666009306 189297166 751396087 360569954 274727017 267052303 324703290 231741553 452508020 608589594 282442400 791450148 479236349 760884542 751730683 29414115 124771908 886001786 4604194 841911960 300116770 229296946 791335313 976440767 293334533 796038957 388621592 514423450 227291098 323498316 876798916 746273613 576231256 550932728 150795424 321591239 469462029 454597485 352008547 167891752 750997005 795586402 81319096 268028588 196120474 703019839 214498422 499704792 908853855 171486133 991665758 515228435 727035821 728173591 610220508 611513415 565344484 869767396 928359437 707640791 207834638 341595683 281659741 547379130 617945225 779952943 839022002 92383019 929500802 854110996 947322109 320336038 936868800 935788816 185250395 626061825 893386874 358018734 467799105 622158683 958213821 254655399 655800823 730853031 746886866 652805740 414262400 323832146 913216314 509273209 776640636 337578551 438650043 109695483 58198558 592118288 352766244 283015791 341633226 104046506 658092211 382232688 492573584 318903799 361826646 261884530 757082818 405736249 255965424 163078143 943001750 546191197 583455869 83002437 945291246 861366602 217295301 38352169 740081227 50684732 996186516 80821605 591800645 153938468 824317627 805781534 574014792 557209019 766737480 894084648 596885329 695448944 765961336 46481464 297312473 803298905 45689719 248383197 586529613 702532285 689493391 554863871 137865932 918040449 267755791 446751035 346994200 15698467 204807016 855285974 830602928 330135303 47533809 662538949 830685129 574633075 287415853 498029436 473744190 502488499 842988937 497460815 903835504 735483065 966487459 544018473 776900392 140220132 170467988 305000049 482186317 610774774 863238283 736670756 189499261 325274286 686512734 399216238 50511722 544123812 308538406 727152142 688214673 674286723 490129932 88705066 601595998 90559572 375610261 46086326 979065419 897664302 813248104 724615280 574647312 942567215 434291392 90733570 693924775 435133424 548630289 797291324 470831130 527336709 680827881 340112363 702548952 360090465 1239777 188954899 925166293 498219570 855517140 388787090 721830571 466855432 267993747 461811028 948319854 703373623 945090550 255583102 88325168 778447145 260542575 947215186 820259269 795156289 24870815 719892485 515276472 887543867 269068756 383710137 262273759 214844584 14854733 662360364 454446281 887407656 383026269 842958214 794390850 100382637 751633387 863642268 602069028 383774903 703253829 161640187 564166661 199311194 366874139 416967011 939803737 169223135 104784904 738485937 980758957 127513357 556788661 413416553 285273409 650403175 26071174 683468096 318591622 130672286 943732988 183117785 426560442 874248442 867841418 242908233 331366156 859469554 642897756 443867480 657190789 119097974 112020609 819878404 140866405 545158772 42494041 114723957 557747801 765049311 11818637 856650297 172473377 659434870 22117312 417699792 975815203 458030901 540821537 80088165 380793927 77810131 614965775 265272295 487234467 917077932 367595290 389510363 339146807 201017098 612788907 108928002 40891665 208868386 455731504 737959140 970509025 274193383 289007690 818623249 313405163 320973151 839874530 403933332 495796485 175513131 435367521 137792802 114018524 161731509 838418408 348374620 863434609 164156742 51742053 12689394 591714125 215440901 95042049 566519103 176188836 517374192 562291056 796910381 417466629 899499659 806155072 506336567 479427085 248603364 901045892 401794045 128355162 895864958 460765619 20192889 494582576 938858747 359902359 218833103 326263803 448602254 300236591 747003424 686025726 37186657 495264783 496091419 146624220 324966041 849978235 658966554 391986631 323161730 56421441 406897945 823667082 222377385 966748227 607286082 88564330 362355250 508111164 940002659 9482342 532699915 321250467 170688064 745982284 376326849 278825061 440283626 567780883 640549107 118810625 727072195 567706976 873258238 797029433 311154398 451721404 986144765 954878960 885368616 740329871 205948911 968619827 762370702 51280699 470849943 52203671 534943584 655392832 683421837 95197350 903656606 278721390 181995779 390549102 304579384 366761752 395177219 986916717 929465874 7686791 866466339 376580966 147618409 727226172 132527135 597332119 373128627 396065972 243751974 617148734 571199805 693698995 414585239 406750655 129904976 383041480 368258726 111472855 342450105 762332750 261497949 924909553 385619409 263365820 284181429 528368902 613026196 532159040 599488515 414274199 998913687 294940791 828483687 55929825 560528464 781118065 816556914 48599365 334045715 905054136 691978160 109446013 396939989 321187530 875722554 465763314 966262750 710036637 548851151 217093125 797503373 17776380 628665125 29719212 550633846 739981947 288845727 584650574 674550534 532054063 139004653 954144237 717428317 866968914 168379711 77121707 517783025 474131681 42383473 388695656 399684099 207493517 569266425 291461853 916735933 703508533 599592908 202771949 232206470 925475164 949934113 426515678 111536366 791208155 734776410 472325995 241623416 453541614 127725270 522919332 311706516 209905452 365698126 156807077 989533271 571619489 36768255 507360982 705286914 629108874 625715023 962256367 222654259 379199158 813752773 961396230 850981688 752409045 196557347 774715581 762830764 3127025 907832988 541423309 136324226 363063678 780443026 225907827 306376493 517540532 185401589 443786125 575680510 204118972 873160928 719716889 130544365 169833103 801407603 815018616 490112754 689503208 25190197 892301310 551813234 116409998 931655123 463242501 499406574 869014643 728793524 293871848 174052410 333854250 947817276 293875510 185115330 144248511 428102622 587479040 411029991 368881377 491037366 848270991 918225528 986802026 470760659 713955786 713330391 752799805 49443884 603457089 480380967 44255891 603260874 797222624 960504943 173907415 831655945 119732098 132782254 982016711 340525295 449285739 286498746 786531500 366715126 514398431 941095078 98210993 847871126 726157726 471861802 195584224 297016199 370769155 605873099 363351843 944308135 888071878 260898015 392342894 944573382 424088860 170605848 72186583 797163651 920917755 770547995 459756776 450418189 877796282 265713580 563762177 346370433 80397937 130454822 285515520 277607618 342039011 374904019 263573870 428666242 935117965 444597497 187362689 501046212 547938808 995440536 421193446 200229594 196148716 368217493 460655082 764344399 488671352 687970633 704863730 204445069 997166417 645138795 967170733 213039952 465653810 898568103 747634997 759083999 202789661 436387411 141369894 40214542 504280369 762410250 80478638 889456482 339376882 291131887 255220417 205738722 866824197 296427014 138091536 960589024 938762554 666669255 423430830 596407938 186720378 309150571 153780137 319329070 231598398 613109767 303374962 389472801 602901548 104381148 65487057 651114999 997788010 186399126 680563436 605477740 45185390 157939826 382448998 354320757 382160846 735204910 722438580 336007972 626095461 9563369 181834469 251639795 855926858 514006357 712385194 922206187 274345192 836721853 259300228 74852015 609009346 266605574 371495258 706106372 751287659 707203480 805884211 343931580 214356544 591212519 178465869 364241193 435953562 385084403 11757280 589524215 282252590 548193081 930762052 714607042 544751562 84342696 307769601 102717900 764505922 429521065 71145376 827459648 753034223 11345183 663275004 426738042 53561628 223807545 418478016 287530884 141217506 893988066 235432051 18344567 63839142 289004739 51058860 981649166 918513150 962372505 425491748 842602791 693679350 448203385 111608341 124213778 742061382 500185281 843318060 529805657 661964688 498733362 122287723 122588772 432211484 159673191 193642131 880812642 484951246 953442804 559721842 941022729 717446551 900276296 892882024 300489359 795621104 804195399 738118544 299079138 680308941 218593220 950227728 927089920 300646393 195577564 247898221 960250536 196993735 942458011 549276439 297487259 476312837 930950862 980845676 64819023 611336279 595933734 316535016 658459953 536218854 606656889 55164670 212234068 130215725 751600980 926360974 524276171 440873442 836395275 904283440 775757066 896964625 1186793 386116559 957612781 876478694 401676879 316757052 723181237 578149115 454521634 351422208 562543854 165897629 308422414 849182204 931887629 788521348 178032928 434815884 36600110 746659092 344432287 730857556 675823874 536460341 745506803 640249465 365957443 925754945 722314699 447659825 460090607 335095274 28596860 528934095 757531531 188391122 275347834 322941948 665083616 617782878 266222685 998273726 33683040 834697021 492758492 827194350 48083401 89753780 958904396 555732090 353154300 449251588 181715937 595580312 472775792 947956840 197827623 463501933 718952558 328718742 773582285 706919774 67603395 924796951 437848873 435995741 474262354 212049026 625533088 228930870 139685543 195534245 301375798 102171677 651462735 11125489 423998564 548345982 763257337 390369838 606786591 482270659 246017822 257927543 908912157 970569485 791645891 762219297 541709618 894565555 361296315 242753759 983820446 925023193 820242626 591587987 696332759 409662543 232453056 814594321 597974239 230693281 591909561 153253991 412437583 809771291 450176512 268088831 666963601 812746227 661111278 459956504 791644484 827683602 569770303 515668790 355941278 32704749 989174023 969897612 253473277 127338710 419308355 605541083 541570870 202664247 416546392 955168654 387166284 559868575 860203897 280688549 888769580 209299292 837920859 795818425 223250632 801915832 25300476 988348185 765486539 603161947 53245692 924209515 444409317 115461102 784701850 938259993 828098109 321406592 950887641 285747823 936598455 46069789 129344318 580165889 701596043 540827584 640167005 941027306 958832902 742112662 787752938 925046000 302431565 724871571 539675799 625432493 450994918 13970071 616473174 590261110 70567807 47714869 784446490 773087426 881447711 676690270 295290677 280142490 759839733 199149794 711430016 661557672 48940091 305151759 586028087 769010066 762988906 366334537 644538576 291789005 304038510 892984741 74803853 978711613 412305224 721562162 481350353 632890002 178442250 465379072 533113119 701247121 61101868 840812621 607074380 659221905 948613706 546509489 820674718 482983069 122890370 386018719 448068485 728521544 684468455 631685911 353239105 216370165 716317115 673594437 926597519 459120651 478280944 195417589 526834835 136904533 206421323 576608361 984344572 555413379 403242279 432598585 275341697 477563711 614776014 542208789 115956191 764274047 437217530 379526114 859690532 767022397 236649627 950308360 81677473 720102042 778558843 759632569 399777404 235694910 7444788 853053803 628418227 165127335 895411549 13767099 920995631 726602965 284583479 891556186 320982282 367785122 919801070 485390467 2939785 991368531 96417828 339889629 334793171 419203438 308147910 858010221 731810670 919771120 186821416 323891868 11513788 906498692 530285326 590159173 996220836 66194441 816174861 739075930 199291649 232497133 60380099 908964136 967634510 561209321 623914494 991149674 268367547 135269937 93774038 978684235 726752134 495031954 472171172 469862750 851279616 307532996 962025401 935606168 517199222 78131362 864023995 541189920 346372613 55404678 702313162 183812301 772414658 299370788 838614462 243043743 451859624 68359343 58390789 990712912 482753350 14926672 352867454 241943793 613222811 106096101 260005666 532387803 967787447 307316917 837758290 210640227 125107926 65675994 369861470 933425779 401941189 263445508 855798754 283251157 225779054 646340630 108681277 554642370 479527530 656139833 194633974 376779109 145277568 871750361 79342263 726229602 30126934 276149298 151807200 125476881 135116000 620399668 453868884 841760839 290801882 174160015 805700620 395357777 691275035 190947342 854575903 668394809 200672590 997440529 897373668 64074352 910845664 718306599 145524723 872615253 861036529 340398251 995711900 60693565 680745531 496791308 765671484 27845116 173966668 228470404 163970279 105781264 356092157 163721964 856271098 106456858 176936256 183126537 792663839 892195954 268229368 123813566 227305681 840977482 794608201 481621601 526580521 932210641 298015238 899917811 489868766 789155357 181648422 689476150 782734903 749028618 931548357 805992060 431749867 309706096 182797299 546407708 702234313 624630761 312119079 744676482 563687649 514461859 731385244 763239391 90859014 214617097 614043015 599583644 866235144 806498594 888378268 130940545 443498223 517409096 155909946 975527112 262753139 95314499 448312799 386055983 362853719 467691442 105873742 96565423 839131756 940763134 94856475 692182907 363320221 195690349 195533156 255065073 119998795 285545418 900099906 873854516 559440424 932094572 499254991 336560832 301775007 133937756 737467154 553599837 948319673 84518983 580729136 804084164 618559900 311260211 332151784 450767390 649702120 595997384 839982447 174598315 35019888 108507261 851006086 183434469 617280607 491932339 220309887 29820975 885116761 421749617 463375785 857330415 753293604 716478053 236951406 281007403 377163873 36997385 570528472 884920138 787184640 303536907 852647092 144169265 157827774 732046411 1251166 227442765 903461426 178746629 679504956 943378569 723290135 951496137 951752632 206249246 378181500 757525045 531620944 247334624 125417921 651077377 516687948 379075144 438346163 586621073 835733434 849216280 787179715 224883937 508773741 73301018 737656894 755463688 953805167 657700729 202278625 943618218 193700274 999990372 831827367 581615617 681144272 753599637 253177948 43601740 278290000 569417765 36555671 105653069 769842057 470304765 312148546 32322806 467275461 676294893 123897118 396312526 661349813 585343346 799489987 331912666 577154367 894455029 511611343 973193596 951937514 826236978 392859770 680295525 425195839 324889262 284180415 949388744 537632817 113852690 301587031 635887843 368330216 915802266 68105007 791036409 385536670 511471506 956912075 686763752 339834633 569248670 449117348 204060276 525166964 685573007 337286227 222685643 550898219 802713158 843259602 656248590 691017048 906519467 88825127 799713124 827339181 302261902 386512263 787124900 251404093 411567367 811529953 684742862 258181719 133418054 873662300 970438719 840717568 999277846 143511134 333953173 675163658 32644148 578084811 164908211 689582721 122230132 665638746 305185665 30489301 516011077 126558551 799587837 172862509 393961825 927552437 928080493 628632882 619348819 263860783 759699467 197304577 738426639 642461155 987502592 938410096 706337839 933635034 175202078 62322828 368367320 264028943 821773511 139765794 278689070 833715683 203194940 741132697 426450024 827042929 849364661 356468103 112296284 29945807 165900440 199032976 467233043 64533445 802450532 995280891 161273562 812228960 249929897 754808482 438337872 127247860 647030578 665258580 774852094 573293235 10876537 308207622 898486224 328950555 538452924 64935475 482617667 62764053 169614954 390869241 858727574 659477116 983713469 998806377 776006953 859638922 20512538 15525148 437400516 884814034 684809573 266401349 776145997 840343608 888368116 133447876 550636119 700037566 236876659 957434267 607293579 944070251 270733264 178216956 575133778 3615221 861360173 410755226 281543575 584717116 834664918 479402601 934934168 325306909 785034513 582199421 548035869 293144415 238582559 744544504 339530243 597187328 985902066 664716486 417910816 823654279 160853786 58549641 980466700 514706077 798094643 653362011 493072274 934939700 809226253 605635256 708418935 864509765 299205567 208593972 377803740 211449469 23747030 403141389 119314010 914633865 260262213 43530845 587254707 291341595 212337177 717265814 53893707 748754483 675372895 822010004 363464252 260909476 745157434 367346534 593995377 448984375 624431142 499349747 835664638 178562159 736419285 906842488 542467184 493150161 85530021 476270412 402874202 830487101 570884280 943803614 12961583 511006184 182028914 437595676 984497623 842802363 229218694 505879268 549168998 391057250 522996080 57191504 958350924 630185493 572786810 458497068 901212373 142131401 755718220 876805828 101613281 916245629 732530186 660991329 739042841 49671180 313163970 840112468 445069783 229468694 233143148 465784323 590181310 237242292 992325174 208451607 616267812 802479298 846226278 877245639 386700299 178115166 324671502 413400156 658125397 637275220 73907532 767030605 722777188 399436089 168707834 915775321 29882439 576447176 164433642 274873787 326870410 237569780 228835155 955124868 24314156 556269101 154121390 890222379 754525226 657562618 552768987 261536428 123986627 762460159 323554967 864557836 33191361 682679989 14811200 263780663 782267817 87864257 6064087 798139519 159097214 569303891 978565613 302652564 253242942 213619178 635543290 253575819 222285201 549004158 202807312 823702781 915078014 130303207 774747234 918573436 574292807 17266691 281658736 686010510 206685542 421352040 846808196 797413347 543426812 594107079 295656240 911968378 962844684 922539326 890738215 301060776 262913947 706443877 722343137 894316210 65711908 728176298 731102300 948387304 279341347 505110945 276618119 738097775 859962187 770458038 494522064 401937434 366995088 277275127 560929177 161202231 754431544 762967636 880906377 593835605 333146121 171039523 744961090 225893449 279608960 125740734 853699070 544670291 663901020 246639133 418723648 582432513 691191579 473826584 421433618 381010777 634420774 786915144 441252752 123387668 862236681 197813250 511232517 937224477 251263548 502064499 694798839 235280228 299180521 65486099 449072814 473991105 785970377 846663606 707971542 878256464 444652088 253830387 341931964 359477355 262424393 949418198 367363543 340104573 772316661 117451216 237678152 952169636 223179002 211180055 670557991 512814458 811622050 293849762 369843986 853462245 646664514 441889238 438054344 910807177 434719728 457843187 25338254 950277360 803154053 551702669 527429732 746086582 228097983 89376038 541438834 146700503 47940389 582528647 247336024 59128565 851281415 384047252 514489529 511878177 443357754 849301214 375489866 459099165 780872206 984180089 898806234 300078518 795172370 815145440 945339038 419401677 496834224 49200217 4744423 497893499 108164941 370002451 283356793 306760751 441551113 683250578 16899006 426015813 391411920 566366271 793044120 521893100 198385950 156975346 262328055 788779220 293122249 264270446 612916291 263523640 270119430 605740584 349914471 755748868 804797882 974259258 458546583 796602945 535104160 23942402 168163412 611537625 541195539 772700939 122823091 435353099 34760717 898795595 520887496 595051324 189468139 129917085 664958586 992496738 40466099 804050223 24741695 372928453 566904926 228472725 600673308 283174166 715619985 580917807 243938253 527405930 946734373 330466362 399363074 588495307 470521777 72107765 14021304 959081468 781173015 162167383 957108078 498463636 160951923 28163073 734422710 832541942 96194895 908092317 814800387 908956287 474179325 108753085 229860771 261516566 439274300 246838273 299190365 792266078 186778048 890626899 123857446 583275635 27892717 683602284 202408236 130262964 864542807 435578247 797893014 839817895 58158622 483383416 230432073 108129109 350022720 826101184 347870291 15072223 534251228 666168643 632000008 175388926 377933067 125843633 710129334 491665775 901266472 216444372 88414190 544272030 414060932 882071895 661671520 505434972 67699881 905810094 251100717 232210633 149502260 357078870 681493796 681542779 156230535 347484032 604902428 971146328 58740134 144644946 287176956 791607362 92660903 212202661 7751349 164148333 732396869 672757017 571298752 242117792 81989469 731878950 818154889 653968511 905065798 464020585 454052553 313369606 719982375 469159030 231382021 370535851 335817510 414406673 992889955 876142839 296938663 271812545 320617362 835085767 692058043 544522849 4205624 247348725 683720517 343000285 923174558 90275774 656611255 73553362 302945772 794346841 11229629 361488157 264399952 583367083 435965148 702267188 656146515 915553833 151605582 198330063 271530354 917982996 13833135 423525429 496805405 851062299 671186101 543027731 105404736 589829678 49916763 255113618 401336354 172508015 836247159 760756646 198756561 183677388 571604419 518009397 873886352 402435576 521773836 813627071 60300195 332749416 606170604 190582574 511484683 924961945 889603918 155948223 696172368 921154111 787714814 149987534 114543658 395781487 207529906 947014088 399090285 406181685 453802303 123341051 375988790 900936340 644813282 827259572 730556175 453087313 467234601 419568606 445837631 650692542 219501315 295190413 730189221 431153281 1240689 466668395 484152864 710796668 592621586 849526517 465641527 850292568 537991202 497632360 158566977 429011512 416791277 125058366 707340935 447719651 356327001 723344399 703811891 302371692 269155464 688583225 15141440 566972974 922468546 313253234 265346044 783509630 122029983 254863061 138033254 755676420 845529893 853426409 611222280 732595431 14219929 291988798 96812048 218392806 342056106 96104122 686956514 373647140 362230249 332237100 900199935 985513311 534447423 20492312 1167602 349496308 612276380 674411698 521602496 549428703 137079889 438280024 852177764 871868491 243491557 627848945 657464411 931233024 124967642 276284788 120829963 261398472 861911641 692648578 809185141 242658584 66676825 316303163 902195587 267388493 939938535 607519856 937623069 659652576 161712610 991191355 28416504 641487764 217068699 965571670 519442912 384012100 458869608 681379330 826381208 180777617 7875584 137102328 221786112 888814151 285727323 578864103 816688521 880051074 710073243 548079213 599220617 391293790 841490130 599670241 813361991 471586130 429398704 245634242 150863646 391100126 968244412 76540653 446406717 770513306 218046626 281396046 392807867 215679496 180143112 493831533 42931363 72341052 322757253 97768218 28034977 991509915 429643391 947724608 652476219 259948641 989331084 945964579 152210326 789975113 579371804 240454731 512455716 508659433 483272169 339807394 407081084 225822261 248318230 976096302 165740927 230786869 896683406 215598698 84583250 944021023 950008748 161770612 671131348 61068222 159042442 398253741 854513979 494009099 207707501 770705330 638785903 890330361 310145466 47609226 453171867 913955910 12719630 466021910 234679658 801115030 639233232 959145563 513243513 629316062 925547891 700747268 649631011 649448481 548994759 410638895 441488137 375821478 22638452 114926189 842996038 495256749 881888441 49965812 335677104 31201049 399186389 804499560 578561414 367068571 7954080 682591521 916254921 236712428 233928400 344773135 548551336 738267090 381710917 212690882 841700899 20421875 289182448 174843018 605219641 542105028 757949928 150246055 373365144 849117574 308428167 218077491 229582469 897144721 226451768 923609549 240587698 377022903 94790271 321842637 439385438 783588170 309131541 468479579 48189752 596956401 625721316 438418774 632844058 786512981 874445658 773986272 274418318 44294654 592391111 598262769 127672710 445793053 745159711 44048927 765649350 440969102 999030091 319897403 114448931 516660040 781860129 102548026 504123566 192108231 187236913 373770798 489226238 621742366 982820542 505061291 187023841 575045203 510148424 191300430 461344338 443190918 500278017 922480315 703695420 282202025 124758107 362258139 274957438 755384074 406049337 307602535 874604890 223749245 160065649 282363692 203229461 75930645 345312930 388428369 458702868 487586754 676260861 255013796 466945977 557404101 786946109 434546222 173910357 299112166 995834539 810748346 828384980 233031212 116488915 960889018 359901908 872717376 829731466 869050847 810929195 812897341 593394181 883741425 773132208 435056361 39588483 66957862 82461268 193391499 840120819 894063780 424923072 486816326 189277899 587499893 250502294 906860707 240529010 275025219 921519005 643247238 409379665 420447895 348604463 352965035 839875795 504577638 61568525 503282575 565864657 529424746 7016558 787970824 853790115 419686948 727948841 382150613 180667435 394909374 220472828 159752087 398694003 83956110 207190494 719636185 511219638 7273084 576703826 637762094 369339223 90202831 811258815 280356883 48819891 637412213 235779776 454158670 799652240 682532827 211890842 425986863 169305410 394363615 664634149 148205954 476213682 159853178 139008602 931722557 557229401 133078509 461134926 3037734 147689583 157219155 819161347 559485751 179998788 922046487 147009880 862953318 124402407 210583583 772709078 134804229 935300503 344315469 982858661 994962883 338213992 147486457 966382825 274123761 776475905 612211157 571899075 572952264 88963795 247820903 217897834 188668197 940745713 560532211 569515128 527728344 487882349 539760356 745912267 52312919 875079017 780392693 812609415 741323260 808999918 481681564 825607216 130351408 946819669 474163723 747976112 896926302 418125354 964762116 454387711 815461071 770474101 508264900 637490979 872249105 530380842 362837931 421455720 219902915 562198747 398219350 635528318 599746233 533058850 127102261 408054036 156095060 57734570 6655881 537886638 538005822 90895238 543217402 724720358 594119463 832464660 245272015 634251885 577843816 328163765 329993238 703464383 805112800 695172457 668627489 617610453 377043366 685895952 165850018 790826277 697051853 871249715 689628273 130423304 735683213 297657515 704601226 578265769 666238840 981265962 466276786 810575491 499389171 932163206 964301115 588820010 669226942 154703960 858281627 866474760 511783790 502015060 813022155 343625749 605485664 711604551 21363661 664407127 270371293 276698611 817257291 130413576 433069824 672097490 266643101 301309168 658225707 235483772 181969043 109667900 342863346 979067714 841947001 837830789 807051104 403118269 927610543 321203725 924939267 331571908 389833949 290687798 763226127 487996286 672422156 336789711 125260434 161520576 908977544 87917596 953892217 749525229 342092511 542691056 525962370 83483093 47298849 284739187 706927009 562712328 455579287 805729063 935469847 197684033 263545405 958514304 19698157 604522192 850004078 527893548 434966923 860889513 435841780 706322918 831954763 908236091 959293326 797166968 599929581 980392408 968617010 159115021 360629831 573920291 986906585 289842087 859803580 945178346 788445551 986754069 541225843 27990241 823994906 387013071 759455174 369251713 801143102 157035168 961685843 769747855 517567410 14340050 417499897 998100471 875965333 621123686 531274738 421608087 624450006 733346589 784852994 297421192 465627891 485922987 266419582 919740234 165014139 641370997 803786742 360243596 860158283 932024572 145056485 641651914 715038599 649456070 180751619 786121189 685143948 983495269 368316577 595648530 211608052 997897630 328425352 56841395 597875045 691376288 425774958 326333572 413923821 442118762 452303041 839086563 668109027 7346360 533779166 912075412 338096364 37224728 395869684 290464442 304604655 893483287 763917324 691565705 11431957 170530588 824844309 970954812 845822589 465612580 676085901 798436527 52681695 775296196 498008563 44412557 277509014 680421325 169929823 920618696 157974174 980161833 196250586 837003621 70845629 923559476 366998859 687393876 105993350 318208992 663485234 367230063 69229391 694054530 681221568 470467540 158183761 724250903 457996986 251313197 706606264 523775485 136026695 193100583 657047362 647063953 811490081 742349747 583073565 672037492 24031920 263208734 265630778 708078825 581198635 677496208 155057267 762592134 752929445 171183261 328838562 106387445 783454397 25549381 835463384 120533351 61508877 615564139 451235200 720060516 918493748 269088193 148779173 762858512 374934168 528845714 163781755 484528007 823057574 206319789 855930755 832345559 327630355 996258000 216165526 229034189 595047866 930984730 664361671 39606951 468369039 854248311 533778418 504565729 106335123 650321841 852486903 422437057 160449489 869329781 762506357 926735269 479262346 299477939 849353992 800565706 253554538 870666125 256922439 744320890 241117842 632152181 82629427 932690586 340677097 30462629 392808189 878731162 365473065 692469560 438153765 173600031 934786687 92647991 426465395 762751680 76271505 735266617 473412480 323993212 813353498 741678598 824833008 653726122 666307087 37984481 689791652 360669628 515507185 496864267 851673620 785217591 244840797 158007310 215000363 829345420 658023686 492788089 201855232 35306224 145725245 525078764 985290656 232498347 178473237 576440723 679982010 846089395 742656677 140845376 62725522 307359510 965715457 391891714 777062025 65559137 52571410 179529646 68618579 77413746 890811042 371540884 967375374 183009826 164514422 954424935 80656579 836794404 128585120 735320509 536518370 396813081 627408214 524993382 99025908 124929967 755185101 936960477 708027104 908145191 345217514 841057050 59093319 998698115 786479748 781345809 719374101 670067219 895310873 546488873 344219612 767826450 407927001 18222838 618860678 538470731 759656224 375713210 909785551 232130725 108766259 152466814 271550821 770066190 102131667 820945284 333462022 974960421 56014528 661606888 459952800 158913286 628284108 885679268 412871549 191933938 55527430 50884989 84750388 889326386 785847086 851759007 5725168 100736204 182312223 898892825 151735829 168578164 268833652 99177226 396725637 847257115 441744991 362994045 38414021 169232203 134365948 866022855 824001653 411760427 756962234 955461514 315665393 842284655 577951515 10845111 996264514 370059728 877762918 95993623 295522364 538434234 390985832 211777674 373297044 204601215 681075286 227424950 476387956 480471599 168186663 973783876 206214648 525947903 601331988 982212487 473300261 66443163 724307690 582790091 678746775 439080156 228818624 855068878 708589132 920296060 277441321 345444197 66567434 227014310 916200285 105733485 532288930 438274438 870346270 841097970 331840125 892185595 672360042 801341116 236856295 604796485 445811638 332892246 27900394 67680682 847489940 861150897 56757670 175958158 686843341 922065547 445968577 62252258 293215516 681936841 977228457 276137469 114460147 5164091 570304005 661859540 152477799 243873426 929301822 398092469 391060321 360349721 50211793 275566618 947869817 901736962 124576641 14997114 497703829 404304116 8773517 287526727 998004832 291199579 707749312 201782531 896574684 176641066 366238182 583461158 74763521 212692265 523894246 530902998 735037120 864251292 150033267 840755950 255984588 781307496 737586014 672884060 484333280 132833818 315189089 261508992 967243485 718717834 937717281 800839360 333969120 150618366 178509720 649539678 631136413 698501074 522436336 269335899 750636813 607525910 146126189 438458681 408846246 302373578 83759515 265724360 34819208 813303262 636112498 959344782 816240223 843023804 531570256 77336785 200440007 416984188 859745354 564853720 175912538 18201566 624059384 511504127 781880849 995937895 93781911 302313170 541656312 88768271 448534229 55963507 837502229 324394911 442723695 115397996 852598955 642594999 654631906 816298426 950718222 390353263 628594985 5486882 142019649 245912725 92240142 153101611 565295416 260808986 992164442 384847096 750079427 197152492 569622185 148146994 642464520 792181879 551727676 281060335 991140898 29698943 664742706 808291715 11613263 236766515 924099635 821559651 977066121 404618857 746227245 353502756 924552644 906109103 118335421 93195168 606076248 527417633 928248005 927321402 780890174 879533880 598115439 144858900 367421378 124479680 138596041 930062174 678716282 163926488 814654530 591424305 671156167 636137801 150919366 191590755 489120001 793567187 965615731 977758144 669160453 392312337 934604319 184500611 21386026 526215224 132122971 614225356 509756784 241606715 10524635 134606465 628047257 151471106 65513260 773512915 185212601 283844263 2601316 940652204 573241946 184348451 728407601 133960867 371574423 388881306 682860527 593326504 278954917 90998427 772115279 879902501 155702783 533428968 791225382 455591261 773330492 391045983 253719143 540306590 573111946 226205947 975139954 205072716 327720244 97162434 281240435 802329863 705964724 358350476 32915518 34480415 326138292 40455067 514205242 396863799 667321154 161497918 217980349 937261030 302114901 651536661 338032240 245975908 590535821 35002077 674853747 166621470 171256449 579407013 189189233 542032193 338606627 143612451 313861964 829926090 354380774 708840147 258800955 812859825 441284330 879856472 387490874 132613700 852942917 694379495 979409791 827330770 196044946 617374837 20933353 403201184 198100926 689984104 996222065 340275360 129334062 916231577 776170593 627112395 225500115 358577412 793412402 323870932 969817436 324341297 363576917 290981912 439307989 475917052 375082096 697437208 80134974 210047053 717260897 862230384 40477468 702412565 365974387 732801677 545140665 118395128 305997774 847610578 553501511 738056987 234959369 684230071 355698786 68586527 724304442 410413344 884785268 472636382 200119559 819711437 505423075 333050127 465976390 25825203 624530246 944692554 995585533 182822324 183203250 302112771 269572098 863583050 772729812 704604124 123107951 360617687 813695236 690540322 290155975 153140092 394942505 3969890 473362936 187892851 317934952 688994215 158246687 433337592 742135022 617475165 578799273 570090656 400375033 891063390 968909179 966166211 758340678 140347107 935105703 306873115 459032613 565714176 600414245 326706547 375082053 962198611 427621531 108399168 277553610 581569461 373925118 80208118 491652625 723307479 642159395 426316563 427517999 487378365 259109993 758511554 176760389 460788120 310268166 106923186 570816915 946435605 36647712 563841810 85609332 71161054 797770894 387565509 979223970 156975999 571335747 778546914 347247464 790070546 387373888 245941039 942108577 673239430 745703085 333217154 479056372 36777608 598008905 487919172 779571376 336135528 76976642 677365428 363953870 23510382 884439940 67425186 539726094 163876556 912773501 326321568 553590974 233266931 607780246 472584145 403454814 883631226 749470334 665464015 704319887 761606379 264226289 368795575 283431655 435398489 684769460 638948796 723097902 709215170 532740622 442626668 365013287 957091331 967527494 672430428 142674533 440761137 943175196 231665806 807084200 479951134 688540790 197378263 545380742 5750073 232206638 145229315 365994093 40934077 871364156 52414038 342295890 364828273 844155853 714712827 307313097 774255305 158029126 560238017 995724785 839699342 978032382 263408429 192185386 790462206 78355558 989831335 321238819 832352579 799593123 718036385 748022085 956986295 592884438 219191240 662419115 214388440 887994628 535027828 511261893 62709442 943769671 2068019 589686294 161950300 454795213 80583485 849102382 693543226 840908677 185083106 25009504 56011780 833628111 968110600 91922124 924020335 711012235 538651139 634249575 900973599 66380516 849770024 30576087 157952589 127802946 345698566 644568295 845030649 287304208 539627060 4052054 496563458 549501589 139731420 931098864 235243353 450008111 345335798 602952458 797379678 192666522 14059459 357233364 975802248 694691777 523852484 656604433 820538197 431905903 140332516 505263267 280437870 352490871 136503290 528410502 955927779 556628667 301131438 319210896 194826137 225937023 294751080 333783380 422008583 901523861 501441395 489164766 995007688 386833985 341055654 859752491 771120296 638960817 172029680 691458843 643330236 159080191 36478194 426327211 556457180 999826793 694380811 3384149 925604749 194757550 988591998 691108218 15700761 645044452 131410357 266444757 159346625 695125877 532882233 889451906 854070081 392938514 378736990 863670792 66781363 678256414 692002448 31221039 258276531 133315383 407735696 280018577 190873681 740588692 458605489 980033635 96390549 600614042 926326833 352239178 180456924 97644260 10610625 728301750 232574938 174744549 940018664 359702898 727819005 736388119 356659724 309389787 216634336 991702100 577775039 188312654 347860499 150083435 586248803 771149981 277836283 257602115 703875409 729211994 320244387 693126170 292850755 837476463 19621118 203650070 540047002 954147333 256294312 611325858 334279437 263314963 111987933 583188926 530140346 272172502 208006497 481718856 673691970 765416432 516442879 137653653 310243939 929292773 245929009 659969782 909632362 649654482 622787695 156676342 665631808 532508650 92337564 196514295 880668132 481025785 220302359 582421883 233558083 547464197 827362936 404874637 805389210 220397556 806462405 614401435 15042049 244538313 259328047 958655750 136933534 240667507 229258316 97107964 769766513 362513561 695217281 529635156 963139376 43856730 299598932 861767115 896684760 470349546 716629813 553118419 591900277 716804717 290941800 585370698 679516569 219504774 861932578 706902720 764022530 255464099 487994245 842786581 900047442 159344596 93672493 953233314 81864808 202578193 120028237 857061261 373631023 48671464 630877416 699735152 395005714 670463192 888689666 658039385 789917842 33421124 568078637 645817100 606944509 432231245 597375620 599878057 235662595 901036544 996885102 247295469 352776391 393490688 59622276 391119884 802827938 279105020 507849108 932708405 413922599 994803110 772021162 228380154 548653998 844398537 268959644 102663343 372738999 216896953 105611768 566941489 461379600 436010983 469304246 640600700 713060654 293168891 639091224 873440855 956097153 918168677 961710945 135130502 525358446 304119557 869914069 108686339 117722869 403424236 965508356 784061317 614180321 628700823 332600477 834017222 878003921 993342092 704447829 840461895 174022664 952900540 153555915 457176804 785493366 191675510 625280356 567561311 67577528 369885578 128689805 516620742 682519991 527219690 524563829 335605076 999206843 739501500 381428248 761020897 101418774 939950712 486723295 482743082 734941532 695711569 546889322 579969963 253967231 224927508 615668141 684435229 848848828 107332176 554064916 530742619 799085359 146955162 309287831 96547648 933273537 286783236 134714917 334617271 274367475 485856246 107947664 945048029 30473420 987983315 712180212 188285830 183699722 864070968 531769425 599392970 490285495 771427053 734146969 426318052 194566847 406747407 174866069 238205889 545304998 35133685 511392120 283640259 715653134 832394326 626244876 70585670 919619936 635214150 455721808 227250473 151168545 706145671 760019207 250717325 527921946 298907409 527762303 275011310 643686659 897714284 19633487 409080445 409903469 138808198 247175575 756530040 931495562 775039912 754994821 430789143 259067975 419294715 579598491 651455174 298020187 723015953 358440199 987906466 892892289 313578972 119390594 828954306 157201858 460855190 393614224 261223589 146606803 555130814 780618154 453741540 206449945 545199465 287839281 712874163 367480613 913846876 638590259 777218380 563104919 308256843 181339680 355597064 608822842 68845454 184910488 896205833 69867649 71139440 984722531 701107465 955739820 971170240 510327105 232781053 123572497 854875800 128024518 37367423 327034557 606331041 800149532 368474251 932885784 764920751 864816912 3158575 81018864 549322679 553182377 783510428 784961586 189054885 932187412 129249007 681022997 900485594 896623965 75119749 385019166 477548204 816736388 366952981 825518235 24011193 689561615 286301155 194405558 920463195 394116402 116242517 359802221 671116786 622402464 108721423 242194985 865214247 258308773 71224163 714400398 886310437 978398444 268563123 102802337 972074444 962435863 456848028 144335679 123351172 155450870 779459432 534846277 520318175 647608466 456575166 437536710 446011885 210476064 294696649 171187766 257181028 967353540 709267565 913631571 285652483 317367840 978046195 992664787 896052487 910914084 173717123 434779589 448315380 10778167 239106605 742984330 28601173 586911785 239270907 237244402 572595745 608264645 862552808 943619527 662848909 539215337 790968648 235442694 686523198 268091149 880634562 834997332 53035502 297201218 13086814 656391287 101462097 511492756 269786424 64262421 668195149 771240460 465739330 698513644 453383548 578490941 418319698 210705093 668320649 458990663 966531065 920891657 191732813 666919008 610429085 661393259 348950075 908713849 606373734 920420451 432103359 31699018 437461559 609633731 519067718 845350636 28652688 469985722 564723126 63437091 203643243 351078043 489158361 354823184 37928556 249817908 607325015 423390771 187463673 617553970 25487455 316894054 357415338 111486575 971798255 229372734 858309879 818870390 403192325 178454312 1656908 569473244 508520283 299598751 429106194 967018385 36479743 388848936 200248666 192792599 875819320 407800942 235426727 281043399 109744881 528208603 861664258 128859939 124007703 15524376 280395267 701705147 542577102 491441351 773421941 86766020 842357037 682965827 347362755 327745028 858763337 829577363 18349364 870537989 829634845 823249931 173650911 838150912 357550790 500664409 929684496 388319643 311219222 666846122 220317761 259464404 81888015 295684522 141604949 426986460 544394760 337243996 390064028 844410189 917758289 578373575 77086831 550818505 84480377 331810103 691835562 59284871 510624823 113962497 586381095 387466378 531695265 990790037 422414418 971706112 84301031 531494463 856364327 885172599 199732437 920652254 180171479 862310656 249126736 311767297 243487836 904246482 609136752 758230354 569586971 96101070 477447167 789299389 465603626 402665177 718483738 927607273 340344303 664098829 766537590 86472531 9455780 365325179 320424460 751232459 67135500 470655847 896757330 637594648 117082779 481613993 500815899 611077694 293442090 519751368 357423960 338757292 387895464 439761586 629184779 809930382 703379386 44100123 9978712 671549257 363608857 975759499 775217378 558028876 595207880 378667027 795921863 202903749 974455132 848461586 599534134 151235816 739393112 587248758 14886866 965734070 384603819 385376273 208358596 570829199 392108431 589295288 111963064 648985632 974768811 218932670 35925587 504087330 279375977 858252241 904622818 360552854 267928172 560145676 753124770 997501637 831402106 435810786 403984865 727568293 999359743 775144670 342576068 946728425 803130072 694390283 689579169 182432082 911549270 728406415 713483257 584046985 24424721 261613273 406413025 77750891 476944727 770778739 79785037 259813498 468229281 255737682 253126192 761673014 472661247 645639079 662492045 11976852 480690520 288591110 779486786 948296580 400540039 848038211 189278963 714291706 272297070 117428601 218659546 339254764 413064944 709983605 920280726 84307251 866822562 910685958 3438059 388122382 492318075 290257146 426353809 174527201 944450866 463898547 422156807 27707214 68075830 642069491 725458420 502442001 37739224 563086169 893075699 782309420 967405541 361302343 870184204 306080267 357057642 687281890 717639929 767461486 837566824 966846221 486045844 669893167 742105925 209434344 234777708 30404152 963053535 593185768 933058424 544326572 868028342 575226776 793726194 537753034 41704839 903758759 918404663 683035495 809866383 333676730 405964841 485526959 59667903 245470197 31976389 997500196 798033631 77010855 608942429 969403826 320035749 364396915 892257239 242764117 422330665 191364404 42530201 939654707 758320053 944475351 757610328 892879578 644628565 963375382 596165389 166914535 535863318 579088290 24938747 668477107 884236635 330386561 86561726 880425559 258219229 380612203 847453012 947729928 111613204 90078951 282126728 186521879 588992034 822793283 277944862 913223453 115473298 230644474 359758788 928671061 728398201 981042681 872459065 548825459 365941058 693079979 453290531 904587193 721319381 427050447 277812595 9630254 292609889 64694196 464730618 774882872 418163529 750562650 793289451 584975096 722672573 538937944 409930897 430492190 165747117 355576940 215878882 611916914 315816537 576429862 989777319 610060774 142982990 414596516 931220906 693223855 629124909 944131963 865253696 828965752 755247257 654179250 590799397 232439929 977210222 499739350 686373030 3886614 218867730 458804587 485717954 708108116 497206104 892786616 791732088 593774322 969236664 628011523 27600507 294642610 995847102 881705375 628320424 138277176 282076450 514526586 558021792 874634346 301729390 862813175 510333543 545524937 472837837 198656860 131870329 522284114 258339879 162500996 962416809 869448515 179722569 545381281 16712599 527258896 5003860 295541129 164881226 361009438 652093326 279504172 883703494 459102438 250393379 2563273 307687844 205891645 401118158 73038626 293785002 707585274 857259131 835806186 854656488 941236912 526805795 365657823 986388923 508060104 484377343 415311349 342563245 914266085 399384953 297342567 1568240 838711039 818999469 305262256 44036362 651850617 961222160 578079152 13941764 581134415 645683217 517601297 699518760 940433909 765148131 539466494 362517348 396644403 157907505 500078402 121633668 784408800 737053263 186355981 442406861 419314961 343835088 439737522 136911424 984213422 820394069 6174553 436759212 134377753 558309503 85663482 673479154 852577627 107945067 140009850 725660248 562637991 482133144 703567380 870287270 65942610 999463923 180793290 617937613 242479595 590496337 707296514 110146607 866884365 686921703 167398257 44495645 475209751 410852840 479229392 748425344 422228575 85366148 502282979 152451417 870598417 217611815 24816460 387028223 879349508 276950295 304023214 943067584 637365478 434590265 223677184 997730098 376769253 44412753 715720182 14197386 307491452 406899182 670493761 311955825 236128717 154930412 845184659 550531125 274674837 946183941 204050918 847446343 326674461 511491573 274464902 674714146 598480246 687181517 506805405 473252132 979794317 420133271 288895082 606253905 832477227 619859647 855550952 822417541 137012199 884275692 998507746 484891152 232070838 707706935 508589244 840378957 243591695 334006155 182460950 922176001 136054501 990570703 768544614 941659898 275515797 442956760 515239817 837932847 271459937 77861214 826477307 290125780 43977636 886949233 573608683 15620508 449275517 18016231 81755668 55709851 154457972 99838626 124353254 626288917 443419851 425792428 798624056 725404933 681638165 866058609 281080101 263341609 530495314 652757577 429594587 864509238 236837078 871446199 674255012 610018011 279945246 721269762 573899010 329335355 341585478 438731429 903367390 131787270 497759245 301782803 94719308 842086919 830912663 90251386 520735837 239035191 618837699 825302227 581001633 81510025 33339323 126516166 196239041 214544992 625828310 74752233 974689287 452179554 241217866 861407485 259862383 669810944 423348063 494534767 496176312 891177408 450247494 956980979 181459620 57494577 410645126 433486208 859976707 556713584 324015976 47858890 958149469 931741506 91288072 719113149 941578658 663666918 384099236 585282270 414654533 93657891 508691101 188476930 897625088 976719624 535583965 748985320 287331485 820956373 746019056 439054559 700828438 815443684 826659811 831991168 508613559 172923830 378876055 497371861 553320022 715483723 376443763 80046359 724240576 238778773 513918056 562296133 462044389 921059310 691624013 64288521 206185851 619644084 266337026 234593530 990463198 84178336 257552154 300127024 593034961 904874899 412393539 725285769 973398364 137669860 76433650 690293095 394905267 396118199 178794282 291369998 301734060 909128897 140933833 722146274 348771266 605800529 262607964 843731596 777711874 948808941 494833111 714865426 106246484 287638498 945745055 616342232 149111524 719907241 651846421 870075584 618016219 753623304 845070133 41180336 720762108 717539716 964438179 126996974 958952080 99508690 538617956 396345471 843880554 878893383 996030248 12538292 360778332 59440465 22418580 407657190 314270460 658111235 138340255 106857634 203586270 395240573 267149708 125685577 399199624 868006600 941087785 315579122 467042752 333494660 984597768 786120225 250864952 11114467 359140847 647807725 150703637 451449634 910471971 388046334 245165329 496648024 507523569 303266299 732612507 835629914 548729700 817072084 731755642 202391390 175252749 866910140 509380810 119115836 609631383 732274309 230083648 273345677 765886401 110106234 249966702 801638934 933937381 390890128 692552217 768783125 359486578 746139678 84822268 957740198 176040475 80384582 634077586 675829676 319853263 317895680 184355260 999988915 591355557 423134917 841500838 633326570 187719768 224496806 60666987 514695298 599501249 824704861 359460383 74354773 744764099 761570955 67583952 674226594 316035683 576757424 656315732 633396808 328736110 427344975 339272346 415852732 556975521 390732443 641706326 288830965 256637902 348131318 743661954 410169047 799897468 262606921 6121944 879828362 365323015 419438479 54250264 905383284 381055987 816306030 116826476 450814085 282601991 23720612 528423184 624983907 507200607 500859358 302686711 90747481 960465212 155542830 75641891 319344306 180601591 799428196 749420090 587265831 463259002 846796589 674523831 500863282 525218227 358238309 598343339 645722023 27117884 150693675 955355830 64949028 677764862 482382968 290809066 636695782 394606574 592655192 838909019 271971151 152267342 988897437 96674084 971910206 865419051 373769155 307598048 172301013 973096180 943753508 936296934 815239735 950245220 128783107 722146476 465508058 730905613 135938213 860475718 819063530 163034283 496801215 903801509 828728075 656256525 273211909 454822762 93233748 143159557 988512056 430746590 798204751 727149287 710131481 594619620 467881983 240275430 217323840 180495181 834333182 991344439 178519634 657705355 5056297 358197698 48373140 437955943 198827370 664799231 695931514 948912290 944733050 754483795 38937333 752219911 588068245 976807606 500843646 498710414 325484738 785297010 376873183 665218568 68503757 849079398 627199337 171862380 944053138 366510812 760768693 891654646 778259457 978161002 402152076 443741872 147093196 21401049 459912940 351432532 736979354 42523859 455453466 40358337 513094479 827879201 752552389 856846724 409725168 983350704 685239435 144892831 122050614 728979284 170218949 36204000 55930704 662280466 283653674 491666636 40908153 627191352 296883563 456242638 934686051 351071317 498540309 474601848 564455579 854537896 199958896 421741715 314570943 751381194 1994346 925790554 639330711 667573447 333322585 27947538 213767228 123313079 187549952 150643923 204361914 860535535 825159037 713105746 266226597 546436385 215907568 208747598 19467945 309306963 128354100 46721376 969610979 671881195 870468867 416143431 100426187 39219255 364436281 687820004 364702504 421151933 108520818 383577466 355892452 824648134 301857027 860983058 16625044 135791861 878516046 162565924 5427124 997115272 964868301 594464039 61319388 999433507 368176333 314002303 473783176 896048672 706113379 759064140 500769029 654206652 191096856 507140698 685432519 504010937 613697300 91309684 859784358 723481888 37276881 629239845 44107986 242297529 325195107 723824864 700017671 295134336 685089372 128458086 97386102 246250639 919343479 192874253 126839330 896774157 424732509 230383610 474346823 926962098 89643687 559436602 697996557 937222810 311035886 846518379 607638707 220951796 80937780 520839458 254284727 551466075 67995678 88061378 529395819 789713828 962173984 833192277 959319877 26317439 447567647 401672980 79413956 949460645 344953591 905914714 307106398 624974765 208279753 288234735 79520131 359749880 547403797 714600094 592355625 313181296 260408240 711921306 155753528 43513919 914253514 558334546 431606328 88151701 430435518 78358020 283061801 825904257 732844765 95738388 432507511 794578830 955771929 263153485 871933294 491427307 969409662 35383789 729522616 242622459 397027577 147171865 21092128 527714631 869797063 796090979 99974153 682852895 204095098 415677276 183904842 17999172 794113650 344863022 149112442 25378791 633650857 989541435 524747801 859724180 84907538 203442940 11188777 73256512 33490629 693290171 71290413 379366923 386803739 543614712 983870736 313660042 882877334 942648540 196794102 171045794 783151897 613625002 163563116 494276129 382446504 935897407 273307920 654389806 703486310 249934591 515953942 627026569 484516374 91047518 325029718 890070152 848304339 796505698 62445126 836108985 278701930 569878176 313619818 104320183 407218695 234976101 174168121 458313119 226247441 541962427 417899378 37309912 19824865 203290119 695497606 441710348 356780430 149023594 212621429 969068981 258782581 363955785 594971032 513774097 999919778 827978142 773307461 896962367 657487849 308651108 717369335 913080597 928486128 552179009 10587930 549316474 667410240 791632737 520254724 714336922 351113155 171518120 969063933 431191460 911533172 623560365 624282090 882734309 914652837 596460227 796382833 228658353 493030245 38823663 369113211 265918985 791450722 476659793 169018609 163543108 790124305 243857127 711844494 785608880 439327112 108088641 853698013 327359712 636146625 585876932 176739612 872638020 461294233 377620328 258939005 544332860 302933178 731003877 476363632 407986399 425904042 277506442 427207619 46686394 259836463 231392762 289860846 764338383 365873633 681802361 319257547 933716519 566120124 162883008 964548974 266193306 622182285 934145078 10894488 85488010 65423325 287363784 224915153 508584123 239239972 826326982 741392081 392474357 970573243 417529768 677182804 489341479 318705980 782460225 824631292 877362711 478682444 905205277 780935943 793908834 222770112 356792871 419546915 246841002 194260988 278800554 829545913 936162115 519865629 289244324 705179222 604724715 878963512 792555719 640816073 76412172 367281767 652771962 573107683 67293911 457047604 997221066 59178875 21298339 974010888 310283855 405775227 745411271 68115652 647336865 74822493 862964917 433058802 975109119 264849071 202468206 114567987 138512350 262595957 138531575 641805564 299719701 686224045 820010003 541972245 195456444 305479403 450555128 218101925 155915901 570656015 363561076 25007778 807132991 543031986 513795222 84686200 11682465 744701457 585392310 461916201 556816337 459010153 845479151 547607799 894250259 749454697 85159458 926845781 903403855 18183314 987381719 526224459 658740321 817563423 38587110 569091520 224346424 49606820 681378991 520131782 700180576 946812368 892376938 165565696 248499875 486508274 891082383 331877064 465421423 684735031 170630506 286451189 342816527 569785287 494573657 758195803 377999916 448187881 402881754 834355300 563909850 634310181 387309683 496508287 400851197 250530963 844497046 283421962 96997355 532904570 742152792 438465573 967887825 899331239 276865484 573130502 114342504 754067861 96483819 353620345 214227146 217375587 123600021 147415376 601536639 983427507 771118930 891773566 692323869 426495829 774699916 597754825 770566118 131738166 867062112 335934672 921101706 266558184 138772892 345869658 574365814 654064438 113559147 799652605 63143906 394714040 509952415 361912587 356491631 39946022 878635451 760334355 554266586 147154421 532663967 912542034 267327669 568858514 685720841 594133206 213983495 561727844 665463915 225184743 194592275 429245782 762421306 288184444 146469913 871978743 600030657 207230620 387976120 117271007 976087513 355316356 379953067 932483933 120569332 600324163 433348224 13207707 400359364 595171197 122444716 752049246 229322340 32530203 561537585 20113540 628653412 280725040 197473200 49796180 739097903 723958857 858123037 669793694 6408575 806862159 526380582 415921545 950521286 385169201 407593616 554722449 368980388 301144990 110877576 981337602 329405044 787942746 668001062 769536667 280694259 287905352 748642573 314825068 493629777 68470500 685827928 35832266 926157368 348114344 279350376 832014954 891753140 847195870 268630063 77737024 918107811 641834190 178729360 20863934 36107451 895104759 426811868 409674336 781678750 756350705 726235425 893217929 298583902 257111607 675369826 91156068 123050093 530213106 765386423 230558312 265608277 745951338 571933094 76209155 470899985 475168159 846884126 221018978 764397646 777422226 317045582 965534615 729590553 24684021 438769518 281324709 210599864 702734363 752698768 912975393 668400547 524115712 685200562 932882549 60354872 260959220 158113927 389365552 414082804 2297780 39095295 622602447 285662880 502085845 753615453 788688143 335573579 279352891 498925250 731373865 896103158 90451896 214926312 205094139 392135565 24211898 192362435 333987617 841388286 860246174 75557362 868553907 114617091 328263438 791246709 135843065 202197913 638723798 620779791 4108031 198634159 402802307 458584907 894030099 844541344 517102499 706294967 256596999 232614817 209175397 568848535 312572510 65435491 92358261 808317714 204499112 817301200 325401906 97827568 310208677 303996160 519020763 558374694 419674794 54895879 104103426 937634822 397068779 240421190 134997568 323645520 541760157 975097997 319507863 962435499 373685944 754559351 932280086 420965427 809912669 251618225 752757615 560899107 439246674 558954245 796437647 52084593 928134521 475740373 396371849 785330292 281485371 592834101 727640489 30552856 469519115 515693914 789145133 338238094 574177054 451351339 206812549 773040217 635877894 276844655 565150897 46674880 203966122 41250388 117320863 880328410 447556270 321457677 387093911 433717311 479646631 320328552 301771183 297402166 720003580 922271012 736868218 906042508 153778447 801808877 172166318 553932697 244676895 65996571 253700277 470457992 694236582 585566058 154463154 530678613 859686334 845972456 592816379 381110460 937022792 922468803 447137203 185959659 119138440 5120060 53200123 188563620 700276134 576944415 818412067 44142809 388461184 841140920 943881229 245412217 209909501 873589147 678694108 720485900 377598734 459348916 656807839 288274035 907672757 741199260 625224946 868721299 560952545 708784783 304161605 599353930 983650052 194657276 150099936 211551860 450343341 121504369 154221071 253496371 513133261 887997936 253820197 851228386 54977016 483137637 972139564 721465869 166266706 561537017 772968145 628127908 111909067 369710665 83664880 322632011 644459303 212540809 80501118 435729768 619903818 267385708 553953502 130204135 383409065 681297790 867625667 304403312 416864559 170698439 89647237 407100776 37968906 413079307 658033477 399712431 765979502 703373805 574357580 390494129 599655446 657160180 539343861 760412651 21620678 107649748 990632151 716177210 635266171 183563334 116446685 563949611 921052683 58615604 166047472 886159073 627910973 616703587 139743984 757977531 512074083 929724645 704229158 715159910 375098 250189215 847147992 524598074 8122271 504327461 111147131 903202991 708868343 677419103 211222926 48392761 887202695 140896355 53516401 222118534 557902279 460668826 847460693 905341825 763462449 527544080 51171715 499829516 337602658 366031626 221835467 854675448 797016407 208339211 376854946 859934400 988982938 464887226 247038280 185996548 46009595 706211255 352426096 710849116 75400017 691294444 920421489 501518658 610429520 141245097 940956834 841466812 187622354 144012155 432140037 986899692 228109234 393610919 197089899 870146675 896516209 614994212 892768761 334606208 632322083 868237315 425515689 721527890 394864725 78761776 342513658 549881172 526323218 467518287 883802689 255200515 18763203 995729587 104068709 199056649 768217350 806690915 499114778 128588864 725565955 263346614 746089348 565322632 734598551 582053383 959598295 621447345 253300954 804205592 822675476 845561019 724500742 961632682 933696662 324340692 976633286 83485406 347578612 961090002 573972769 750256738 842373218 925584833 726943423 881315545 560841066 226105925 334264508 397562394 614144610 649307548 520958053 616511540 88916330 839115976 360711205 275482319 592033135 23344798 473000420 997919616 315912644 387371633 583303846 114052390 428411548 163397115 988759907 542769586 147849372 69731721 160354532 401593034 910212340 200764572 420095497 314992365 842107845 141423754 495184928 85533978 250631202 421631558 130490053 913050920 772934549 214212215 119128268 923688413 144085292 319757859 754622305 381823826 106919656 632496405 470406511 745955916 994916020 80836923 144083336 383570596 59353386 381195336 750531540 109977834 444550713 820480089 424095222 58374411 833748215 214289283 873209301 467237862 188064898 629018142 225841597 349246750 225773418 690554610 648825261 313951864 623502744 975177805 350821829 225687350 279444943 39089884 727925031 651260301 848169796 82038372 227667364 82518438 467801605 395906622 419570997 223090833 945202671 411884427 664986481 621744711 818242967 557594378 154346074 698308547 144391388 924517155 454779592 387139328 570675383 233654774 447448718 68212156 580036103 547969997 218784397 89444797 620411155 968855310 102082703 556380102 723685145 821846855 505948098 328391946 807075881 546874070 219209106 486218 327342710 897786472 325324825 471738850 769306024 270051755 221497647 930515669 346114917 584413045 771886555 436743084 403977039 10054078 361839610 898837252 704574184 444227564 797056260 700301244 466839274 451147765 188653182 989610805 100049035 915557296 820839884 639552970 905550059 932684173 485024472 778388584 530107987 964270546 755707850 336108847 176271371 348838448 982301544 191154610 890691433 89075282 688662150 638949587 129284411 387041363 312494505 784214249 756640570 302538514 274136126 756135976 294747714 460716058 993492561 627091496 440983092 154345108 513714198 917712296 538011863 32326748 172848175 544084639 424061810 52752923 65824604 937846482 536001329 352626328 440592953 265800683 497403302 245204362 289805561 146399374 97622212 143006028 612427604 316665171 26757132 898146121 620841580 464022623 894206428 8746760 182763056 60351674 706790549 625931937 186405604 561143588 609180831 888949833 291723928 600108217 723430046 390848324 717786951 895031506 828541097 840290324 447258598 930370917 537255678 447338216 249903717 242587200 485302611 618315242 687977910 576964250 666000706 677564773 951214843 124226670 957955105 508222322 103452089 710530607 447868330 194224707 442988388 916597219 929206600 250141894 969707869 53464676 474286557 38125327 447557411 5052508 191001673 279673655 524105665 910194026 952277279 850537665 326338326 997054879 888611347 713523791 625500506 610977971 457737911 282755130 709138846 843262299 561803586 433571347 641202228 495573052 859311565 621093901 366665484 339875811 390249608 352477320 566270177 280729238 366773665 600012933 4807413 327125282 592659154 162025286 424199348 159426707 737563385 80822333 162494380 165099001 156515812 731230842 34902164 650583441 658310635 797093832 940545547 836815305 644578603 332777685 210227150 708710406 167810885 491021037 763300266 948364213 300794697 357884360 253228071 432209939 254393608 561486063 13612085 70923960 646441037 223402129 810530583 715716524 606929646 859447131 845443892 651741744 168272034 969244171 613966468 63557075 570713818 259203228 72152588 447279029 794075671 274277574 419972050 996651049 315688732 85477766 918081523 281467695 637531623 828827858 443248356 796567749 299016683 9398625 974730773 359564558 823628124 992628089 204229393 165099447 523843245 489715787 182568030 392598087 252034876 287632098 750423528 385064918 550279812 859138541 32929956 391620620 888872539 241034185 164390918 490766131 342384057 290707819 37355395 768150104 244824003 706982709 690420472 683218470 232407796 377825500 413562774 97883806 904562574 326989155 352298135 364288896 857142497 790679687 780388979 417437901 96546493 362231476 283730700 24697607 320060934 501332089 447481975 710833596 939766897 807032614 75695646 256585323 60874975 41305724 424967678 321615575 798193042 548878357 911800120 527645209 754866389 941117177 790787359 992172817 861334767 212514959 784839427 754464168 810130251 500985514 751050478 905652250 80219084 354905389 864033613 803497035 575029043 1384376 686509389 237206827 107182645 505740252 570105806 785071895 648730077 952836653 274973979 113745943 138446687 231453447 361649834 84852689 423608652 26142076 257741442 991276639 464193996 152613506 568685404 133103708 270135009 935758748 991962923 411092137 161711446 450359565 788824809 853803993 708872166 833367126 451882044 248447021 515371966 529779813 712085901 730764401 255620615 454080563 857625809 118295417 364061525 151598816 637572039 691835715 792374762 846664175 647804419 881265479 177417221 47863523 671934221 413905164 974120711 979390239 659971077 830114372 238390910 525758219 246313319 167163268 262168307 162618469 280353361 990254748 963770040 772958344 806311662 286882961 874130819 781020186 961339677 305624258 623697669 534801062 145583254 877012553 79898063 66120158 990736132 820959172 115557140 290047164 205254196 710755406 73917592 832855752 68815585 362240504 736462923 762713509 960576542 197296739 988502625 413934353 840655179 812044850 692872716 794528880 705526812 745431311 629687594 326703588 815674521 591702981 188851952 510482908 403758945 774798486 78302062 471905119 111200250 796414322 209731171 451363163 617271754 124300230 400666775 925787995 197365997 280846657 872292406 594911416 836460311 127097200 749521279 442660318 33714272 636247316 509777716 487546842 265792595 236632606 163240004 2303271 211105563 216997656 861422200 22949833 459047848 585099668 874600015 684928146 127117881 763589658 144452835 198584788 223685058 538168913 387825864 298985445 333849767 719870980 444077289 578410590 722777124 768879424 693678861 502771786 628062054 139348344 765678480 113255409 359714124 247716739 79339791 90540905 537910954 662967081 329015296 191613043 667813964 419604485 922394754 315699937 799782688 790713309 287290604 235171636 149760809 3867481 464116526 871044162 21893560 912326433 342340796 881720086 612773470 63200836 471822732 553842591 921848257 988218972 437055977 823325570 340787492 281698987 668808128 900174611 685745280 736155064 603123517 658487382 228783460 520777453 454583798 624661194 843639120 141804526 335608846 660316253 22263586 995992412 831837349 95185888 879572034 801145554 191455538 896537700 591775222 893794500 515804933 923376536 421338246 56413513 969202666 589704981 321493514 341220684 851554647 865648140 45277912 497526350 661280850 904527336 138270472 820137226 255595393 361087067 919775493 734614873 563579331 940491348 270734231 587995465 451676232 997945598 612760057 21263471 133831818 788601107 34547315 894705470 287321854 144735459 165883222 676628679 813718871 556952217 379098505 34217422 61471823 42218803 530706132 582408096 492692640 582306280 634174916 698372327 427282432 71177995 423510241 840307369 548383591 334349001 246552109 787123597 635032582 242483218 998291309 462643643 18304675 688283304 549859860 285536292 934306598 689416888 653209910 611297496 908228321 823199884 732422669 286222880 330304767 643682156 11970928 649750305 846838237 961206996 573337203 147723020 463896316 299218569 805264173 338172865 439793604 97147609 85149595 888464117 447534821 139785135 611302029 505214548 915904684 309669617 721312989 491243016 585138329 861222658 258870831 375808724 727563373 205543220 709176977 880850841 608644439 817024903 719130033 275051041 49697910 892112870 111692193 708690526 706988764 881415139 236863733 265645714 608529862 198991340 647223026 194586806 556911694 966666640 153864974 781659362 595871688 729014190 458087142 666751991 516785344 230002682 713376168 800316200 884884697 849876931 125130049 670671274 811443114 510520916 572395625 906311671 912744985 207581547 544855770 759307557 649006651 560448728 265992444 622971985 761892727 922816968 651167015 171352766 532356040 425476169 411938709 61383877 521963257 104762084 622829067 893290183 134392904 196264122 199308447 209634742 340360685 2945426 633408931 868779236 497757075 558521860 547124287 966193067 509912521 634552383 721679853 746989597 703552542 753375539 628402353 573915105 225604302 648112410 901449384 353381874 108891161 204853765 362711943 585365569 416188913 750685399 278557531 160127063 45459997 328702542 804419206 756567108 360812089 314929853 755977484 855216837 616015654 274330582 218299884 563171253 5765008 641081538 615757250 776079127 187104245 525480445 472021468 494502233 940677174 67057094 561515153 80591475 891731094 774944101 232357667 788413603 898878344 4738990 202371094 662081435 902278298 131492334 1440788 963177045 984352715 433526627 832021018 196503877 132897298 401989884 163530813 440864884 517941072 151160359 998382457 870150762 157216737 302103026 927179235 431187681 97314228 291403251 153395008 415130840 509671707 971751945 858141541 202529878 999432614 409668114 457807526 31196026 923649039 861770454 541796007 372398386 276334282 442950615 625469177 139967648 815439932 881196950 597282280 913001999 614994403 424851319 927020650 240289764 43627928 558254227 82619667 505417696 426047514 25683472 391712483 9815123 712956424 813414653 196644178 401309851 315919739 274751296 150572682 858021510 838404462 310056139 451900835 80969121 668662616 43745668 612765747 227267686 723915164 862162811 446442039 67033658 729480152 117453859 463565032 441260152 244325598 666452665 994299303 668949839 996441473 540415107 616260929 600342806 581205811 368256136 250924642 961584526 828898202 499468533 508868308 529075245 284516883 37379174 478002088 143666803 259534791 432829373 842958123 20801122 145966413 301644824 809925430 394451646 77029702 556004399 326947150 835823611 287678028 445140004 906931143 227052236 651766913 742321524 145534815 517895465 996635036 843559007 242948547 796961330 650019149 666058553 829117164 667219715 130463480 396367849 313555637 689330934 647405103 109224312 347187905 761002976 396812423 575630261 346006715 948107785 196189832 768650617 21218292 619381481 220847487 899564288 722031494 154600967 433392403 590029639 206189650 318724067 683532139 11746052 365276224 362708276 329758462 352054313 628937907 780125367 959790287 883181986 204628828 143732656 181891580 536851951 210903225 510872099 543020983 240508814 32595202 339411418 426781107 601778200 582124105 275321304 371963967 499846132 989872248 729681661 444310804 100620225 159725869 796127699 40108666 751197683 247802069 858765389 459711415 551069611 983052123 425410954 42395243 156157587 37639888 835104904 720241234 958869964 946753316 56255588 891318892 20235133 402459888 829858795 614786830 979839324 861025217 821257610 890446748 466631331 855697299 870507414 622684892 6784027 5424722 302749952 277845988 331129562 659627918 322414264 936455246 236081286 149713914 412325890 652321516 688945978 387678516 533538004 745079515 583785361 269305955 647785254 377357142 799123487 995927435 639388879 659925055 755002254 713484709 75093457 915729011 291977722 91218630 567396671 969855462 125956410 32017955 775908555 635002801 756343734 800429652 242683178 76860652 549180084 758587917 773712765 449909261 918429257 631089841 937381584 462146604 33718202 204073965 959669135 292502844 148207873 775158512 796229835 919090612 590958338 590471960 656164035 682228125 851895724 264493104 568714046 863050443 105663193 869145964 843336260 883774921 376411289 302248025 323807447 2551434 170731858 940163647 187649084 511055144 444358750 18984004 947313088 689074278 321372731 241899889 380745926 596569291 237998534 843800954 11471618 153272907 83500618 278992879 236917264 769296592 987805166 412345774 509075163 287694313 429838530 246640449 376963224 315097214 301416533 266087089 772099402 187121884 680940510 689529059 15556641 954002999 777031127 126135176 810108291 822721611 346158399 756686029 175444240 871450916 716832017 472274989 109376685 954458861 34102976 344077275 310354340 407022643 771656227 219526031 905117246 323324618 746719620 946613151 301202599 372937364 238546463 198698778 399860823 957958039 458540788 538640865 447363744 345914874 842356414 741134427 382292825 306784221 690924166 514536678 578737113 474330312 904526557 955611778 201069795 913520299 161352465 829809727 689131566 716632075 81310792 34393584 403304289 923971336 221323852 723481066 524911699 206626218 838868053 119111460 872543420 419215462 130775739 566835312 612139968 895204077 680791239 579512413 159997064 332251958 625561990 202156555 5868051 24488141 910925757 132363216 999866306 599017779 570356081 7939412 857634694 281178356 482324221 12778692 444632660 7154990 457013537 599992895 3261411 330934972 765799264 200729075 32318329 877666458 637307099 538842136 10559954 436234148 488536459 119697476 233872247 164621201 930703441 342269261 557295835 148635301 949569479 938374736 7695879 626950945 806708801 56070399 338866812 475799562 766694394 878357954 195810361 596427993 682121777 39902882 290500756 955045026 609856542 571884694 118642459 893460381 586249026 607579396 328931844 635462748 863770886 452213923 769768201 234213896 381385941 203677227 90392739 81485370 769732469 913555530 74438386 62277070 456539103 86233076 391803094 19836813 547333889 996929079 370954660 421623469 469748022 661470467 42548441 944292714 823457763 746965907 819948885 676169342 561324607 36201721 225336892 949406513 380640351 691042913 843003202 390342549 718416506 402592861 145309276 407437940 420152490 821308329 377014519 88542016 516171599 627982958 17954415 491976510 464575800 247446786 830567002 838001744 440521864 438620141 314058900 287627729 275083620 75570535 928123147 890955114 96234446 693177324 794816844 160225910 342521223 955023322 676162144 269146980 305598568 787162907 495474206 384584204 844991408 18910173 726843748 280083740 800549857 111572617 819173045 621785807 203669294 918182896 429400333 968375061 793292529 733367691 821348971 766459709 158684093 796330290 696884405 991411672 314099943 311884390 448396153 476986660 991064617 32089508 47178630 984339564 857283376 607852565 740849255 411680459 68913482 913886972 857707844 395595609 971870382 331109892 536349783 744576935 952380271 204008213 52902990 986725039 745934764 840613311 18929604 683226130 340807098 10436034 756861235 525435381 746852758 628056589 115389338 876007511 706788452 884089081 143460902 310665854 3062992 611290503 857011274 846396551 156929513 297722348 92256117 230460798 136010955 410113707 851986808 129319457 20835106 883856278 928140109 710501572 904854832 453030469 82828366 981442328 923271550 354322821 2657264 627475604 127384102 821312709 844663159 63893926 403576654 904403209 78586179 659942423 96819566 275269408 202070075 451785441 968478796 826505378 426638010 526359039 766661085 854376913 841252709 40841753 701108078 791640189 634023166 978929788 947346724 128438676 738794488 71033191 596197908 273773236 893666191 750116933 53669052 300976795 560620637 368664937 722813070 504205861 557528620 496430585 872324106 801755093 615350423 60624790 483334178 957152889 717061355 771151757 161355932 383829428 290918330 863862867 908615972 101032492 330478305 298291369 698338334 286455489 361330135 315328271 289543395 517526284 553977851 864544666 915561936 689875445 740889732 533629513 269385945 175217621 384698017 129326223 193767557 171176237 596687566 482576245 172645199 182435864 608218123 286296457 652962725 624910248 71462327 687178923 342198334 369688927 671268122 295283243 546805485 494831096 983097052 290070645 821401097 47846892 344219653 550299803 382409174 918210077 36952041 87808269 480766837 679971534 952800170 287957679 732746531 374201521 561856732 676827982 905561826 435244475 193885276 1834152 670371473 594279125 751508288 730568423 485234508 809316080 854172246 211196148 49175362 542933769 901188424 909914296 645806869 125358651 659910429 143784233 353181933 185170497 258633259 250715748 833852517 841629146 680530469 164141606 508679122 226889640 107008206 20643887 895993920 384639227 305657582 767113804 111568417 208269360 77196517 577872299 945559466 388394819 928161103 988104031 134973157 179019186 643726182 44142409 754009223 355362860 809944199 149280290 791331480 449722297 464585441 863516152 5531236 250401208 842679028 854257005 401632471 958759597 164493101 438400945 142062312 359653302 378156653 661875656 63334900 742298021 24596095 900113391 495831190 874617418 85594266 833830482 644729188 808425399 357142535 145178552 275800757 681411429 81201529 961723866 631556563 192728015 17863075 452822891 218886314 63919059 952114212 132073845 298975244 885732204 930768936 242509636 903999962 492814162 579312287 45103758 602802469 845637761 849949525 983405930 739674860 4459436 192991979 45565500 671266976 886507921 908271933 639559547 238781390 805459353 336249916 876649073 840292909 621141033 257571498 428571418 520661711 433330930 203819270 628113228 210026920 114976155 945995844 762570392 88611826 764176677 622224993 143414838 957898226 15627242 763197830 978706146 798230810 694313509 472642992 744801254 540892820 981037767 958718209 642291097 98871235 507078467 484686006 465991480 824528837 147749457 43775148 333128270 833512080 8845036 1959308 733407048 943931947 722530997 964538695 719148413 271982667 470277735 394529658 597193594 638942847 614070650 477626549 468220432 687923019 798840632 989259617 81630444 735799148 13456390 44318644 346647776 33636982 327837217 109421464 637098350 250897106 74420923 669334404 904229879 986680033 187084707 871039241 128870807 569443157 789747399 571835157 13154480 853669549 682284716 468153259 885892850 800155065 390634002 916469185 494807527 912299709 643699236 137344039 293465138 650968156 170271098 670014413 639217510 172116537 390810235 206886327 400061474 696158619 761327749 191076344 77105799 550108755 243261107 868315992 365780476 544701891 3501189 426401090 214939124 978745551 297546172 362546072 693756185 806190214 984446509 412736495 3521661 279530191 326981229 249995531 591492361 131835986 384709827 151578895 998076126 811872367 436760988 250134707 545816743 652623965 425799655 961333433 780394734 136793991 205130617 379815857 926295905 720411612 915723199 968886633 948684536 362246868 216288528 928766511 456094723 891144536 304293585 125669813 86385030 319318160 61469590 9604345 729840183 955790928 716384735 935291304 129210472 806371751 347289246 64770725 625021556 573252255 417843030 379006906 267689561 428904817 373478709 484758741 978015186 991305131 678463222 931653277 424335024 692088138 923612516 678093233 288305390 955404850 246834883 953586179 499850030 710340806 107772416 71947859 370072332 419991807 945835715 588659385 696062940 34229811 265386593 648239319 193229921 694825002 266451606 335585291 506288725 870784449 715249957 695102182 494867127 598174847 193272084 732489967 977217347 490383656 697658063 452342880 489063331 138433420 748234998 785848950 524264396 827921472 219828196 895386163 107310808 790409747 675523358 770665341 610049074 980806226 517364020 180308962 745438643 333058616 590406760 189198637 749711228 492055487 998298588 159807313 159144616 937660298 426775932 509545637 483864993 332554227 318181947 188644610 245929236 124138739 643739787 930677142 440144658 891316426 577528699 749362618 341160133 608293211 202028244 473204895 399857819 141774286 875660615 914759325 878998026 520353083 990859747 363625620 681643926 234067603 843198496 38841755 528188059 390930133 425036921 940909029 624741231 236474039 406363331 736830339 502462939 969796915 910860348 316079223 686196150 721517956 858691540 749605000 78460020 688240108 80135908 189164231 202752542 971311635 356903969 858969116 112016011 749399858 587368349 114153693 801492588 337183241 331738704 155672610 748137726 755612504 71213771 442346982 679561654 957030301 634410203 418129915 289364087 937766828 163691891 451121307 807474593 234324846 247532487 391887615 486656683 816700413 952947473 703039829 832127108 676726945 567135620 475854220 892977141 383576421 870581272 124070072 584855745 532603101 999685976 857592951 402364191 952703267 944773118 410270819 364329134 408252237 129237943 258141610 930315062 96024369 621291679 820227146 941539003 551387824 718911749 487314655 154353236 559829063 784135856 110120749 33079708 174061969 880686525 34949288 277890307 314433173 52367060 114861206 262405990 247341065 336114517 168215272 593435063 718323115 393232047 764936411 693284526 736658745 100041047 344087970 342711836 591970154 234395405 631066786 621432697 379561967 110075073 385105257 415508520 428449813 785104346 297961540 840804650 645749886 107160344 951043831 11216146 433174386 750369557 431010287 924463601 516662058 728831521 997114988 163312069 739563107 321677136 885045772 969838893 746814638 336664070 75512540 290442098 725269998 364897788 173527106 297018834 331261037 553660010 524873764 979640611 403560795 684309352 861851722 845472995 902417662 21771743 570802230 149662247 650379305 995300384 109977604 626891478 862235560 909276367 615252483 793265951 393436062 816535316 75006093 838400668 431760743 151711193 421815278 629886609 272381566 182941521 653933752 540424075 9344971 965465668 229128224 999339112 947018625 297885792 778745351 517922353 830081008 781618578 380298579 155915590 253040552 654397686 685282328 170929677 427605458 69322719 177145300 755981212 10472508 815913010 809630078 682407279 312595455 500959233 951344696 864992394 41653733 27764445 164460337 566832319 35840571 57431924 706479029 131429928 555915168 552271169 531468606 468585719 580076450 971982558 220864943 623060727 813985312 697130652 56451040 854300661 744378569 642392303 360929000 153681866 928935741 737728786 370955548 111208442 470693736 107678414 536863098 976789722 897530563 860042793 957849682 146042766 288407992 382501559 628109265 205176238 135508537 621290159 177598934 585035568 463392113 790144802 97681886 421523114 227772197 926095073 810537298 818433396 869566553 433939569 204175629 650652048 835532928 241943812 542165595 856977765 319041240 206570372 319606336 399688931 820986723 659812421 812707839 674104976 124401158 236027595 503952040 555988209 515468597 596952157 372147926 325846116 591907466 649175117 395611361 261018398 82243273 561459990 189530208 697805240 952741577 496850801 555674936 407459276 394009753 87051561 452763325 479328353 224360446 401554972 291983040 529040888 18949554 645720039 404148952 857279936 904221029 143580053 401261112 502980454 531273495 539154355 772402824 960092843 29225843 312680902 603727516 242148203 302206305 827588745 125112748 117113440 586034427 832688585 365479907 4053336 734553069 259827342 674209673 329798815 946138289 270581700 980937000 113417918 28986986 680469132 851919739 928340545 834614748 660541810 881356344 942362223 438218408 599473662 526881913 176445731 889546824 261515779 806720429 592880897 562902815 286068150 537580549 616116698 946810891 985892667 833302109 954180543 869593846 240637195 587625734 252082490 211117890 133267242 530307330 241772796 350831954 347728557 934890610 278053531 548587122 936164604 307318432 504990721 385768026 413142282 252670798 657963708 998571376 74276015 753111274 99550711 357546549 753290479 168392452 858153719 997201691 946118251 42463933 300469085 604355768 532849605 946263412 767754842 711107639 540950572 712929739 858588341 343438184 26888748 191966617 14752470 378836857 270401470 986105428 470804715 16879701 472883467 836792612 688123591 574854099 338216176 623971268 518374919 426067429 270121002 137245804 504889408 300229443 365514470 12635775 205830458 306826781 200404053 751318516 576524508 756263489 993770489 846041066 526520162 813208992 494661929 579176752 476499690 867175665 839980827 126539099 762717925 920140055 522008047 751233846 445669446 993982791 270865097 614301388 266522346 331641251 164146345 563970200 331580730 748461869 810912147 557457975 246374015 154599354 423885793 528423514 161655600 973106653 499302389 3957660 188607612 94134750 67446853 610631670 716020563 174144824 683104926 445408143 372206386 757886093 47912587 168037618 340259876 404940268 925111912 948285013 120840707 746896619 493019818 918709554 278338897 756580323 372606646 139277690 66180382 695574592 93777605 219730992 967657297 743773941 348396035 326473730 491631305 257459173 266526400 518567330 119739498 716751078 502354566 102709060 822736329 310306192 178814561 20841448 580057309 388353516 792687854 362907849 788895082 157381737 186625687 366054074 98388766 870665913 463818402 754710547 730636976 108161338 117801359 553291457 667052582 915886795 162577577 328501215 33343739 445700656 291402144 469285951 567403495 228976364 736690831 76395357 931832329 880736932 220603977 863366551 832845710 986462534 44622803 385916602 165222284 591937349 737456431 555484591 323663762 980178820 248057999 699206467 110521826 759293155 994782239 470218518 496629364 963252256 273528992 508589900 915488519 238896149 535635008 936402015 535020151 323784694 861185228 152390494 204637421 485750800 756034472 842471021 57715582 12198305 633855910 47287973 801386224 676793436 560560119 134773632 206016439 821219508 996581300 895871737 48610000 356155853 36198030 490129442 458994722 136814211 380063725 257028922 200565143 961172364 967041015 614911798 874245107 408154898 319435884 350240187 637536854 245142574 728536337 877757344 613428020 204133499 568786419 274215185 835650553 735218822 136578242 618637789 62498911 284491377 590887783 188630781 107552262 711469792 273745715 287410714 189243687 165817186 158098729 672190634 835610929 166154852 258651421 233527015 318951446 557713700 46454698 988073757 372928389 598184269 743406061 574634750 909961230 820079717 470312259 299487984 799275314 765481625 424417805 702840398 60148856 857501749 400475314 647321995 115594700 701681306 122352523 903839537 166533212 172433125 61541507 513560732 641097165 917431934 939192677 552600060 745545313 628326648 948711208 736147792 432183453 346324244 969031775 242912623 505047470 305207467 435064038 544624693 867803256 831347549 754135727 277415903 569474827 897434457 178365351 632007682 59972827 332414123 521500648 69335219 967510930 365604079 203324314 735354361 262295811 763244976 132818829 140234401 885714145 292095841 263218775 375774292 592880016 550417887 18301667 449781132 13446741 768757355 945922064 524886204 666818502 554594515 410152078 192439870 476922432 95698226 850454147 128314201 193265755 36926506 597628183 12465125 971848359 298262588 590487670 490304629 362290758 443892446 711243343 94837250 366557599 643282527 789648913 832737274 564334746 174153150 590924264 964042875 15142248 410930051 144996498 520466867 718999160 904608171 450722583 583195204 557456671 240878877 981667850 724332227 600965949 914668716 640110842 530198794 686916037 166489284 236437105 987264999 762497947 122388058 576201984 533896001 965809280 845170605 116746816 156700263 40662808 208427332 404176717 456685106 888273041 444949080 785159065 256364297 712473894 73575581 924738482 49171407 894055011 231105308 82494657 469246952 726638260 371840990 568958481 517429450 984279239 8146762 735053608 431394749 917428160 181411601 891371354 924488227 183934733 101827561 906382167 255746132 965395846 91296209 278104743 609001682 149161040 712512031 775170632 573485886 53275274 674885651 181346284 48513066 588066839 533642445 24431657 861687129 505637779 904296358 732092879 955666590 141194267 531986299 116149058 962637264 293495709 179359819 780494425 44927043 909363945 506096625 191701370 601219753 16301974 930150272 300516408 373658620 522759159 707405578 929884456 706528792 60855460 810439135 639371324 819308109 373718461 881216705 806227507 939568776 863636109 991900167 339707520 445071924 347767846 947413616 98827323 438381703 742506949 500252901 916620377 139467761 651851611 339707861 405629752 496466993 459879621 374082717 380747226 444770183 932402210 336011942 802111819 314569065 289926431 728372565 164227708 699505807 178782538 197621347 123127991 251475233 630258298 879866586 928574512 817399927 33786525 314217990 181467961 504964146 240448470 300499133 349723978 937838937 612644366 623902519 55480692 973709537 757801610 56275815 228311883 979563890 329729652 684102057 235101208 511046857 601563872 754422717 787663304 219333782 889217825 755930461 596326789 962486366 438726991 96998325 480353781 927086966 699395823 485369212 697999737 519580639 904060925 622111841 284981044 635419708 242169056 766237222 617938205 941600533 520218054 512745153 448496913 356727819 822535927 209231576 560310194 334378575 908854377 459324997 425153710 957239026 261243374 861949532 327602297 335951580 746049366 126265113 159282674 106323349 776834068 364543807 15338648 790472922 235880582 772144569 388511929 885058866 471324284 379900301 349639757 901759300 899350309 435477058 876285562 133145273 800059127 688300999 136931969 847765691 927873237 229268677 931026283 592516227 779099593 957992850 693739021 509528557 993048124 827773825 800740759 602072581 760796103 662043107 5745334 392701511 562875364 227379472 247505816 31571913 421828673 111339978 432961420 49733287 419951640 518662964 926102121 476536012 654671150 920492396 535854421 299488513 362954806 320679819 791404455 486394957 835633341 631397107 590659336 622084729 93922986 29474300 222362683 771255529 192329143 771555707 215042433 454975942 741825683 79032312 213099880 109643096 258372150 587466370 418842660 253836355 537550471 316754341 331307097 846715244 531315780 621834038 941184533 906160017 500205691 224211654 606863517 749677548 324363575 665323013 635759569 728224735 15117396 988636928 289617286 328488569 42666492 819313354 468810899 323814529 150621746 896405930 485677185 142343675 232980055 330632128 756453361 304031042 981646397 449449598 619748519 635768231 689756660 965659435 149811866 524075516 876502104 605044037 867724235 349334583 93406749 197393174 614677000 338244040 963763618 818811766 196342714 195066077 928645469 806940951 526918476 259120091 681511582 690206310 943115466 843976969 625112105 183306099 283281391 62641803 487724099 161894726 280006628 114047451 556514924 59843443 123323254 455427246 667862162 49125428 5036001 204397967 107873645 301640399 352790684 572277723 962329161 127423020 177314031 825510405 471992824 395425764 570200970 306486249 241786600 482675704 73797664 179684737 686354084 155694748 900662352 658242552 301922378 148551164 188490025 558747002 67878180 50290656 509402764 655904273 884814930 644728029 750283241 403625559 298512673 203464026 562951728 937356622 909802184 62271180 394301672 79988729 395237919 485952692 889763587 839144973 786660724 758486357 571553107 829049278 222338266 806970168 155406646 224768696 573318642 107992007 235623773 764873456 5110097 392257904 983433685 904359289 563892496 608802498 853788275 831130838 19455991 387937583 488623120 421203672 619411167 450715470 219463648 915101785 552613662 684225923 59939698 880389643 540802138 400071306 418386106 272821860 181579645 182322735 182616049 542713117 708659638 234730843 351288658 162066807 935875768 493536462 363683384 581076839 448322293 235029362 882075725 790228740 795809483 449156201 937809618 368092089 15768404 167634726 563665576 902276463 466839193 275940683 208852888 891134044 787668027 426418273 63095072 672325083 250428038 2445974 61618974 513818396 573968042 519184449 493831949 358777657 265121 782330043 971680723 216003429 749835278 571170836 832063183 965070991 101067005 659927135 350678558 61680089 986911184 523983321 954796327 565269575 670608172 96224193 588835425 965801345 685567585 303272140 753358380 650595572 573210220 500930720 905912995 470805014 480943741 537030552 279273910 459347347 943579119 816366430 493669840 157231970 523604868 450095915 873412127 325569167 90061344 33911599 403986601 520133446 33664139 823058823 831917073 315361051 76035667 935617535 937513613 612165560 443779922 757721481 944729883 694727587 818400657 706328855 617597617 27172902 502693324 287649080 466315632 492450542 165896682 522285264 735113034 829623073 884872475 238490968 632615545 18989979 838184478 117991345 374369467 881741123 798986462 22842440 311913472 671968039 264325350 733812216 528635065 286136648 366131604 50429642 797867247 1484879 217779614 742644051 587805172 967564464 929350621 410645290 577914789 810059629 868328698 808402821 312109400 722352502 37511512 918114852 448239902 294445883 337259954 235700177 990753501 430163523 818816160 195385088 625695687 97028698 147903115 230930446 511107815 680980881 11108505 779287635 478974810 459329419 592301613 862855939 526522280 279196497 387023159 44006821 381367920 750003688 578358720 107116535 600026691 689166799 262781826 897644946 565922193 891965325 111494745 957817329 227218564 574507679 373276046 49100559 342121301 587447881 655915755 260753755 478562602 382607567 984129072 265172382 950165817 315741681 267407854 925386688 58153402 723186374 310062384 724015215 576252425 550374411 118600320 959469122 296948469 45229501 172989121 725677891 676179268 132394235 601526825 342112699 527926426 924483258 77399693 606568966 347569876 123492327 36458277 508917874 440672206 227195767 66935059 510202891 964937879 186859390 781364074 141294277 666306354 172101559 793323036 70038425 247471374 444605219 380953974 958118166 478641228 765407177 322390050 276122305 859851002 96370199 609465188 572750553 216491547 571994493 97444694 53422886 113485609 361444198 61733106 942491288 284437545 844932440 729787058 808265874 288649405 992065141 585146521 147490849 538570239 385962548 941408283 840803186 889178676 500368819 568841751 706428701 42080210 343029607 812692613 207921472 680878738 664684522 851967496 900933270 60453385 252488031 952024731 339492320 602285674 501879467 203685261 215380075 709038762 771825433 502457491 302242021 5282862 48749372 826441958 974181849 670938597 965207042 739313618 619966896 751567763 969911071 456368786 50053411 950326883 534529394 956461384 637630728 61761120 433957212 614732586 729404099 862445434 495932600 540824200 736318374 502622371 920622295 29342590 887102050 583228688 236392122 983767450 247932702 175694431 162862079 949491652 50368070 149413657 133850376 813242607 554598872 218234666 699591667 538326391 944686146 904931827 759361640 70898105 763017540 605329632 453969944 103008153 405659745 852247697 536659363 924025524 618154713 260039332 908498971 186916499 558107189 169867701 442016394 387201347 61875388 328630273 166975148 601789518 662039467 34279093 759798277 460528078 673747624 667256177 44300787 34189673 326187854 824473301 126219841 153075033 80786329 196160183 756982591 210090960 767844825 112901147 549799506 995495257 666511580 614671960 156562621 986794318 462460353 712604075 124299324 831975492 112507987 393287502 964007696 666409197 780018187 728162107 619363657 763595650 740024436 342116155 844460830 493930900 203150747 578317490 796141610 420300163 345839187 339635123 111511451 226859099 790946115 296888019 638735814 222432720 391273422 375762144 925127027 461840420 167533805 929232937 358639079 637334691 344045692 434031478 57196066 927249411 191276625 97931784 259123470 619486373 808193676 55945542 390757255 675325418 571452901 753389100 892782194 821862891 930330115 151624258 792511855 645543585 519707986 24744963 785019898 20253332 570717210 153167761 367440336 740649606 812426827 780663538 586898891 612104607 107781485 139808 970506186 58911552 412582843 978324502 122815638 454579187 804270853 423056575 681638620 346101134 522205224 969571175 81571579 14531068 964267818 570224846 710309060 903024970 518823157 42134271 7200009 403674390 372681573 38173197 337770187 536488066 455842035 693099446 121390504 939376840 49025718 558672425 958480227 315568196 594827833 586902828 662840740 619842547 920481192 152110699 114387872 212580264 328650730 276526286 961236336 123210724 498241628 347134908 372361768 825838052 855972479 58890365 114016546 209173937 503770544 204813056 882491701 662885857 449503465 36651113 497713434 71002059 146034517 200948406 833126759 422231082 258421209 511798447 68723792 246223856 362882504 623006948 123986769 987998984 709633182 125281495 576173484 204339646 75710528 455705425 183233107 975051766 428559144 769544548 472559397 842828526 94672481 249550213 32481652 558356110 656666630 86834243 784390619 311969960 247745043 364098916 692504800 133012332 675370948 607921294 577834827 648731627 953391714 371994328 733805994 190106846 845350769 990512431 243753266 119679155 186376424 142946572 603114650 97283728 892756931 627177859 250846881 465861640 844422880 512389185 860489597 814107955 225512617 814534555 69900280 541231140 55993871 8480752 177552640 475282486 661835546 316970731 250563281 81101120 26399491 595585005 598894905 759398983 509372056 826764400 892568140 291226147 151537940 180922452 689669456 980816106 537011774 952989701 120496059 793147383 974057746 578540224 225234253 117056735 987373491 504431126 483458628 759262986 220568744 190362994 659964337 101975749 41012881 103305875 122162043 737009652 132001107 624729259 962326840 255889529 426003973 482752583 167089861 63630525 399689231 626298397 767380075 22558298 307961261 751496568 145674480 346221141 821207136 429176267 333287818 470219297 916141803 405263868 722765721 415815151 306127455 735714941 90592392 793685333 849025474 104210770 277026735 186469996 383369928 720226641 544135665 627318145 771783033 990811666 876104378 257893805 918933521 901351360 752948872 726859787 470455581 235804933 204512342 140325250 206690370 945856168 96670938 278023377 781308556 367094153 357690155 545248447 875084885 913989116 525155367 629956289 512370729 332234352 546963967 830434041 641590959 387946723 490165469 681725164 695717910 478611898 851249370 360759185 995241340 837390849 787598338 149486828 627671604 299787821 162435854 848826886 717644832 350915382 667645382 674235705 435807708 117399197 370125748 14191569 960821572 6483966 340153466 830222169 159180978 712076859 329974215 156812988 227354701 462225921 64889233 254452944 297112346 763015684 199981106 899934073 333138286 565025957 704796006 881916927 782844226 628785164 435677182 405351284 310547695 581692659 684059184 685628250 592001081 406377538 205219041 798618146 221212358 634914028 874692432 750870290 328063225 305402671 225818993 428753892 656356669 373474703 932123547 403768243 616473418 884347507 513392045 561515274 808288962 853180130 581200669 93412070 628491947 405125587 232028907 44131417 497462099 851274034 595778589 789061317 280701839 380843646 356099837 309152468 45252205 672193699 602532812 612702010 880876175 870852139 512560046 483583676 874188131 570521604 40910003 611756641 743257400 865107402 279924273 644074784 679821470 162406409 397152880 53051355 891512345 768897922 948136137 834417667 728262386 584716410 523810147 958720770 808486782 760340311 515062887 317302453 797192847 262900784 585774731 214084598 799667975 604318544 812034262 730758455 246197863 263478339 410909050 712195323 974999575 106738419 950575350 542265611 830494150 551766508 615149170 921721997 326853649 800939307 549907623 112657018 158730408 211464219 169605352 766949150 737156699 981066765 870837994 301538950 23371886 669156613 877751663 671462777 728852012 77414049 313547377 835708242 969235576 389162465 232450924 41315620 612412966 422790184 20781955 638512834 122233643 19302398 948292012 392513877 912549640 592108966 324794664 394729577 625556325 767772285 265231645 15212656 669849085 962116915 250065377 747266254 346658000 50628432 596001227 301493884 498445499 36974245 949015554 726578665 345237270 586801599 231173176 664387268 720481602 811218071 933175704 404342362 153307595 226824098 16938992 638026542 687809628 389589932 993489431 805314471 718238058 879409706 354806310 678410124 105671110 320404497 357643919 849892627 451702501 499674777 667979099 448480055 576767223 874429186 913588121 969307566 688980430 165698140 568029046 637762958 608172738 714621917 532358387 145425917 376365699 957925376 295047599 298424743 456037564 250002520 370451927 94125469 24717316 638324288 78092959 933065555 510655677 961623642 169193639 708261349 252738849 847264883 732626615 520330332 844777841 74252129 864980288 621739786 148175438 142365827 153217075 261013655 586501809 903328352 62836577 764361699 196258245 305386364 123695868 685846443 926476833 54264219 147951884 769307310 95241730 352381229 945779766 406448765 365857306 30472446 910488439 777119477 674931132 348236080 765142806 335357111 163285609 728917660 317132476 528010002 87469183 22774202 668283029 270146963 50131672 142585572 755925235 130556717 590003638 241760438 9085229 233889588 207006939 102449175 160980233 499274417 6652151 70847459 372252644 722482262 171543816 640749155 526633536 932502587 758627289 726924177 650325589 397093761 104061205 484633579 311641892 598122801 536067242 709396220 941981161 738412424 510023309 926021433 400708442 208497002 145902764 407521936 286336356 826408082 934630855 273204697 404512616 754896297 182850876 261283833 509987104 700437035 346268306 630207029 227868439 215908967 868539415 364241297 321218677 882027068 438064799 636924020 750889989 294927835 805887465 18490875 643878160 824995940 659266607 499313016 895162614 54945828 141897974 226830146 55151642 822307272 633650195 752811894 68275438 60997077 210628907 516959177 219149866 917642403 930771420 504830302 875629037 676757449 887382628 306074472 962139888 696440854 802707568 932001409 819100247 367877929 40889804 343953744 489021034 171342109 485295857 614649546 303989453 788015465 358564488 303424525 225059797 815919876 998845901 251075437 22050883 416261681 909596061 431267946 35251566 406413304 775285247 888963619 450953628 661912301 264747724 548563533 652577917 442566067 12913000 723493730 32136019 732454476 347978373 682652822 234039598 633082767 497398685 409299013 685944679 721908695 76038074 185887645 245039005 201392287 422886630 375056724 818734428 370814644 44281285 413984728 856132119 422758004 35500850 277178740 52421221 498427357 378160160 127364068 393890439 261937523 336914518 728577355 722576765 935558543 367867873 320481959 354177296 137383852 141214685 611939288 992613248 749319571 731813588 380969171 290791802 626431657 347525898 981600609 412954484 965171408 655515868 839110041 145341964 655065900 701716747 280829224 690029622 3488157 350194030 999695738 176989043 826851418 633115664 177854714 663528068 713424516 49936279 170167742 968432687 281126900 830588305 72758944 707722989 303849881 943932334 390096438 610242388 584139890 819253614 25001766 981260965 562100576 475205397 381969437 434147619 521330611 762534159 334873896 51338556 291463354 629153822 706366163 389636696 372485329 742606560 448907373 920784968 268447889 789186531 222130716 407206706 416505066 250740109 609290974 328734690 615358282 255225384 58395953 34219773 781067504 866724514 146159008 44314552 302332972 751329657 840557062 298578592 849464705 258676155 712165693 283866290 298742026 682917652 260913232 406358462 182317011 647246335 929846885 902349418 855504566 907482038 335253499 511776382 354432 439997508 744938942 941271759 801847400 884506299 636158269 406405955 996084479 404997156 855247833 847699683 833419040 751383542 738805927 463311401 702481528 462027027 381479838 44718738 342393801 397994280 986562570 642903783 352005174 943485720 860964325 9235222 516591547 421421597 201148861 589454458 819118511 712715892 596701754 525808118 128954762 302687857 638465070 730127265 501223985 438983450 417103704 890435516 979177820 787897333 346298357 53070425 250020786 887038785 329424669 446848200 585449783 56105789 802075193 350357805 756526304 766529060 140375518 558413395 602880494 295506089 463569080 589233286 444505459 242221064 267824725 323343648 625451588 134061542 194640883 545414270 20005131 653978920 295551260 275212082 82641740 126555120 113289134 233678941 792314156 28183044 33121791 497246246 894389944 143172304 140475307 512396396 55203455 474043091 147667377 240527413 245422208 462031864 262584445 762155478 202673510 886325150 465871692 737522236 47083258 137443566 517002749 91102264 122400858 301464632 816143612 954561641 938695927 853744594 602804281 139813327 512623121 907174952 955884219 236100859 677541636 544436031 508099817 458581488 776476856 932269949 616492710 961196480 171722005 704880555 186993775 779670097 153205149 461924702 639766719 641757618 728922350 88185496 982766613 50437782 897576993 972892586 781138559 314663398 220055724 388938565 979520482 262946062 202967952 10350021 714380363 653796620 5152831 992270392 37632782 672087975 961330025 448175711 608985023 192009097 371796921 890310857 971959554 65957202 545967416 762630629 943104101 714282154 237457475 402067927 439241016 193445130 930506645 840334019 986724264 810228979 158678093 344872357 826892732 198916142 578896998 182400972 766751165 555440224 528215256 335383789 37948175 553381885 253102701 9287912 763181855 216241390 912082737 545601870 580941289 998203530 356619143 11420563 780500700 698863805 230460060 79392469 44009798 406270380 83452464 946878599 99408230 341240851 649577465 457748282 44234146 773026686 684437411 289832986 489602676 534434945 662260793 609836243 118209878 807792021 444327054 714982455 951349743 783260715 758846325 844941363 760759145 608000210 586431550 1952752 25660783 121764365 514601933 715881633 298689503 613853498 134349685 687648120 672081827 631681832 233983631 129187441 509701027 615186126 567071659 678070005 336936605 372918653 217737150 874810270 690866005 696935720 164467864 296032569 108153307 806714090 843523972 521397471 522338234 50612088 930090538 884968438 917501350 232610440 402749294 211059567 731150539 102548938 721014131 16396303 654346039 686334474 239918632 901578804 878717949 412838479 867446096 857167843 266080098 373471958 154091070 397307085 92081915 299247288 61307177 470825959 770240394 701513871 919462503 112131893 557470772 874037628 153160280 917123660 277955071 667157009 338132288 368063603 232883694 898786728 930964954 361724866 214824093 314466125 303338932 913351872 71375207 702465126 632663873 57749081 296754568 42397087 993858954 214587762 200215210 394370786 59401949 40003995 975065542 459633891 441054801 311961548 266784015 310406356 707030952 47866487 127543341 403877842 39517134 144739980 812129169 675898415 294776456 552196719 643619685 528723389 516401520 757495484 326130377 57402912 765632648 203732061 52208844 185862245 259845457 936815452 675378106 303960895 957213025 520301574 221872171 450836981 944355384 10896720 234846358 609706808 620032534 12381584 963752548 679502958 821519223 925504212 40028977 861975629 571726573 691406302 883463350 182480940 637701203 398100738 773460961 305831159 816944636 489896167 428289529 564792938 596672510 842910769 661707254 794209280 809648234 393645012 697682090 479509175 192160158 166100957 63535293 407564452 225311722 24665585 369782613 32997631 142335789 463773062 801408308 616708990 310204859 684961342 96053092 766275837 495808125 77042821 46915780 491776084 412072103 315353654 941386740 100749807 620819563 492153391 492869866 62847931 668289184 762140806 126346816 472011450 130633647 680480233 341771499 361978171 893265124 732667947 922206847 434900385 548305089 7313695 716053585 166275357 799531903 994716291 152114165 841278624 241075751 915151089 922050262 634848028 905042476 266771153 165513084 732532114 624005461 596536976 47878085 770293763 795294669 178774298 185780552 234120719 796324138 791225894 755759376 503621022 851801143 111385962 779503930 983983302 38925923 309775527 472676177 512728105 997760962 315375768 254993402 371934700 866580119 370250120 793836517 956032910 434241676 763175685 16492550 385979177 212300732 424679010 152354267 95115552 2306948 407725590 479028317 68936168 653540597 432129428 136468321 380701137 595414033 862775543 65117579 345346534 60578721 507487780 487047820 865141102 674349459 63487531 23067167 80161812 108285254 527925270 264219163 502167222 463093433 219229681 779382739 700618523 584785571 2546206 716471753 843255493 294415901 677399268 674967598 699718406 834109675 852227725 679270635 711040582 276952195 575324979 908251811 682201039 442042184 789113193 891177303 612593042 636383437 356434860 971846638 369068905 870270732 600186890 32254149 696265102 29377578 989763469 883248542 382264296 822683863 153396456 945448901 44809651 8568481 263534419 841136717 172459320 730076662 935601823 375426636 323929811 449931152 677861985 403174105 925266591 277289281 846767253 509894928 96202070 194333390 787457197 961469196 306796374 176225605 120885968 862301672 983259260 574902018 633483391 88399684 677761797 497549260 737469292 331128003 564912677 846724120 328513893 14969100 535705482 9176266 242858745 197576294 754791215 690782828 902276740 164040366 934468492 488094459 901708112 216135229 34406461 387820189 92322430 708294831 529640478 813271783 915103293 66298870 171204387 567508974 590397526 463254087 748149239 900959532 316582214 199389764 424604485 391501953 442078038 746153796 753955708 11185808 290925845 743393825 344802981 946084764 559739192 952590154 560539349 733638030 928814892 391232610 236176044 905079532 418783421 678043890 676818888 41111987 783173760 397329024 855695271 538231375 652793746 341895672 443260014 374373794 613849453 729978385 932668007 798796817 622413178 978894790 992901726 886108759 241248511 795395473 527737057 843468582 438239066 219069561 529679897 194298701 58672770 475847975 926385107 619758307 271326691 525093944 734002649 591566480 851660126 626705912 579018990 169467622 193509945 516031945 135115195 411450534 793664969 725258603 541046333 366735053 357433721 386981684 771812637 878994839 336587608 343439173 668792956 799044909 748051288 834732337 846259981 649851144 530996640 277057844 25646048 102668758 197151580 289074055 565658983 151225935 493071472 917393276 666938968 600785024 114253295 866932100 611636953 753523969 896273456 273888417 612885897 898681589 542057995 202475706 266697887 378814326 339919557 884226430 284228522 423755503 194230777 428884609 782799225 282545904 86827258 585819702 472486895 890409950 432769755 28878786 910763494 475124651 117665430 98654858 450007192 360898529 743594310 329908087 357598038 642798506 347919359 982698462 710636563 471355450 880280065 84835185 814188296 853451288 179442087 813175980 473087717 171537230 49355429 761049873 608839554 169036855 576063193 804303860 624241767 445754429 234221777 245795812 155590278 151558061 787400724 211506499 271183563 830988951 270210323 416142658 116906521 301897155 108291724 558445689 297504316 810046022 772202745 377386676 794850283 336272790 242192590 205017912 67649780 477481543 952252041 293526397 209238392 487382643 726070379 866307310 360836952 485145056 694930244 145718553 880691998 274404699 339640020 657350282 384731912 635776803 720817156 424048547 244113071 135224686 452123441 494716855 505933076 41530970 406975188 229311660 676392279 815147366 192280430 773507794 418746047 230750203 662632323 783781294 778618993 539686087 136419306 219628072 426993600 522320572 259010263 989953431 131281188 942231326 227466180 320447415 403758706 760322696 419925662 131711823 252694123 823630235 96150524 142139607 190819887 993868552 693350707 336042792 771484380 483431167 122252353 603415198 646409223 633643934 189611520 294491150 472280046 364124100 114634456 627703104 910077396 896319701 709321921 487340255 697513865 84201114 189708627 730751513 723094345 266108379 673869256 264481936 300708399 679879275 616441538 437224387 286308803 962806518 297615636 869080094 964905937 926959638 824569763 375295910 163465687 223024910 12481587 68307357 939870873 391799665 851455764 191026515 165300527 2812518 541655901 184912333 965894887 965577264 587014194 167324968 948646511 112514548 898708998 424037287 446970066 235205161 572879961 426416101 835783952 59951242 606846265 641283974 926642397 457012464 511440754 918991858 744187361 478264314 736845621 995624395 85076857 890798993 812120599 426311522 336665828 452993692 54928870 463086320 959999601 410984289 889404312 62632076 818432838 250942989 118233020 804514820 643814408 431728257 640793989 40496354 875684165 584316212 541803917 453019502 555466085 24013572 460161306 793002150 497692353 187406787 218634003 165974579 750025560 160999642 773165483 875134886 188338129 483618549 498650077 580111906 700240577 207112770 710687290 380488151 930548603 368886564 875694589 905686603 473743009 915267439 407689204 724530437 497922772 849293522 143504791 88040735 769899470 249722168 214586118 362870911 574243257 82194352 441386540 27921629 305327652 142461453 907290449 639226271 617850486 235597196 280785572 44551362 141064665 659449695 297388990 696066213 883576280 782255126 191849391 823243466 738278951 210096712 90296074 399884961 268757951 449162820 123182841 719134772 662949355 966630372 786786627 591620057 308881816 315337999 887993271 299224916 861061823 343679198 769565719 286728335 166407736 474544345 766130258 93143033 158541608 657829948 855568307 520444013 567087536 440830384 706760745 227183514 802964493 791674626 474818638 878348116 905815263 479336824 11909485 876919312 272208804 73184763 707687214 893384753 378300846 139091537 403195635 873657777 87955057 391005499 295210010 144369074 888415772 19502203 658763965 129153996 313696483 632881746 657498321 543046808 186396435 326005472 725813565 744860012 901283025 581878372 573838595 3460596 601295205 60703947 470040167 973985669 843239812 801901499 374074880 290507938 665685944 998552501 469040368 830520092 256043708 757362468 19181023 870390253 422654999 738739776 277689531 662762126 975172331 456115180 932271889 442198064 192493834 378745376 80855460 240884805 217620900 149671742 506984008 478746778 944550277 433346550 103361679 757592976 488900063 693348300 418784929 490553894 297582848 321462078 704208080 68350297 998972298 150814161 638907103 139936566 878995749 586085526 952949837 215857681 228873449 260847304 23581367 875829785 881774192 238901197 271449681 433811864 859869468 391472634 329140051 232391143 462455634 48215592 681261875 737315079 959222504 923246800 168785991 454114681 720443397 402316126 293488690 445551521 355459263 468363993 689332848 107318243 44938502 729385111 157376693 23586666 219828778 572064895 939629721 87885418 1408740 735307976 216181007 978523542 99386764 255005959 201234767 384201451 44545426 943792361 756764346 189717320 758685587 300328752 422013581 496691384 889159861 894488584 795849289 22133953 142561819 826052700 169545700 987819936 879605113 587839409 655766661 408036862 878393732 473926335 270993546 743734743 104717835 285333623 181827326 873577308 327604015 8510571 433642759 677146043 649544290 59774422 436499921 663468998 731303822 94231538 653287734 308605694 580766299 636885463 851247153 911105800 842799970 579060821 957724054 128624396 334322549 141115024 596766847 274367078 840525639 522053569 871902316 865946794 427994185 440803207 9004703 143723484 928636373 445851759 706286165 421196213 354222314 909901475 805057257 509066754 398283845 77446982 445786724 39912936 578221555 283784374 668652009 880070547 195406416 185333884 856613461 577637602 455596754 888874054 179731465 134548253 134463975 22786039 971962811 88586931 246516049 629615631 209655871 963044035 992623310 882691925 355009834 554850496 144610132 39131456 964500092 609564847 429519202 59118575 369203284 511601283 139162348 560814683 375766268 579149437 790242667 435392865 206174436 394198066 175078050 721752597 470727823 610340625 205605615 185161868 509780309 585266842 513019409 464009208 357623728 626729061 430420823 900449671 18601606 914669438 244949295 999226259 938794207 540199946 225556354 25450401 809438903 80676370 356921734 946807171 252081693 628957048 56514786 877518122 415343874 196105102 651617279 32414326 474036602 393389287 368198023 427293269 60399839 261824308 297933326 910412324 146868833 948773044 238330373 787723974 318258855 253560202 863613140 662670570 851617384 624143306 464954415 269153186 160339063 676360041 646807763 862768540 527499936 509176732 488178565 674478432 237068283 760485980 996554462 379576230 200205042 631923468 127075093 795113539 269259376 930904652 56818513 595758891 412430038 546533924 363533830 448900263 308585180 437405892 81603883 631013742 74676575 460862366 311333312 46141479 343336722 55422650 132760377 189604997 938756439 451340880 890157758 553862874 737137842 496124111 263545601 658811131 603789849 461078746 446034852 389024926 584388402 787139256 641083095 676920539 579293105 708613922 794714286 616920687 755564491 343130641 767361283 864253973 982930268 613898867 131649279 540957515 617469124 939018629 803202469 420152729 656626118 523038255 831954653 920960563 158218373 970369396 894563658 690416082 286868826 986065888 276465681 853497001 807934901 670306021 474862771 9609791 842710198 631155112 123959044 195246538 321200333 804621566 29955053 713092211 795508349 913873882 561079057 110935952 574753034 507656654 210419105 166871335 440434984 165939003 396187455 87063352 632203594 636596224 177556689 740734048 360277492 95910246 599866245 154699864 97781960 461167889 976146557 619879826 443058667 611910781 84338404 143926746 242769456 339897071 707797222 804713421 354882997 17252664 698319027 607717396 629781881 914269920 521886300 825732805 282828219 19258090 646304247 223826867 299345350 746410938 528359622 193116761 685040322 371301844 740915553 466157184 748851908 847276739 892452148 905883088 151130224 864886785 654715993 208773083 793519695 952096068 325251766 688956481 685212537 534810381 436065191 711427109 159398094 635696928 144497348 472968132 436945413 87476674 403044205 622063454 751108994 785650292 490630665 677964311 407532339 770232880 512533448 707695057 803013486 514689094 284067145 689589365 850886861 108255677 949502430 659123581 43325810 851898114 570902828 927653478 190651162 750279740 150824860 230245074 94075615 270484664 92343136 295021352 316096310 831627864 457685587 115257030 114242709 380543291 260864152 841654658 803551907 849672464 990887055 782372782 804007433 588195225 333835842 272193926 925466643 838176952 866141086 252385718 451092597 217351180 762123769 641729473 94150481 11158918 889481866 230537914 46206655 995187572 790985610 373115043 391314236 716124377 48932628 144598263 527529541 900974109 6992396 339012122 351311062 22674232 259185492 73174549 773291899 435511301 528610229 899635257 479641051 272447828 897930842 335394931 317939107 602486246 588130018 527333430 421855667 550422722 176585881 34685871 592729758 432304238 973551909 759268307 988043096 738765632 346005952 655898110 960587720 699651861 769521570 288950807 311507705 347515144 808105084 803072341 268105899 967026970 743271015 786711342 711593250 158600797 94341195 196261488 784375984 881152734 428469389 18737785 816709071 307591454 520278695 909895253 87977460 370456645 894601153 982464085 664403172 315241314 41197551 225288733 211443973 875720194 106504437 736846919 419869902 442148493 170820857 666999099 355447408 252049034 162039986 795042406 475619733 779948394 282172702 258323667 935613966 790746942 529225937 404645800 113324250 595008950 399042159 873927004 479257596 739744000 495042960 494201935 404891244 358943719 141228977 714116210 2401219 208257532 814099292 1945403 193525804 876054445 472120423 166950578 782029243 461420077 673899005 908036934 152221181 462013430 646475715 174497330 980218132 582601144 797888088 133203648 265295039 893461928 897289875 884425046 944989316 226401833 740871653 90769595 90307433 94574426 141342783 785694690 748550094 249349595 697840816 244526914 142916289 846043268 640181236 333292471 927312263 907714476 323445396 146539095 139786537 790136269 307453360 76605680 36650091 254288884 422102309 304895550 157876022 603745887 835399077 885872345 270632046 547544035 122671904 179761017 572547992 298614438 153648849 696365007 773925583 991785832 179656029 328401368 94299731 334532387 372622350 42828560 227287641 397988903 74197827 161607612 886078391 817041060 350446896 566828205 464553689 483962534 857203821 853756979 587718323 88128783 510497510 759025134 1348893 841991547 872408905 180482540 187480331 102827449 13423688 766262556 198949209 92294563 779653890 110647151 475241768 47374873 13627655 931883848 973395268 132639696 738072323 973401877 840211923 302501129 977022132 541868453 545298610 381499156 955469301 311392311 770334970 365267864 647643933 760529408 805775162 778651312 467042991 799963143 199901571 195447798 800769828 647531189 287589301 351714998 239587532 343835310 954208932 738865156 315793247 360447985 76078950 473897337 844236663 249072540 487706070 958268549 57402085 282242739 875800808 491621249 89075961 289131593 570462451 979633769 230043371 25217416 789957738 980706367 94820287 689961290 23214694 499661150 222145217 147608257 275627569 233311372 831945660 914190530 312058602 291878361 241387304 190546031 900228439 279154202 725132722 635507652 798437747 907452407 198562007 215922910 6866874 652019202 428253829 888246103 353790390 125023064 17321293 603372034 675166446 232036431 853256554 9325451 219606200 105856392 172804233 366452891 641591003 204331342 639057586 291751022 862942990 102644196 613368517 799579873 790338704 352113054 343893059 859216283 380322222 649526421 264577972 472863409 470880153 827057080 415566643 843248926 190970416 512490016 848059232 184002794 356869468 784816175 898906384 910910375 441262936 613897207 909029491 669599008 136188393 389116059 819104319 702472670 790588738 517785007 550264311 303639538 480626163 586497208 963828694 861264935 793056961 246852573 82627111 498893950 584737004 581955317 881547780 953573295 316465405 535653915 47737250 652910838 519675774 987126244 791301126 125061672 68132398 487653200 147643925 557798181 994102300 100180406 758247071 762039676 742319302 40695712 188381035 671204445 697544185 939361579 941834517 467837649 303161155 18632549 649336279 110400577 710363153 194252881 619558906 213028489 333591520 506283383 56768348 435084792 842155588 547363847 170079060 869177251 565638313 778228018 516440465 393433221 713962204 866274718 935936439 251263927 54446965 903523788 664281632 624037091 308922130 636180878 642908697 348711369 173774938 436876664 261965067 119488340 629457835 313947367 240509478 52103305 341844220 844906158 654394639 962964992 264145075 610653989 574552450 319074240 676738425 89269985 386074433 557484473 808219616 739778088 939082108 324009006 422552942 708187101 155439162 133749576 180212067 3800762 661340526 304715668 807134109 348624574 279521465 158346158 294342510 190371891 115949771 841085159 186767359 265819514 701886765 43987340 978572850 208986834 767742272 207772266 258455846 954734466 570801902 896093307 805248729 537889413 701887003 161366234 696283240 346634317 729084799 300289266 162873871 893462246 235746150 511582423 444710218 419073597 867575247 394974216 355576160 473235493 444235802 479969424 710436754 990772210 668545270 966380689 639665246 420575626 233885626 337947438 212952157 806664344 957554532 742511914 528686968 41503419 268060640 709778596 752848104 818816246 917083393 590102471 849758605 933232061 655722283 563791304 505527275 176179096 372858023 741724095 693677394 76713233 134799216 410018604 115741972 312005228 87087096 961071981 134609124 622912259 304248464 127385071 28427643 937149641 882107593 884188154 31173687 143834187 676844429 589525065 693734756 578232908 330304237 385482567 50357433 824484862 289723394 300520504 253406513 580621119 148092136 268745264 33373242 587987895 950316443 677290740 484007980 695223387 143554505 431775393 907335011 374569020 232511492 835484593 178268288 162644339 262987264 619696129 874444964 176180437 730416924 454710435 345230284 974866369 985524009 225382650 411380763 509795157 497097773 276725514 962828881 492077921 710578579 456268287 413423446 312828051 564184055 152742616 400000528 594149018 459268420 390358829 485501830 752950412 770236376 395763421 428879136 736570521 732254930 962085794 654508439 998922829 687854213 937412786 687505756 800059223 979392862 702039068 367518781 633695169 118023657 865929930 94421934 818741400 432172793 909784569 380260384 349234494 18339751 731033172 218433512 452588823 291076951 851495590 10566840 988559775 102507467 903037642 825511862 795462719 463707253 691168605 625680530 947759292 107831811 323405364 966670191 110110743 193551234 942695764 824470453 621802633 485456806 60880710 850860625 636499506 349515357 959538423 157194557 686344615 570050006 247451595 370139117 33622449 655677731 945984527 540212536 452784570 453205671 30207062 728251521 766149435 235873559 100199100 664666313 347874586 112243714 142863992 381574551 343683863 205411327 537195681 70537465 911948680 73877359 457798299 382829703 345961553 173206084 759555201 643366601 282217154 719759188 333811310 396082736 331777089 131136582 938058929 826125058 437065937 41310649 215270344 595992372 239258131 832852745 326639750 992634867 145621085 758194979 757349345 943296131 561695104 132042946 915306646 401949968 7602303 408255881 477058394 999452847 878531010 511759726 572652261 889442584 841261815 86591731 930862980 186593605 335480304 819150287 315015247 237494082 726324094 411841269 300357497 381009941 262900232 723246711 780380544 928847984 30630670 612675132 25408027 2765992 323827607 608122247 177905790 512294369 334465327 873105909 780228551 44208002 214673695 489264435 602180546 541389882 419742351 114357022 13482173 181347845 87320243 86392230 38233713 813390667 956175433 933593425 294849253 382480853 545391539 302766589 632151649 960040310 793942484 555499309 777283516 453211672 280093464 717041932 50911246 953374224 26914148 794433453 522974307 962873802 265668735 587516282 324838207 171445647 74213037 362407801 894080671 467754113 414547155 916692385 603398668 790117327 224484987 284144986 185619775 401600034 319593493 250286075 96700956 863386456 925917271 640084979 688169622 71580878 416737459 596347446 361235871 334928549 788229224 3453003 64821810 927707324 971446900 5159992 301210631 647767189 467470033 983501120 504090231 290239807 982541351 164614077 87452114 137197697 881242265 674811748 960235564 992090291 49629793 857300402 477227864 860567272 376625598 656826652 36095240 533567745 23787500 130171141 114109845 385356243 356652345 390577430 506223849 167747675 975748479 181345664 272291152 422465314 232894112 806386251 297187317 424841783 194457764 652944513 415719701 63630202 764503580 545052375 2980437 693375986 426814421 517798294 97046899 896312681 414465633 309342219 204466431 56660407 875180416 283681025 771886504 643582146 398693358 648098444 725194204 189535741 879692571 263281599 664099591 640706570 241960711 749241479 730151675 27228631 426559064 543202802 259419406 268398771 490214461 100536879 177542234 125989302 595558383 690392347 970180236 951617097 546641951 434083908 436369699 25821445 215319218 132873718 495469048 909576045 928275756 125402451 959220430 49442583 908148438 240217244 86925193 79121909 220240832 74063602 127759415 88503624 297027736 95056943 281342023 18993040 532868316 359852198 825734078 288761847 38505585 235092820 152269220 285938301 115031566 143825546 230856517 463908609 957848665 910943279 295238564 71957604 590649103 286563430 536693491 773746165 19847341 88192405 249242767 82004208 286492157 359552026 483192266 32473683 506337578 913495538 944238480 480597392 624354377 106553572 506018408 19579909 986093197 480516688 107482580 80406585 541702326 602810173 622818602 637594947 935253501 399282254 277804794 14016528 519609058 777787457 839480047 17186415 124083430 914532109 351948910 524220733 416955963 119789753 2583699 162846659 493850030 889525761 579339664 356986880 489672730 993767928 25605459 70797886 481219619 223746111 214963155 608309243 220570339 476719850 505521360 18215207 102496810 115222204 815760778 391651605 943183103 2537416 597232362 105168933 317459896 882486520 219089213 150995822 952994734 872908391 833241624 780107301 34676354 149572754 97394923 659017568 473700596 941597017 302913401 183948901 291157557 35828356 457247206 837126499 942303845 777424664 242774077 212758703 378786094 565595932 13762101 171956530 381257530 724870972 837331817 476091205 732947868 845537445 294542356 495684763 906834656 455840059 155762020 347132812 890540000 665174223 27988162 325607231 618725434 955451382 153285668 655039673 669097297 530431488 836363321 216314761 57795731 204709668 992923000 618126609 790456936 244017636 75719265 961742567 156515776 782962356 381783402 782205388 202578224 206416766 90339827 916650605 539068739 670558916 845039024 310441585 742801676 217169594 164808000 938370372 298767624 338142143 567107318 995021978 348321746 402073145 26775232 968100774 663067795 929191767 962755554 953610575 135255938 442821939 995285554 192973820 126704965 554451557 638493388 673859273 424154854 816852041 45186428 182446484 472541491 233280694 344436666 991028830 857791479 90863786 282269600 919752152 273871706 480279985 649677294 576650978 478514008 454983846 791740346 505665059 545698131 281027282 317083146 577958309 429130920 724049042 365839411 954758575 141129645 746142754 687099950 223771500 790574735 254895930 798467820 177899046 200947236 780377206 722005064 634181128 659612277 496252012 508364013 412324348 1831842 678695191 889646330 12598669 255935167 345175470 522689529 371845359 864936676 726858533 16217573 414409139 51039387 273939737 238599921 909868671 252430637 22139 933210269 237250507 955402782 473815951 380529802 859437058 187266046 909200431 420364913 330763227 949183664 6888256 365492561 507331366 146235971 718556398 913937529 59697146 878905033 624861056 599126198 155597862 16270681 774864301 204717889 996057360 466513370 334038819 435401153 622537493 417521766 76502464 135794333 873694192 324439546 589871856 467209490 617152368 697899751 884385569 688470563 248632244 467359238 265843841 174600162 186310889 441263853 63535484 689517896 357234701 819933332 855024850 290416268 928699955 374422235 279033116 952658783 861643674 253816099 674145920 302817247 777075927 165465062 778237921 488662387 80440180 156585580 883796715 758752905 281030862 127174858 77095422 227286164 886531399 742984812 634279398 967299403 111547196 900512233 181114213 102812891 224702547 437959564 737475848 114903044 73221504 128757140 125153091 490450337 744055895 302431373 506820552 248970339 25299406 380622050 539356915 607904231 652520125 668791316 454389734 250644846 417649430 881130241 119268570 635822066 141765278 824634922 462494486 920903186 809382737 395925859 780352769 420940364 933902681 935552530 536608211 321682802 43599554 322068694 888455123 630690874 487356761 736042812 429583794 174522822 906561251 185463434 623870633 391774678 152744284 317827976 923812698 55655767 165711597 207903540 602688676 591433172 223956107 712373212 491743233 669555786 842520020 130950417 609868126 218308331 804970951 780555752 228726487 734892240 768880161 602302609 747665709 638072353 275467166 998368262 725347592 450096538 834172784 28222660 983883086 483327069 749358872 33018114 493911539 647901213 266919976 721053139 960797538 452736891 403017215 693691635 102785845 509380315 425102040 102684642 886913036 565732325 343142844 968787026 943854540 933506183 723574312 268572584 813719772 857796173 115873934 311205493 512510310 305559211 426128504 313897188 819991803 65239043 785247760 951790863 148126698 192431740 897393749 27312334 544318795 929550781 411548005 981037044 371783232 858622307 144710744 514812946 268007398 165899228 540686732 742856380 454710293 342868129 961288201 681754248 730748889 71443596 767513892 196932024 441545345 238810461 399912119 823945770 141912059 254482983 485474136 8669654 637894937 778316467 688604458 13365440 822065203 460377877 764922399 620483105 903293823 645876121 556622378 927291488 42154583 540488261 48090324 142693685 245718822 396506920 511755490 645550681 734907043 151089684 403493374 632178420 887475287 492553059 257560669 236068843 858683245 554948125 13998269 552014613 841669988 260255642 942112911 138307542 645902073 737746473 579128624 315427711 500947081 650279489 695223926 780365591 376065911 531906175 356520984 186431248 430633803 876600165 839800173 559573879 921952408 623874381 199445365 485151004 738797014 450946019 252505307 738637950 901788006 540883632 83737061 140568990 21559225 219899405 431922639 883976837 512571024 980989388 307769179 320593051 910667204 794500250 580997157 858559183 896567458 487066364 32682283 251850250 190713907 747285143 476832544 523777160 654753577 319718329 476519455 341578850 984568902 479796292 795867025 774422585 764021912 853351121 94137871 596501797 915485146 923800556 763426411 890633965 710033191 676676219 861919254 476606408 425549676 410960134 681879009 123308265 84407942 220986908 56129187 346688653 791494459 995799439 456973628 22837567 661611614 145887677 421922388 230890732 923885025 737473953 444809640 785746470 19388598 445300140 920039901 24649761 848366406 324135548 432614488 446564529 718226151 950517059 475708979 16541480 367341816 355924256 430523742 355620467 907681754 997384544 871286951 647586298 526472073 361652466 408128348 175797962 773177799 684246436 722592949 596490325 618968519 398594064 894125293 817854001 865449381 695870782 34425464 983053561 7213298 118532872 207137068 945569950 66862510 538161311 912735021 685953188 412662977 213148500 848337429 689035700 330732605 13362990 85174288 683028563 527526410 763962976 344559246 203357911 304289116 40623959 576333703 358645852 488042305 598821506 134409695 443385094 421900136 236427637 824747832 233288250 940080596 689697703 478079856 602571719 363881862 483996752 632315059 760851014 184890873 746974913 125286498 188187543 365781972 865954749 702195368 941410380 194731946 543117946 609003516 480356599 131803639 185114117 209270239 623463106 25403367 532117159 106173418 355758601 128113545 350279306 538384980 228168586 454643330 799385507 143372014 313321097 71168774 66936752 791576820 46724100 464200556 685991841 428780131 454286741 304196 289329450 195866538 535697231 127020211 121547714 500720097 382285769 752303618 91139388 768708735 203188236 642118693 957117121 970298122 521700127 273633330 744789325 969174321 516944148 585866182 847456749 492794229 556702254 887482744 33490121 91837631 97528986 791050502 34327597 363067007 101971807 226154170 751900036 289446082 655311803 428730561 836677614 995637979 507078194 646840687 230071972 89010900 937612847 731976316 602739717 769331157 354368464 457967469 583391581 969073091 229993561 178895915 19180703 381887777 760511988 721009476 877164272 22772266 826962329 8170959 958756891 788461541 730769545 439348275 661931048 59135787 523576555 472944997 828372495 600006813 721454159 712421889 666520671 536500218 143572225 777187068 487424214 734211415 64252126 919677512 294980404 491414841 679345117 628528638 6236939 655647928 700137633 749192519 392519946 994885753 340993636 698750696 56524590 304977083 630224189 77049463 134579402 627286199 753269274 68839660 650511355 550032876 536718254 752155956 716107307 317163701 421199355 940471036 616829546 574433279 787729845 460277591 905619581 550255980 587300855 139075648 88778218 907273307 342982703 592712590 749979868 490483850 373380487 147155491 824031033 578095356 990585232 793859544 557651295 779414316 228459523 628785336 836387004 431250106 43104762 200806667 776103938 997076933 372241851 444725736 447697388 782390992 727633038 402674923 481534053 909073832 338933983 384996502 392377051 914657391 63615949 36493715 659628890 619319314 681769511 515933666 169214071 598995548 633512756 360211048 343963911 501177202 825750931 188948855 572723192 214208746 601078273 926517598 839070111 53528008 970545111 870266613 846241132 721171383 624708141 212283061 508127686 134322552 481026539 25056166 738328924 964346042 631867442 901140828 467549113 720638550 801852501 186413315 127613639 693142868 254676083 834241650 726676422 226710324 452212424 997526097 377490841 927587882 305767773 46893171 993546835 596885806 578069475 868815939 769903955 166953190 84606379 978610025 570831921 785106551 309177192 841495001 102475951 508764559 833382798 46838217 291034051 798575819 691843660 443242835 144678381 259197211 781582891 468886761 762911663 398920943 897118179 57990020 110109072 551411508 164073586 819662180 972680967 356255522 607976200 593371754 678856326 44615113 126799285 376905570 701941654 3682448 759784455 905337112 478018924 219353653 104966879 349551318 728528619 416345416 12484433 497571682 848732848 790268595 739808417 52981753 812525912 254136772 841011614 297302658 92509565 487271022 291167201 233530415 272127754 977607281 985539943 895383303 714366999 795717537 422238665 503225383 570004316 500592611 849812474 563840696 545742059 451068086 422527153 773893018 13904188 184100468 47988493 730795059 14831082 169629982 577761579 620593378 757958204 263178667 434293213 165337584 157632164 613980809 750637928 696822851 246731774 510586408 801239341 59143583 885891606 421861766 824039311 999309793 141782049 233930673 766359780 794440568 716792613 242628917 494050873 364308749 682636132 391383041 359054874 400288530 764438398 906086939 293761530 420365372 429145154 479295263 212805204 191334112 402530806 525535949 313492178 975996863 529026724 397109079 7340722 393452147 965625531 673455388 620875307 114426984 452282264 657476617 437467602 739688057 412709692 938708875 266175824 618667086 9542475 723748922 303323543 531882223 610318900 383916847 420680591 167478707 828636723 736839292 28024903 299850523 508242289 664241956 135915786 299107095 100132826 806333796 47645000 695153298 359841069 779647337 598026290 145690335 321559708 412373302 625148326 255594954 625366411 809555533 72410930 365346319 17094751 826128095 260014827 240363732 328682301 386918204 886394148 524562964 391245943 486805801 73748458 564464939 243340159 5908900 45396081 373293251 624487562 208923331 546661130 467261730 833782023 199922806 896783152 404631702 845142603 847919638 231957841 665387608 78310612 826688160 341196410 848670363 603630845 559023162 574690249 432148042 780052284 318615890 747496286 712639314 919121571 212455392 596537242 163232691 717274618 515765227 127802232 656047495 41356175 207805853 509722701 741828693 320457639 101229339 376018046 588212327 950236666 892730319 38103848 387289205 625880588 84353803 200308861 337888179 769288688 533485761 271003010 914616888 363436923 798136521 208796357 119415566 239142482 511069007 17118311 417599250 457354372 328842698 184842556 330953985 405845197 739421056 215647540 199424711 70652471 544899781 699795701 277524358 876431890 80640768 681473310 24623367 397539271 122320815 310489674 380830926 728169663 139116409 181889944 455698465 491444609 210434633 222146161 344277370 520292711 680224287 396609244 514324917 629979643 97376297 836714696 665060016 245824929 581822614 405423016 315664338 13602095 851732071 452711346 552100223 177455109 477384023 149212992 558369664 510321218 495052825 491916770 729019644 36655838 524570003 269718053 189058686 358151416 90337891 792770643 306711720 790333748 914123183 867751144 590092494 980201700 302279036 159394175 467036060 522971914 260239484 496093380 817958163 876140307 64816944 843846200 485923095 491330078 600127124 927214753 438447339 451356663 976204036 3056556 914481058 895486701 403212769 140296647 209032253 583316529 276726906 84630201 680019740 932605851 942922427 420819931 709684999 371817465 261262961 531697120 831490326 349368340 900820232 490488846 267761344 474104205 634334124 699235770 496127533 130751038 47100980 494985885 88080550 147100170 858909192 453367782 87935104 424085770 120471274 340469685 851255019 281517671 886716486 669709578 105799864 518503795 991803377 446473074 610580061 859742266 833638723 494684317 486825777 301986962 794880157 363447685 616717551 28657504 871592497 268255583 937584676 11245019 930326470 1605710 214627065 161239620 888453019 550957382 160640269 265711731 754624044 432683987 271989863 424802451 285748471 977573676 387235168 620527817 879975043 323938328 916531545 982123862 679631938 600122604 914733720 552915267 733729240 405858676 559453690 942527786 247163050 500000904 960220188 885177558 296249698 805548017 210013283 520294142 998485953 667368756 171650905 937521234 578271448 243074583 532801222 650455222 771371192 348406916 435338796 159104886 83701698 197751252 771504366 753528976 379657403 994097953 372195168 906975665 458406900 996217406 255859964 654888915 382862816 803224071 758209929 503761062 487074165 451215470 572192640 539234929 240503074 686936968 563956230 251874293 777175467 438398178 313125276 72940938 743851027 381611828 400396574 361608228 853296909 949962053 58228013 631888084 888047153 685014591 161038399 741357074 955772496 591251355 382939152 542800007 97403763 18903907 444376010 156125065 498650398 406300919 661538775 790710102 405179426 458336313 400246940 922166518 457372338 237257126 158285537 808471964 219307354 371609035 916240341 197601993 99170430 905556409 77354712 831216838 679549744 486690112 696180271 466664246 596792779 307052952 57489896 793931887 222032808 931239149 902614244 389627458 578459910 121182875 609883041 518824975 954753764 24476201 934501074 510998087 926128692 943017043 200173139 453901380 659721524 921495633 319949081 49430624 42784114 197962520 162316429 84416084 767429553 976794291 107462295 503971078 609559498 954802815 553012905 77819544 872086763 91484537 961677360 12354351 869427496 477526812 727966713 624545195 681864911 210539864 515369918 452465529 173536106 155693462 715864591 839371793 397213269 106564730 606776037 804036525 353421986 672590094 667842710 536648739 967886099 73576279 56065208 115373863 827131316 358268619 298267534 18303742 317119944 419814197 717455054 811356180 571549060 775495140 516249688 147178152 467884287 663770648 833053269 608818997 54790894 434082955 168370578 93364536 700861339 660228982 63636612 578038404 731884396 967467670 224787631 146846600 401892309 225871665 68565033 354173691 256323786 490809474 637723327 435427374 257411068 575528633 11576954 917847231 488320306 802276676 797941647 374790677 40319256 679469790 552750226 450769112 136719323 881877515 301125958 101687659 242351215 886376345 325522030 483685841 605190914 524163389 703977039 212975228 435274808 11240849 995469312 730177778 432009231 27426504 277190732 52801707 852267476 192562865 357321048 466491046 181470526 809602525 387032459 71077952 635293061 180468798 8793188 646004132 690777799 848948575 825580439 44770101 18481994 887359187 649334480 17740656 875340999 42310469 777005987 796865226 483581565 495148893 615773426 457399877 429413383 356617163 700318368 523235745 283183121 449536135 544477212 238150962 289977811 753996876 244260945 924172822 395415804 576084203 702844882 467500897 195352662 449353497 320110865 256027578 357618053 201749281 971438819 594228190 340877534 73124124 65274277 231243671 831170004 818287195 407528350 146658096 653988137 7966059 823685163 413986970 399155978 569807665 498331674 381046954 648064307 461216907 128233909 549912803 326750418 766450167 723448855 453921548 132865036 444615237 430020114 589059023 858727703 622375668 279320377 771341721 764862650 793082978 514013332 206769671 333567489 999972923 71192246 793638775 207027331 116309609 667283546 501895500 787838270 28229121 896777181 235402001 896908070 202084035 121847646 15130040 274560384 389150614 823909758 451382279 113781144 453555751 639292829 801394514 776941757 163442371 356051567 57876258 461585073 491268652 569552356 516705494 76808627 980486382 589575893 894302617 769548435 943625676 868537831 120636360 594227782 705225931 672948988 651504716 870900836 788469467 652122357 441318210 111088811 197660741 368016001 250231518 473275837 413804946 230519606 793800797 25038658 500413318 184496322 912680961 796113072 969297886 836126955 225845634 982766877 551261131 46627947 829229720 621719943 459803421 350563465 635636824 155172812 290712110 515208111 144541965 988331162 340587491 341896370 978981409 199634784 762049980 77255958 660716717 850155356 334531722 36747573 838010250 309165946 907082026 332962297 832261888 174127822 964862849 114427920 731495811 988926473 641228731 295611656 885785822 925114967 255321781 811527099 777447026 313463356 620432264 831602119 869557675 536061008 914301139 309094705 632138870 900575810 129866524 6927560 454193739 702326026 902347949 996560961 426362407 197809227 424147392 703589597 494436587 312973381 653405258 769120141 128377133 939266796 7563305 473847981 877417557 685188655 656699695 224293374 568595546 396582320 441767 997506051 348118264 499705513 807753972 393367701 133663480 128273286 735255922 294779802 413074599 722221162 973290046 418349764 204272719 862162192 833712630 420435357 404607643 849114919 418044824 525584513 443381019 614698051 47049573 567034127 792770919 579674703 39118564 473314431 333284714 187177683 394466214 525758042 826165463 413374112 20464038 351414223 627380108 942502081 422977694 275860732 100804915 287635587 612410649 67665663 209644192 785672554 596987930 797474916 763036344 794973339 875354692 422082754 304700870 359549037 238978954 856846086 591133604 689440643 173766264 344265158 272873570 115381732 570978353 906628367 911744657 975947729 776484522 993551513 48823540 682373717 158677342 881768916 699244036 777699032 370586671 57618673 617669643 286562811 930605901 321952128 388022593 329949076 429904041 170127422 721556814 362025157 724966478 418667589 819426938 388768864 79917662 619101112 413496665 57063036 399922759 391178583 850538280 737627433 48990915 902557804 207607891 745678100 436318258 572953546 637775676 351314793 1254419 361182969 227117833 697501824 267407177 448562615 304680086 185186796 848154901 627605585 310865864 724936202 652947156 887920197 598784551 958138266 172917155 154958529 8724548 776537638 195164543 189441759 234451964 310923472 847017062 556090584 856196112 336873652 471636176 53777427 302323274 265469022 308570223 651108588 675907265 39098179 235037330 710009286 340187066 951082891 857925477 72362709 114185821 413806506 443743051 192693319 982286073 690928966 23563827 317732296 780400987 407570613 348200786 460983916 443417277 789353538 619492493 800053780 960368938 392543824 31191741 973919577 973130750 633360841 909072428 20105960 68449124 421454695 595789857 523566089 890981460 976259682 330910362 310622962 73898002 49567595 351009207 862407227 595738906 429564329 741324354 603636656 865637873 767473744 554708980 348366671 273559098 134130203 239567919 760030947 563063587 972691304 857685593 375594280 350517160 923832487 50684990 351115135 186724812 117165013 233880748 611116965 813000881 550927429 239170617 388975918 794675331 343121427 98079552 200473795 301694705 151880291 834209894 859686511 724970170 484222288 823927246 583376155 58540283 156518477 823466055 701571443 958058343 599937622 544981378 647303324 759094654 321038121 793263639 276258452 391377707 988736027 134254783 30959196 924808661 379113994 598070248 801285994 719049823 637381705 297202350 282917694 426034376 308699105 404600314 905776225 650083727 105811636 575913198 933090998 98222111 929794094 289088730 612930490 958168382 562742031 15296824 961880334 763501686 345931288 983290057 998331355 780183625 267328847 976217029 985874722 535918866 623271119 800096521 701901385 516951694 761743166 910341089 861668989 98507474 585762840 498014484 851690063 901792326 534019911 474151525 991762694 894374243 766769782 562234737 749747411 874037701 807618251 811938919 255785992 842229456 433470194 588550754 135973266 623185958 738400026 957873398 664943451 880477566 449194637 809689625 417851626 83373978 352782756 535320243 107914133 371159433 424130183 199350213 983743795 951580141 135910598 320843395 698777839 304780303 303113380 285436526 203489533 142495023 73908099 299415825 899945743 809426025 613265951 40583675 689940296 538431566 701178216 896399976 377604775 758353186 145998245 753145350 564846017 659321508 92112295 357342644 898162222 700796778 765033076 601490053 796664384 504158240 844450603 49948484 471684189 996798066 362231614 831427310 142719929 156338860 635033123 308510115 163682009 982928832 81335611 278444518 170596259 928225683 304077179 948173154 196745281 267312340 850879457 28678076 758796459 157534211 85586505 12808120 396414986 132572546 541794847 782357000 423284877 269954654 334433282 108645114 427236326 688724917 784264821 994818164 590975475 308224878 127127241 546343862 835936945 359909187 899285324 970847832 964047355 468477930 530702176 480137111 291195063 291786751 368774546 303935399 10906663 568868340 614217006 180207126 638446183 510840656 698737227 66106492 619442973 827947065 841861005 228496384 931135319 12716734 637735649 357091625 975634426 449394817 896599965 184560920 731051640 483466133 580489048 475137357 206158377 43797085 388489849 803307491 372622514 810341019 185022578 19439698 82910344 928526083 499365096 281557177 401579375 540768340 17796804 468000434 907319743 956637739 968590479 740093706 677497738 211093009 295596835 26159491 250952404 163299491 761289759 170677468 640571162 492393267 152023255 715714427 590405094 876118138 825898295 442404425 927400882 653247522 557651104 296798403 152694236 999117238 771995574 738688394 301535937 298874001 283339131 844353308 175422830 338397753 225725960 784688041 447175818 359747023 558381975 212146697 820559576 890524311 748876957 758015698 356634151 289335427 28615389 260207094 237740719 9519661 467208285 790895202 209627901 882520490 294068016 243917665 23306026 817239498 507902585 578254634 763699765 910525491 611477120 425649655 108639776 995606180 985184147 490427134 933145127 31317416 258863769 901418142 417595460 713628728 624087612 900065635 333629818 259369142 662371744 53668003 722709012 136054668 826838240 593396304 697878626 783274409 275873411 310606176 425349622 424910071 739007063 719562605 670462974 3825251 661417172 367542051 329915715 272851115 138745267 772545657 467681375 251002535 122303161 866542177 823537338 604385346 781970634 1516158 629940039 516781434 655939389 914959648 856065603 254338271 98135101 850286777 828729842 839371751 496622016 743559749 634176442 821633188 507271621 919307198 835720480 829299443 722701622 758951995 413525545 937373096 630069640 52639652 55284264 715099091 991517405 632173787 567423505 272447999 936804637 233059951 730296494 892056732 998115591 191378026 693299983 513638680 431023836 887114006 841836698 254559464 299960089 957652555 310005073 743508188 696182580 831196015 568262762 10039145 661605460 120873879 791355383 217200910 265603062 66139003 570032207 711313234 304947725 370479232 654865583 238469272 985820911 796115387 523512595 51081937 199558099 791727242 3764320 655671546 749170147 923253825 161852453 92519041 588172851 124166012 46745780 28506198 349700494 340049879 541423758 952844369 510497414 94448180 933983246 210884623 726961850 803560128 539591064 989877979 168675250 203111646 402054538 164615399 81499235 996833285 317205412 860837330 753259473 382469185 912732057 43732320 615947508 250723592 7827674 829584900 737307544 772689874 40753822 603273064 266639273 880420421 945418976 764201274 391810128 573358048 288405982 967395926 570412096 232086129 613212018 493200288 911933719 636750826 616829304 998583596 341303483 924823880 79843124 34056813 474292731 639720518 52750302 956828476 643200934 523440963 908968599 409402482 831423193 583424166 378159463 305308376 55665107 535227090 882730099 509634885 298381812 336162054 71313248 840627382 950118549 585374117 454181300 940161222 925002168 399161296 599078900 587256480 174440535 261736378 859141862 783745516 418782787 265383122 627238943 832832088 293162275 188060701 868255705 480701500 393726778 785955291 223890561 136463931 743051401 780924512 637359297 808306140 896686618 838181734 742830512 300361981 151273191 698608630 79096137 144942583 575352441 691910439 524060039 698902568 136148666 134008531 672590545 453464812 812745349 985159592 963321136 857445733 516119370 694511434 461360292 635275447 48191403 434769396 445881491 506515445 790850266 420531199 870114658 904398496 51990640 800409865 467014397 965678285 797195815 165212094 979848483 619649740 441805181 956345047 152013425 22322207 398237023 730495177 871828062 220242849 106009135 538027906 812528923 681855029 486004520 296141676 826333194 855403339 590279698 902011338 167174620 569859365 572597015 215607666 159462714 623173402 489799097 471474000 501054635 818446244 681820783 259967280 170157791 531549492 911277885 474748744 617792650 742322413 113776973 146108363 725088425 306210112 889703917 511475428 447741383 878072600 762947221 195573242 20122466 470902100 872702909 341851509 891352141 658751872 807300789 955268343 958920723 638261776 323708494 418371137 342662100 955490295 94939227 296668901 962088079 433106590 398750665 159711453 110688200 576359208 761791933 156487635 234297498 765867200 957023079 198610478 475433345 959703601 289638393 846604133 721424692 557803562 274558285 864236710 689676065 712789007 304872528 366376069 7694285 547238869 581232514 57967133 803877585 904464783 546446275 656537352 788474695 810990235 952168265 74100214 273708142 376207839 749113127 395378543 868648374 681301345 742768395 182283583 42112071 931190678 391346537 453905899 981973367 443766689 193621603 942353048 540159401 705706062 385366605 169358605 749920719 176217009 289215005 489796386 782458709 627264974 122053289 155276783 85766871 782131112 644902993 428538238 407139464 243893130 886409667 231235913 716693524 26860132 186870806 449840647 216131944 738266638 601513579 728323870 274846275 519001980 149452786 352981138 73151450 851165007 500253436 277294200 486136673 794157118 829969530 483365367 630069777 535523825 329269000 304264835 861297535 610861476 78306027 75794914 505008319 358428445 632577255 648922865 135912073 223163361 866815689 253125872 659671675 797890736 848845842 764457559 901428722 863752558 803582699 668248132 921486639 809254334 734791483 539729 227986717 834471997 160316221 143389665 101243937 137966532 665185172 332197993 363482201 993103584 71717143 669732741 553290479 155845134 280195614 579027523 787055351 275831639 487946811 658254393 669366832 433032089 189411140 343598150 862971309 687752394 416856822 835315007 902396704 942228313 272787168 131542077 905097598 38392436 858895565 879062615 522496074 339512448 304947713 20525923 697006301 304407684 970102657 585980565 509856888 544553191 735841466 576897142 666559507 492458131 892330314 165448342 567036439 351056080 420460582 789956583 684893996 417997840 479194377 289331530 713877357 926822490 387084053 468391623 887094854 932825230 325771090 979479583 399706345 773887725 961308913 676361344 994271002 814864217 462408872 23311788 471007860 379368243 550616165 728948111 457656649 591312879 889550991 948325206 252593552 841595353 353877606 680766510 942083670 667272093 587748727 785752814 133140934 19297722 770646980 584865927 198538288 236976803 227633388 541521230 842924145 227596658 91896547 15427278 872405948 395265025 377545389 629824346 47068215 974721890 819277181 657204022 202860508 546714044 978958359 316907509 691185828 959473714 461002249 155650593 143786790 130643438 171928115 819308750 685248607 914978992 276868002 506603200 870603255 830274999 289651691 711319750 557684857 618630099 669723614 983024273 545970119 634620917 988202789 401593522 176535406 243710880 46281681 661491663 891452132 119467195 597059478 431145688 603351258 480629024 4661424 423176482 289684718 485439492 369326786 539138804 90871471 531145940 921193282 321263346 11577288 312819512 885591206 607281714 328204914 871634832 405621636 794925816 22158111 332392147 430079180 796136221 891162578 555878227 249302226 885868341 505832457 265246712 115985672 495884436 126412707 492885987 554214956 414842001 77937 945162712 537466910 958814939 70997984 15421899 18735278 887913942 695621800 219391676 857261047 537133814 563998987 803370779 857406780 434017660 341147737 480525026 757725871 128784608 382095245 406800919 727001550 518649967 390271979 289605094 95655004 440031750 832473410 490353364 354739282 243649149 157003339 306220790 209409438 784856936 782743815 28590422 149322128 860219505 17954800 134384780 859184190 975654106 244858453 453178014 180335893 496821302 958439321 579246779 431249229 270383371 48195405 973305637 330470455 265138068 306865 614422085 232782232 471283802 822471420 713049393 464401426 187749300 807008028 239731810 239425948 635211665 967759741 136143762 425576169 409833889 452951919 212074481 704225612 429012779 676452356 980524372 77715348 637398354 249841110 986969112 813589206 165165368 245709979 608852890 840754116 559938877 733592867 193733057 721861110 219614745 473578018 976167878 264009282 305150995 7784900 829991377 204892598 603168766 848675288 644161146 390794 49642322 629709564 81742592 631093356 601014388 385788155 398429098 804766373 775618138 655603948 295164721 66022792 496734448 547217455 957264303 377010537 74946621 994311260 187923517 164433721 648057317 387011192 530142057 314087588 752538952 550032561 812236380 975754241 373527049 531117499 964331720 640642342 559223073 209149703 890691266 761173674 936545075 643502200 47338644 588439546 224190157 315113428 162417594 153518858 394223079 729864585 628819751 517794193 156750014 246856134 430770032 768524973 70211824 524754626 481870676 93206310 158573848 779559044 67078643 213216444 354428745 477366856 82500613 432968737 550851247 173729823 498608991 215691958 152828757 251279039 28909455 624140011 753113309 340917892 694820680 901583935 163525127 923331902 444903627 772914984 198766209 324963456 635255676 998385076 67602410 685182669 847700807 822465871 678216867 753451457 645661536 294555536 100411574 441060467 850903073 703883875 124242993 371610005 556341864 431956685 881373838 451163333 762257935 110069039 712432078 787804873 297687800 800773773 69554517 456373782 312384016 769568147 108563004 789337353 746061546 629546611 465887900 679279669 422562020 591360120 406783169 488324094 964760315 997569108 262521833 565314540 707004236 785033718 375334594 807199011 814523850 607167445 76876522 35623606 179745890 646304390 773641028 4972927 399643553 155099092 85666902 476359250 690862354 749507795 389644204 816106576 463494395 249532264 207522272 447595857 855567560 990907755 127510084 828178245 691899959 413465031 291918712 305962034 218995798 610813121 941097536 477247223 358377990 904435177 884181886 133785389 409880733 597407573 659497105 393630538 489469262 242248896 286832566 56148846 184446874 3509279 429229932 118550352 197800197 63084005 38994945 556302979 342971130 531102443 340943188 696850849 120263874 981638160 653515595 318744605 754069520 257612124 118827546 550692054 482968621 271636733 789468123 245909153 245705400 627246904 612863842 600349081 665726135 743400798 664410513 446459799 640409736 482127956 856698899 208899599 45345264 411894082 272490161 346448456 656997282 566957559 149672962 424013236 831781634 233831520 524481389 546502041 531902378 11839132 393136700 192408516 633365181 31444139 731820973 98863537 940419365 426334372 632059365 536038314 650064855 965593642 873896600 116239690 875568898 900039670 40449433 905080344 809935592 918210453 784323220 755600948 768082933 100729026 715130426 799643619 59184054 262038563 949589944 972475026 866014118 948328559 12713185 825107554 567356979 233505605 394147137 425389157 865858264 314867188 784059330 258146224 570948625 818393523 540970001 29602247 407048270 429049018 264672665 581455120 105260528 932816783 570694554 354730542 123272854 336141364 258997926 201791812 515664629 522908007 259608131 518019333 645784244 990689471 291899147 41197081 370530961 684202583 246076833 916740201 202016919 862779460 115145476 256865569 524089515 32692971 262843589 91716717 127997193 293245461 420531427 624335103 5646853 761922201 320038991 216985752 125784724 837548475 70346335 493361198 38780816 989329614 890881711 120517046 94728788 997541811 803319390 794615774 86976518 456164173 873667589 30693366 319273850 566347610 31434560 227708516 635681105 324601291 330089097 675266762 458811869 977427526 381139840 230089261 500416379 213854146 764266046 458398991 962468640 658134733 211541550 994521643 957793476 329246395 547518579 521405656 725596782 798945449 698321765 734923949 955820431 801399953 980747785 783471113 550535849 621915698 236156504 545445836 390588212 588629878 276097453 711056783 667447351 30862459 823772561 803386605 358857823 904185187 912125098 370321580 797374466 485389842 464795133 619117523 475713279 568940681 283645170 772037646 654782766 24293715 540403124 308010250 850634045 662647426 851985657 906105923 401678087 740827100 963208532 660489311 611596427 882496448 778505041 782249890 504183392 925834072 368673195 396225963 45943006 857551432 920066693 442391339 25517287 248796240 113702848 20555956 450154373 144612488 448457997 641176541 836962785 15014711 235355417 988183649 665746400 254985470 689969730 630752268 351745865 2969326 690521641 464915309 955574641 352940651 49221142 753268559 653496767 933859471 370014670 476511414 666163671 852922555 893632868 825959001 862080066 954105600 37630245 13164269 897977368 24410405 909984540 248689268 271048716 414646482 564531620 820329760 448473643 888745324 252113383 171438683 440734958 727208122 957869383 357172948 598603849 252929469 936083228 386564381 428067067 962674180 150362981 950810510 833184347 884193460 672417026 779545263 154031566 595237944 655178027 777070107 200730348 358414919 901782386 486797592 106019845 154604043 766956512 40192216 645196095 362636048 936816841 370000225 152314952 749683741 973209210 613555247 109236874 899329419 233116102 732724562 729936076 754823389 621696418 372396144 370641215 105293297 759574799 340362135 762135270 661162112 803167205 197402606 701469336 417785074 816232490 252157786 761151617 985830742 63275412 102986229 359799928 247883269 683807539 655387865 746685010 320628266 940001373 150388730 772105934 878266704 305407649 755247638 903643570 383069823 876408951 136196874 732656595 229045264 369362622 292991476 434438899 720731128 261872945 230183394 633033962 561837501 216750193 699748594 886381486 332983726 63080624 809368553 170067618 223035656 629827484 898261131 783743012 999977745 917031050 26543075 39382606 466060118 40646747 569721654 574659172 41472881 161423204 280823508 499007616 391047449 73741757 939065838 79948085 432602140 301870016 844992921 787361363 893904972 204096905 787336948 198733725 269337347 140299431 822646207 829636740 907588136 435720095 196847697 889089198 61454014 121727386 416333224 269562686 500623496 13115495 589210493 442941022 825120284 123603544 68649449 762775855 552769744 204355459 239197161 597528140 594903463 859339738 385858269 761059341 559316886 731202967 189059620 208208540 777599235 658149663 428739215 210788893 482749375 881128170 159699130 812580897 575369618 320797634 219593213 910131973 714476825 675409027 248001256 21419501 842484908 41740678 848739308 38769759 618823829 154290978 667830776 182523786 464084291 187660078 18415529 363764512 200883233 560293408 143818892 752798474 709623613 970237176 242704313 182798349 490086365 906951578 809963097 90874150 170857174 151083500 849826563 441654688 730265543 397673436 753563551 527699758 381039649 370785111 168944688 933385556 517256142 118956973 383044340 205217809 687502371 762850854 395174848 588925724 78714468 70680903 714221156 848517924 177005819 676916872 33894898 582261024 274323015 994133900 502288912 489953286 921075226 396516463 145887137 123575948 975182487 211507540 610584399 844502451 254872243 747661281 154895812 555373153 656788015 753497279 439044480 102893031 598545355 607758311 415672593 244102972 352402805 600578869 632286389 847315289 280010930 845469587 209817666 26918136 429532404 80689759 391566806 358275019 760271904 756164890 405274330 630961654 255268997 354185925 18958746 389343645 718946326 994136921 948550032 851274480 851037504 344932749 923026705 146881053 968127075 935987530 837374222 772597486 328375290 186244441 833523329 276087067 283283654 211818533 10427393 475200383 53516293 371316567 126978041 131823847 672213660 645998073 102115208 105193431 17496018 486889784 360517914 933227383 955501715 714594996 877482373 7383528 868696885 111976786 126410352 534770100 992386659 189407066 527307113 497484850 250114760 167900556 574908232 888315213 381408253 419117459 155398137 882103580 283186017 832704545 540813681 846221063 733141498 555771004 893615567 712523588 767192690 284083125 669183649 402020393 397499905 334885288 14530366 223481395 896267815 361786424 703535300 527619376 33964624 41183023 882199460 934640186 704612696 278767873 271513262 37204763 577725632 456555402 136786965 451937539 21289419 708746191 746148682 788867665 154886956 87222242 434793319 967546851 567507903 795790860 714378941 543648749 144067305 620217777 309504377 471325638 175112632 646631 904602844 134887274 866393579 605460049 71463381 285463498 679482377 392959823 116631016 687255534 364768258 910507814 317011126 557453458 386058359 123811314 782561816 258545134 415089631 353298079 437627790 611173900 178747397 878068506 745100866 810971153 352589243 51537103 274609491 50796161 555363014 570363728 591364022 165991056 284969353 128476738 478366050 539406662 695993918 285581885 928460143 654352768 542114302 316801378 798366608 635928037 908351085 9631849 1488427 438544970 569688801 837076927 392170467 526088534 237629283 138054570 43498305 460741594 434652368 229998256 83412932 133810175 804238339 96332432 642330201 748068887 800961168 126766253 23089870 950214985 191601207 682446213 405939605 466933117 677111410 392476030 631612423 593472455 446142364 939090316 255844772 798766565 467387932 616028589 821733239 818371161 212830392 523817726 390616877 514148571 304710391 702308735 652015676 997643880 405954757 391021137 980211108 448050345 494865412 724817892 379242574 283070433 291339234 520909563 934698207 338622694 301359117 340535358 884997970 262359516 910481387 69712016 885554449 503462977 406904956 678276575 767435622 66872913 760467108 623203145 156836054 584751001 149085245 69457721 638049594 916209269 100988633 201172292 458186774 284573343 891490571 262752337 252002 687293720 389511421 564137891 638756088 350883713 173416632 368857522 765480913 669821744 969527045 991222100 263949947 767020419 383242769 128867976 786757819 384651069 188763617 791516810 695408728 698555482 933310010 373961041 226215057 589163494 569816242 380375253 18873398 119838551 898433054 561107847 666561089 228921436 652830266 147289825 738657775 964025529 708747224 25178933 20320725 63962187 2948077 939003659 864782756 719950240 501534441 715179310 130800904 787560165 518119074 940870355 38244532 415918929 204237358 24654568 247175752 138128334 620304141 664003747 432008085 890538113 485549527 932597198 160179087 340849194 158409751 672220705 52469404 315935462 703385176 930365544 973929136 646649808 261103315 320766483 125893066 404178727 480446995 511638677 225177896 178728187 936890907 901522468 462333460 139292713 26378552 979141896 842111894 960863896 367129424 939474116 857495709 324393071 629801405 602514558 741247792 856523364 486027853 935856621 503767979 52847803 856375991 324170493 333354898 994055335 389995398 382581579 889522844 717290869 220754162 936066995 855261599 389781216 181124863 22402064 587359194 422786393 259136261 135677888 937984778 338725624 30452434 14335855 333890327 377567177 793497595 838792340 470537320 642733518 863579312 645165154 868255942 652709874 643247580 628307773 438332191 624965272 203556582 339642288 366015456 296629747 515902315 956794299 698489209 231314915 905220120 456995130 753199063 325027381 707267408 463590735 441523288 842360312 547549046 302648809 831466365 234919380 829594170 182033764 207412070 39721677 558062066 270773082 672704675 37086656 63518660 914165542 100976008 356594047 226857954 851089824 115734622 953347392 9636462 233136616 692494423 972610022 828882635 267793025 738881332 759778638 67202693 782945257 359684910 240910978 99006783 163286096 576167387 136146911 770385479 539126053 697439914 386279008 251516983 339694165 436092026 716662707 677992939 740008677 729932177 572660746 637789167 423321823 708667066 962131831 739632014 874629053 194661936 155745576 386764704 712058335 414160072 667745961 953993302 353773137 489236209 739576442 213542543 773253170 928867925 148690840 664354572 346096725 362188707 212072453 700410062 233677671 675581664 56712126 529607313 655383782 671038589 755247197 266023922 424755295 163936676 636992648 940701523 842880949 633671352 580433506 6766761 205397773 939698048 395528922 747019777 946987835 611790214 336349534 398165179 575059854 657001524 718003385 565073175 596726723 716456601 945832768 185478813 325829108 609711826 118670287 988361039 285110568 26857482 1359277 626739518 700435100 140636842 169249519 974656100 232189890 359910823 957154279 533240251 218297558 440993172 508828400 724220700 200679454 644856131 735684003 220161055 698237262 798010788 576440361 117150213 181592489 14160239 204578134 977650986 147754004 834366950 226010621 732029364 970185917 692894219 486424218 167903956 133097897 302321200 263704315 528864760 550985544 257085637 455801317 464559698 915897396 61416666 125034445 5883658 231459146 960073251 485385383 264861954 363015325 799824952 284511174 485602173 301811817 889852482 714184767 381732945 183692395 159275987 304565454 442503654 621717939 259448825 697100673 74777255 277012535 946837951 970365121 892399688 208969041 972961865 887276774 436054413 23056808 876287405 224708223 294842650 653888256 684917394 565752009 521562776 135649046 790772303 813615511 672029867 484407416 340912199 331715592 299164995 623855053 640873930 115798448 196454696 463047 910208720 176131364 918824399 667487457 103974171 224391719 872479995 374924606 542402236 992982323 636542220 562377984 338951647 507856917 820576119 510359862 155773563 591523413 7723399 68495932 137032029 407052618 481813372 708782311 600789692 766548351 68799034 449888365 827621354 611930562 408928924 608638618 493458907 373965820 521484320 510823597 158304951 780017270 256184762 143354757 824976075 960098241 518841295 711648884 624667637 559732489 899387686 585755119 751123674 260236550 412469673 768953180 986451845 228223791 16878336 465474005 654430763 758905768 225862041 767224533 865415010 854940276 595993366 512655014 463783677 386896244 353427335 281758460 71428043 16164727 321933411 832207011 55580418 328536296 531657587 853202305 160249275 809369699 139818631 914077909 129635854 686953763 743161601 875242635 7325718 339949843 219942884 198556404 98309722 810283734 58544249 603153364 929446659 519924337 794420825 448105478 613986904 55704504 262850520 367588006 409354215 662677395 2156277 410705439 417536646 731575526 104032155 472199637 506988872 298770779 10319128 197747792 664618813 698173277 474857517 549919152 120229019 94384562 587508795 783517965 924174001 117059777 903690768 970399284 482034937 3301994 720692524 695880924 326381720 508744490 614695072 509755132 764582241 464944120 743320072 445891582 142683351 594508457 207968046 213415014 266108308 592618086 18241263 621276753 970279322 192906424 866964007 28288330 211507458 636124452 736748144 515736820 921584270 466973925 919184693 500015226 462550793 952143442 403389845 97488373 213849940 162264029 777072897 892925809 593483687 219588263 989645377 655130294 396306322 978235041 158398074 474250051 431399065 543430272 454176859 374733705 974295260 715348278 550565177 454520721 630929400 849279364 255856790 980047858 562991124 117125137 159253799 275198469 222693007 890455111 773070943 45153008 870498002 481778771 929928571 600672211 464004203 133014781 491402250 739687673 187920085 529861092 207264872 255996958 843556952 864108005 989389681 513443968 984162862 311814302 504169245 868640047 357522662 78050321 76185852 522573528 672486608 60048900 836446996 653718307 346699799 845087823 599316391 29616905 860466847 800717265 38197894 34886861 880358623 577498049 667754984 237700144 945110528 353225602 347693197 468630770 516224135 410954734 962815147 148952536 642371960 852995871 186920345 625738442 671766312 665534042 454577115 723436675 694576936 681184729 36226895 882653816 742636204 139236157 366356584 735225429 804265435 62469871 128888217 278104438 804571419 281935712 425417904 562484075 391087897 921696543 560847077 506201589 191340377 379633974 876746823 530157338 420384360 327661810 975197889 609437671 494944332 163737591 62718453 839929871 491811191 779134245 656561036 567905879 412222836 817379831 930091316 275898157 800319116 779514647 345380737 77846211 417449108 406542315 437455484 719980420 342980509 312012450 172326599 5254666 608803701 9542379 583794893 295582490 181654907 86506763 125698708 687018031 939730542 801289416 265970425 943433085 237497434 211609921 768848808 875256885 290699591 681699702 412168271 437467264 752422158 95199116 668862839 949360685 617251542 340223415 759963846 97600519 711101742 308984867 361576804 801890581 889379245 843503286 153899978 197593575 188116348 283204269 776368626 607671286 107493479 728045779 57443497 854350846 407871450 851830386 571330059 549371435 217034600 746772385 929053509 489133370 657840911 813893827 947747466 400477104 956721952 990004035 534207268 324156536 894703160 548940012 867637375 701220195 52016043 891006212 186432877 42109888 131962574 427844929 462454937 267429327 17500552 876288845 107807001 182795603 431270665 54991572 82845945 777209597 443646093 233187269 462584421 971381970 781779875 881510877 120687290 134406312 805223535 58254970 45938708 784215791 290944449 411760186 280558820 325498849 361975546 561720033 437772246 887465492 656281397 455293617 126325406 835383414 423814213 650466154 515420476 854251299 552047648 401546688 993940607 891851313 294530189 514213605 98809454 819410795 923528027 236183726 565163738 399268676 620143008 285042999 862012607 651713484 117461471 39219563 856606603 271856321 37531661 914680389 196958503 526822652 616815132 837173202 437243772 827687776 910905318 767126894 860467929 772896526 308235344 450373235 272330551 44312912 842307148 195024565 779685192 686369322 636332609 726621805 732499560 674036194 518978431 403747060 713829718 647236739 609770906 582950316 8147144 218904233 428913120 804853007 7841572 783684231 329496122 911179373 96038686 800676220 926302233 235531977 248178811 184422022 951097217 545175749 187352716 319972912 110918718 981471302 204897386 580422395 136055166 93586371 433597578 767684509 366200463 845632079 545929017 558496976 126638230 49152216 96634007 339403368 211826895 887210034 163488529 73018686 760159915 749515269 622429447 374923789 843197418 545326694 545670 821639234 448817817 878573454 834167528 27911075 497334315 472371303 316923567 763594106 925732552 878567340 94996272 948360907 85709102 427783584 357370597 989352569 668719431 687953855 446228267 324971783 914349811 282942820 634283134 400457995 749681140 252949805 182174808 545332295 113087415 428421965 57017715 499602031 666646167 601711618 806528516 955075863 423932168 719415826 722787321 585423320 840793279 27208811 176182496 648558470 918109007 19180297 100071194 726816422 551917665 392362366 949211162 239107163 577498892 37682493 183000832 85410662 5860680 855980873 24113293 259958692 427169430 481406125 840439191 857043445 68383780 831387175 342719469 274921228 782066628 68642591 588412544 576823032 333272260 542873839 185579689 667324671 532874758 14194540 359039328 531269462 713076688 78845052 330797568 177582120 376851264 305679107 967386663 659479895 605103176 612967372 667959113 267309173 397498051 472261446 275335551 734418662 856191719 712375784 301499776 180109189 463518697 33415737 992674165 248441366 175195414 187419321 507104365 739307956 636664807 68207033 820490172 104151672 980375655 445400053 274931280 772168662 884673518 285289294 100242607 738940581 775203351 296338543 115135584 441312521 545759371 880568773 149988530 232361129 474058605 131594472 917763658 661117475 583776754 193406344 940970241 446522785 954763757 456985515 463122973 131340844 704802505 671512658 809184621 250293406 965366724 914834745 995812662 670413510 446745229 120044161 463688754 21371718 172738006 915432819 562894297 756102508 730476993 531618351 970679389 860486925 773680420 90379350 433182039 657305297 578629160 28416818 142183705 993558538 832208415 560382980 554298152 639469180 405206620 870279593 262407016 118520058 979399438 327884866 411972364 771628361 268580818 98165579 509360196 407882715 47403032 114194788 720977061 568544895 730699045 88435008 817453780 60974204 695921707 83599250 844729716 761840322 232317785 707273607 787970610 194702288 890427134 501222314 657278563 583816552 540277588 961657417 986445796 303439862 582847308 413623905 900575828 658122460 484062987 315946737 794102619 228970252 441928096 834264446 454839565 83655859 564301529 556515556 79084187 796612793 502632528 782180050 746903087 357098483 590169610 822818414 938339267 840468492 436293153 205133684 724956367 612049711 785679811 803136395 828132787 436612687 182569684 520702479 315861091 188233594 544672489 653319665 31524169 128292355 557384033 77950021 505400034 526932329 730924139 594495597 78391677 450344474 668136556 862941692 224641408 61852772 711913119 986189711 176971746 692691098 261597109 2289176 967652781 147801114 975159341 967559805 315274950 401595232 726877941 428136983 96190187 710567389 20143110 731161090 81011858 124741314 857917618 689304420 153747315 102765112 45305445 597057586 255615457 1731433 204868024 251439643 429823308 285508786 321892916 358249468 556720880 225538214 567751014 262061195 299933918 150608182 514829267 133989431 155613637 655715282 424722828 914118652 864322790 301478307 565093205 228973380 83293466 257437465 505520867 982871886 200374721 247425786 912007343 707092557 721078259 459797614 235157735 717889581 645584599 380895929 863212103 924943362 980290538 802638816 511630466 387798788 497242814 966762735 380775397 181843130 470880303 295605177 419348431 336654959 572606123 359193175 455365851 969226739 283547548 479370859 194447135 246945370 788452346 725505239 215123444 964667471 736927456 662535444 887886646 532161781 440374095 471739174 520320844 101982619 309376621 522925898 575953600 906056067 564410792 400609526 795444574 959199720 999344606 423954426 968587931 301843510 699170591 960797395 354752163 718904529 657970238 883482661 709599822 389512772 473390476 14701066 275601600 688941043 332780255 468228866 441473905 178015033 619246062 684372018 208507728 922896216 712072671 848158584 775919659 874881281 194617121 750150307 694059516 184017563 343736832 840766584 158291105 622181019 407464688 979602734 296040710 97959317 7422687 420039497 865242092 454359427 490888791 37879652 617091068 297932837 268586939 552813056 481144102 904078253 131172907 326313386 729390484 869441853 849424487 408266480 275478888 918775493 32807431 550675389 354747567 170183553 611940679 924161599 473734050 750992935 824428819 891048200 173766230 373538777 884056907 494420061 209660927 632112252 943893742 231423199 701864940 291000433 968364236 641276677 798501392 868777959 346211932 608199627 137583298 371480675 389120032 314500346 75281400 347659718 736297594 989339081 925117818 21469826 274029273 964935221 248020901 829032766 749455759 496194937 818068297 471283889 870055019 291049317 706861774 13799589 639875846 831661625 424390366 818236039 130426006 439125494 549472701 272921035 204675454 577266818 798347853 672012577 995084148 652264993 821996941 918749406 819874261 626886269 799479693 916510892 870098042 202960343 920741579 78390751 176630721 203369005 336143065 469815231 515469180 605922280 771966342 560102047 244990941 921033500 776708301 411076690 401055406 445845688 742360523 560739472 991623491 986891579 984415500 175517481 632613672 829632138 95517306 460323663 678696608 199433812 767971136 371997352 583143406 348463861 626323092 757328630 213269282 626429577 856021301 803322860 483523229 47270895 556568823 329472757 839098139 236951988 530951153 692018144 976090290 72728430 182113738 260004608 365934339 117316497 624561287 344962644 850863631 321881754 646426335 153549769 930559225 859523750 371710429 386933429 168474446 552077662 79296783 266855412 550265360 646944076 258004949 42756776 618222402 357589217 621424996 506698133 804520883 880028744 31787847 30202793 41166276 475886385 777609940 200665417 825234479 614953835 172354568 333970048 38762434 30912049 651879612 750129336 354228643 188677842 597231240 41349960 546642633 984830042 409551428 517570738 942033119 29336501 591799671 989545615 726763617 645844542 819617113 84965764 650120036 846687495 813966456 993111324 331297078 68226423 750211828 153865678 870094003 48488347 692780911 575399822 905836246 375762999 366330640 900785925 928293345 561300440 823684238 297129664 46278762 46804826 451299608 370464994 292824394 350161275 356620796 594234081 873153941 442225349 365355565 356612504 761390939 169001903 967325362 973146767 500130167 279032830 33055686 7641723 800587100 730946162 344031700 229803289 340473506 502351508 538996580 79495288 553816997 679943605 783313658 256985733 76728483 524836374 963318041 491820639 696612906 545430311 763073748 868319044 689246291 724854097 338524018 148454663 111353369 899578243 148276174 607022929 275251809 212923515 317350938 756552725 859540815 22726196 175628474 182303577 975447702 700829939 895921023 568656966 218327274 698013248 923949734 395053800 349004909 301618098 593808640 12365970 154716338 59228911 570614811 924317968 242879404 384800857 724090662 600459335 406303925 567555120 303407367 465700661 508454223 293344397 494470951 707297824 869948114 248963615 570340905 456045769 394683251 54842785 890492638 403708026 557828239 610281455 687991451 627727883 991583088 906378908 753417268 729816075 955808332 133600617 990052407 222502254 618147038 527131732 951111797 473154766 103421303 417951782 998082233 76980172 59947386 615918262 306501137 358735165 125551150 579080400 555314780 300658334 740151092 200477402 985105963 840036684 752294090 39180489 408579870 972467065 973516698 606510771 516194449 650216825 791821789 121247014 770197371 147712425 244464413 479944276 602233731 643931034 198651974 113535735 57467913 15986545 327774993 685629539 457416106 264849438 747395100 952503521 974982022 125180441 74995656 850343425 366521646 150557240 388153359 732270086 627304440 825957100 917294628 653588259 897051906 310821674 289899437 831280219 37684363 969051537 939495818 325589361 447744219 569455893 836455085 115192284 828535995 753848347 919436739 277750343 987780469 368999921 494901887 66638005 613097631 117885085 144850937 67619897 853245271 832538857 455827457 299876469 710508609 108815444 634405704 351205222 953451188 805960768 96833284 50527828 849793588 469056920 61417537 21600 689918545 136619101 66911170 871630368 365413403 26869644 300442998 50705343 894608015 102957279 15841712 129999818 358925350 386811217 290224067 475597248 665789612 909397007 698467174 23249863 995185592 896803452 339510230 721505013 977199074 835563393 873812377 319658004 685765543 774000597 542998500 835636526 43418339 219306990 877216924 333011482 322800973 12636275 692752230 185240706 474328242 573732542 789008360 503901513 387426496 989070541 887663488 608168239 676028181 287483951 904875207 975088024 339482860 38281205 358820223 20204794 110706362 137247784 892999883 135687734 875038026 433195898 925764564 486876553 376082344 6231959 676336819 617868888 768102202 718783924 871056541 631546841 379925034 536304476 778588633 890211636 372399647 10722253 412901326 414591338 398833385 124670005 22286118 284440159 118851051 453945517 699212461 150203258 666284947 769543613 648956329 141876166 656284700 773066438 508487773 395778719 827063216 2136949 255267698 387728613 822379493 294214367 922676971 173546283 91944070 29828104 423907348 787889676 721706466 764770465 379388252 852272703 317758706 212894216 766801227 712588055 106994998 16897308 519864505 84289988 702018309 210228856 272034447 331214831 346644402 434717401 498612522 307748485 122379911 870477468 828964825 953104917 322074632 419230698 722772510 666154537 583480389 47612213 164195972 491006896 25894525 263382831 695168173 795861273 344212223 232009647 993009091 873729936 368572373 576387048 587243250 161862856 550676223 675908005 379810431 793663120 575097091 421136250 707772241 642949446 165283987 62548028 974342371 259111238 31492014 430267242 220924659 238511463 158266232 289772766 540332183 25552399 164575839 447778241 964603243 235625559 695819199 311736866 198127314 347948799 988496859 243414321 954064742 8509458 429087827 222448820 535315917 371847359 410435269 642642533 711861348 224950702 380344396 158334573 43017479 192378924 281127624 87023022 135330570 704284121 895997031 742428101 780127137 751183073 530788084 340356219 9993631 999288649 906740057 462238031 930499352 295964552 552367962 897032339 28097433 394306015 967778715 711476921 6180937 839372998 273493957 358926150 477367821 970209775 774680617 708721293 708605490 632947473 903811476 290726579 428205282 490905508 964231797 458462205 389363881 162670776 57419994 272559611 736102225 502639718 244965323 269197961 146125986 479855346 738959585 900868525 653404692 100480096 881434528 952443012 965939733 151862609 300747471 511260253 209677867 15297876 147757696 620861372 922348262 42016836 864452031 50805958 865612825 888861169 132019249 998442564 160906241 650829161 470115930 356583891 763955739 296761862 518909012 255869856 863292718 888729393 667240594 336568077 736927562 395297523 402763032 612403123 210737926 455775896 644588414 892035483 363690159 921315861 399274751 406770398 277950637 347028122 268285433 581120942 217383299 64781348 504046427 554457283 256453354 628875740 567617471 65134354 313674816 795787788 247825249 237952821 257844314 393614089 913599987 459894501 165165733 763641671 76406659 712089434 931246509 274949470 265059356 351228248 307489606 264972421 202321840 717538761 954865701 859357897 17525078 468549710 108169306 779592252 938645174 880820011 218473460 273409693 12942215 349025227 748727314 947840415 688685713 882714374 829541598 752490232 308743168 407265411 391479671 808305247 711940889 730447753 362047953 10439097 36619289 18774624 283240691 860432894 449583543 98100997 451390625 861645490 763312940 602980355 491983040 727669594 943650882 746137140 120521734 218913611 802489414 275270008 794443367 249477694 224103675 364077477 119727445 570235496 248682453 574692638 15835115 100607477 112168398 791848143 447216069 256179170 979429981 61626825 853676452 594353381 351377075 697297017 424508257 10485883 950291517 489713046 641313731 757987659 844011479 139326771 508076156 255307883 862584051 251724972 709400909 398917495 154349463 672083572 446736957 829419715 397273797 663404868 716705685 52797038 351848797 225407065 250244135 177452275 7361676 545339704 280360677 751756964 613355113 989283655 15283853 495542454 733291592 768941862 181819479 185470205 173506612 47094501 304294525 330815104 419884285 387893972 72116395 611790932 133333275 967935481 267096138 648463895 374078390 385647159 8946669 276855317 663141693 535733045 988423581 688910271 231366677 770361953 719642319 592272304 445304618 159110787 36827578 389029067 491631932 130808117 765513503 384395917 518419505 954158572 653751281 788513508 82018245 76542140 811207621 144316833 430458673 523939766 259401658 582952952 332591618 161363869 357691513 150676436 512641215 305326285 749026465 529031358 896353932 832776401 671416817 221088658 766586785 494415536 271793922 544956011 630605998 707938846 719220569 596755212 492648986 725976912 285890494 632760012 23824621 214657018 166127315 524238468 246843935 981040942 445050931 772589200 689671442 15217117 580319420 122652419 390254231 407168526 15153525 376893526 575429483 49536705 928367658 707995175 327593867 738114461 480633835 631961828 368091462 536849370 257000954 85252617 45960918 646470176 554206075 975176519 56589051 821954470 845464701 819721706 699293717 987145734 596500476 560490263 513577625 697544917 233002740 305738590 71386824 835232000 631599262 323058266 433170430 627520091 269944540 170300758 350858932 393533637 54774139 84779585 441651739 477749289 135938338 852993388 881818111 874174018 661631879 297218939 808616731 905349802 246040157 153683732 416602316 307251625 155903540 588822579 85866171 493488120 7556280 350317855 408654933 324641212 636548283 587958420 416605522 161841728 748260608 712440749 904555464 925997586 63404452 84678932 950888942 829058206 657111383 735377895 676964901 925041136 979198735 360637077 23602783 887999836 158673066 570300481 654577810 612554532 235939980 505687217 282335344 206620846 813541311 351381903 242143844 111574016 978494161 326187980 933007343 126440316 251015120 353387632 404111250 373046301 266356687 232462170 627487761 455862042 346913286 536345788 986047647 802877676 786259208 316295689 558139822 700961436 983740411 815291624 178743439 563189888 740338392 233552464 103268416 96871517 852649620 711734009 769933698 444222453 402971936 901535261 580569893 761580827 422897031 565977817 297918242 340254514 887395478 599458955 610758861 770189114 869717181 926813746 98611132 600882946 466475402 426102171 994657685 742693068 964507539 907749101 707646455 835220570 399008692 431415069 279533690 525992570 221605201 921193946 618776507 298019438 368792657 645309647 314810776 41241892 355257827 452091798 82724140 462392087 245885592 405559349 344045314 714010460 501137521 924557447 510924754 819718776 551920225 831254900 617888500 470479257 180316003 508959884 361702489 83794518 640624320 526808929 714755056 987341001 208489174 960112423 429499643 108311349 553874798 320685409 107819454 991698384 780341255 804996854 876818618 358961519 708378528 56210289 546097092 456706405 933452566 171808075 267498470 14405623 884448844 755933852 563293183 499903977 560531339 964568793 794666878 85996111 682679348 17747363 546697926 262070685 520849847 318687952 984302705 527248960 781300463 604383805 830475555 417429215 660946670 95019030 673581424 486954283 948373610 887734717 217039433 601343273 401912468 846777274 767720660 668096619 222041830 871235715 633314972 370891466 214146345 424003619 413667289 102635210 131992354 769420002 286056529 241949420 296215765 560371607 931029157 230350261 464582293 293925573 239006464 109619415 951546119 547159252 346285133 672694565 307101793 82385317 939534323 685225444 368711347 401079451 352920415 149163807 147960059 814400592 651631675 151258943 812433229 124266146 796596810 893837183 656653334 687758310 841410918 986693987 262946291 747094532 552684880 725007422 951055036 864659928 688464811 819163105 844362281 521491093 998746519 695366093 341659641 694395930 930938670 311037985 706331861 641840186 917317604 157827208 189292110 935468774 100301902 825157336 906125103 949716416 352099020 838340012 599832031 785334937 349708077 407466339 796749573 13841264 755744443 362702242 940049241 635955297 920415910 354270665 821699214 204580009 989522122 412100027 44586990 50718981 422273874 582234146 91834131 773721206 783768223 338621972 969239948 590794923 530876603 557149504 625666152 401948091 115348342 267893311 299189836 482003809 47767451 542216390 285937941 322728696 170503802 654782210 198283211 815872994 520082396 903334240 765175324 615650445 930473367 164602138 370879564 667252460 455027200 217480469 217552774 404019574 906601931 669918466 270670194 947474664 570116431 874025819 774615454 337762048 295489297 796392800 13456690 839838384 760162954 858854736 354213896 258338195 840553524 861071332 169960321 401717834 730079180 41275425 14432029 618010407 549113416 96631354 301977197 79284143 838101849 386199337 310662936 653810054 721579573 722529323 951766757 309005589 898132350 263371827 816459054 169863472 422817860 112036884 105947474 945461833 54065433 84832512 397657983 29988018 136282320 354328137 59879522 610081629 683337096 456282998 95768419 643360080 380619173 23785874 711792041 793800792 918611171 81923414 862746028 634790982 502776875 242764598 301393611 157653314 690075561 663793988 642419952 232525124 107662572 333578034 66150157 886155268 539938824 188387398 400171578 603328362 511966670 489185837 574817024 512600312 215150894 49823689 211028925 861937948 83646097 549339672 734164084 333833397 230622400 392690535 676276555 716162164 697313226 260310323 278537695 235486551 336585386 903413348 645899697 665831153 63475198 700335073 291516633 829295739 139176864 861763293 132571062 417182256 620218447 505542486 984741119 385880196 703259539 933531311 359208120 874573315 307916197 574122273 905111241 799050509 383668328 318489796 57706741 333622444 980191992 964872994 799542861 146190553 210787196 312447791 879856761 771758602 460703305 415710474 610461731 982374297 726418738 973302490 314921050 150063385 681666549 740817297 952859186 713441074 567159184 193779077 163164497 251195517 343773781 949371457 333570867 369247105 733021259 989773673 1760994 714259285 285802899 113756598 438457768 518224068 498762104 43567057 48761151 756242189 615608352 17579578 566585963 419124473 367401290 29061968 56446483 726670775 81010021 699465525 313568948 215327962 730317029 509511273 847202107 88350788 20238415 434058512 294878399 265653695 17767060 928870504 287137604 193191763 793795159 873116398 458761998 263929967 686277572 105192265 603946800 413088041 880122623 682848019 81612551 799863756 476788817 304544174 456369414 116188788 491482997 331741399 107685003 420905344 218849182 79134227 323819603 644959692 131392596 3921957 25317071 433040496 982587628 861124174 930693905 44453489 73259937 907228691 223656194 258351714 791332733 87056512 337623959 972471957 418410525 351900122 175468652 380679272 482587420 329318323 971189292 513203924 323965292 42115773 151215147 844305512 585754008 171478616 884790346 803378605 386537102 624548108 989519176 742419208 779405006 644173678 693149284 848866582 956017055 700462557 667713247 547109032 76414523 286162289 351484434 821374425 509641581 356333689 822186848 760394197 445210735 22089846 451704639 294876513 613589139 86282383 587603671 548500008 41435681 692990057 217093891 383181982 492308397 312970822 95340282 6872581 552386535 703115770 952814077 642322978 208733564 750807093 862828961 330878760 880652598 5042672 161869738 777462851 266977970 741033515 943258678 730227037 507122173 684142798 342283965 410840171 970844456 830318151 645658468 545602633 749830362 471218810 744166267 952808647 556432683 378810317 34415559 869747698 545748255 401501383 702476520 143327270 763604064 465806271 119021314 456099965 544382490 742312886 179907980 195183087 365993400 708745 667396571 970726945 423223925 333779550 566750112 336695939 771944718 928054455 283311861 655074299 861697219 680425890 261822093 636480576 691114004 77854845 555080216 778392256 95261220 74142589 119459839 363783600 685386261 350230486 349765911 781513677 514251623 513674044 698190867 827068127 183160275 518138310 751780633 995884151 997951671 326935187 347693155 103335121 884307389 846226334 392820452 951406801 563240069 204273741 460262271 793905044 526101640 199256507 212687736 643789292 531144772 672295099 707780558 203974534 698553807 943823497 753460698 262416684 377515083 123884678 649295824 177844981 308231907 85247881 392564684 966505430 813854920 180268791 817956751 746903209 320081537 464767209 390612193 491223141 25978940 495638420 206788941 828979410 106967008 426024992 170528676 598470946 745097422 399844940 438439775 922146300 869253668 101447008 153753608 95028273 325156730 781422196 880822077 88999416 424400149 438792378 739811333 852050036 503985720 532951791 926216666 112523729 97681055 713378774 136355805 261034034 314799320 100801981 480193622 273724825 116712689 651835150 714209541 105751566 909236095 29761886 574375818 134301866 335343678 997032622 142882096 397593658 724895160 415382829 895331806 861115404 982426938 331191083 390230746 702010797 268836777 918515039 162331491 906122068 66076877 815020028 780602141 77974565 144014876 584606872 541176202 619000907 209529441 919917117 862339936 10671266 391413912 942746525 807823436 907789384 899967948 961178819 442352505 238225436 605965144 731716996 175075816 210943485 304793892 296893267 833020969 815504521 25844668 141554440 646376315 530309956 696470686 915304354 196216243 938075971 839567566 212697282 913314934 950421476 883527599 843920019 751799552 984838146 708134898 218940963 689578822 905855123 858485856 500045250 526041227 276444014 275626094 223358891 351402338 654737454 84330903 980987051 214698088 147741886 394139817 199205970 580109813 951306424 994705430 542006609 986806997 82550779 30912430 934100253 305533523 645742207 787563782 637815104 302158789 227880800 671350928 417989971 975074367 79005243 903327546 67447807 658706756 850579863 775316348 199801687 722836617 856516493 121054432 324182176 816370698 397721284 623206931 262124192 7594384 232091860 147169597 64856216 468921050 512310453 914488312 466456802 750395637 936109492 106381086 995014878 265956476 859572742 405374393 472678048 629937514 280530035 223671930 815325933 616959084 317683064 434554432 11308292 644125467 336966699 498312368 647676557 848211908 821790875 717705084 447502750 262537109 428442588 789292679 694718195 916232161 571394570 480333436 204739542 278407235 979876170 200542411 471588152 531284397 563126553 400315818 429626299 39182522 692233497 215858137 476623332 199713898 550884069 834931542 779582200 790951946 564333249 178621964 138152927 575551093 695455208 773495693 377241597 852550356 28364365 859303636 303366247 100535299 479756610 960017442 507880858 60904984 434251999 849919973 77519010 698386148 814941209 99134204 115691847 928785681 333863398 597525260 936779190 574261987 709612443 797333704 86535568 210309973 899028491 866179497 178489307 152827186 75836298 883620178 216402808 304323766 300098462 84940488 242833646 414085321 485983757 92509393 191228131 301141478 849268181 177935855 59108228 855199740 604339298 181439117 313866884 874532701 558918861 130697038 426244085 407710258 672331829 515267828 188374359 266733668 494590759 795265214 460056245 815610776 796803616 321726799 600899431 582411429 245569043 586897586 724124087 527761308 558801755 215881467 141315628 338334383 861098569 135539297 563619458 306763970 426578776 379978214 49726708 443176146 592178073 452579852 915358689 604182370 463655764 96124508 745894647 593888968 939189230 264423818 330961735 397199583 538433090 432911091 358591131 750812091 657816407 784087949 127548017 573729407 689201903 347583576 33812020 701958486 777510170 127028597 326655437 348532720 989663620 981251491 496894596 446166434 306072614 540646516 283194713 512435375 251632034 272115565 34169886 166227062 977335565 625687613 230449226 433461031 437481735 895958420 911428732 821508155 772428985 956623771 957897192 769966184 343260072 377044802 341539948 78250410 195989538 354321376 744199586 44814149 77271394 981845946 844211010 260935774 474506332 981704273 880162019 425651335 740345045 721062945 262634311 637855579 294082066 157342995 91746546 544253331 824976979 182916041 869158615 701733174 167362235 170111189 992533109 19125416 361698399 281134671 114325074 435879261 556238710 395517158 429355355 817921319 444786594 857011514 734026044 663057314 72669603 883606133 705708926 275561049 704964964 803253909 943207441 996552638 975312445 313836710 249441222 884944862 462858848 131503697 447102350 261681633 366392797 710513266 44130321 735537457 594370084 457913143 269610845 285303993 122421481 132036045 45254140 724288979 113200169 689568781 886366727 434764627 70311391 179762733 543157954 416229827 679559451 569013324 565550863 210432148 778742305 971846259 692535321 677948866 451899224 945729767 957287155 760512643 406348790 75838549 878003253 515351081 628897791 824185713 793717245 193217362 888000248 393243885 758150411 45415407 475988987 672606096 553584633 600023508 309292622 140482905 681354377 535966693 83780669 347763666 896301904 682127094 963587545 377315851 251003945 313261047 364520852 425864450 997958732 194771122 579073201 242126348 678668530 95137926 73249265 786001150 463866638 449269782 897054931 166045663 911953101 294059338 65074664 554523285 942394023 515830539 396287583 326781171 987353926 943518760 362353915 919251697 663636761 268755693 783866185 477230030 250864230 997461241 442124459 934787691 201091237 294109844 75467056 41333318 800110815 379616404 739157250 603138676 148995249 601343182 507425982 443437021 209880210 158973553 566941574 211190866 428445956 335967927 364817896 716300660 613736344 132267109 141383169 288693306 201143026 552505573 99413934 269682641 240217695 347544399 853644575 134651823 270911766 926390612 921734690 963338609 362405697 356519831 521166844 503791666 59053288 232529486 699394282 163792100 777697384 765925976 72581682 126521289 969382015 969168116 857307193 551321179 791502955 914608517 711738446 53869440 565410225 249942712 716025885 340425314 155697053 407171631 519773503 35510393 777130965 494181013 11011679 427929682 663644223 764356170 588935227 938710776 61315962 102397955 939123989 191717669 506171268 218113669 188968359 663039064 437966424 647132143 644932285 949957741 588623220 949689777 788833799 573771554 879509282 381309001 82479088 525143404 289485621 636885504 694627030 943989563 332000141 282466840 588386032 207609937 300433919 37810894 582053933 555313525 391377950 219407997 657836458 763441506 229015177 981154460 664944612 66547426 215244817 823198164 755536826 970839583 721154916 191896707 324710311 817679049 760406433 903436402 910859222 90607699 582774222 408143591 244216778 838058460 252900690 840333686 393300164 735853424 276939644 766229258 54010171 901433050 407313451 13673904 370150091 221737292 428327607 245377747 598024655 656341445 30437373 706751254 995907918 217701010 761040011 934307519 930269013 412902969 854261956 988270089 700922326 615112795 817342607 577693048 523664570 29795053 493919665 594926228 733674203 63425565 244264326 283383649 449661742 754827977 922058863 311377983 792969714 618526906 388546738 700143068 162316502 92912020 668863425 675004756 91142141 795119755 227818024 506955345 338075702 256352700 798362091 349613251 988897047 18428515 454246205 961113944 156396156 552787138 487275314 567676449 627061180 491078510 907626554 749906472 349508144 569802808 622730056 365153143 760296839 562261326 686907435 781778039 479059737 933968546 308544564 702847153 835182927 906406088 415246499 880516703 28360100 283766062 131213443 564810595 418142286 384082909 721960322 522483223 654847650 240780473 332826082 70400647 931278635 81214563 288715580 802254031 201687260 172873545 479745215 889054425 501375939 175498299 468636899 763755324 187987728 565292203 264502379 706557886 83940811 351754664 717885566 52925062 177301078 118491561 478801359 354416913 260994945 890790504 465330542 268290472 618484692 198134652 449410973 70285078 735665584 66276678 449880246 978806145 67713012 522616762 907534505 979177251 574961724 245694972 429238436 246167901 943684372 342082455 707897089 67691887 256011214 810899840 950076687 702778806 5437628 775172395 755719596 475836460 738593513 51693192 135052394 871961515 331078797 657961202 942545480 446076717 649462385 816707234 177286190 237835830 120864383 951687857 609086620 276576142 653211404 160625289 863284247 441822915 570110263 764597733 42976253 296786642 243692823 161623739 757903476 690358891 219520560 905876574 959376528 665754672 775936424 256562385 622285339 908027955 122235745 299637252 890087888 564662744 430198918 970046126 434528242 179910031 494023291 154642578 167472495 147230876 502270552 92844703 845357781 270261374 275535760 622874852 383217798 932505154 943943864 938420839 643351479 798220318 917360715 182024500 580255167 206110171 83189276 839615239 855592644 1218434 675155665 913336295 198039500 134928279 843229833 102211366 505664999 552401964 810155352 938813279 302218171 754396405 397948745 179235433 186867888 184968886 938185362 581750721 772904644 321500502 136200305 155997679 266759929 346944453 252138131 145830266 998662821 799737167 233318678 4815034 380356896 767192472 490082692 87635802 138339797 152043269 305127168 364463071 379518696 55467453 588610921 241116631 524700630 374985094 903507013 135384432 454360223 904952356 1889853 289401538 896481336 551489020 537862874 123900934 830995940 747680166 356922813 170261788 817544971 807383422 244341562 239170526 220148835 727195911 554352249 994724034 192319657 555033798 588290735 606862658 111058577 547813630 763284813 477634471 702857298 435217947 788487360 435948866 606372183 740507141 78483541 187885125 601962489 649558960 356047312 287182825 809442755 537023746 515465381 402011680 5283899 206921289 129970676 140664361 430970392 128409401 382227558 631068277 936777472 659948464 832312032 43145274 866215698 177198095 219836529 386858006 581068872 272975260 395950007 725443818 205370415 405275346 200493391 382731798 847949069 973228415 233996054 642477481 26305483 739040158 986555212 690954703 973819450 606663598 651427806 826299029 355844614 787897515 338792344 658233983 244854674 3598622 35180585 668321800 994825791 379083722 232632099 830461394 669425437 703143974 433442103 487086500 291563581 549652365 191010038 16160485 739922790 601811808 626747820 404869492 632570519 585850964 214386575 547664636 856353940 641144005 96018738 791522389 440674976 624743131 705703329 178118002 707962288 860110574 906091807 803274555 679155664 562249279 596196443 775929291 314407557 727457671 688207913 53979257 201413601 317419675 786651850 322828796 274470439 568789250 231255890 732269427 242312487 445663655 324563078 331261243 248436933 410404187 802924662 521765680 285958223 565466760 443195672 105673424 728823743 524404896 911487398 445079275 23102421 693679442 991873442 586655619 781992820 484617264 229705693 221992395 970156527 700143176 479735490 485977841 133062227 758858477 309190934 336138867 412077022 737709998 375225501 337232156 60443551 332322986 711536183 913212092 212603945 637021278 107755750 468852599 93260998 761944575 166993640 500461677 754843364 6932111 281322733 80051835 471143338 103866226 886092011 232268145 663530530 682310266 859834502 629268682 179629326 868334321 187601689 381373737 547001998 925104534 780186135 811539974 349972789 800883645 46453018 728701123 5366291 949920657 635271992 104640595 771357783 673553008 163027583 283505485 854160694 492577426 559176824 263627871 404362661 428795251 714548917 262536838 306483467 368644217 788080788 427001072 954455196 114981609 645165859 113346392 291135886 287071859 990413006 33480885 64822010 78630861 231031897 744131927 343061436 733226318 899470670 372044217 725951766 431443748 669148250 677177314 895183467 293430505 480765628 960666920 969901440 501709656 180060668 73263596 441084569 126945856 273878366 783310945 551128099 17694526 278446069 741400768 125515501 452180307 594988991 780767137 389713757 458046971 573622292 415831999 537581458 134137061 893345802 140665587 256344938 534855131 762612173 978748419 437136283 904684402 248652445 609723709 260790478 391516782 155448801 532130453 115794787 677367410 288697702 238794955 697088749 681549554 408231175 273563198 874803093 692623002 490525904 843707922 587623769 693980099 422142765 752198479 96183303 858281901 237494091 953921596 540802855 230540211 608860391 629161789 633331015 767777380 824183422 284741095 165529368 701781869 809364270 302843253 803665500 317473642 322929893 296941370 315552089 604402343 870727389 954856179 330164853 906702198 922780755 389631050 689823379 562110 390700584 545680098 609755874 902916608 76465082 40786329 483816837 741977824 227831800 726147137 151888482 751864749 406597500 637470074 661325748 543312815 144666522 192853810 873781062 833992626 551653837 714347379 547598331 453877815 581517389 393637557 829272322 159848719 506046753 864087201 214088663 542920413 814699520 720127694 75929089 388692350 227009917 232651594 512749484 102777706 451722759 107430141 374500422 466604224 692267069 280582765 888717769 954911803 196527448 959017406 896288268 304305350 400327914 276096709 998444165 568651462 548109964 594205995 97196392 680887086 964803472 874525896 64556000 659422890 376106823 285685342 920718090 644267284 820567508 22333514 601248922 72574460 278944469 687523594 823333298 860472244 764676938 755658892 877657876 174895983 325333620 835862407 355671663 312198154 464730194 280870539 745596967 559731961 882552298 638436650 255752866 671701921 862802046 29248516 338356119 819273601 461152803 242343674 647055012 281109542 88510505 500099773 343017116 940467869 798042792 932484736 376585853 194180600 340790803 631846253 79742322 779098513 149015842 859167871 286187359 424345695 115176664 653792295 165883972 362950327 744582651 328317114 720908785 994114577 784399199 549520301 368035897 75825628 905003610 117587117 276602655 112010004 369993278 961710551 668945465 607214188 124955891 669735565 110929672 632758059 217388310 659455005 641754144 370298018 560274046 890296559 996223892 416392868 851510466 186505973 114048877 561678185 783851121 147385750 205232582 906316230 357326502 240026512 31573126 408145171 87022166 703364421 282027754 873038794 849782525 543613890 342339851 587335072 254294992 715750471 663692032 266763301 478517603 29387781 644106119 695172210 888971199 423939596 912315855 283542075 462045299 119577830 92802325 864419389 338652155 698395922 473158987 403576645 986983256 284362261 379287815 496635325 946465075 967132507 226647793 694384902 257246925 111061875 687318298 695220959 903968506 978641512 593094517 539594129 618168613 477280748 189152635 320480159 608392458 730216442 939694528 372222403 689196438 603313385 582289743 632020467 795347993 779443880 903226452 681897271 3218343 785243836 100326566 654736066 542770377 216264160 98265440 197837912 257492548 473504090 887104993 626169805 740538735 6883273 567581712 652195679 619695908 199659133 787608328 150191272 935425886 381177657 474931638 417092349 889001997 582499072 155746802 110257262 655082708 814704095 281171222 388115284 586719225 416103866 505408938 317985524 790732422 213739072 161228318 884698955 691751923 610721047 578890665 994530271 949616114 78408280 266111931 389955937 241673500 885584132 462695916 658735201 186099819 962231604 262872443 806183653 827385497 345671769 697341003 611804603 442111099 838045054 73208371 534317039 222532973 197542342 284731378 544793040 339980530 176868778 363177614 524323210 285346584 158411672 556697586 248775202 91001375 555176867 816283277 466000583 581391905 672263594 685470647 229698872 562703083 684776061 245135600 780344967 285533541 358709713 762803773 554128099 6558477 24620983 758998841 91156089 913662597 558587746 24333370 521065878 995617308 872332242 302233865 445711049 600943171 772376934 257376858 965670368 319935751 233825451 338063985 193849514 854407737 517274943 805633964 747335067 521667813 864566635 765425238 225820474 395937533 876654197 628420573 837099664 480675796 872700630 964955038 577848135 228506984 777510785 183524596 587784361 526752609 246707621 918861565 536697357 716564082 503548960 765450057 5620912 469737203 859058569 59016919 863726712 199906664 741354109 953270774 748178775 889332199 355017449 902903452 928492060 529393257 530546882 674459026 331814946 83735190 704738510 793650111 237768672 147998528 590784421 708790876 956699047 403513894 370374338 202094642 887032328 627792393 165077224 962470259 418706343 810460157 536599370 391834212 599891336 654178933 755940748 873227222 363360426 479072554 680123231 386776604 289214059 827707227 78665397 334532855 648839277 629491973 303704767 48530637 791985579 927708464 736467511 589120917 245877918 25980358 16431106 702016577 482423310 842292305 175660592 66141125 810712568 434150698 287881980 770596233 904910339 186239664 619136602 432220027 684505914 408423225 854586832 869258488 5717120 722721842 758526240 631982794 971750526 506795710 600515709 639157723 65237135 151327208 325136095 450809064 676114749 214709746 662141861 485449234 55344679 362421128 326563353 241776420 581937728 459729252 281699025 198255136 995475940 784585956 206949947 69311449 708329676 867109092 268995801 268879561 678812253 497454383 967397373 445563278 306874690 542756046 706364448 613590092 645414349 693362297 401989020 885015613 389335811 979266450 721054443 395517098 492323459 832539775 586874013 594046358 268037101 234914389 161004543 61749909 999653586 263572001 476289639 320229384 746067591 496736697 248747362 926164365 919963446 846028679 242803610 520418918 229417328 553001790 924184552 859483886 934319902 237897399 52806269 43841355 635136902 55460605 418115260 793062332 809046721 316237424 988874283 694868399 592756434 139646335 942306085 538030527 557732925 493552078 762412495 171117240 54653094 422768183 93890311 634943682 583797561 630372931 303227791 586679499 615448583 701686400 315419131 852859302 739884919 725828605 261250418 684087207 398900293 656536001 835645230 929809787 321901579 993903048 124983344 966257365 249071703 200910941 844164672 594306711 121127656 95727103 53450055 850381707 288044883 365366676 664070625 568812937 98233406 181390287 455551837 479630626 311713383 75838087 924806883 722044317 596209109 654640280 767052019 117956413 809482196 604934398 834392537 611642209 269007264 761558426 901357761 884949960 843742170 662370397 101187397 659690110 884449854 562475273 643666504 480587985 647650149 331483755 331768016 402838828 496252842 606493742 982542510 255548554 129274049 216843060 687960934 85630541 3290256 35423285 149551595 703061313 610090692 742642519 179752106 723485006 329339027 315615849 266977295 849890995 722411098 349721659 315965231 684617420 460724164 725947905 402519145 605940547 684011434 321909526 147862842 280286784 291279722 251130143 115538837 895255082 431710594 866477432 88345769 165371492 97220203 80950963 10062891 744336656 83393367 577186793 819065481 520133689 200912643 868133389 693512456 628400613 702523029 149759579 888667109 16180075 483145220 486226478 706568487 397595940 81560257 326260081 896154414 765824455 736196420 408937067 961819781 599087127 638874940 913693547 365186005 745420167 740897457 557244421 621577429 126151727 324108351 696573677 938689002 607177320 504036473 34789610 228041840 164926128 256465215 121490063 498024109 839389898 589638840 548330722 562495093 976752753 946880633 787892114 635274207 623363004 985152837 576245898 505672285 398337695 268552563 793585749 282605331 51309104 263860849 62720283 88072898 381554084 727570305 590872130 174898244 344455962 97383822 308033036 213700814 189259880 458026393 386772100 98862086 334603426 52570392 322329875 914496296 501618893 423978005 561281072 766345432 613516895 65416431 301573468 704956803 975979885 579988026 218594811 733812326 691825902 608009788 678772540 488036521 838679318 508518400 997218423 933424432 462969019 11747500 352394919 417878270 937611197 32208957 778081806 836537620 228849384 409161311 883906186 596278072 719844377 848605246 125886548 895679111 431512361 656294329 954532604 51079184 705810734 874861321 807956385 340617890 863831885 477599868 573551409 574757164 849505573 116305615 177989682 296803649 672379426 198843628 472097874 640299619 576248064 855481001 546712133 360768458 733957592 957421765 477646918 235796320 508900288 537115209 46123944 241466192 881865728 5642422 320256824 534719157 818127633 849116977 507948761 671104029 898681202 84242485 389366659 61017637 151635280 89106378 951740039 825171077 927558556 872847231 57648411 461068136 105987909 15776683 888096211 247398329 287945415 723157946 968570715 142576653 18349655 871384031 509811250 433087694 947881576 448880530 659812438 267252046 758208689 662559099 316869036 573748839 305984180 919768753 611466570 788836636 364957980 428266261 654390424 40580478 913373102 873977184 89024135 36819847 721271084 821754945 783987990 799983575 860915478 849890342 794375993 777098278 115238184 538815639 545438317 400526823 971891125 501474884 464758680 535319279 197754525 106471135 90537703 957220805 832193010 195928652 390925496 111592380 679505119 70038497 313052363 540211359 6213681 944051295 88854982 253211216 514127971 668049583 741099489 694343093 94429425 456553399 252727033 406795959 363789066 635932543 950917250 270647627 702055145 248850161 123301715 754640016 474671451 103542902 391440728 809791073 174740432 833906916 523943818 32829776 83286456 434765520 979857482 336223770 898430652 828400183 876593416 341319597 888943210 290626803 860410933 948432304 719100960 920321865 41423640 304855392 992902916 587712017 186071756 585026660 377989340 229772076 245123460 527358113 442999486 383641834 554341508 364394619 312577700 721503476 621589030 932811852 839381026 966898445 306884795 168537241 104890768 341267219 277932193 796302071 460055338 288715626 32453742 880738541 752536429 299981645 866363299 562572448 806186979 761108121 385775850 393263287 698313176 593036363 44574711 648529773 960721034 120262606 297430426 655447462 969210523 763827829 917388132 765201096 825018548 153675480 814161252 83216858 186442049 331195965 633411522 127197996 677998444 975187109 897368808 741720303 542642027 987167895 814888618 732287634 988236660 222727767 687676091 589095896 758888431 284742061 974405152 518796675 724078768 313500625 800559140 791141623 936295214 239254304 830372005 703192404 749457960 958375568 456805990 511399354 959013025 98400163 514084191 689495659 484999093 981790487 917417823 100040240 102954456 285806147 928831647 961245888 884334478 783195007 941009083 186595426 268733563 978911362 998079595 904202350 869616245 628076073 372441894 705201982 802651107 704416117 406427895 481479839 951564606 221139781 114131046 847239443 631714764 162281306 675300346 114180179 452984554 978743774 827312394 944880833 445287254 244176786 120510953 484832318 973265491 110195133 158863791 176229725 485850090 592995065 827565801 264940685 470486763 669368959 220707846 921083569 688359145 283353885 590097570 231878652 513596340 392572883 886620060 921419818 404386337 27812557 888983684 788193558 643747682 855103825 471291215 260435298 423575828 239815249 410887842 546497909 38030555 684521570 410278653 644012498 896776775 439584111 500863888 82705449 180310820 817258461 710667619 308330216 402247649 738797179 241312125 711778956 625028352 411380457 76191469 485257899 680023394 306891027 512172924 362468864 9614501 671061943 330164405 679293457 601228617 595343541 916862422 715077654 709434978 960699089 553529608 751546808 210013612 138414498 46557668 59031774 494377319 156589550 34125388 420780143 511185826 298351369 857116269 712803957 970501379 161726200 945121632 821487732 955911786 415491812 645741912 788623945 132044316 119323567 543909778 513969843 516636260 536109821 95838721 428489597 428906798 270372741 38695646 573028465 103751722 732430326 290611548 364961053 138964044 517641828 42189520 93173023 370579344 945586704 507596207 846235375 37561760 556886153 484481405 582350847 285094327 411243010 922655800 984233792 999037027 667496387 866196888 483157655 219233342 112882661 980101097 569211312 204590379 114372465 589762737 997118007 327853997 254040511 550689287 811178523 269818036 902664294 36093619 126347254 256209000 741856051 686803018 397576735 845748276 363777329 838972640 404895254 509035642 226293490 978578813 15836766 500185617 886926417 698517713 206528903 264727468 343235463 970094064 824042428 393375785 376064318 181080887 154319752 271885170 445294230 339568597 959518952 586187040 388630448 557681234 963532081 815097211 423613886 230990492 109355378 581025518 480816837 268079377 152832554 84315231 14721424 288714400 947421612 70199629 575720371 759306367 812091232 380874156 878077596 16623482 223048100 983379705 554981527 394149085 928045060 560769897 628320212 36045490 969135936 672904638 409859685 358497560 627170843 918888072 218777470 848943642 96932791 934117385 871977369 378907672 470771180 383403779 543268451 488941075 106490905 535750700 176284869 21932796 776876773 448956542 914646203 165398738 262884540 660727275 673498614 550893256 723642668 862473101 997318978 222561232 944781406 892900321 494588921 413308817 236836220 27564007 897354404 72494018 786943714 677237399 659018610 973254053 614710050 910693151 723827747 268640022 206038795 958162014 193399866 802371507 883316300 31641447 588603345 470984455 250856464 628900248 500325099 102829076 642289740 817545564 900366783 593535209 913202534 93044742 79818905 624095147 922002439 277630319 642457593 593893162 16346775 580741713 730770693 409632111 660856600 112594574 882022412 993800027 979774057 483331692 866404774 726650807 912028818 464585740 184061845 425320428 407475503 343724174 104029366 376221767 67095251 513936331 616718226 352643092 238671397 846841811 224202241 354249347 607255036 262399989 523640444 521749851 931513023 79444587 758700494 748668652 727867248 176231267 409492111 722727597 387184985 236410370 66363185 434090394 263981253 592817731 601215505 217971726 727918770 93094516 595705336 739597849 546270167 556009745 170100650 367666394 91281042 171661353 31153817 846490598 70428293 481582936 544867359 407570218 96870776 354718275 978546616 887424559 391364032 906133468 861107590 254147283 601021106 43167621 860004753 727807963 916615211 527886466 298144075 61739538 78772160 716754989 898996415 358612069 461509386 816093925 590251031 599267114 795113853 807551282 677037321 591768685 244273114 416305982 631766569 116244063 226561256 373432592 737815602 249094664 511953974 399049098 290055403 476982307 292860136 197566419 862635085 603751977 649173654 427470320 263971624 85673479 657138518 460664137 255398362 157943435 515075491 103248791 545162876 479647186 397041878 792428548 926941943 98788849 105828006 683368561 471076256 387190370 681654193 181040041 796357787 405754380 465146265 508493295 529106072 123544551 728086969 198780569 251470967 594335968 411146166 156521503 180945758 944626445 53598336 41000512 811045645 99761616 608801748 685279336 215448828 182965197 153436296 849690639 585047524 937941873 904851754 993786810 178672104 323576125 666982196 940053465 767690937 969870233 513399481 380970356 274080899 791172612 529775442 461315442 786273015 362365695 895755100 939640885 510547978 675520198 936762928 69615721 131806359 590940704 720636431 502841262 712965300 294748341 343851360 291805554 858084263 536873929 235580778 859693981 126671265 724657684 996580571 830041824 719783013 715057378 195276770 564735312 693399968 53187960 33456988 858462140 629786841 610866539 563259401 39155686 604458274 459899012 695210131 778403424 957399136 335698974 556982398 460560790 137805336 67466017 810501274 457856474 942615330 836363235 295895959 754974686 488843160 84555388 953281813 633849725 234357046 127096962 528895610 736626535 224495018 59597973 818418328 260274782 934890378 204709158 319654460 376460520 327663865 494566833 785238785 776999024 201716484 968239666 16990616 187341272 953035960 919703931 571935887 187276738 495678807 462794926 36723501 400857906 411328442 648735978 627136758 442237265 56086050 554060528 267464219 933067558 191792728 317357752 807709074 12229459 87768828 479797158 183680808 545825444 978879352 251305174 441306623 472407811 483967345 285017635 855752119 220588281 785278219 764615649 610976536 795464587 981795893 722167905 377099992 407953606 249954746 691992821 186015841 376393137 650668743 151254206 122255312 268194357 413487535 531443782 909946134 792085259 292502358 383297337 900649410 358712913 444473645 462952198 885345548 471586971 967814898 319730936 155592 148881473 331498175 356810375 141353982 224229033 6005568 478270240 367449986 154530891 66471697 709314767 976374978 650284093 684678892 844797381 526696045 578255549 266116449 663591994 879467899 151983026 799916273 697923168 849880440 486991574 930870905 14596812 729447555 760467869 367609874 908423433 363765949 383161019 926148628 555261468 891370087 600503686 531566763 688867423 815531388 483431821 506618539 655532769 773888498 727930057 976846420 956614584 691375395 323161536 663380071 862538893 538980110 558433973 495976524 936012104 423514508 879954111 652242270 230868040 528257838 507912563 740288671 745747410 115807536 62553805 309659125 903541810 267258254 954309355 316609051 454599381 360349756 461816953 627002606 58229225 996761827 597229384 578143389 982214553 647930531 163942479 840424117 212837906 964328033 77122033 533778410 520069036 72418079 480746034 921839294 966467340 854756126 588002684 163764526 718294670 996083765 792398088 112645865 151148357 513648878 158911250 458747857 381268345 541814052 557432053 9377391 806244621 481796855 665436979 402569322 537323139 987289568 227462867 915068473 993600004 641253415 581963017 969847043 578806472 945374642 118469088 669732173 937812655 139880413 927411564 831620145 253292844 357145719 538985395 724833232 965726537 665408322 378921085 865111352 145003880 941667796 562731502 937494479 992492416 820321142 229539047 1332550 252996885 992672573 554105868 589891625 217667353 280344596 499222035 967355711 180996067 976997996 422787810 414031348 780538605 90464819 431069768 607391191 459691798 500901579 292931400 738512928 839909988 725035675 10124269 477064308 63114893 955522399 898360181 736568026 363203603 84794621 211585373 692620637 421845137 937538518 60318596 288630645 963343438 319706961 766280851 842282931 280486935 226540912 368698924 713121431 833435122 764510453 424666246 463974912 708570022 389570457 751198309 447827357 624110969 525412332 664985521 28029421 899377017 106128343 38416649 264319836 110864324 94405248 305284243 105970897 816984069 359390112 815775393 491601861 91041683 963617327 539550358 971426743 798653236 604528810 267690561 759889379 930412992 277677024 350411933 590296575 229930366 568532296 129788253 655808829 483788342 298683199 495535554 295479077 145772491 387853783 213271514 872844008 933026721 3591164 234360457 67545163 513216803 866945337 704170368 991369072 544880174 771179711 564306180 642952941 754954988 535272055 223889771 724074085 564493130 940559765 684166157 728208158 252691263 953245013 648303211 962107639 439535524 790762409 525499777 895300832 184847015 869232646 218333268 467532395 423140941 708988892 383757357 951462512 658300726 511541834 657594157 16413930 575955324 271784669 627843263 310042490 535301622 463714625 631800164 860945183 44262487 25859753 112965598 154154964 314537017 86486893 352210711 579429658 43606188 720919585 391513071 558541594 712684497 484455563 41829250 576401114 625515600 519881429 109979018 89278369 667803766 635705224 139292918 281237049 42408833 46006080 936009209 918074979 659306265 496626914 662770872 572094362 686974987 726166705 328468061 503267940 93573862 69234171 388215070 129718582 107430722 706529648 426561050 783807283 104840607 724102665 343411163 230858604 694088051 697131850 716909767 800489897 166202691 203316629 477851448 700788942 25908441 691520567 343597059 562582412 440514013 277119612 264011446 565127810 280023402 993769148 178830163 952966333 21633097 950784574 238034249 600535542 925640383 605428903 768429993 896705904 655008860 669177436 419185249 69875928 749890380 689331188 871954392 391783339 251174461 825710842 499284834 620203832 229287201 447660707 538201292 41548201 924680872 661718262 485971871 971115605 557266912 211962786 378097097 945569682 530003007 518284539 220812758 410292193 296406616 543343737 486115644 682831051 933266221 732697423 133933508 972109259 413869594 568933669 500985 365686375 196895433 612112285 984504765 193557659 510534999 135524812 263666502 617436041 9410672 602005515 813706541 348552449 308930494 50010365 905195142 418345253 128377010 572487959 87636899 991308355 25162162 393569090 802493968 296494765 1919018 882411421 356173950 667338834 860026860 69611549 702647907 577851184 373009435 908853402 149713992 299588568 68446182 836673313 463353916 214560481 781038282 90064268 111588536 667171341 793584371 973773350 997373824 147978601 52654370 870271849 66292060 31776103 387765795 117153277 690547134 372856914 962266116 153584544 899752958 31385509 33981604 524903996 125365644 386994421 406466750 587262343 363680197 867254345 614039747 480907655 366730221 552599148 587886310 709256827 767689017 739724309 133086194 844883184 331103225 336051503 681239471 896122862 853999711 27708184 497865979 648795905 267221676 884533647 745012874 316737857 470917644 683090833 441024202 177120186 94593573 315813949 472534152 33170721 370886975 688753275 925110511 30434415 804225607 313508795 975840136 231185681 417541236 127910926 419254469 418937666 441974836 669602333 959107390 437649341 289192969 388197420 889352295 399354582 399581678 717080714 799913370 533469878 109629449 631616951 824176314 953270538 753694064 623504762 372580635 22193437 811077383 307634049 130205099 820735589 725411407 867365881 570951236 515568040 599740192 354388491 397728265 419318409 186885726 761763597 932815011 831130434 998015469 769364432 298986691 327573937 711145301 72944943 409358933 211795491 870237635 62234080 658685250 353856319 859747724 893915387 146121714 253069950 387431603 394010716 604863547 837086235 430717436 948972611 502211935 545725887 121871581 739573756 46023023 249692854 981499193 922786021 96191048 269949165 169982606 74790062 891410532 463488516 988886322 393109126 246472814 354967292 706800084 740857886 585730630 656147199 19442807 278792852 253045011 502194476 728147616 36028646 644177536 374533864 210852317 726379802 463031835 442056538 381922743 569747329 639813286 346620680 949591176 219209512 340002672 176534216 142881064 859308745 989811627 604943340 262250596 182379728 937509780 903184209 955064113 787314608 612317083 937008873 496673192 777861652 24463719 860014619 218589471 953813401 282172522 4244719 817869232 39953932 325329948 919623851 468050493 935556624 809020531 980533025 858108194 859508529 278925944 69955523 782663981 54844202 489130851 475407682 311801477 292227063 994265276 341380891 758948110 435092266 665278908 830938514 479956169 400817910 181116964 265750324 888787589 558328070 873648170 169426810 395691128 457868219 181852 431013822 828585568 189562958 740246089 251811135 714691448 748516400 908619200 478516427 885297926 978452823 986919599 968967773 610881228 474473381 37983552 674156027 523524567 400406753 496497310 289892667 786317695 338367700 742857575 766924291 182161761 173034959 551357338 649055339 627986268 260285973 246588629 762366928 591061725 964236355 652877707 120281114 365082739 414241389 519905596 795424302 210262865 72072834 649761768 366659840 505894221 77356821 995656536 803041851 65536533 263533247 883806929 945565190 493893437 779807906 551476346 721606282 65582195 783472106 710416418 633604803 800069283 88964585 905328623 861059681 222924560 2406353 685517832 8221537 416615764 519359594 613094791 157413535 416260219 494506641 507716477 771047233 462531178 715615378 708308544 771073893 380165313 21239928 564482916 95274156 556022390 573000777 899789917 990382171 878245021 365080767 366379452 470235049 31885287 864774751 47683165 97088335 975164673 541746869 853854423 312493530 174832253 353227084 942670656 931896856 769129083 160241574 717760575 91351084 395154513 452335808 469297637 489712644 205461487 88913975 792719486 962193092 921403764 966633667 15931602 956184849 566265832 542744732 3693076 64157661 64225605 494534986 518934635 76565219 363396859 287543481 553256394 785766907 555826466 975902086 545616123 847541264 319005830 45932618 291890286 934957594 519028525 182254519 595989537 57429856 889498335 361651696 569519081 311759231 509913973 442846361 808228973 821925188 894071320 258543866 517791073 516520124 937065029 383165069 86956997 248614719 337513932 915340136 827939302 992032201 19407311 848262388 433904836 925461507 285550918 679215985 536660749 132616123 342611421 926055304 439558182 982658790 56056944 744076441 598850480 637351716 880916282 71035217 497978878 861206099 801932669 242708695 698128008 540102129 642490005 539177837 550125991 901546232 96640507 119962385 884933000 406565466 581167158 871178883 739663492 555859405 371631897 633316054 120054902 377641143 573756298 126555968 937673942 432940319 296950538 331169012 274355791 784888855 580943237 853803120 861955321 986419306 606325203 6783065 604407386 714836462 131956989 816050296 671070917 720577312 723026933 913750885 191949845 866759165 732212376 661586742 630909388 552185242 335278682 121573449 249571693 988765022 589119145 413451801 958400758 505063356 389992035 931045856 388367019 993963459 794695556 988347926 709227280 20346317 123250580 473852239 731631613 251038977 447190329 250571379 574806735 696818450 129152997 547004787 498169034 674822313 531936023 436705446 965848069 630392758 206983568 927531754 448405935 459836977 587866410 343248922 419460990 174023182 162334025 461892885 582847113 661472855 534039733 761978164 705468202 730802009 474057874 464921636 853046334 86579851 446291839 617551541 986798080 473700528 300165280 36843988 409679183 704665946 385851732 516361129 754375623 616074417 619839961 542105541 405896482 183657457 712818314 44626502 718479337 432108866 825690761 372482067 115404597 745679510 455491665 684989924 247243805 606149 414746291 327568266 655435997 385659963 80932744 113940696 89813734 679070534 335799343 555796083 500481219 244775680 887011668 231674872 989593835 518763109 867521746 560835054 206317995 470805631 273417232 469872410 7225159 272743961 410835331 25029230 83454337 798461517 435305645 517570025 815769033 379912902 51024956 85807909 175309873 832074086 768068101 258043544 539492761 248326849 166264923 970784752 190799108 963541891 834886728 969937289 947669317 954069752 380545545 862016335 1766994 535581532 280203332 896903526 772814481 60775538 343120720 777944624 876155131 609549021 122432817 242000537 852783222 102792677 539988470 928698823 826739783 618928212 419220780 136145853 81815815 621579294 427365825 483443911 871352631 506350770 784642789 953445753 510058252 59701078 365642083 506444390 805175083 186443786 627636933 490154554 406446604 630311539 460751146 652046740 925751201 36101084 435811811 749413414 347189536 357965350 126035570 61831805 353942969 709043431 801998526 399630313 243344101 515483577 917100327 345812243 563876876 436874748 809092564 952244911 432804793 25786141 397757531 305870832 579138571 386918085 677529807 354905048 120233752 149740276 274133064 610553108 584554625 695180650 131742132 107228351 948872480 104329078 638457495 936778332 65202422 377056775 139858110 831730050 245106602 354935196 684879380 426614305 814350007 385288619 78318365 205103984 460449986 245972665 262345790 250997084 725813081 229168032 887963836 428437487 16761167 465290223 75842762 116075270 197906215 770763791 160055034 876494433 985285315 217167334 145521153 225975238 402494706 967140486 197931866 349359216 170891501 474222250 531359560 667928937 934047455 750589931 701333032 233851663 904684350 947387599 603434313 963073701 918634462 363137470 693223 502220906 55370653 969874675 915737541 534868083 968905362 980858079 774408200 528436009 376247886 473698711 886924639 242021487 327740225 133472034 380924079 978461883 865267730 253371811 345538451 626104400 181000853 756060459 350857122 576698253 248766116 545644061 843479254 38546071 106303145 244223420 422755175 849668127 396189810 651616814 838728575 210951977 911652444 802512700 220965211 878901187 436073168 295007364 414938484 288863311 369882852 351334913 391583821 309097234 25216278 745533480 598696977 85111616 972250474 765294415 922208376 131428089 861951832 101890630 125547082 309715041 59187456 341649865 196349803 994046561 149794199 149354977 143754803 880947709 568750590 200051210 806721931 170133948 707983088 186062122 803551446 164648546 562659674 605515695 719805043 929006222 437899756 672949449 740306108 493827265 311396120 785782754 509113611 726726254 353853573 353031042 299553846 1794794 20262274 51645181 999032998 242492806 478051233 969963950 657538031 21371191 36330037 293384261 333698153 328348684 13366727 608826317 443938787 558866919 29693522 938130719 594743196 310819982 645335122 193048802 706744444 925525390 287602385 74875345 272341927 974134103 497182627 96523278 299969737 201975090 33403391 271252059 575208829 329390492 777998961 862159331 27741935 161875293 681801171 792051854 220767558 163123083 819052232 314220895 125543209 680329474 433154141 998312284 296079594 10865374 938886538 170962416 52780928 954727109 420880175 788211297 647645880 438633974 954812796 773197258 411800839 78390113 48353073 196670717 928987297 199102876 229838501 806682139 465059712 633152192 645946465 202417901 896640961 386969625 960941637 996958270 728718347 966825898 24020314 835196920 927165089 752697439 776435430 471415505 658953672 494153958 843080740 863391179 218276469 511690041 911852828 844332241 829039837 468970181 296883068 321618814 295433973 512111223 150778313 818860179 845596549 714247199 28635265 254522473 111763132 121815565 350890488 785493909 527770217 459071065 444333777 748041799 272223131 22201059 950160634 193413504 492883179 900759408 259849211 275946787 711258598 528983019 815888782 104218145 424649183 461241721 413048907 909143374 998807180 976754253 526206921 353695016 458158689 165365027 39809700 919896089 670660811 478621879 631043615 669820258 457212067 345110090 500887935 971509171 955452474 761613687 165772308 998100942 946732667 739686227 39621035 309835387 656396414 440828413 222537014 19447956 58446524 279394484 489502181 647554692 816438055 37513677 369133675 282393841 400762934 85953180 399633782 758837223 845958145 472779507 119756938 763134750 133491544 112001544 593016266 948450632 315508662 20593578 653245613 697868403 75325179 94837124 71287841 793104591 710627907 239894178 897219761 108168733 351415311 779888965 499727429 19105852 72107804 574838231 518080158 412560688 671055392 31308644 445896781 391834463 231303708 817078946 292130939 874197736 820700932 496570287 967444201 65546409 944098981 488442148 330605109 832568803 257181908 369451348 36772297 956459724 624008167 145053174 568816709 225385272 862292898 123248168 8767925 477149450 300416326 779629430 962417812 431007173 746832060 501421588 535722493 333458788 297366804 889094280 582466221 303093768 52653216 108294696 145050768 107452509 304879067 704825737 365882132 57958786 918522033 800782227 973992037 514083924 391116327 200439870 358450740 450747711 399841039 706661182 965325978 432764897 371637954 739130347 992108597 530705418 528706420 843507267 116837134 170839505 213287330 941828843 460019061 123683106 876565838 590541769 156303061 616503385 617553920 793458618 206738796 36711132 131571482 329821372 710881620 234909419 368267572 452705348 631956097 671195388 101923206 192260197 627674820 433081561 907079022 119870865 746331659 567144199 602500446 992563941 986829136 280933884 420342077 729787260 22245538 940160194 537074364 768927924 162685523 582825865 384365827 463296080 627870014 242468954 259326470 856547727 981725472 418036421 916596231 334237548 981535742 254195520 337855524 212384702 296097868 267148237 258497791 168929451 426214090 636519774 227052644 23689765 767559466 814748671 623369089 423234636 626932800 454839673 652180080 523621721 124083763 151329818 700055897 708432721 737754047 733984371 658474393 948837913 584192697 376186962 135641169 656122002 918309407 842114693 89420315 817656865 358036563 457797896 74534163 460939235 794445268 451663416 436270242 424074896 478932373 997545955 15626072 472746499 640771430 580006807 691437603 742959212 716217378 588127016 721091546 657269369 102320329 725906843 476386740 926672952 356331799 416005778 511960534 381055731 779906437 848252873 151250759 868005953 823788536 71255287 407371962 761896320 364527499 701716433 317725985 52694197 774915567 536842259 409167873 510865119 472493237 481600679 199420814 946328165 15053468 601133620 517537870 337132679 142692058 102278750 15897215 496204637 445640877 697729287 668125105 986982703 747077474 987971334 847053848 699760785 336424267 770150247 789330071 498694518 700779711 891747290 159933279 209653634 430723304 644546874 873952705 344553002 26281000 203536643 483522888 772111104 612138381 692555030 613622768 322801575 577584849 937801139 842879954 684739885 168227103 401746064 808245018 701301590 135514543 591938193 2776071 395013149 119573874 44916817 357065209 34271181 275856591 455391049 534480782 681238335 761213533 703948058 709862497 938657519 473346420 819063727 96770602 319922735 738718123 400223586 285348553 92259255 740848788 314765594 669093513 93494199 934173348 837507874 953756056 29673043 891786196 705451531 699551226 21664915 833996205 148328621 914734940 666757793 759497050 905681703 389797816 332237302 626005484 849905278 218421484 227709144 459812409 747937693 234505899 78343025 492442213 25683210 226201834 677524103 464926244 526842029 904079065 467260927 292781214 745871708 634745711 60259850 570012891 320052090 845283584 324503020 658986062 624978239 660350750 328336586 393479314 622807544 680820683 274370284 564861303 338255320 564032329 113861148 53785030 985816390 940869473 161043699 153289297 148292320 580724048 781450628 97844808 876485199 653687246 642017613 506269506 683437043 626477593 681261178 21260242 871097003 388032234 195866941 262648311 649413665 735959160 191868233 90994296 468725755 500450025 555026297 573507566 157691916 351633478 89016807 447874704 193561379 690934093 614247154 15580630 225800573 876039042 789805173 328364502 891043374 530047616 101063433 870995263 398439888 398999126 881056088 544675983 503493343 801569753 643515770 915276811 87804170 65185050 994579520 850972265 941634066 427282004 943112792 651055005 402517460 730253355 828802444 368000668 666375467 509082738 240566451 847982674 416883331 138687078 117069229 890653207 235331637 730206085 460520668 18435815 598070902 740101176 97555734 151670972 640610856 181108831 530987323 561322105 29599416 633484248 168020513 281838199 115646733 842087932 535078319 878287226 976196234 825539763 226064274 933248870 722127870 454053636 351200803 878994522 738922107 250666682 321953816 725503018 535022481 770417577 837320755 990425641 74146757 246418002 926706253 477581719 489333228 325903386 556106338 976077651 310323530 180061987 780093754 471571062 85565912 315361074 394238679 381372799 495250858 917035457 926467605 720896801 181447026 360597425 924513731 692597327 194893888 676658018 690227793 428002680 104460794 705595818 896642538 767466964 332240875 591764413 279110596 501261728 266639104 506764895 7183502 929621105 321014928 702009482 975933376 921940765 167216492 708563630 169733637 496876966 682498995 104800469 639603676 7248079 735907469 259677194 89032741 168270292 652039732 500327203 5990656 718281749 99090272 642332281 31815516 785511589 824018545 820717277 454546253 268857470 715087493 627684667 988670478 151454020 388395500 732589025 271053198 969467946 387991727 673290822 603926927 335656785 11084582 583339249 814525534 690918226 585902982 378149092 140940501 45437848 340778322 512660530 215366810 219259023 207814768 694045907 700097551 98961975 875707598 878970624 807784356 25578735 278391078 155796505 241612642 215666121 863074837 358091632 91094672 690123345 24123093 759342462 303611816 51971305 568030016 944584949 934625035 709577065 536326104 748715964 553367488 962186653 532976219 442348309 175836330 347348772 528247510 496451883 869316822 287569810 405730612 320478892 218370472 18344111 679609123 870048235 898415583 471996999 622498317 481495947 395681635 675741067 942312142 458459993 602636076 250021675 130395534 79548618 818323403 38871724 388864402 67871965 434320545 704648531 845597668 707757539 878745128 606521985 507196334 943275804 529410572 914619852 821336583 739314602 89435738 654151152 518403031 697627802 363681163 835065754 983878782 242072753 557215605 743961276 359670497 763751746 520048769 354906921 614899837 410960065 536373538 826700918 55970899 886884971 631122867 812465674 538762592 902189193 194689651 9815698 727859950 531068494 662418906 520853002 782458627 781127609 131365852 221940345 246125315 704351077 410712194 173284121 818551794 431088640 843417402 340283288 713862269 994586799 355643458 957722357 206858713 878561183 44774029 302318253 774972647 835640576 441427997 167336694 185116307 586213674 417371467 123947789 29414883 633237168 814626419 167412550 818672997 635206838 177759455 592859273 744551633 791879380 248609914 980936103 938207293 667466834 163553691 513881021 263826529 774647650 66632973 54303505 406074718 470549577 94544738 20486964 496489593 834125536 188666320 103517924 135570888 595576809 775227205 30568432 29572786 847700907 468234194 994658450 332800617 872890642 196238260 559882562 691250399 484984070 74900548 307865144 787179346 923584270 349246504 892543220 564432858 609093952 327487849 400630802 608920480 726848441 585832083 656869196 985666620 144546974 187741053 101455654 961487302 299862551 389507993 239153013 29617493 211998503 927997219 248283227 240100102 435641008 353001539 933279565 111752871 522951202 113224293 914768556 466955340 796331962 431734899 156013215 43507666 109377310 270925280 505193684 328481055 414807567 144995470 356253553 883178858 156171306 789836645 912520562 785494078 13960503 827501618 424032007 217524058 695608187 602145658 265280563 351453225 442634060 546093190 438762681 635991960 841147713 9883834 59014999 595703838 171036445 957750093 908025438 408573378 888280747 921941934 171189484 279364500 366422083 290402260 228253297 716589675 283444907 979093045 674205368 824156538 595712835 651483713 877090694 473183767 712947409 72112346 875874077 196361267 212891426 299045360 692647322 376387869 720356605 585410347 997984192 886551374 611465752 443720830 773235865 63238461 461978013 799881897 667233080 663298540 767237676 245234460 160469059 87986732 465448456 528281258 156792174 620527361 54784647 825111357 178730473 254773133 942630370 592743103 358272086 688074162 951863473 981302121 82764602 858590925 973945976 48860149 157494493 238957974 114491973 324617853 39434368 536295242 374785149 259442842 388835937 84151296 427996566 445866095 452575489 737749893 288805323 22765179 128107520 262153992 709996433 431212263 81999375 510318820 124657161 434260951 594239191 976983088 387972161 586149806 744048226 140354592 530499769 263303282 404536522 424476553 140620485 501312379 128394733 132299054 610449273 211099443 995489315 207100039 767362920 178909472 814691380 263356498 119374550 59222805 446793602 227862282 532456880 197359366 724139526 505632912 218048382 291208457 756110604 376559941 724033540 564192333 762178980 647616749 104998890 218740692 53445818 789887379 197378570 302682751 493297321 850444541 772543356 568379263 892980305 986751557 352310284 487809397 574867405 357285670 527478311 221569287 201095095 267390060 169083916 766410242 721796464 644573068 693512051 937269936 511905205 804460879 454012866 526971426 437951660 359778855 888509512 119121026 221687761 919565552 180112582 934413042 185161999 501738993 24069337 171142784 771225749 281744643 96902072 716158775 594556848 277666922 565734632 199412973 56632121 986139728 24729265 711422199 93073794 560786482 37670827 323997020 788238681 722193225 476758211 32578213 611063043 907450038 883581363 496146386 244846044 558104695 315591131 265135823 582707845 816234730 405427341 780884408 103693238 106184781 191574094 109454996 951721357 690394134 595279173 66094525 475765449 915702246 893224618 813523727 317297959 411944637 908476509 867599368 48951072 546212932 351913603 128086505 58492520 695387997 241187376 633535761 772569490 762923697 751621200 603789712 564392330 990061480 568478457 976882963 979865875 287758523 98231471 747775836 607460400 206613345 210568232 187670629 489337320 399980638 847247628 908172650 200211704 873516630 436183510 368469422 474488531 737914558 474161543 806771608 580128015 724578117 628704982 969062999 918235131 582023423 156418525 233138662 412504610 53050577 932184185 854079199 560775818 814650658 768553916 73520918 612925727 347035047 783423775 843007545 421756626 467744785 431005934 884670715 905702798 941076754 266383610 42455279 322682732 995245604 274993962 267558263 553098764 268784403 637227652 808666147 290132442 752295728 930099414 69344982 682510798 524444553 782553156 371945424 218421553 394963009 366153770 725498693 998504710 300785759 535974629 477414444 709485086 370665264 523818117 617508812 310987624 132886007 390018227 514368952 760536917 812192715 447705979 949121560 481980096 56616618 503175823 818440796 385430245 27772953 144635284 38389907 902794465 321948703 760171372 314151165 405929691 318264262 121414420 47932448 809737829 997528508 400384567 662290793 705841180 900449099 967575741 766850442 520479698 512085234 455804648 947523824 930842406 802821292 653311304 315772026 564592199 632981918 405940446 786712605 311465368 247390252 346326703 878630519 794873400 887907556 666061853 271164587 833070245 690136532 914611679 755016982 492486923 730894978 384430655 216050369 527694166 600313414 72661893 259510473 849019296 532823566 909667847 426728610 848611369 75405100 170986088 843848725 62606773 640138134 633129327 252496374 793762502 978972770 28738554 748909255 971401921 861094382 775326898 216462853 1550361 646915609 470188762 113712596 782459010 675360959 154104885 794726057 406033954 792419850 496167023 72378046 601896186 639981394 738428984 105362612 28234053 472317495 133266697 822775731 558296905 780293317 758406734 380300582 810392529 78321797 29542609 73519001 873575265 346513267 977116150 416361108 282567688 598642719 491672430 36221851 898596548 671733961 8599959 585238115 367437199 577363482 111948109 497787696 347083065 85057768 844151714 115575561 849884889 114322396 412463876 770939393 832122557 216881904 660604461 986997078 209845184 733287893 82411872 664223317 274941460 148186069 354361739 748312353 748464325 309513315 268589879 993832280 750649236 445853748 538802853 863087525 385444229 815488945 276278830 808432684 895147556 970615065 656655712 49123991 763673707 576727268 851920011 129599505 532575048 965867472 683739610 249725886 356667440 618196576 52282711 885530675 490623293 638618062 404584972 102098749 396420532 133079292 434381589 187193425 90870229 480360073 117021824 182470208 543195660 689543385 602167089 11009288 33284921 155789082 511188100 877231964 166057128 478422874 900228149 768129168 427060776 124490628 933666676 517684241 545948993 472736801 101356539 270117232 752112074 37009806 618474259 884858332 520342915 259653513 584403534 101062191 170412460 593474241 37329796 704408053 447550256 888726941 147369284 519275538 551109049 760308341 247101262 667127285 770774504 788626291 946499483 410674620 760170871 585452066 243862650 437319683 492977996 90493982 20394171 859977531 558811496 21103707 373774198 974770341 889653839 386606961 267473510 530128843 503852595 677160519 68294348 143663396 54963118 883496838 237173387 323694519 701173537 552108097 850691499 307942995 458856861 682269529 724739955 32462384 90230684 733414395 367402193 261733897 863279565 933010534 942084354 425095299 565056419 435899389 587295231 497742854 221137093 784004326 733223820 43224239 606924158 601647524 960902419 790814904 66668666 826737562 764582001 676137627 245348989 626014789 580737390 627503284 307371441 853987092 998287769 991413612 448474811 57441056 928280052 645783536 787395240 450827941 690094777 60978181 21106272 329814664 428472666 649925506 52416423 147924859 696870287 650853832 103879302 637041015 586043540 677236731 963727306 656841908 831756053 142585391 621738835 592884146 794870463 241328748 656153856 141026304 104631097 988423943 864848985 63084387 116703389 95441636 146825016 220786004 952902204 115522453 656457279 858804181 893579212 18775238 123613831 702336631 491531945 394895383 833545763 736399877 314213269 88962135 672481180 976268740 265206635 855288741 940739980 323532192 403183100 984149748 778575571 993089107 176209831 352424249 857716705 95769967 741556325 180958535 393266523 408598281 253318422 236876847 255750821 843451980 131975064 947184347 918985989 300727370 129461938 908545006 515713092 732113908 876609596 626485273 757012105 487383200 691821596 97752610 36823717 217912644 225070556 360909540 261518159 498820037 589990246 183444793 800982521 876599256 469688315 318563615 754844354 582077902 8775766 166623193 795011396 262844195 245786350 990922869 45486534 407574380 832692439 677062929 799400011 769624731 742747286 966261158 925046695 478948974 308569896 665969137 914073384 827753358 923103097 278680757 359809021 223896627 903995716 302398746 460314876 94743823 883524975 67958887 181633072 953002602 661651802 720108120 682294974 435308285 497771652 838200752 999488135 586338395 53263794 959918465 396402833 643972818 660894639 779295395 628275561 601761847 23025506 408924067 741210323 921814054 837257461 507487997 345293533 918928991 344012517 419227302 706428154 955812696 143673251 617303414 518559866 219155958 419383139 20487098 348590116 279190549 143320299 646518366 567914134 998248703 434447274 714312312 290442588 866203726 158748936 960354417 102582709 380457364 143192072 176320494 936658487 959288209 218293198 974457429 375056862 78647504 164558775 245647695 375364988 721855092 633271826 974290422 406094308 848030936 595776174 394043542 780742132 378232493 385502995 166568470 553209078 366672167 787938049 712337430 899841495 560345074 56621684 123457438 699139368 721779058 23241703 291289346 184418758 687374424 311356148 838515480 997955985 898984289 956780586 991625986 690625023 390976708 541337238 430604862 605600366 70521961 423942723 502889149 835945127 573026562 110020243 509714901 412685948 496491828 451184291 157356790 162754148 697811499 446753613 157427625 887453560 55410426 231735217 268553009 507178118 389254911 385297197 665303940 651281842 901142227 339082060 16926123 42299219 123005144 621172722 389011853 427416287 458268754 63414814 473924207 903274099 382529706 961069077 244567176 682708312 273343514 181203878 781886577 436924922 247047827 547485493 393457507 529483104 932826389 160940680 893207470 241365056 361517332 106994373 786104870 88878729 779571595 119167058 244526049 528453382 392455341 510790093 765125554 819737871 738427921 229649172 455208556 561557078 983519888 819974338 963239452 748110370 185726664 146200542 270752634 331323543 820117702 599108332 915257715 663644891 237146100 431815161 554249124 783859573 949268793 508695125 112033606 597503785 110781863 487846441 237130033 721935849 138593880 986980374 870600765 325742375 29562495 770721612 565392696 587232283 411486706 968341138 320303487 364299936 366835290 469093199 545675136 132854393 607507846 96334210 921990138 503186034 576693708 152484413 710322109 201851315 853158324 247367942 380087890 611908767 814688421 852430645 449032807 823662894 170250556 657746060 499159129 37562709 375619230 312885185 385698380 707423784 232391431 878221577 364189348 980880684 998550261 958566381 953656039 620990831 368684855 536599073 714947465 372521126 863631155 108932618 84097674 352609291 217276892 19302404 43053833 3996410 927076922 456499583 384797731 784139595 180682160 759228184 596072551 863809527 54278338 374359636 926070315 957763800 296506164 725959255 665578390 631255880 306261703 257951888 820795029 138670745 689423169 40590375 217675637 107950593 584484399 212879224 951458483 35783214 268455131 671032975 337782328 503682409 448501866 595612769 798579029 928510110 29600700 430865665 310316645 674907055 371213142 192890601 203434578 627640337 938831802 877267545 157792577 304212159 417001231 780032130 993680718 961863624 273505121 334725320 732594016 970362760 435441753 574155347 949326236 785824555 453336876 535757179 559875674 663759370 68949123 887090370 782746977 650839176 803355845 498082009 285885750 503047351 666456009 564981630 563863410 84877302 783233069 50090817 250212615 479167401 955694381 588082574 140789873 31832125 622333740 946502772 512916739 85576850 140011243 383902614 795622444 482563625 499704699 230172901 954874041 609256180 16951797 397006603 364864709 666824998 228493907 70382791 331179029 315006051 863210236 734998480 981757868 384374875 398613112 614032011 785388945 103349825 921995119 642652712 363747633 705640747 953561609 151073355 7984790 190293096 789500454 457461041 129344544 639604611 258923050 560248489 827849195 354190463 126018439 855807692 448691953 353987210 78428051 452408718 941485605 182814626 506328763 41615372 638076008 251157900 179341584 953976020 27453563 119486123 16795838 532165745 942719464 13814766 929358122 448784309 224582424 417256006 100881854 284803593 197467384 389290326 92332387 693679694 710802239 383599196 969710578 965743763 887071828 565109753 570639105 417327839 772085434 45090109 835735542 730036953 749548727 692336489 626742910 569835146 441789452 570576240 13950398 964578580 221553986 489384569 89644219 432012801 245640856 633091396 35874867 275061715 186894257 354735163 839086753 92257766 744905314 444595362 758348603 712203384 305484374 413839559 485168564 641123725 190604606 779091467 841902373 753171759 739984018 562059903 194737345 289215034 260351172 186415395 783677614 450283491 860305661 664314290 896478002 339028940 686073541 854875102 202444926 98744442 348472700 901955350 715940193 858420062 122881115 942120461 312814627 508924222 999871188 611338646 783327308 577733945 145207623 340988380 665454235 966441941 897548077 317284192 200147672 565938835 352088749 394242015 508678880 429646820 713150059 404186331 460716538 483357065 663811711 285084549 947836237 20772326 478569630 18126204 212372664 572593954 636473592 747440498 433312391 153931529 479241523 706803082 694343432 427216036 98572168 65278602 23242453 896788777 531939224 791248812 923767340 675518359 344732052 837171511 795171185 206261387 664078548 363516133 198400085 90472093 134475041 418766967 488191731 580510562 229036368 655276164 47077703 948324875 69609003 303205323 954788223 452069554 671919527 711263018 950688448 759293161 642342445 257447881 229781109 312314838 767343489 597109148 504861894 83718148 271088023 225098162 943697777 736363433 571200049 375078701 181778387 617973504 512849031 140711900 883451215 937608054 663553664 805490449 415462854 431792313 570637496 966610924 444961905 569107539 91714132 770040906 974828301 195406595 711334950 578790395 979218126 323503022 268722803 919695708 467269918 580909289 771600683 113414517 547573169 265805912 184480624 134642062 731567657 533368600 918888568 851557330 571952386 663356409 993996891 332382543 270988709 360736214 177094392 92940184 585142275 472005202 147425046 6251773 530338170 384154415 945716864 738825818 406650179 297135271 588291149 53955745 382996820 334999840 215427565 143945215 477734574 551853 59158966 637315064 845374620 958074814 691821499 630357561 269305023 737914942 829868784 406604199 289096452 344727098 225754132 979279676 3126873 659381514 88730268 799679301 151966998 219392435 297173249 722643648 169315000 795651972 877247509 98529072 676176770 19442110 440224840 527211456 747477660 921680406 372856788 126058931 245706989 54980947 359283847 395800381 385782857 273280100 155687254 339803606 668765145 512278034 597615875 458144647 741482032 704024646 136045140 436036060 921044706 494803382 582955246 489236926 70184687 588566759 377327554 940684944 349720173 130506788 70960141 950701027 241384611 565331281 467951724 119676013 870769001 723287151 92424691 781673793 513911789 493007857 704412198 298893329 455064664 57545860 74715625 604406457 22686820 535441723 105492898 145696051 387114933 837673479 222008955 674019905 968148371 661450833 812116368 314848626 512525944 861864257 474313533 362768648 313994022 707986122 688360428 991105073 59613902 557627603 356335766 876493253 587226381 306599009 895729641 241183746 531340377 154197368 501497876 14395795 976224062 414018727 244889623 171212525 358022871 435823332 964017868 375941850 647906739 332648801 704221759 111677076 78693076 740143730 762268172 754149326 259692192 136102098 9550254 442073903 307692077 510008106 341105245 260690878 506765971 342736451 614055516 178714323 118455561 566740262 533583030 575081615 902973205 972788376 298906871 117869575 230906424 770364706 837209698 406955699 712029721 262367233 984736683 622313034 631363441 192474392 42579616 249926388 701059874 614492119 470183482 47727486 943591521 789256517 935548629 630293307 44331517 686264491 643873393 812377772 153612733 322877826 207663025 836705598 71232288 70014299 741258984 419393649 796596224 538085950 778538148 315183248 821271122 137529947 839211328 258510260 373582060 302844177 390916491 494386240 363971175 281257692 443136651 802671029 963140482 767914762 94583681 672245296 982127199 525672141 139693283 294107967 234492337 337197685 243721277 993388232 126619718 183439731 400983127 763947507 63549115 45440112 97446039 685346642 620449269 353479826 811593896 150677623 736367721 231526490 139436805 990864133 954349470 791141194 959861145 467453716 988458464 171549206 551285027 978570560 375225299 339149905 648387536 508076240 90678633 304024023 340009101 115342020 687841968 628924500 636537027 205374985 302663176 432846224 528857939 564546405 866518506 629188818 333604765 448355845 393153520 469307081 98468213 706715296 924146574 926355879 522410787 541227700 840214215 702920545 640680921 920004879 870169590 636790750 928734285 531033117 365850395 243729916 932662679 844786070 840923934 235025904 597438093 291649182 231869334 456929271 833092614 838039422 619577312 839107500 488603183 433749947 200524739 438832991 869967005 780156075 396055567 309605846 133383563 217027426 339575374 329588770 875567076 139349034 831353034 405061642 176822615 691181524 470488417 988109226 603208357 77818967 466551639 42680036 499502562 288013866 999115424 950410846 627091505 298675981 266076925 594398031 663097739 720609805 461575584 418638099 691482545 515326490 609912068 832883794 275273365 373274063 895957053 421083923 593841016 376791167 478087772 801309067 39049472 384957607 542617122 221173019 20991574 536526840 243586322 672731020 330277609 170252259 949606708 229031589 13731289 346270008 273038137 995854884 600810820 248507587 491064163 206776902 33583241 678108659 906732677 246671818 623848952 585546319 302534138 519966144 546170883 953474360 289093997 367453577 515006487 219946409 436585749 798749791 630558887 988567964 164400465 25532199 887015257 610100197 328760889 585028210 986435564 787057124 977587537 289843974 928743697 126874763 432439305 773253021 294277283 492473766 776792407 985732740 940569396 948118520 793049676 856685328 913109998 635283246 40936194 861668758 552571859 423950670 705690621 482326572 712225459 989133334 799386633 609971170 789012867 149529923 221409538 497394801 48305810 995867533 3649573 460143117 271636742 858286869 963783206 710523558 17504554 773930733 403552392 830645253 540552823 870821573 922077385 533347181 539815503 509998414 239195984 495849354 272410697 851269353 2975682 566844438 938115249 535182466 544000150 604564038 3120509 167324702 20029664 966548292 245948036 521539129 477548814 718590491 652143283 485631173 994075945 491122441 999839580 701781927 205506952 123608038 938964140 11688544 938655725 150769704 772004399 11278951 343887603 294376072 956164821 845845556 11206231 717518395 696251916 957666615 724740262 818516437 354548668 381687562 632689453 173379892 775928680 40741542 764056236 918925063 189189554 58334366 3036680 509596748 57213023 646991417 653882768 355563618 829009 48157830 650851764 723483948 709572322 309844300 387794069 921401297 928384302 60443528 473683824 199078907 282834454 486216851 760867824 158163528 832572144 555661649 111771543 742692011 862838888 933428179 31219890 255824005 868295076 738243895 343198372 678187605 155768945 851282652 519333570 439545250 174200973 330984049 779779010 562631928 444377717 169342793 4875635 79985418 575131143 39778537 307150438 657474615 236524311 431701428 674772352 847470975 454350796 58376592 421885386 33804077 458963501 459436333 525656118 783366911 609532127 755484179 519321097 100727118 570082596 891801788 237449080 551609934 232447570 885467926 962027605 774301264 699692265 337964931 859547696 485304942 812207110 807324694 350839076 864243181 208445361 233649464 458954904 688680229 986823056 958235470 378170468 164199706 930913441 292870687 515734975 278211504 810792893 225221646 122237333 41794188 839653201 849175717 145669104 286795242 71209798 766718570 235685991 908096934 919695739 141479972 14642724 564623914 896974457 788615431 692091891 446674646 328587748 499819486 536131995 625337190 938589443 803811181 791756666 989076423 483015939 759804705 474843036 196499043 329180430 563624521 303665351 223181099 272625907 767939187 674243530 177362491 568055561 163858658 834187471 152777669 139767257 51299678 721841386 519273798 320440685 34942839 467380882 730121413 490668859 677274697 441446844 777037057 734087054 80447415 127775254 794068578 934421654 891756535 741099757 567585276 297223521 365522054 750148074 481326939 774200966 166095433 55326273 586540062 510624595 959790419 938913118 271049427 486910889 562900875 922493651 43680744 1418438 492855264 518963100 96489188 459313188 41867407 627496346 814480266 599608691 213632721 177362915 135649464 624557210 297867418 71947878 254091210 833926300 191889499 650539504 784220300 311393100 971375925 451018754 719513185 529951026 956132843 665054919 125674870 939367734 744610745 952691964 446299883 470140811 583277630 874687037 284463084 400755106 975668347 275127400 840663171 12298091 51906638 579603043 268746592 924398558 165278885 639349745 281864073 23398234 739330119 881484882 674068144 405411575 223599052 402226275 270879167 685562850 666606711 226241206 910894282 804650224 978326994 962385344 384757455 618291501 519057303 786277340 735958331 352990398 509950024 990032886 957661039 602489166 886538086 808376916 291867585 339020313 986376840 758329417 342139013 436641055 45937979 371264710 360486875 694129887 770116243 604718083 845983761 160768546 768999106 465459582 734935143 57627336 171625909 710471351 1654476 837692526 369926837 388200940 710202330 629323403 444647102 605559121 825426048 470360224 998775590 237072585 715697931 313046368 202704821 516979289 142168229 80614350 950424563 52032973 424584774 224176119 78751987 533111508 929002131 120042186 521275339 898145223 871763102 864615111 935564343 542194341 910061718 684890906 638784484 364139659 505092720 2643116 974027683 252787858 829624368 4077640 782514708 665133190 685750674 219595277 831203583 444810746 963626995 693311234 843303784 47195307 722434627 991672329 902769704 331914982 784997507 972695809 381620071 24587371 328456081 123609149 308794940 552683984 781856424 666956691 718292756 813797286 905111692 876467545 53031774 972898170 59421757 593810638 812383223 184454717 90027720 164121733 265150042 453010626 205346590 40859440 529288833 244163655 992568938 245810932 257727416 543110063 955462414 408241496 379428205 6573266 400027356 636907218 564824567 619721707 843719203 431510653 5701921 35022491 491106490 372232830 603041615 14552544 25367492 370291130 52849950 196100530 655371271 435852635 812723331 881356698 962597856 320656557 487633791 634318544 123304711 149182838 278721437 779228426 957428817 948079950 360328826 901818946 708280712 299239937 562721203 250650906 559382384 189357777 589141293 141414186 512568899 375335385 947763322 580339541 623215183 337119956 356821275 432839446 925051411 886200099 330167502 239131634 780912211 260994902 627414871 256575464 624547108 165364741 348301148 78254888 580111571 459279431 488030152 570103488 965760459 474536800 798617252 713388091 641380879 757156539 415112719 470797443 72469093 950657472 392791228 711834274 973264363 474352161 71607454 303673901 183646355 751298057 347677526 307341063 219612644 181730999 761618804 20047628 870176704 389527949 199413928 196029976 702423321 496417867 156875036 579787685 596172117 327792354 454627615 885919137 941699731 325566811 84927134 206112424 274261540 988414868 867718680 492904023 667757987 590970018 776818589 958612491 879623377 661083766 426259922 76611980 589110449 63861891 109012701 629328559 203734203 191679709 768328071 309556526 816290272 706785427 77633391 98860740 760538875 522644251 389624631 869183472 118178423 635024444 217636765 141260701 648426843 6159921 790496502 363645221 114107385 249495096 249859892 605652854 516676089 582700505 607030717 377916538 450677831 142256306 927514948 736715180 293837170 706593682 246232217 605428695 36723881 743545261 221968258 313392317 998475049 773031852 603323797 851289380 839882422 933043002 887956093 262340694 969921403 195508224 862935616 741856252 80237501 965694399 536530716 933012818 228673911 210240996 529820840 419339840 560954061 996166195 356444020 583789090 280647311 97059515 944678002 668959438 897692834 783344432 600974183 694232211 643242069 734620008 264040124 245275414 579807163 338740166 306555584 749787642 135928641 466373762 509576226 636905726 571684143 266290361 407665511 915053965 323775868 875626347 430161730 326637077 243201982 641871746 732999052 415168721 993898140 652402862 133619311 440156499 891832500 575366665 118138353 193521746 618580952 208207846 140164464 716000039 529118779 249750737 99346151 680484512 172583483 261705882 311430239 298845265 133096014 282559232 48181739 650192086 796259633 472117588 847104224 708373096 188725503 369284654 454409503 693226162 9016144 829148432 887975824 229834736 761521669 558876699 105443374 359425534 133051649 783144 964250077 317733542 364523058 401344161 815180102 381764175 197686837 900650056 346152931 709652161 288419120 420591250 748362625 778884874 420503358 410838190 115089322 545580273 306095123 963908656 35794988 48767986 462773266 711087812 725095589 835743770 733233856 90495607 587385882 866825574 577000655 868300888 69765254 2904237 977119745 698709688 380356053 453330687 576437161 832591780 127477357 501416959 418292433 32601956 163356518 810061385 114435008 217162385 907382973 289352171 130481834 615588520 247570724 567958901 535580994 942392185 391644413 934032531 524931620 299554329 195295146 595117768 939241331 594016540 452099203 321752458 755259701 215967440 655191936 832232551 527448095 814331570 667839896 447804769 840160958 728284596 815634568 795700091 964077290 97054417 846670554 62834333 573370317 46265962 600793086 277238351 41583971 374618261 607894661 376705440 512250202 646228139 639950291 167337691 123521966 735983509 478062459 64424664 220320490 399972638 567894540 527311797 692720277 414529630 910862013 221905862 596789245 242077856 58457376 821731674 987866776 779631256 260381699 11754349 187093031 263580437 564661279 368765140 664448153 830027240 633483432 270498185 886088045 15672836 804183134 195994330 761774891 705853002 384110764 190715819 934902091 267713787 675988150 893301669 295892353 36398057 54924554 638721048 689085866 790713569 530267436 333639114 455680016 456581339 72211730 407040254 861235518 453604055 605084266 645350528 617381838 220803326 847870268 946836550 331002086 834413131 874858942 184803983 137325657 86954353 734329031 716841536 833374701 549365818 345002610 536059362 358247600 769807398 92448859 765569083 610976448 29013882 629326080 644054489 863866473 551365690 985941029 483664749 898906357 886218367 366129091 745166912 71512609 500240537 163181651 470324880 948396216 94577315 657883519 505179025 125836071 418794183 535386238 224377300 643899377 271894342 903520484 712563214 383183034 301306196 540808560 45680585 918375414 116703578 500418409 748983253 726323262 601954479 770886324 188435619 427255595 972207783 951347323 213076671 149466193 199695506 810206152 899189800 488995641 166753720 81768125 566612211 182005446 327276865 883634231 964618684 5240918 410503359 99579471 298133026 607156451 7832833 890552562 368643651 993325325 202709275 875312316 153649439 164814640 310412477 290804295 570155927 134337515 1117799 568210951 96790559 970090971 610458222 726228608 981943386 105275587 868703869 225658267 641425970 634016078 632658132 54495271 460758677 221279572 736413061 467243654 971210 957953823 83033329 137345104 631543093 821854862 289462058 618747998 670743079 519344716 724997527 865462167 831758311 885792177 192413216 717479921 273718611 118908516 178152857 414741855 832275390 233020840 7019711 100989821 55730289 24930955 720966978 96852614 559827032 635471028 270141415 236777197 143086249 358678772 60999028 259037500 713695757 685653176 74077620 200505002 773832966 881412467 812621998 249846383 972497664 677863927 42796106 531444430 150731156 181388435 406124109 541508894 814119506 911506118 56992025 803439075 747081846 98283991 352535292 665470054 486575517 854229005 411579072 617441247 875414662 762276511 159720714 756850188 589665796 581678366 394160886 957909184 695902263 635706947 488475589 182373735 546521283 968539704 134701710 250031789 743882868 63847968 807812293 983572092 279996762 393366183 344833470 776175476 298201174 611571249 497981715 266880536 335679551 226517737 933300867 792007666 149782745 197773589 423808337 6684099 301395307 601950614 891981361 951999762 757095208 186404772 670214430 204339450 816155930 680840955 283616799 404634766 832900571 280973085 633118001 856352719 559719073 904936931 499790295 605168647 948104437 952144299 795018875 315843005 221177405 962314213 658978716 640402265 655450061 768448210 313596770 96733597 552312959 35198499 509999378 825892619 110204885 41340299 293354353 567853076 606596454 308436481 209733568 658698522 742959988 640858498 305186021 21391260 634213274 953883466 731789756 245647908 304445470 166053774 598410483 125260097 277444936 453273063 773757928 917881388 343204036 75876635 270743381 423899445 476957476 293876702 917370257 740822563 694941469 268568647 886112771 941163805 540215679 542977533 606681129 741932922 191405401 733381860 862892668 613734358 572817549 890768035 687265164 816676396 858580305 820789889 973598059 248924018 451163348 680304969 220385087 601486746 723482136 343262772 822607442 605263721 122864488 459175591 95706636 102279137 77034213 747882099 277537392 359348816 79922167 5514175 839733937 677599002 807739032 808514951 902099584 965986128 433767577 571071244 102851734 408257039 318404135 42838716 972853829 723887657 976337532 729311852 770174650 183500473 231054244 733079080 307714803 181783675 198412764 887408056 706503068 934827868 685685558 575822075 370751552 553286376 52065820 799120953 744937047 500875066 172228292 554345578 83254106 746380307 212247400 371286024 496796186 572845470 222458343 886497304 273396274 452120992 693699173 422499663 210700688 541768127 215645291 584999853 25873984 799226746 229240834 562239140 715585024 394399954 306152344 568557616 142697581 794920106 540811517 291659107 947050546 706731828 547853996 529118096 888748398 569577455 437546688 24861370 256609975 241457662 721686702 610976700 950964167 600549774 409635181 733651182 569841803 347522441 989637215 822808556 707791072 785553858 769257580 803944007 671362390 829909373 544854231 971271721 401600194 693536648 581876303 999162400 973630566 777718337 556113676 6545744 934259558 533996952 325764034 416669924 226578960 440743664 605043572 414525964 921488974 441743758 404415187 318002885 17032033 660902515 812101628 806636636 232064584 95121861 509771172 854126109 468515293 995041424 804264668 365161839 310045496 546650363 254314434 27087639 438920781 695977403 373053603 807608721 445844787 387701895 721741250 224563853 295906294 397426980 199831179 778071569 917661962 802443776 759288237 10169967 985884052 60703581 899395769 941781392 535667508 957117956 294601348 821960384 563018651 276965748 806861670 879252391 25925314 915392126 855492260 482257619 70751287 238550032 467735300 934512033 243179935 585237138 776721315 301465673 731357508 835157242 910271278 116546936 885845843 427213767 808894804 834516643 884827979 832116829 550452848 148928554 582038372 810543697 660920308 61777522 592498129 266605442 223853620 607870364 259600312 256342947 787921259 290003244 620541773 825799678 212008947 711669626 859098780 35378764 289119011 771932983 119522637 758136575 493621786 483591623 280041149 155284388 849976346 865474046 330398808 624703542 421503059 83961084 508682897 698310218 322312854 623986381 923461009 940821229 681039512 887459839 470926388 123559959 794047151 223648198 855365607 6663248 333132201 804341057 416385663 535475285 771697590 678453319 748968712 701548217 442868463 249770129 177776875 203386677 253989426 288613649 582532720 498215305 532644990 390969853 526750709 326392145 954850341 939281925 341334702 577241314 793640766 681698759 483480689 444050192 111290250 548954957 281104564 197737682 273121383 215156929 331084277 191059345 934520313 989220956 288370304 459385790 584111513 740891049 630025589 777305645 712886481 972785576 686916279 654416289 693322006 467561370 35306309 465243363 69632841 499720370 644461597 775929518 167801245 480967814 124271811 909224150 932918018 666200383 31351170 264737047 676640354 919253032 782374551 718809081 35527926 503767639 126724574 660454738 54227231 539907242 708164031 296401811 981832709 321257641 692533281 161059718 828030887 760038503 635485347 92755352 191465190 427180131 522885223 682308597 415116990 680049956 364621336 199153329 342195493 349096343 665572588 613881418 514948045 438142889 88447755 509754350 21108341 706314690 76153756 80740354 167597647 888499855 671586466 577752122 61764441 175558805 442867027 527972747 304126016 175744831 106624186 691344441 483926257 525515146 970268900 392139401 641379862 149965739 498202435 859696366 85402450 222924391 296816565 540665074 155448817 806743024 214214467 918518079 212686464 843031758 702839829 615678421 599067339 727840767 983794698 460749472 37633552 664275469 179223711 597329591 353457018 317190234 34271187 457143870 315621208 332067556 898869786 626497757 691439800 828770914 491559568 877748307 829964840 667551430 660585731 484572378 210842111 139970478 734027671 844513642 217540677 866190426 377007773 927747411 502483985 158813676 279469985 933663067 668549258 828593590 223640227 629412772 911248385 33078450 891892378 898957659 949423372 416807476 559261523 575691736 112257340 197061479 753948594 533451627 564651567 345165592 529511714 858494481 753223930 55121551 875342290 683390555 482402085 787385214 172908186 702844233 484174312 288004889 556361418 117035718 745547844 246766755 822053625 173578255 316124904 584783961 199368132 108594747 831765829 392130872 251920156 779417077 582398335 653979691 669201578 132682652 388719614 319695476 671778572 873393596 39996968 712462668 264150069 766232867 20329699 333272748 599188939 868044019 582805974 808215864 879328665 566530752 985822846 319590005 462966113 119550641 580852839 754329125 633023321 992001558 756060321 893209866 835758499 425362843 168640845 827972828 663944754 57525646 997492509 48505327 201345742 697686822 556464108 308457220 564526038 706792184 153484431 554048120 873764108 801630074 257655704 284822418 721101350 773878337 752568071 201825888 442762542 777401042 437936920 573339262 146252545 44791318 35849446 772168859 871988325 716519280 122786415 982589868 278661641 487418694 761806572 80938251 647710430 644915108 275242895 411316020 661490718 850182666 779814358 129758932 109916664 68471058 313074490 511699535 572291050 55055515 35053768 699634312 974732108 474606799 908193620 580362953 740114293 328107334 566603306 65005082 494620660 255679746 90651532 747370545 905086720 152181196 453812451 800918334 715821375 807267856 667383747 32363368 249110408 612766933 888224027 827985966 306445142 601544702 273120969 205445214 374125182 569217484 393169836 37127667 937141641 777523667 5608342 416894742 520403343 150675784 596377511 569817272 926841901 773907243 265001631 836690073 674384937 700132475 904348324 457384447 813271380 781251728 602338686 38371939 54831244 175912728 729651588 822594809 726196889 832474251 45855460 231614633 69640398 610723439 264676267 756442279 799560546 846745877 532121060 855096530 906929120 61252543 584009847 714803809 16744563 184204134 438071837 576585415 569720813 566783461 974288515 839315974 558258656 174795319 313634983 817911970 56874958 334367620 90654910 45472158 27032120 624172291 68532323 705692862 638146426 198710493 460262999 362432031 967838079 128353496 406516709 862422495 63738627 327291503 903771690 955683787 953366842 212430509 476002736 408966118 999902082 541701073 271949096 987720861 197552933 226410410 182824636 920684204 55459316 49183914 414285123 900761675 899345774 570188496 269112392 219792365 609299322 289648522 779288336 121030502 526837583 146098437 946612106 804863759 383633976 663094721 684204398 211015295 420838066 113991949 794108514 429632656 261482170 91163518 69881746 48401552 770144192 417178992 113470655 503024010 740566008 505014757 280080869 860565124 419323452 649251747 773060752 808375641 540455360 484273595 672197615 479743230 720608660 498970679 823598593 909909266 407479951 353954006 363674901 358333437 290816311 463123601 94972658 960649297 92623325 381071471 46769594 998805404 88167714 678599991 382490878 43394882 556072593 858993819 873759728 597914509 597383597 316902637 673011853 36562808 711596740 587730863 742964274 476138805 470641463 31401243 731695777 564229130 531274746 775394272 73491465 21684238 45556523 681352603 695284976 614778384 495281211 483645588 85313891 883351978 103341587 776786259 702574202 258590459 378147373 595569220 193009177 381265918 970104167 706099358 953145506 660594606 770198681 244794030 773854919 75088841 643287631 889039836 904769169 269696978 903999224 429381278 202466925 311459192 635980745 810379411 349549128 294773034 956176112 885839973 355494897 539525247 20492044 278333219 34696039 798875163 261413752 449984647 339740301 407337702 876810591 632211172 354599702 57173208 604178469 624723873 405581544 37233461 799468055 710699928 435053026 674399643 540311347 295250251 832287926 930276491 503807102 604098612 541732621 677736513 290090789 742104039 304719734 456093799 234223689 773493811 108426403 917883711 288020928 208168496 893068345 731521743 34016722 453884483 356308585 481650340 244497249 840802070 469707996 382802349 296713715 397693191 28454222 446613966 78666597 683103506 57822777 406281542 998021636 620925578 454579367 334374950 271077680 152228864 283291773 472623247 755194598 910528209 734758512 766928074 435143063 631422288 918666327 812949660 118432580 981325404 30991351 104705391 452125476 950544498 634801267 689369727 290154560 636206072 489043877 943799968 76952715 633655243 886962037 213710127 993514190 835082183 698160700 665849462 84747103 392224807 936123894 902093484 864273232 563078415 701594777 625545894 29816961 945112843 944645321 382037367 910314169 317310060 428228182 220335188 486963932 418427896 402027215 889754834 616801228 318305069 866416943 44061460 694806865 307671750 29726672 83978476 293414220 126733357 699088196 162675348 792332380 265244907 110924633 758583658 541736266 165699931 101158964 972621011 5710295 147452498 59444091 721569754 205607095 856716848 123319678 203777356 341203829 722457186 795225288 31637726 432211053 734671310 94051712 959744573 169832204 619099840 113373840 773347956 617164524 553898842 376682910 81954755 681940622 761642374 951521568 547067232 809737109 359441444 237438501 85769680 577794800 843336174 21506863 817069551 622639502 395334820 806773541 770689489 408742905 394161292 556837458 919527756 746965582 205075487 903139543 670274236 243857854 265271742 511233605 279240989 382182234 236649291 948919490 784825411 970357889 126705980 430657030 200687419 10591178 140162494 449141767 173802465 452996086 103128043 600290407 641507380 120586034 831125675 253514896 640743312 969462128 746256677 8004129 300863121 416621128 113921479 805977562 138492076 258247913 962785066 789127923 340199143 103689563 360939377 755509425 358985397 130805521 870492509 756908170 278040717 991720593 862332464 640214046 462575310 233317534 213285285 562342869 840538439 320788651 610267348 714964528 410683700 354425087 157763804 94912982 164024454 798949650 490324853 652752567 208569813 316897762 779701532 90292205 670082825 431747733 849072669 82809855 288753988 464088423 112406837 171746454 442013313 955698798 181634297 752902564 333287529 601844494 330952216 510941148 684766593 195419120 150173853 85362969 574184946 58765625 182153916 152433920 950558846 457566386 644064802 933899547 728426642 391198580 167401432 475659314 682822321 941325949 764617392 261526012 798577832 190499966 137339703 726477259 776812657 471033812 765488905 513238583 762746307 976951517 665605761 933509340 844809067 409359753 781850738 415589046 128348654 182884242 689973217 536084693 247109322 315101723 686643802 442778808 642129682 810513869 58134452 757717917 676974135 848764622 417788588 660050951 271672712 317171231 820166358 51253846 837435006 196835093 629904151 922574862 321435865 205067924 710062739 971457229 869397769 993688130 46960858 512997605 553321542 607496646 902836736 464522829 997967731 929918305 311862493 321874379 941558357 627692758 320209321 749003163 462791622 65934842 458494424 827137529 985622272 434540445 980507987 944717818 232910418 330767977 107154404 983278103 285365581 446842705 451132679 547256881 969650007 270737583 879366027 76808462 426081500 463189718 448551999 900540477 785911805 46343926 376527437 300962432 459416867 351802253 547278665 834036273 95960454 475212383 344244509 587585290 661013059 307743179 680052339 571604039 845363041 447335145 647484361 344395139 571612424 443159808 475230151 316761254 889396511 554391612 914575428 997327157 978678305 306568693 662205432 178870089 797176148 463211344 842416167 689986614 290235800 810639927 933417494 327424091 447751528 949608457 272149620 892946400 780686852 931195999 230037463 962005229 224199476 741260814 123372287 815234844 892868516 441457383 579773245 332178135 511024716 211172109 834516756 646168705 615679373 199090385 421264454 606309520 862766152 146551493 186494348 780790766 707797216 802211485 372417961 351264516 802930791 681566187 825662904 916040737 3391292 599119992 637581926 31416356 180704528 586660071 506334191 401486960 90430951 711772209 991864444 973244857 515945719 157164681 648143562 343342567 529410908 749561581 395907610 68949398 95401580 335483781 777399993 111037622 163265810 241948782 449241289 309148448 177379513 755208238 181064264 11373987 360130046 250507474 487404304 171558020 502307609 649176832 660279660 770756752 790765490 90871965 277811252 907429364 365453495 738297067 114720158 237953256 922561439 535843396 42116373 906102104 748385680 746527006 116311284 817373969 444477173 901253937 183126056 114342531 414936180 866699221 793395030 987331441 101822178 847649487 999871179 475739504 681911475 950803980 521565561 683101836 370193011 851020280 228310939 73029436 605979902 772493274 490467093 39435223 365980001 473835124 889481083 627751741 41717955 866071414 908462173 587927105 969982355 996163919 546281889 242805757 234307092 391131865 462433477 88512578 544761575 482342750 71867905 372473312 629689443 468673330 680076029 531797395 449587661 749019037 740047330 426981660 567501683 987064170 67806244 72613911 22319680 918275521 977479220 938032865 295022250 10537345 479281121 802668879 756352967 15917869 733661268 912466076 455859770 539207718 190271859 328803643 488423490 219410704 785211929 793117912 120872648 481914836 21956177 72577750 98761629 306973335 771279195 728102501 683916520 268915136 154870963 405034446 954802005 921548667 896423796 860950834 538034650 317255100 596624720 994775132 387042913 932107503 533428723 744216862 435741356 938822861 629213929 597669065 585128702 25024362 711077192 608244573 832094538 91229801 827963407 565648703 883229092 730660222 712313058 572121206 183876806 686766960 202978415 991986482 550236094 272851504 441728315 782864729 515767741 825899441 639509796 564462889 241044383 236307497 15117680 914777522 50389389 428532404 994248159 361814003 90640329 485054332 686456413 60936325 305209713 443111787 647471838 230587482 224703595 678071745 310061836 874951522 290598352 417060796 928305686 118303681 587916842 814992825 604236700 203715912 212277759 747279215 597420528 787589930 808487998 445360330 683646391 664609444 286461416 89761730 579027643 621573542 785819660 345568900 427567855 98868333 338681980 84880865 402086762 856609594 705970225 25260663 545694741 142530778 842376724 745382956 411898426 460989355 934332710 168370568 141167014 813723265 474880802 517200632 724616650 5955356 655829716 670592404 640829236 506581824 622968796 73290362 605455877 827578050 181716339 897689796 849782243 831160448 124795416 160333977 746519095 230221411 189502547 886488088 796943788 76690419 491945246 170105867 413910956 252739194 254018014 724162000 742561461 210155577 668173841 918810905 214010717 919268636 390157732 440033922 696406963 983199891 244628920 768822964 954676104 720153583 725730441 6146888 429262749 220326464 68445915 777429736 782133226 381501442 900884581 326426763 257573637 811125467 184143246 522422604 893027740 412764995 516044104 235463501 810170926 420409340 190537600 398145619 565395441 137895738 254386807 265072182 282168155 823807300 881543324 595626844 486913786 404519423 245411724 735435334 751415412 616381407 514296092 132864134 995350655 535017616 228553881 44464233 789623541 917999523 832646530 811580549 550667004 23345323 485446980 795310666 739858084 941215708 422992068 696474285 927020249 721811966 839143185 369068534 241599012 932890869 381331946 644927783 928926568 122183973 329368662 984546262 807312614 38575009 53175768 109459335 330419642 958960767 527422142 3596133 877719887 687775551 972584492 598657551 926902151 830612070 415135453 129930988 655075856 883689035 863636910 332581387 150340773 701976986 614988079 921026890 465431338 669339280 744757845 101836246 997662103 335199388 739173146 287987608 187922351 824008637 581899569 953589675 750097389 420443195 434383274 1077228 124522619 381216063 944470206 802811364 867611078 345960748 573080808 663828131 161548926 70303269 277777134 12147345 938929254 677869259 694650864 127746599 816885091 768099339 356556151 196111007 233305724 795063894 124251437 30789810 501073399 10409035 150478196 848982085 444094020 59166211 851151169 919027951 878981246 339650555 459363807 720269488 944801381 402009138 665081450 914690233 86357959 44938276 17273332 631752374 969079464 883567095 359272878 365421472 703886411 850098649 37746285 273719106 658816277 159236668 19540991 984866531 369418054 585543743 232024173 463547049 450221070 388004829 528200491 779061494 958705372 377508603 507786440 960898055 896080591 116932655 205952045 633766306 962592911 747621571 474991781 892620917 318506146 749122687 958369995 63166017 657974684 430728449 476510928 540656817 788454672 740146778 19445643 236907849 872280360 226540298 676685853 718490107 935479885 791127106 529387618 48628276 260338143 667945340 379665504 868200511 330143667 123637911 751268051 103230560 268466958 132559330 240282383 191609617 319191542 567293727 457252646 240182336 568993735 113202099 323086117 606568382 626383848 711437671 745914781 433736497 695986740 278907016 890785440 31169324 931675805 271951248 331413474 508173538 142354674 5062015 508002010 154575613 980937846 247417919 251298542 366602035 467868859 120718597 444615979 167487465 117757616 900890104 982580629 633892912 262333044 990714563 345028084 698239771 658570423 267445342 310661427 119409116 675408253 721943684 837879745 564023027 862091052 901804196 496164527 248098396 718496151 107198203 253177019 196986634 480272391 350821691 279279352 786787440 62061118 75456716 277716653 298392905 941729951 316064654 522598025 18347848 380831363 608617404 148041246 677739553 386933184 562445860 839081359 11518240 991502902 432519814 189154381 829043172 981536397 375432493 799688004 516799888 17204185 502076572 572939748 142389463 701260061 332432203 73989188 352011589 199088642 359669774 284501080 62384257 45187557 832826403 796411796 376082223 483052085 586452108 184558896 226034211 70813038 288062902 700299926 996720989 817250187 779857792 521725164 581588923 584944178 171156847 685866342 302694644 101663400 431663052 604694803 97044454 341010558 343687739 932614931 552850446 612775567 336573185 789959209 491040587 828962337 872371326 111868489 232084476 706861153 728432260 705807506 2118587 990970186 634197435 606578575 548311418 633359064 759678353 424921153 800241950 740118779 369579835 305847003 704279782 750402503 177429701 832283651 987379789 866460344 659005015 976744762 874095780 270246752 446959844 217534016 341473566 992127968 57007990 300172550 720259424 287049094 842858273 309361373 11781911 344009996 418675401 77472234 788352980 272580391 353989914 308922222 19458867 801318581 394167241 920928201 853542903 390512606 215729099 553171406 685388499 786820275 723068575 149943136 503542413 156158900 949401783 872104098 551669356 762634250 287003245 794027619 96955852 852344446 272274172 345206574 129071325 460645944 765340314 187159631 139070226 981923975 925313836 57118768 136829442 274778011 488539340 906759828 400795249 704289306 472400214 664229803 231566261 984756528 702394771 729846178 367480914 949754106 920972931 147087057 977819948 287052734 978206986 826479075 120496006 732063507 818252282 788674565 832317415 658724187 983768260 273731374 978677257 197491620 985535644 84736079 602760815 727878749 530422183 10587786 151182101 8158858 500362670 708423922 802790253 479996325 613168091 778752991 613342059 881796276 126752438 850246873 293858945 47174959 28723180 860546363 327546578 286997944 684448954 586737710 315177672 957171288 789785024 506623769 637058938 205115935 529107958 476032810 831910671 680861833 707974244 751860963 401377453 295219117 940785527 868514596 56618706 130858240 141110705 548024951 549578100 665059015 796800985 983636516 280126737 310415010 523656460 868571094 849725764 799086702 910954996 707321255 611921075 901271110 34385226 725349141 621525513 828799386 332310538 11614432 70124599 499992776 659173213 991359278 531442049 192733895 397218452 122192579 824118385 549517038 107667630 701378357 610772909 556993417 460600333 11043846 696732044 544825797 542288771 300653946 438427286 767596855 276343909 725235851 887663115 592420370 199636547 91546252 398350212 482654952 5873648 185317778 370990176 286190077 764513864 428096309 721860282 952428398 919584080 1973916 447204021 939753446 235135807 958943968 624660462 612933704 579689204 342089981 78564150 313082395 907411652 256360672 446659805 857774160 514560595 389092571 446051750 52588907 258997764 124807468 775449586 450427792 781892437 152888175 985609652 656359701 489365406 138267392 227515070 442929420 841145277 833554448 870283320 144590338 377170585 330620749 898272063 988697276 122336338 934332192 62692494 960129035 687239681 567375649 528357915 835118851 612973151 996657254 153186648 593503656 948634725 402826409 343688736 354365773 299029774 43850629 545058455 972329884 369008347 79328676 894063574 359054480 747166157 432711711 548957589 977235237 726911324 765002075 303381898 401410098 628061244 235103863 2769295 176980017 902876267 32978056 883515578 448923414 846688066 667605271 303793977 587370980 312329621 508345881 636384686 33167528 137933025 379889131 417465924 439633075 767768807 550364485 673030085 785999946 473223682 52254936 816743803 740927176 38637516 839960313 169386497 41926384 640395414 860813805 588983174 44745134 885653314 716722140 234377979 861466244 526653059 354113308 379796624 670918875 27463839 571951044 346855097 288016470 769696857 745574029 231743916 84727512 764528888 65321511 209224 890093830 582132946 947330975 303668035 772636027 281323097 659252263 236663493 338214723 409680607 97903870 722131044 734706351 619282675 174484915 594022095 238497349 615463070 428676161 511554321 664325488 6836599 231541150 929920283 172601895 644721607 95602735 277443454 616609482 938617909 403414550 33216753 811936509 53349491 4586994 745573513 422289178 895986349 870372427 417533157 576014501 697089245 345538458 707658366 610197789 801288292 582735244 964852397 751467878 821480822 945533768 706656594 662239727 111856599 628348208 588630083 817945511 707052766 458684386 228346863 839226652 681785737 802086276 368250008 89735089 596013001 191075683 967089572 627276381 228688801 777759139 730470564 682413467 484515951 590054011 31082988 241728294 531010327 353319615 16419426 738425500 641842612 26729402 214570475 856256420 388421340 292734957 590552097 485337994 147743898 174515226 500442594 157956169 357472294 651795263 180003150 175535966 600988983 822867604 625798133 754641069 316671472 967283174 555963635 517055662 643035407 418664825 509835956 188373255 618342163 646171957 809384858 101948253 754573347 656034893 830103431 574979286 937108715 858196063 325199486 244642599 978213352 847433823 823801862 418834015 45997474 959279551 22228080 867049607 470115559 740833968 757687974 231497451 381723538 716454487 794767636 842146268 96345863 428938324 42410529 766276458 770743493 764526128 514604108 969941836 542502876 738730493 999049365 515497416 498602242 478900484 722202348 766263340 192617638 32736007 619339646 911278347 377283625 39034042 73170192 593064543 993666284 762566394 128757006 375561923 655995675 966209257 348758951 950861884 521412261 400052016 940851498 755323716 371858477 771500771 600121369 591342754 973813646 87429300 505845543 84259675 482515358 206144842 375764451 870006924 557545218 631119550 508897860 619855159 368453147 978339674 571656561 867482198 881914830 104924354 812682946 545040506 108031299 631857868 208025406 743747242 635496386 936526233 136775039 207756923 166839050 900589621 355014376 456804102 210838476 119855277 835307204 454951174 798344645 154591718 843723241 81473779 950597169 995670643 231534181 656200836 534703364 107168507 119139062 934432991 674942367 928800529 326271228 51471780 661897304 218923537 609126758 922532623 828339445 356583778 61444259 74550751 427695583 428200168 782146999 100707084 551985342 98475813 529734096 171669232 707377728 359913717 577671727 203069627 883483716 207331853 416263447 304238677 979155609 961285438 235022275 952520340 102749980 338560153 725422801 98324386 960019698 755642699 181162863 982993657 758207534 809595422 456795001 431634762 152797039 1382954 715963462 860979936 420183298 430198880 515935493 860805808 925111809 641143276 440044294 424002260 894472247 378457757 359800650 673274285 177760158 623428054 591610824 585545197 503684904 887134081 532992266 750389848 371864681 988654229 948665505 846838846 655471315 105540870 719481357 757547066 727891561 218181544 927576550 645179259 802250161 981133621 612620346 368300609 745559736 499340021 864923755 405665311 412386542 646366004 166699827 848034211 621219930 895181223 501166681 185654165 717385211 486107143 31189868 4827674 214422439 286398372 902358684 353648089 123665052 502877082 434284820 385777503 860408491 77800252 958534060 38829015 279736042 804846624 754904097 428175418 173998011 212735931 655911073 315482647 623970593 117770352 123007975 705772948 607482178 997132250 382265544 962068399 218135813 751800963 799319102 989780969 207225199 350423643 531279192 549039377 19276166 562964764 762481968 109124157 599601804 630547588 613087602 423497122 507308037 511890142 461090361 144142888 989152116 416441905 299698608 792659071 696017179 743915709 662569893 852381846 212983121 312956725 924972846 791670879 87074912 548115471 320183546 861952558 771676240 421059401 373025476 108767846 352675581 355420018 418508357 954988300 609788009 126417439 196588020 883997604 493324179 659669267 257351958 951924644 61464367 831212977 828456115 703189443 192021456 162615091 961223577 10278930 997241798 600720058 798752849 846600319 317252922 162895494 476482760 677009127 768070666 155862333 921066101 774759593 546548886 174750142 35511439 513755202 138979553 298840263 251931893 906886336 758751357 148997603 208054898 807789092 381758614 62105779 378113965 33490002 560681125 142469119 984968387 525492170 550222614 18094295 766734369 435991560 957253051 323942074 269489927 695798128 626303508 822816184 47647604 943451138 708223900 547062174 70421943 955006449 428946431 383406330 488263034 295108093 453300023 600370361 144838869 973395049 868785549 778206558 250510071 796346963 599047615 923735195 561101578 322794152 600229262 575621660 59831647 155820293 593992308 73024073 302655428 176431347 196950257 617628632 914248681 852161058 108126544 233785093 537941979 226021224 309907227 819327837 714719810 757629664 73470897 721336142 920986148 691679615 894849676 652122132 364620845 789277590 995444160 114436421 446816794 92246539 790526825 455072048 821776104 510270477 613939974 201618309 979498949 518536411 324121642 501229995 605519359 906902920 150692635 212805615 818082211 215352990 683843236 200998667 663063725 309021037 765528474 950890303 764516605 640515565 504298012 538772975 992240858 133116183 188488090 718321188 615198290 348092698 867381645 854720314 875138118 198721600 74673234 167465442 631137439 658616202 183052982 723582119 993306745 750355842 623901900 420332828 449298612 139280222 30071833 776919566 660858287 421157313 121487693 384432207 929932386 429253201 722389581 284975824 233979969 822455207 330974941 747590602 995465784 168527969 467073936 395291757 649101812 683949114 629722643 648230973 670193580 150130167 903990197 722373177 852123101 176901817 926368515 603407852 724389383 309902648 14332956 425337294 462001134 368744981 488156905 757175420 317130919 139612946 390984970 710405526 759309130 735593717 809232476 854868894 436331457 654627803 777104778 442746978 519130748 118601303 56902451 221895303 132142374 155906834 690210582 892427456 259300071 714877805 261723609 40604368 57597146 186019052 684593152 411594500 277221978 748899590 88066747 753152860 800189904 858317540 689640815 469289696 411516682 422800325 716540123 161121778 223006190 295650080 671648366 157435059 728987660 77615631 513919908 268421048 544711899 951349757 624604280 957245063 675156608 627512216 906538006 225263618 537651427 539097389 543293814 115583134 416947779 630460857 57917866 96654366 822163358 83381080 48888333 251275176 21498285 225332044 306691406 251473315 93307342 972173559 252745403 36215914 608814380 377416390 965455121 550327910 385544364 373459598 620258985 289752921 722088175 636539004 358151104 444504157 134051639 835037507 202994016 939143810 152088599 789844094 83423165 543997381 518864851 611588713 165469885 771644046 915867244 699031124 664468171 510568384 844303712 452999079 260737700 290229864 587701091 115326733 95401895 822326315 948699549 938711845 67836937 815012207 16830042 347705318 457728182 68765722 308130875 978710439 265320572 658644863 100742193 76706557 491222224 481183728 286439945 737931896 602645276 231873291 420297745 515078878 118671248 426182994 508218051 733797364 830585652 617447635 440055294 226093471 431326111 845803051 393835411 428549833 752691347 980129172 789142729 993643519 979126046 392860764 322535602 827881990 863552347 200656800 520513397 89971251 35147248 34160645 434622627 837949780 656985686 117596034 915805590 571703823 509813793 736543630 720180900 95591486 844088369 103739770 587726009 31151071 713533631 505269474 245302791 68499335 901480995 71297315 765996897 459707146 208740532 529374940 147473851 138517984 563236325 132098246 720547802 196227732 247221510 848304428 950160090 98959803 702692375 284280776 182074113 220201344 101098625 750033902 699813357 996675528 179387974 567686739 557257034 150358030 435887885 567607487 514817985 808766757 380404707 899803348 326803181 152926205 984826285 930898544 245968668 531458706 749386619 444807490 896741603 683773838 933514260 605751809 933354687 663462534 377608189 512274278 860442428 58768036 275686287 949642641 89042567 608882420 333718338 196979828 211847597 15673420 153899448 85028138 382205064 478136419 68200330 633339554 233962886 283458025 515600462 304889668 91320981 54542585 938914572 782960375 662962022 969011864 324920069 315078472 375807599 861834771 102538208 476758768 356252063 314562564 268646578 427444237 572174913 418766252 735360085 692912324 567087872 429751496 118021446 802975155 444591232 835162964 980689113 743425808 669487263 4429384 780180566 522200586 678871507 280112667 976654706 952059309 796472260 275999953 861945416 518531001 548826470 564643262 678454995 320881449 717910935 686504107 289727024 207199440 812100588 210119976 671398380 199578601 813714089 928703961 109972438 536228753 53826423 488196785 110783106 358139454 648354004 75308515 909423047 111315207 757597927 289685881 344559068 995178184 28976564 183213464 216875208 804578451 396488500 518729275 340841265 690515701 944382785 384296220 7866031 815814345 279478560 224668840 654322218 411789779 112125959 353663069 327241389 783727800 206449815 141742874 115054021 370744123 465045814 57552123 20464098 833019888 148521332 943825796 22150463 312959493 115537466 671892758 161431250 73302251 656637967 848327919 153719545 69478608 584331883 540015202 342569021 832129912 345254043 820699164 845325227 602978911 109891715 850678896 478986426 178555784 825078787 898216721 679799376 786184359 941344747 864427337 984208405 326642719 347859851 196829962 919758892 708013338 207026276 515417107 495115434 324692996 553913446 36025009 60779780 198717184 858776238 958549578 729414674 697507656 527281664 277709627 766824413 423104292 676405785 599966977 838650467 499693665 303499351 621992166 639334008 894549737 324666544 584334023 622655344 827675317 110062735 291372026 948545769 983485027 477981329 790759377 512593429 623788998 436498751 722114702 767043781 13384601 592415465 843134728 266491546 392354669 103955076 835764588 812718820 458467736 818245835 459845790 84735195 381998708 704404512 106178160 277756658 629999945 819695368 755849701 410256657 186158041 956008565 841173660 4035225 554748713 16501912 227297802 476456948 47125362 254133806 852806237 731421164 134006068 1828177 863322240 242699119 526158724 796031676 713529709 125454140 628879511 73277317 702846791 872596978 479198310 555249660 554260726 842867009 208521922 762504635 428037011 647350637 961594728 298974505 810774663 42270245 206791418 280819318 847182955 256042218 166998720 160983631 253440046 61817307 905306935 654580705 835472184 116247265 944940468 349267150 563831548 86601104 866530289 503156863 272943988 365280419 782332919 977418533 428750524 913932331 222912775 101350603 590650205 226756769 486554645 843199558 395748675 751748078 715856611 890294633 723351608 877537476 189749575 612015833 931251309 829199247 234672517 311829612 61594960 283725950 527714808 478392307 604827661 390754103 791685162 742512350 75470514 916928224 693394830 14737562 253761775 821289074 377831883 457883398 772396863 614917999 5054184 88281921 662278760 701903771 475275519 145206731 316835045 406861427 78993464 793868257 550306390 205009172 855107776 649259053 585908938 212489052 341519736 840664934 289461489 135381278 892984543 163184362 669108043 299230426 69749544 720632194 790883682 800553133 542899328 65496035 289581051 401311982 9369624 603303845 584337041 510878393 492365786 739326457 842673775 449967006 389343233 920179147 266100470 403830666 369349266 14792564 690937939 53753708 156030709 108483583 107372759 505058494 232900459 914905265 760646507 425229526 58393044 157432968 660773839 37083835 637263385 762150459 896465047 966635601 471418246 449779185 918646548 240388041 106145533 745432055 444217169 496858118 510622219 946017156 436553742 488934486 163204357 486351861 758330951 565051348 516122910 725065403 73242230 438914107 314820218 492983838 205443668 647930155 592639100 675920549 500356327 577622824 751630358 43198813 502351719 57674606 315106861 284975718 46847433 768834342 554658065 926321929 414907690 758945015 356049221 555421620 897367261 793402426 369291636 578560129 631795405 865697794 894203845 557330820 731744640 280619660 395549563 994091255 833048117 252522923 591033389 189856084 795648412 195958739 444975046 63598665 928944788 53895240 47652758 67829501 573463911 368225614 987982560 810395744 979791548 332444744 677281239 635664216 346298055 193078739 289770724 887330186 325021860 774627993 773847565 998179450 755568456 492820196 971504481 650526248 837674573 676040089 715864760 992417806 819165596 393961811 397845762 805539139 226242834 267889702 754311133 411297666 882335951 940244884 499053855 326377508 322472380 949746055 351790077 38782340 13425829 550327500 843975536 397091730 580115558 208013291 223641610 195159870 48053997 572162716 603104900 386509689 781808251 407615290 336114298 514844966 417347785 658140099 133354217 320957656 486881981 371677738 469380886 480270077 784573530 716765697 691337934 929361031 632275395 659835620 737112939 742130974 311047960 630281964 284811972 403772736 411988324 781499511 38687300 504878199 82016818 833427064 263900795 953438089 43360665 349470451 163081741 969581937 881044014 35843438 690382044 952959180 972878242 489215591 909441362 859344058 845695516 935942117 872342976 216496582 541667825 18176252 157997963 362124165 756984850 564555919 912360296 797832022 940412859 57814859 332856292 49244097 800060195 672317067 33101770 110305545 972362080 457259167 69411742 820568761 916765523 641096116 732252835 762833614 645152953 519025558 778229465 321590046 229855662 385742992 248843690 850604707 211777765 945004043 392713382 646985324 612666441 152565539 807493041 461688604 558678153 373746721 17059017 691926352 77795181 849342572 657804375 248310864 322477311 291039541 264703541 165286928 632081238 856948064 848502373 510854939 114605391 146161789 551908958 66820714 153188028 207104523 741580645 623948708 104501792 848586051 373951921 444355070 554864812 387783336 271935428 463296544 255130469 6108345 865891777 452760019 204605755 41116635 664913222 144989197 807063129 378024681 471870595 59786294 473342351 959810384 102028642 3714612 321383105 698229221 13398795 339027836 572749964 129941140 554172840 634094030 56857030 232156879 590527693 610218334 818221173 468741723 675220326 805609395 720028658 997152194 858505007 52587153 408582833 712777097 647459 286639178 314167029 875499992 684156229 16251416 939617440 531456924 220567164 881973633 799789494 464087166 339001668 980802008 215932846 338690673 890197042 824114145 954458377 346109279 215879271 463944206 892346345 255757261 426103346 756726878 273799817 838646565 310878935 147513007 997957275 132458833 654219136 143865149 842946442 51949987 558577377 387827904 375065923 77893720 918495524 910958279 954021547 896171399 543369153 687286931 243787869 25864711 165024970 52180263 126738931 908790958 106102520 401867790 781518782 157388543 38583869 928493239 968780023 3838499 990655829 283709236 219580310 710875908 752345084 244356271 689792080 128479035 976848891 398017271 177473352 941108186 420821926 230352697 665898030 34293420 97464050 105436725 273089900 509621910 711986373 487956608 90852244 528389659 57309216 383344938 861144284 217809833 174520532 697490737 98941701 216115788 606167968 459829346 209994435 581632994 243815208 113916093 331511718 756295305 45911405 652552279 278074713 623858486 525525517 65188530 88668341 222306553 614619158 309815601 600428598 582616330 707473148 711706527 54234867 396097217 76727438 902325196 995232573 365278339 949444256 149397154 237499691 852371300 633999072 24820823 330831447 693282470 684889291 34203292 490401589 898256837 249279246 168787488 363073058 803668767 147924350 329068704 26118813 392838356 568997338 360778253 513524947 399780648 391282316 516929002 95210766 963385588 15269559 865738464 414489652 559092004 333608978 432310197 42725747 278980043 877756244 299066364 341230555 631852868 829151372 9561329 689561422 176222759 262411244 959352809 964375597 686984423 832136409 536269439 215786061 795730441 76978259 998602702 864335057 158258882 421937174 766299680 873257624 987079190 770307623 617040094 852213569 87465988 309549647 984797488 33679053 407175595 703927731 128504977 482473930 635028003 267507651 451402776 136790978 641139687 552520375 945529542 90725411 391745653 516803743 557566476 588579214 927803187 74637744 918355356 615356962 549880286 596402971 727142772 218564399 187458107 136185711 416357770 445685756 27690487 153954390 668511993 482395930 197280004 280278938 805041714 777716232 970228464 137184197 432683282 949766518 776118163 84509026 35883883 600546482 510850512 976956680 79087642 324009999 739049397 80461950 30574752 102151587 111804302 672201080 816690495 316882405 337161976 420374145 122420800 945799189 563889542 400892941 510544483 875302974 565390386 449814017 26596672 345628924 855689136 292814465 63592259 100701938 915713495 422331163 603835349 92941357 236277898 674984507 22952463 217441014 363427545 236823163 583338892 10098863 868464490 942663736 17894189 240524759 332131041 759334529 148572108 559939026 952719059 683999395 907618929 676860278 140921601 726630975 869093186 322343790 575024471 411976319 437939833 18927128 195906848 475036059 156396006 438006760 216449248 343651017 63501096 438378846 24955426 748029595 717763294 24633181 264493876 355722728 467230025 597883889 250274193 118825250 594802015 395191266 213250982 492758125 561684323 272062013 433969941 171002872 715400022 585295219 34386230 855694262 386297558 470733499 791575215 774841914 493557324 969322427 345913172 507318445 965833814 686164879 458083063 615816004 180459997 88038048 897732605 83702827 987386658 190459918 776995405 430290339 135475356 494955499 211985801 151014209 383814799 717681176 899404792 971321517 372963483 331579991 715146639 290149384 328817887 446427498 165396452 952883078 618159382 436436651 544366679 371978984 973940874 770799116 216862835 12528836 544962956 643122011 962739748 975702522 600905194 504464174 132703196 375386657 226953557 700006229 403098152 956033229 134676462 193456256 2197018 389705819 260249480 494622948 145754200 218265558 403162232 524777462 642002464 766031718 486651798 359126360 557421333 983651480 369843670 393220599 260826799 285156448 569829257 826265237 216114007 446644349 598981604 261694613 832431101 678577493 806974933 639660663 174135595 506045357 609537149 813977899 632304011 963532769 962913587 175609295 819469376 997028051 677047467 558582225 253445920 807441738 577367787 937751334 559649943 53758271 641532611 11924898 180836566 381907759 528480384 439738341 402592949 500741993 185058856 554453357 157909956 169869594 273899525 358965561 845905584 138473516 862024737 311619801 506756306 88091142 757098748 211638991 212973090 940620469 246060708 182276088 139323168 150228544 82736031 781298611 654603216 915122472 972712238 22612346 646418906 976756033 863385081 300091193 74849103 823586991 732578451 393113522 164124198 63144489 976165158 758060680 175549790 427914466 476293227 476317247 269853681 681055896 561550658 801074040 396204059 132627010 139063192 342499200 50899703 518774140 164296772 480834469 799039104 519904810 162936687 316880931 434378568 289751864 555941076 683439617 761673808 70165995 691353912 194090183 186884187 983914789 776308414 196902872 660373719 438539722 784420104 754176743 424555049 99764554 618936127 474738338 933463845 166334825 805970768 766103525 382654794 755757379 183061226 917575790 605113677 5392840 788643225 752254532 408778176 563349614 32122412 912176917 632991308 503481412 705707300 660662820 875906935 475767506 417292703 998359766 847283580 712199487 636026500 707339733 625767236 974400725 414417459 657045437 568296381 686003773 943859693 512090490 778114949 896148818 913264625 222920243 895841580 637169038 511473145 484667984 570873004 895983789 453993348 797491559 175887213 170439519 390403133 884417544 221879526 881958028 486104424 477183780 140816664 702597424 977342868 240330634 383791623 763546448 146792247 940040355 62020136 404138852 445763886 956190875 500411451 688149423 654653344 421891845 454249956 891869257 980221974 249570695 533414313 655855038 842024292 153726565 727761904 359883722 252854897 9517037 663484039 788091124 311168342 655509466 675393734 264243690 821534275 404409217 547036944 463845776 427850828 771394184 510832110 8702018 849249151 98105663 111486021 776097834 254408375 111096050 525046248 112846887 143049954 656777291 749012141 896176658 530851231 325909352 455141134 928968590 672715889 476839626 107212715 147976506 367564145 212813169 46321769 613034565 202134995 867159454 516513163 417372272 648526300 863890264 83225648 287922648 436126109 69989972 865168664 83375580 9189999 720166436 610842417 996937599 608758927 777173682 83340744 311610235 115564107 215172529 210077253 860150476 510935084 537233228 514793329 112858896 381966593 761531300 260170835 298497561 92255423 58359181 872494918 900759000 729391138 251359395 316384678 607979963 117693630 303586934 931850937 730677652 829292123 497984664 404353045 41675960 880222636 920160920 440203194 547258389 621855727 531216567 361113878 436556539 235685049 725780905 215784146 84855041 390716449 95290887 669357191 48901835 490488660 746810223 183034070 330990639 102424025 724481145 824122053 641435940 286888592 313269920 789651877 486697440 180253490 768550717 474732955 559666742 661847897 759085062 386723985 793493079 819541738 500152403 207485864 892583779 695480012 368594990 387777491 733705325 834244497 309381313 106549158 224816343 31809363 724532757 496598956 41670607 588825348 403270462 207557722 734770771 876061173 263396351 987997297 218838603 628252518 330863210 570253764 261301983 230187725 597201395 323201581 791386437 104866186 955976540 595516225 539832204 791198653 250525901 407486117 218527624 274821716 454851058 483299191 952674874 844067289 833006273 730211740 139931818 88467988 81558049 494206983 542330690 777114063 581130492 554425572 308073364 323421515 145430988 10487968 9033696 637454252 32303487 22319215 561565370 312629429 248561858 399037626 53904211 177606549 418191963 269279755 525016889 449915332 616130651 385564809 219861668 892430421 939452933 714194553 288163835 233523309 50243026 412054247 95523128 798576972 502298710 679049635 130780428 653813007 860099260 830649570 109624857 182898003 84314523 735713049 247910982 433198750 165596932 727580479 491659959 314369035 918745869 131088604 15709040 609098792 545354931 58095312 978182497 191394438 455177969 185299014 553787337 951271914 748838892 689643770 746378064 598392886 199206237 118331318 408268930 488790733 112862381 911021008 542443594 765101586 446198680 87956068 508578280 162341422 781262744 398238032 404403247 838466579 428404327 847354729 365256112 186298504 94868426 844246470 779766603 787927562 484386136 788023555 582382200 550658149 579285211 283063114 258519179 962324327 895288846 484968697 151643026 681014522 848988281 690664706 203744779 241858218 221961816 854512554 409481317 849259546 611262907 108530556 930042001 255194424 364144780 710154767 992927585 672635956 121555207 52587044 333579619 136407815 955251000 993378477 53597355 69839524 323863119 783692500 137043378 609021857 815127916 81851151 727253484 246448560 691005130 521568977 998209662 993493932 444932192 42750780 171023509 131865820 491798818 110622570 532702019 604206003 64962436 747214999 338438525 32870599 968381155 329041105 520473534 811264837 436068393 691292176 768620325 373858608 843940246 662386335 978150552 833197254 491416417 451649927 812284852 418602415 398882317 286561968 25859493 433340545 227691820 73833270 977077547 307396277 401730205 340573379 749395823 131580529 361498753 292671194 647295778 50298763 355149975 467658564 959370185 322299 271536952 486945116 286026043 757230735 48553970 466381757 198275450 133573161 50977047 349280930 360069365 617166455 593939616 963962737 893174045 187164021 963856897 273309545 533845050 43210085 72145111 72491391 134394638 749370540 762141585 781022185 476185659 931830973 79483084 779742269 340062010 7952067 603637007 26287008 329079242 895969241 266932011 827208211 467125525 887022337 191435 721316899 913144062 197755310 448407736 866522007 586844313 655513128 874353607 537745742 355065649 910012696 739842758 150232231 968193223 395798691 847032435 101062216 632337480 643450229 928031875 986979219 150242703 470011254 419178165 739268099 937047742 518174133 254338205 298282042 874894420 881897576 989396831 955803979 914158109 431600551 188654650 489511199 646749939 857373184 575783307 996661747 466791166 517527198 433668477 697355152 259962300 236371102 471295978 823058059 407783701 188260056 692263735 656505009 642153006 660168896 569324317 415902653 144299175 101443302 537873145 375720960 654881237 912707725 87454497 583235263 879084874 151507466 384289573 408746247 571942778 311300067 842438024 870824892 266493814 44907709 938849152 955952737 37698414 346504943 985588078 490127678 71501742 151949844 316343841 525303081 6786894 931073480 164073132 288740880 181604872 712747645 479980400 765317090 636128679 110401368 890505470 672201422 693454453 978098757 909855472 666382886 866043114 829268897 470334053 630038129 961186050 916073088 550752291 847458677 534579792 887408932 759470920 632046241 228695552 978780996 201340614 473718827 493345760 566765786 271649830 788418784 886469993 914251794 812731068 295881407 727210619 115253424 43307869 103201223 88706188 376636049 657633924 162634677 799803503 682711020 596058673 646022139 228352412 46844803 955355442 85115066 138112086 193606272 616289917 318293506 11323977 157522536 58804585 301592235 519532112 441952771 955230832 747603037 936369811 131613590 87263522 849123297 329069636 53259654 542854596 164568267 996159623 210179831 753883947 116425697 8318076 281053153 749243990 444042181 514434620 672196536 742498106 367152594 761801101 33584618 340911674 168038348 271416627 76957799 726923157 572231565 758995830 845589775 727461192 762304319 998715092 568698745 503151966 532719573 617102410 308638255 95821692 736860605 349081744 809832155 812465967 676391441 800598236 219070700 583035810 887176201 39901010 297197182 849331615 169436390 513948563 723075094 52774994 929884113 49295975 591596666 220258141 448556003 24766301 435929553 55844954 646279444 237150476 296551599 852109274 733166655 442919931 654425286 685537738 988251016 686349586 766331820 14861543 93613038 799098534 431903476 697393061 28542168 903200372 164015859 317628599 903212314 446817016 753300967 351365436 289268407 158630375 15516358 302905938 246600487 246504266 220192771 787229241 688243885 797518564 872239543 734212375 670754113 886252563 139565457 711652641 15612356 237817493 62938528 198063354 307559992 964290464 428249066 401827842 456704261 255179386 745638005 195615583 568168107 404962833 421213211 164167206 60029169 700897355 349435728 529253471 4603349 19121379 400818945 939755393 36355067 349460786 90985218 525469747 496527125 825912301 286097337 355967748 607682006 15615791 646979741 782733464 912701495 448016151 885841078 302286129 556335171 386800161 754509514 990886556 286522939 99773796 469892077 316803108 628418597 713981606 12601482 313979383 150309574 772041113 90868216 463231075 338011739 214571062 815334433 914006918 434497718 224084707 51509792 356347149 636912978 305259833 231903296 513434339 352941000 309916931 686580823 156541983 45896192 918796070 199170411 776333012 766930149 591918257 405787958 711100488 343012337 905746193 301123933 576187635 190094839 150488714 662887966 588158984 777342326 746484969 125524970 484678288 815310609 221220526 280333428 180313933 846618357 11708084 250986166 643130937 541432070 353142060 346037563 375352425 263486598 996007053 62200722 947367977 321920756 451610276 592828768 774722815 581410141 664097126 834780075 786374805 258509300 437407495 751740812 364866466 602962404 624547814 200713851 184108850 696055957 645408258 140845869 965512028 913589800 31783649 868483470 93418285 54730852 993905383 623687347 54429707 817396031 454760805 755226961 795417657 395281168 624904567 96978263 873857630 760476808 698917857 743123808 62841114 815202407 716910594 943042110 3919944 318802073 170424929 251441080 202925768 190130348 166357134 86587182 823376276 951748652 170033773 306771775 304964100 503256106 271341807 34670483 211767499 94330304 697580415 280500708 784619154 264601526 994913475 209984923 192615769 312175296 590287427 22974117 313062947 298921661 41945835 559559629 740711572 754100271 520721611 811020668 530894980 184693870 772513426 225318328 526693861 96384319 953246163 675425800 354724841 516804132 846530836 520380974 611290850 758645987 509757947 215059433 906407984 78058048 369802939 830913552 938230468 832467689 360768034 376742253 840381440 305076927 593827699 544876266 144962246 789607916 944265232 2281625 641717767 918690039 734298269 493547886 781082173 290466539 547468615 760056796 122559367 758367833 325059512 508200222 981903822 64826181 638580427 581610009 19760616 906165225 573035438 964358230 304525162 341691978 579562726 235600315 696735935 888806394 907492441 628545066 441675635 388338422 608291136 639879361 842940586 571496127 794219300 986679912 62644665 528164754 601371712 904810342 139008564 792161734 430205947 509850318 880463689 795965975 10797564 216263230 121337274 43029276 7445431 597362760 569712264 761728295 899234443 328431137 58281941 881289803 205583303 77186296 675566226 232939227 721976421 593411065 137876615 452668259 708853579 540672027 675182508 83056473 335258510 902828519 652206529 253859709 662406885 228374107 20968705 675753895 991180073 788833969 533400989 44014677 232662258 884470339 84705634 443181146 541180731 735907241 930575108 918840710 449492487 2632778 697096101 263451748 689808201 235289096 834936784 701595395 531700054 368916703 26764484 512199187 921845057 363238209 86160391 901609383 177207834 669641432 435588735 128634665 498253000 70379191 130613923 617687349 303632483 557532430 293098565 289724477 461318552 171779383 678347265 71925826 490176483 699854844 284361981 910982737 800580554 434537546 830660141 439429260 580691743 854699539 662495631 526825233 891030765 552650962 397398327 619913700 672124716 318461513 727233415 851619949 221419992 656824437 575968401 647863352 637120879 785117794 133435839 824141744 737616270 565324904 925686777 15947863 117890883 432699860 496805360 735963906 316981126 68858426 397146874 318321566 156277977 732577774 959008893 957536525 639124840 668697290 385839639 440242886 500146331 722024498 909705324 551729689 608412386 642567732 974665139 497879599 679737088 729784591 696488398 318166658 99309702 61940684 934702550 666401618 597177163 413781227 60597209 717170028 89527224 506363447 248107679 720009872 520677796 179791290 999603908 555539262 464916738 3136879 999819911 441003763 753892157 209186020 513136808 970451749 963316180 621704294 130818074 966247411 538916304 652815102 244787311 202345851 914459907 257857273 437220485 41943965 855475522 548654772 315789479 23585728 141832262 8275039 503499662 941340587 773325975 868754489 431439058 715936668 226581365 830796754 755668060 353715261 19291647 54964644 660707902 976572377 958267686 397217652 968040130 80730810 986589369 323561252 746464343 786898064 992042756 252239157 435686811 858483437 516012486 681168779 254908716 377960473 360788464 508293740 495038992 572164047 319566167 336039853 591506535 759635443 607563719 746837563 909078910 475779721 926189564 92135270 161413483 914222595 613462304 248906500 449074820 16542565 278472804 369220011 775060120 90542477 656019691 264715987 304781990 329894859 444796299 323558100 845230237 235827190 633735930 425340295 521010801 251622170 809078356 953188119 999767649 224615668 749858993 71941570 80352326 361349998 72626257 250698384 152113948 562126566 741217572 590773051 339157440 117379995 511091387 540685802 132804975 704871003 705297855 63589104 799253521 912537305 719570074 808726556 191446757 796919536 927717090 141737322 318925691 117416483 509765697 819525816 383598368 960959848 191593031 375119292 630360907 615546209 151625540 103096521 33868649 659379494 66292668 294043808 964013660 44366785 945293451 760495572 841312931 263706865 688492642 642992781 816363768 568594394 416126178 563108087 360702893 149135208 653508077 651212914 146993357 614522154 889475384 994299987 492974513 474832507 265562232 887549386 98272401 429690521 13182849 191970778 552464330 628823385 578143365 936177807 788915828 693535703 603486143 587764405 995191201 352541638 467991119 393250484 144328648 713759002 432362945 472240871 986704891 979608609 68241721 651680173 255856200 395441883 591232295 207339192 481816600 402511967 258604831 6269487 300511997 658807272 252101432 90056587 984147474 855109722 817315204 190120408 353382491 388974953 297635369 974535978 632434205 503412223 591793406 618246166 59978686 947757548 27888101 866657276 549760675 356363647 866775364 450678381 290414479 256615577 117400992 18143867 136662863 325384826 599578329 901949877 988640260 528492908 880919108 551011091 818885208 238517363 253085583 210133757 758758222 692478009 397837604 568955552 818786608 291389902 900252619 731319191 713960258 993803577 769341927 398354921 700421922 895260481 322314484 623624088 801200256 402540113 960487128 205022959 582566049 525880118 904465773 760392273 271921479 708874146 998973620 370973823 751541343 282839332 766120299 238677109 355541284 605036591 855281513 370216448 318069893 416856429 303099778 985447328 842886233 15017201 342701917 188548706 218905911 710607488 956306780 33544446 314181850 302119874 994589552 152552049 528553382 870476850 317364618 650979408 551306812 280117418 292433491 866246438 711099406 666311175 421198666 121687867 591222909 111119504 5070238 278142881 189142551 83978685 620403542 56983699 30643789 606011084 666491349 656001253 17282937 810645788 882277476 93188889 210394975 629638604 213461265 564149244 543444103 348799789 704810333 896017955 181545880 247615110 902276820 323008285 475765098 961427898 654125630 327825036 730179214 69899970 598816382 108582694 585576884 518296244 779062887 137935015 426440090 883382993 818871562 786046525 582729433 88132755 998617700 41325768 613890293 910036067 317463027 701854445 877509132 697641419 448680736 549610992 949663455 685920939 14136456 136734584 84654477 196452618 131774318 908553534 635848665 861871993 671911912 139139668 347968406 725873109 411851710 419636454 406306133 207385137 681180378 310591360 795769863 980379860 966835929 197540887 211955143 476366007 128520534 450029264 674163389 841493065 481013691 542452939 404607944 716543989 647111681 446376267 936491770 26996423 7050743 166733024 116239727 786332003 349968730 645414498 798006351 348232411 953797837 273857089 608247091 330254097 826584906 30542316 870027936 692851150 491160888 995984157 190217886 792639819 970302651 138319392 789599570 266420434 657404105 446523102 510259219 8595150 887228771 448100175 764390952 853564080 990034102 162094320 220490859 527204589 387232173 172001883 830630290 700885850 943373889 525591475 133189758 150799430 27636693 350952436 134092493 926135739 509313103 557342112 621262340 751703316 480375652 386887654 282607383 497195223 293089918 390876081 590814649 425149354 389966601 325963962 128519130 159497689 25460129 941677190 248210116 710590142 355054569 706044138 43423622 396618154 302756696 570119351 161806895 317423508 538530741 789386010 77733093 669757643 575074602 455404415 6817888 38057367 276455619 616091295 170772832 459442621 158157224 872966043 111598718 694938344 254245948 942400359 856778506 340650345 228322778 559867384 782659692 501571316 63072200 1481903 352312043 926304805 587707798 462770411 780792560 816954517 55421374 901943185 211736082 865790367 329049124 269823365 318461518 139298587 825696791 368217523 596672422 90591128 627496564 349061504 261008851 878976966 589076058 977592826 554123083 487076341 161891250 40751858 596873921 863275918 41813289 466819782 845902992 428728138 440509660 835762557 346691803 653828865 334166717 944263824 107916278 335901931 587826829 670015572 869361240 969931963 406919333 318048660 807632654 112049402 973716720 983604559 886629478 750196349 84869016 739156017 601058910 467438109 978188277 812145018 57149855 983048017 542463928 276150886 997228216 480240177 258122753 839307207 640944470 752137640 440600552 10369154 44078952 472735008 10688774 325220924 162044651 574159894 89309645 53372646 932580980 69629113 49646765 829615176 379534218 408910268 980776027 547577838 495613429 196219026 61741013 968644309 261138193 896329633 858677108 506422951 478350857 223201597 76844850 423362462 871729828 631804499 590781511 364267056 406297869 636978241 530458562 38538263 962855648 461123095 382559531 430744568 462538561 947032443 531339300 984351347 846831631 421679369 46988090 475894676 10660014 644411639 618463452 324068935 634198124 522150957 521149552 761286547 339814629 260114455 939746141 330039624 104821981 715270953 143749841 380850907 788305069 451578346 872835917 65879792 449610710 199620034 431509579 916511661 321588311 403938512 682430470 472884245 95205208 254576872 542839683 680959236 903513931 922489166 79957490 332467195 980359497 113717235 730012135 516776127 48374890 190582533 748439235 426012862 559249222 633783118 963643456 868260285 251913319 729203197 511481298 130802585 835130919 507943913 425859611 948631022 21735550 975319066 533470216 709432612 139094825 635651922 470638770 234042665 978331056 285691011 52224813 391635707 380014138 261753533 799709764 267714733 482657291 888879295 491652471 539004054 215676279 746882992 815901129 983120975 308061572 154859294 261872570 236959979 760775317 746366552 602774471 157439807 862284254 386280299 707439719 720874833 610901893 629125746 590130006 781684418 433681513 885847356 275008614 654359597 152249298 533287065 18694272 419713802 322635036 715026654 7204837 686616845 40678571 84852512 983261579 766404541 523474881 82493955 375819163 145442768 554888862 211895279 163255817 641426372 585288582 639696642 198612841 85875712 705361035 309475106 881692455 854482152 897892021 462198349 177465413 82768966 790977068 667863848 964865904 495610230 540900886 717711544 974883458 525194506 874946360 126181540 557020038 614380151 856466130 528506073 493323912 334014928 412834458 747816462 953107946 947863240 377734517 195637246 737927960 554987288 693252001 101274911 5010338 865656549 747081327 971654148 226189358 467871388 615372844 996552916 804784113 946668280 349736684 257819509 533245347 444939970 236985979 36143472 377835750 152068955 804275992 892716684 324612946 715654362 807382372 585122723 634484962 607812377 422613664 252435977 176392001 724756288 511910576 987635215 463915675 980379053 36095823 490968077 574329660 748424449 549840262 797124818 780221041 186523133 340424919 750545048 63501517 47470418 309837673 302393626 495641495 496579306 366386635 370877324 541341099 656598558 230645557 674512013 585135935 267727603 385846331 198959526 850339212 351676914 282300744 804293401 906603118 733647466 705271537 689543636 127655525 993142759 607086371 412678968 372885526 613527454 948317060 725004584 77117886 290336450 901567668 52354980 349419654 380407312 892661600 694918976 47495132 837472212 462766806 682579366 715924169 348261699 4679156 790922633 623576057 526254333 16906540 110446339 103593283 839019874 542925274 193778071 189505753 763487248 24102615 804655449 431023509 883708358 347431112 17619823 502258136 426940286 613092819 543881644 156383153 602692445 517361814 172413215 143741265 573766952 589858954 76658475 756758714 815282236 808077777 870902502 948172665 137326053 421071866 870944728 16852835 430757218 678300065 764949215 158309832 967234494 981878746 603415645 319876881 689239741 858670984 852836638 603460553 824318970 2731546 827281781 221540572 886415975 27246973 2786582 15746735 945408227 498239496 962668355 288291112 860339769 911959496 60309881 433038534 640165763 725635400 466801643 17724823 671121956 322354232 41347819 799646799 602249244 990115520 982036676 761203357 942965013 249138383 138043520 422135306 808883588 301069200 74922481 847050829 391333153 591382125 473997798 59164009 800512787 576465116 591715536 711527972 349968425 704398565 491600460 325573267 781107760 115513729 825535091 983753599 750465075 741655101 468856331 439051828 542766023 880175829 561993055 964476691 126660781 875691893 27134303 305316675 701657054 958174248 39583990 937941233 995812214 504838810 14126176 366500819 881201836 350957958 65978826 150043198 813440646 223109146 211630341 363350323 47729431 768966574 736275894 634859979 866716483 341354287 326138938 523833824 531299220 401630756 342089518 661381553 296451449 454081312 685599555 158811670 813265976 226148242 995420169 228755508 888604083 649858207 996903728 167970035 379013608 472470620 42135067 941206987 152633165 102297480 285821050 885665244 524108668 110672473 95459942 493560441 483054809 44406279 388767221 448065266 313416432 340528795 477074152 259625862 317745283 400857615 293260514 790363681 106189280 459505811 459132954 861325405 709589174 888444874 690346932 319876948 52066303 842626416 662330493 588319297 397484594 67744328 864031182 565881931 235381890 275033082 154951275 808893270 829032774 935922666 587766142 409996596 846931106 976311263 15547519 305813852 744436314 785282983 559445379 291423381 843592606 430543037 46908828 237249552 594831532 54830424 939211516 474944781 302797830 573531443 2294098 915887840 130324033 364432326 788862883 954466161 215491404 485003576 282690661 608391221 399898409 975365975 134061857 270408536 396705628 964518272 872585444 995921786 717648086 982840258 260673331 183304978 433030264 209775078 27463236 767933812 927351363 314845780 752569986 114244876 623069494 286868738 449950966 21010424 965997587 817003360 984714281 753860883 300424934 428879181 822842711 940540030 203188366 707165909 676942242 346155107 752903617 519224212 87434788 986931665 264052221 505838764 653262645 535681870 54398254 377208414 118143206 781976495 112157272 224670749 690707929 17624922 518012037 575242880 162735923 945300545 893665325 827392553 413325850 101041246 30390597 493208462 83479546 424830650 224597228 418957223 620105924 668899795 709038879 474622038 473516229 267454572 290606880 84663832 684270161 183419699 400187338 490935638 884957784 806554118 760936806 723208599 933452179 446067136 193990586 699741859 189101258 548967665 269833944 544072297 929625457 137438426 313970296 97272279 340881441 652238001 41274254 528614442 361405151 220289552 354150643 139349543 158184671 5868643 89236432 297289306 877510573 470330431 401195443 801575430 291264185 739565299 200913145 235389242 517665292 55541542 319902405 437154635 797709415 117041493 388409201 658834525 679998593 59326988 360464319 416374947 908408921 854724795 414227954 696242873 139892102 201228234 676764010 266475428 806092147 517229132 29029380 111715313 615778377 399003264 314356970 170625551 555661349 296026060 908820447 92106092 294120420 257374229 275351242 506361850 595107425 273625517 335224605 353441666 112634048 46897251 140026159 456567943 751940828 373768581 438546560 453469671 523300834 647986132 25039644 867414788 980573125 148860303 901270941 233779745 834695637 102429383 298569529 757137781 129026116 377769893 931853130 515857826 57548555 726638200 205574904 902895407 347205306 376878965 225768282 326703836 176582136 752888329 60586362 541667761 716298755 144040622 508329149 170080549 689188862 559232337 505129312 613474205 888184828 579142204 682662766 800078465 252430487 35091282 711151363 839415306 318862858 725948579 426618823 419762979 24018863 702471348 295954501 856835921 728592809 929981273 227943681 856952943 763322901 685787352 362040717 48568366 749002129 539256076 987833594 550362506 122943975 256699622 651713182 9654685 273880640 594178293 944455853 401411827 721026385 761507646 11137402 329541599 750469837 849845473 974800698 212133535 69435746 47414610 383673904 465038023 197401277 384096596 986570330 740121857 636368732 521486401 831225926 366710581 245833355 579404848 234049437 185853915 621957721 650852272 230646876 380903020 128287679 261763818 171947392 362539376 768311867 53573571 56472010 3600240 389627988 839708162 469052445 291288891 938454915 914550375 827710227 621510267 728971319 253366635 253460900 461702731 31377998 787853259 547284701 318471033 503683216 92731771 623386468 187609249 279667737 116858448 892163000 264342854 732111674 489995592 372854593 492722729 89972175 539803192 553069154 617476106 795548000 62487224 841007109 149248086 414611808 484308908 698105145 269542816 175322864 882600703 314724731 75308889 656952193 147900701 459646860 23680268 635310423 500465613 247228855 450449355 131421045 656450772 512372121 529380239 359274753 709286550 814458472 916612955 345698664 851256100 234912799 733057078 683052504 561204416 834834510 107348582 422528501 8655549 857427918 826107929 354536473 632764953 418989693 173967124 404341966 70645695 521978561 418237591 188621070 153666963 61021416 66680771 25098092 514114163 445633625 933884810 181552353 715444718 472896776 718288032 575163193 867658349 795155843 10523263 258767106 325887717 242767579 154226196 116043563 728270956 542380705 629721934 837432449 913397244 845467495 129099709 343305292 109029185 798575398 594074222 793449179 242065832 309437785 535189634 451369640 840199227 39124177 90174913 997851479 781737432 309938877 860992695 942001005 567947014 613745051 417622205 714590685 300372251 461082095 590291574 350718590 860348470 214964204 718943880 770774997 830433950 744040565 617877319 725565860 597400048 591440762 380765440 715608085 62973259 893354132 830079357 9456291 279295846 877043900 351543521 225171443 430736329 986862845 221134618 979723121 861228801 956279974 516548666 63869512 227261853 794699560 801356485 556065617 486055169 300352741 156916502 453758163 26027399 632366914 588338022 211442231 172389201 201061703 571762648 572315046 397821227 983618174 771118059 587935498 669905442 121056746 276610469 980947690 480986368 716125647 718964093 512214415 818810037 266605488 972846450 270368580 217474245 759507412 77943521 178744679 228820439 279514792 736626596 302490109 944340479 126732719 649404095 865366149 311793235 929860596 138987312 220043288 885214228 910725270 148918320 342448223 654105299 593022335 692563362 164669507 53878118 451232225 596414025 717894211 643101312 663826535 937178755 607856988 231016620 146987675 641358108 333828716 431552186 489550495 872983942 423128586 360388123 441589261 514702322 98827596 519525247 208712192 76790541 482700097 575501883 894233932 819965613 281538001 907354732 558267494 756097694 942916578 146599322 917317330 112039924 534534721 421962341 85834748 175723511 940384335 360415882 663402808 530852202 956592779 43451167 161241268 597427674 618443451 146947405 948005314 198289193 42629449 830171871 346312697 969957218 166524824 232364055 941204896 99018522 882174025 654629843 22865100 898173961 501222679 129277224 883770804 922105391 583669858 165119564 122394181 947887612 91556097 590096652 740044786 836981990 400311240 248045335 702020105 176243881 174881539 164750065 777045424 268981632 445438681 450152443 444338034 728415044 26648835 499001190 828904111 867122161 884546589 722681619 957647354 53918207 922504918 296781384 646662878 688366841 550735236 825332891 993715553 723932260 761642966 93041449 655127714 392669469 495780295 785507721 138365587 680626777 162367215 212760718 1299257 553245952 543474986 762164097 622804030 441683986 765924826 885756708 250749814 148245735 516208412 807413324 758498666 391301741 388056560 141149874 707473593 919056514 717055722 32456771 446545331 338578254 880089477 663512846 927525398 818319326 7470943 880237053 768858445 214512901 485029440 890592931 722590312 882085406 94231079 467579469 465396976 307714976 738671632 158327846 911298111 671578737 350014371 884652254 349810728 341807442 342919980 293832679 560583515 630911577 227222612 405046461 819288127 557602097 700405376 198784014 857141971 93471264 119441327 732190755 378658175 209767962 323629465 825602702 735443677 891584645 461944802 784962731 162626189 364126157 822736920 58312686 289574855 118626661 618431197 286435954 924642771 133397503 618424178 83695420 486377728 305222262 924755196 55617643 522116699 346345262 413196113 774678268 761649909 93114857 169087190 182844482 741532097 378367873 39331864 378165503 477044734 603091865 439222299 466473917 189669177 333443480 708136781 601226634 987851813 68670630 743969642 321109806 773728987 187633303 754783261 997130582 334637481 961012609 950827705 344352422 748821515 803297545 827862122 636616029 970033256 152358465 33641922 591014401 969426599 168954837 154645747 387509346 488617070 448620887 835900489 243506496 766814761 942873077 574442345 110892412 411505765 123873709 542901527 231354367 17356436 662887871 636833656 34400170 671318228 713805932 184052737 710679786 70688159 435897163 565925710 279848001 655841841 593171198 464021003 398835474 996919186 193222050 365411127 630606280 776316932 837054451 67468192 338816327 122423890 755543036 119588851 654396192 662981916 383356508 161704430 480099884 553628680 1522960 987345167 724499222 437451022 98752098 469303554 881645056 988131874 725338912 293119366 567814128 472684289 189234641 659096169 205478862 72676776 844751915 231998837 711761495 53727829 491567615 555696080 118483522 269123650 510446604 428544171 966208322 608789338 87885453 998561954 185075524 928179434 99919118 291892924 362039746 321155247 988310991 577760326 627140898 725937935 990626773 223681434 263572933 334325851 748581122 688511459 338873945 649274197 93958837 98356434 779894974 577298324 442814791 130048468 70279446 467619903 872826975 292952046 830425813 394734814 435000030 831602342 911116752 648069769 588705338 843556405 241320532 161110776 900715625 918081979 319886867 659157551 89971612 769293208 479666280 858987428 8499548 983151994 436042622 367019231 836272199 560723251 853861538 558859037 920249465 375590336 489037693 65233872 577183476 230023482 758392561 108685307 882060202 426018640 634432796 543152561 584397912 963102137 515094388 76833829 130864254 369830096 100224158 266946898 407149609 105244788 80258734 570951109 341790271 952770663 852625941 473424893 791997877 562633969 843447212 564196824 183233923 706220904 617159415 423320186 85353488 354804354 763866807 714931486 384639378 551625015 683659451 810331795 87772408 587852367 954743998 613032688 759576420 797859961 986875786 98860301 500615443 263969770 104741489 177578275 259722573 283525720 799053588 793485782 742161787 790766157 930007646 688660055 961112773 702526546 578895744 541452145 500261832 192979812 252830469 923720784 487608494 30110558 780245603 506853617 927973816 543771643 385795257 578485784 227626643 893951219 258893346 921990606 561281037 923261324 902874693 832170374 693411243 564418185 437340877 172137663 838597993 494227521 213842099 739796268 54665292 660607988 850756023 752953308 112231697 346142525 81438148 476368859 655904107 887740196 339890716 710244125 491473466 596178431 61033513 294200766 699232147 595906978 37317660 920477872 347894439 775694864 869331143 512390057 724950229 843184450 81920567 202627174 899598908 385236439 778569167 821015585 319592955 700840410 28068298 609641126 957177164 22752624 313386796 526514677 924016819 849982484 395880068 136625339 71494614 797258855 381008864 581378728 229086335 34635282 419355499 732169091 884593226 792209102 665797882 571890175 320862086 246297878 650514328 337819579 624321485 574637584 968681897 541923720 205056323 480249651 427630498 805454109 226150713 943461729 696347344 220334827 164088666 982331508 494934808 820191278 566112033 884011276 235245113 300156799 388277567 578620626 53286545 696521235 118812840 829917048 268261644 296216495 259085639 728847024 315544230 77033148 373255640 77912640 591966125 188989509 92498039 694240590 116220583 417002944 340579640 523326438 533291806 700832741 370441865 811510323 705737855 823694449 702231489 566012783 686457243 611075693 700784012 863668762 451657403 453791668 643184402 314652402 931424388 104729293 213585496 377550121 178370896 759798566 58829154 226149227 18366010 664998837 623688243 171438759 160878251 713411538 894038373 786285819 891411929 475754655 5094828 98617444 913787496 595621271 89887087 659945805 992787189 498405076 766343704 88993740 742419533 935963187 233250967 822097225 130129685 606129215 552949865 200035699 278050829 501715758 592985201 896498096 566661159 619474824 837919520 651152241 314554034 700258755 886963044 300709620 308714977 691093368 672200310 289804810 766740960 100822685 203479456 66998017 241797810 300515580 769568909 623186064 743217061 183568711 903442851 453722010 884344232 528946555 894607983 792935308 684563824 160903899 612544246 619619009 983373217 573581912 180034533 42374169 239448348 571202135 654739442 444595715 550541388 520108668 420029050 475120125 561855806 950606431 335345716 826786558 819078304 231109980 855628585 302039168 752704417 50640286 135050294 225328514 781427269 343067752 900253321 50093021 46867727 242520213 165514684 511193790 93610853 934575526 538358683 379121549 439419108 593574202 956935459 2148419 249950549 856527138 638723042 819600368 488903243 679855580 910511452 480668742 755146613 60172458 358448973 607814453 555306461 220425742 910116043 803281186 881783922 114652655 648862408 262453443 400553688 565270578 423480195 798679905 848510539 269449644 14630323 251706370 442343316 424308754 566885835 536293264 653936376 164128958 195868868 264999129 768717171 808919868 419381902 594543446 290928219 122999853 682148463 117069653 270273637 760028870 232404412 109881148 393948476 342668319 484001956 857460540 117294898 403261990 634945120 289878448 670684764 328270469 716439319 125847034 262437411 47790846 708415546 5549758 601390520 940135823 567352549 638569572 745554958 997002098 934595804 775209288 891251645 502834156 270139958 739233687 539307805 84310724 386951201 548592963 996215614 220673218 711266926 254888957 352534267 159637447 716998489 152125193 94891424 693105078 883329490 272972438 816297767 273506176 597080220 761466563 492929922 887951945 596708559 852348129 814773399 559534267 242488041 599386594 326477316 562413352 975865899 474885554 171761165 67405059 716795134 801685640 580313904 114786381 586780500 793765965 996963875 474409799 597310938 722702926 198960307 15277152 422297404 554209253 563176002 477749297 61829224 646509946 555185552 736040395 236224503 876613061 798114115 962613132 42650772 284167433 851097136 954987354 799079823 231905931 997270232 229822142 308441648 863765576 570139673 765010329 152879737 525059199 35046128 116406734 417582960 828006906 144668896 105335529 565343158 125049072 839595808 521514947 586121419 725724551 792873573 136307944 884488814 827786061 471719463 456550147 414034909 850887792 51220441 730056624 352758495 605051937 685959629 580355177 689126272 458276849 992322371 649669426 351110506 788797943 763715559 465785984 940989820 830960975 277010296 444583402 81683799 905662210 626558391 466037789 347521094 673130059 659255572 557314235 730288431 364390746 989694647 536939256 908855552 638496708 258460046 333347887 502677163 228677835 110149452 365962633 285124334 323690316 657318786 86647877 135613284 960731151 440487041 317110303 5937057 931865060 860772609 563125171 536989510 510370318 913432046 380304414 128236340 514491408 654426690 198511605 880002510 667098232 815155786 347885305 945503134 510765422 391873689 103280321 345568676 811668116 371020651 724234998 107031280 102738479 492462043 208303333 672173007 362901627 47652209 227252993 98338182 326285412 509790651 972469920 993596381 195375175 689614203 861116553 177024747 464297972 689062581 611153983 455962625 157628229 906611020 189597537 375045346 992023698 520723920 893189950 320237286 865568130 270173093 467916388 280544715 862094649 237187730 443317986 798583148 813490751 136054693 11457614 204322250 30160253 438387534 538243401 805412005 599981422 771316950 639770108 115118638 279698076 654620643 568640943 83960826 333125946 503145759 914701805 137229206 439575196 883863812 871589295 757029794 693769590 893120515 935370092 311304569 632428953 839086309 628239614 733168737 318712405 319824410 253809085 774460244 249993448 98887892 779980714 366964592 83962342 262983199 951003728 566008687 957025877 837730601 298806727 927105855 631440293 80627267 235628311 748892435 756062783 217962293 897268501 389219351 428937917 380156077 594335780 469194327 958948211 127927326 37597355 596589091 978063295 197757406 586288192 756103792 258957891 109172787 296196998 730047113 468338030 364478311 296247144 923145511 101822201 561954764 987222545 242316133 471147617 916179702 432971482 607076900 484706125 248538875 337445382 84317490 757635789 155883776 727105364 534602382 67427082 573781039 345419513 357384155 215996467 764626924 388444256 349938189 144059216 977072903 647965946 516786197 398527786 831108181 937643299 266183802 564508874 548726674 168665097 392339645 745314859 595107816 743104195 787092946 878619640 219246347 83295104 537980149 467482655 234957110 172380626 664834309 958699824 537740324 50854069 3303664 114610595 119240471 756099611 481152471 866411257 635434110 946533617 407166322 204226774 565392314 467412711 274787537 32314772 531423825 526236359 536549784 377453467 911738439 567361745 69559544 578863724 166198226 127439833 118948646 605580233 140543882 706497980 329653040 581796355 918318115 218326528 339885046 73856593 464606903 405555457 987551648 133596495 690277476 701771866 111916816 490078812 136160139 287647354 130200706 819056919 155018018 292535055 340968084 260432170 931431394 919566012 80748407 334154453 132547688 866654440 785414606 298530648 815373246 856374752 414158215 404764803 281349458 433995236 214401747 658981089 171291260 607331602 984973641 798366037 770038667 619436019 77237650 102378920 423996288 896826392 998270631 821754359 964062663 216548071 744843180 272007625 580433608 382126966 135093054 211158287 585457657 248678918 574742960 462498690 157364861 250993589 666729589 666541587 762174112 18719898 809846266 113047584 84480460 216442834 837308254 394348334 659963412 671287868 236896536 357870541 594301800 664784562 324085815 682262796 170885828 483931177 604559924 409565792 61179354 238819981 118245600 886189379 242890662 322800107 104022083 102424770 234857015 67114651 995433999 90829771 62571317 863787281 536992431 571733268 732961966 837922887 451618021 347678930 192289545 533593163 41406855 977513728 740857684 714976559 716032246 970426689 975007105 630733709 692874911 497736066 482126531 996297068 129632644 297315826 323040848 817615897 773738347 684302409 283757821 649352941 821595879 476279831 707152707 315789352 868856049 25491719 734067383 930992060 326788637 130524582 902712521 764173571 15140177 999666920 768055575 777661279 874849426 814623632 680154946 356472633 545425700 931864243 234035257 878191826 641115630 811255652 654535074 366934523 214301073 832838216 165574321 698804294 174610528 461269789 860052792 140529254 1537917 724798900 190072324 993558556 347307057 756792808 942485338 343505883 566999765 708259471 559958883 737883415 375642798 493198553 471806838 619309855 924247217 939834885 647324996 963145097 102342464 690680197 80084397 696362643 444129494 293578458 125258554 587620091 460678209 978541307 169047983 561308555 911572059 920954226 374874915 342304024 317790015 244206742 871276238 549774336 446215431 40889573 488377011 310980912 648699879 51965630 761298559 536931227 21823469 406081794 460338540 434518326 366983321 188265652 43947397 534906538 529142409 24965331 689843993 211851467 29700440 24241048 340208116 721508153 354758464 572258007 599743754 629332713 399938856 682337480 253707354 357496156 230100844 879607984 834998174 410050262 693517421 865270187 920063336 714973133 956228522 72955500 837527682 690180436 358688839 352641420 812734200 559292820 632654232 190850883 540460785 685890370 990592098 588291604 381005811 940471483 878055554 300022552 412330366 539156221 59159604 362339037 795689652 376065735 461434786 908769664 922674674 959719105 966925798 342837070 297944450 277516931 532298381 161845704 252032596 719203723 882089361 243858255 538949411 881788055 347511554 183867193 173298465 757156829 534268977 506708770 120644114 960333258 986885377 975052116 968034784 736641258 131212861 699700840 537593878 311772096 866014114 295830600 810213696 660861307 513144588 909862601 344820373 485092723 590321778 95946792 481936464 259868094 606356598 537317704 781315506 229565690 617286114 286106902 558231602 943624519 293893716 854909284 22485537 468976553 842566607 324481618 421960428 466976493 612774292 180467629 42911406 557967764 440016822 821585054 495532198 511684375 453574099 245679910 986159860 743861922 472986705 475465658 55633038 638802839 325444202 654481531 523072023 352581190 186812317 510143751 688163052 313213261 126828599 800650873 687051468 55147036 999892674 489570420 363536729 944973033 733505373 345330900 503917438 516036999 842158599 41817311 142112574 866585996 542523429 914514548 875007166 986742073 440657298 838129982 586345009 281241685 128235765 118696280 388195197 499575855 227849883 738999536 11410030 354886575 829041595 801630260 663329686 193041261 891027991 318070459 410970861 75224075 74133708 517179388 929858660 466805569 309632049 1870512 585053982 523178460 956151694 181514750 671676459 351828247 754724626 923345639 33250726 131083326 796400658 274197534 811870865 715695241 464459482 290914147 646959790 44757865 10036744 280732630 955162381 987176894 763549457 348326477 748963071 652630090 417657162 262072505 565650850 682847249 303288958 257084930 184243120 97177097 233302833 288404506 3684800 418517648 820359283 682797750 851470613 495605444 459598292 691268615 266190958 317243809 871393570 473460917 418936372 359232342 249881808 411816412 501872984 210701586 928772712 482008908 535382152 412137777 708247676 103836430 696709573 558988670 69045393 967286235 385685301 839240269 349521536 431194485 305389115 369557521 640076933 909931633 964776162 175071269 948241720 109546882 990269082 819064455 870464908 767100439 767878548 791723204 277788600 831071282 414417978 363424099 466242779 842384765 16949108 715783555 394339524 946713583 869183049 386897958 292004885 148777488 420591508 914978966 506732715 54409616 786252166 437761642 194476452 968837729 286721728 595786239 464725827 338151338 514810553 35408610 481865825 460948527 945395541 58328916 775223209 907815630 880029764 270507337 81809631 854632119 336550972 732067185 548318510 434107902 214289979 470705200 508970098 81517137 31579359 484808178 866600483 968415591 600331075 937550251 736685652 844524630 335718847 666380063 945372397 460510747 164169394 801686999 489207298 598514378 641007143 64474612 836888179 430827290 451548002 23926625 327105796 431990526 377014956 48778642 149961184 425006039 977639330 296373940 29755869 738944956 479358550 745916946 174372843 671995387 231262010 631007760 363248554 124727941 9660656 753871847 518753877 513874310 158207651 445738211 894663406 980974106 502143234 708087550 375704225 463285960 255615612 357544328 748299382 949257894 208539737 633193950 714380620 157107070 426645075 15600311 346943640 8001767 179606828 284288772 951260174 144873169 68082327 459180067 520606062 13760048 432986262 779161209 228428358 939589199 774706115 846247671 589549271 131325448 129416870 764051185 517495738 61543909 227886328 329874042 594323606 690622795 724560039 214597673 50379260 372245549 579624701 240762677 45574640 29570240 215871785 372322588 859346725 335653386 485985379 227632867 224393261 286377529 736087994 812939563 637848463 802356654 860163291 47453588 711100372 315310653 432562036 218063232 699163369 370404888 377954153 729782767 863599814 458458845 765001213 536672876 461995611 701968262 454196834 12939451 182710362 814654243 39532877 846485708 954296744 305075218 100139860 401265082 306643678 948785041 502596298 1860670 438355550 777150771 259385915 894768139 315241926 315331486 808168210 489721983 71632189 949270043 688670321 263071288 163624491 61568973 755978754 225642020 867980968 769822279 948350547 114238829 75242146 540489823 149449371 226470655 155283519 980562262 357075217 290448278 978901002 635680996 870073876 936205663 513060389 269027709 865370596 739189279 249146111 997027159 368187472 285640887 986438574 787001184 92551046 272147712 633783240 875433865 368753126 58541609 974855760 205332783 598898967 80980915 625437634 837893014 44729580 634043060 660689721 89445497 654217003 980769636 883717119 996169481 362320786 145075493 357167288 53917448 312888122 686665521 738967014 201278053 962573837 94276492 135594627 712747197 32924268 325402475 530224376 250577157 178681481 730962172 501190549 274014003 445005753 751193529 249944068 324687859 816989351 868495436 274583195 486998029 882313483 667464833 610420481 127806341 466140053 724559303 862990442 677938908 522213585 445147209 153935405 838772739 38111659 667983150 300077716 129889105 415730018 735582621 460111227 333337891 181405141 601710895 82452774 936011997 871809946 689046145 527121504 315046780 427783460 915990836 89069643 242653555 626730418 227552983 905718340 847811567 302677066 718299693 261190765 551827842 836162781 522921116 577738424 815928378 144705342 825505406 966480593 967848521 74578052 560856603 476688041 315724258 542939270 102597980 379396863 239721174 616487588 135990050 223717612 803123451 287970971 797228275 632126064 690809155 375666665 414207993 670064596 892137474 99279817 981060089 906259972 657369611 799645712 824165069 207589861 153424823 217397463 532911050 261243650 394519245 878366628 706661846 496760683 36171154 323593884 656816849 51571755 247731994 701280318 556439540 111847588 886390586 741960156 338753496 473037875 688841592 650659276 471600087 644982263 324190512 805506906 385876617 195984856 17640008 610517221 293422720 981578686 773210049 491713601 206374718 233539912 586168690 697908868 321624767 400847915 932622085 932671197 271571495 380734016 984122918 984140097 313769698 447618761 249909024 419688629 321451953 290414122 850914833 51246007 583152053 827145681 529548615 189800321 389732160 45697488 99552804 221572229 949826514 959103086 105211293 273567395 203311735 758888455 589332729 327532140 663768580 738953793 128777039 955752278 236535638 956013828 187144750 467390489 427396508 592841125 64848221 36279463 341683632 339832684 612623289 828051477 13422223 81075999 226753419 392661770 905211298 709450966 303277685 164550811 669078479 866366862 704135423 697892604 651388382 920427498 128393448 515569660 745175186 227634256 116210463 553273015 861842500 258917189 304131626 44877610 841367369 325716282 531327758 417113881 855929716 147550331 74219629 540397293 295072466 478214914 792560451 447858593 484926968 669370588 526433691 426349434 222574349 680921182 895659976 795196687 242618235 309170524 751005496 913707412 122651244 949225388 810570271 46924329 982836773 197838757 720075765 271008153 717631898 531556903 476591149 781502026 507593245 725120009 655693327 417756305 74917874 728393167 442051327 831838339 511662524 420382607 778171374 871361983 85107215 971456030 675608028 554781859 378193243 330626114 967185194 640121449 105441718 160112043 301645866 89927367 696864800 268629926 624947574 714198102 907382669 5366885 463992794 426047408 940793579 774698271 596356036 373319848 872527528 202511694 942457388 113178852 173858139 375237610 727588663 777193393 614557193 752812085 592808950 530720324 155541632 288829411 300346814 373980504 740660610 402027274 817674273 707322706 341327814 440515459 37363867 992098503 295678895 371438282 57274904 519632649 725988352 507467274 110133085 23504491 501136201 326978367 942102578 910108911 96492510 810478157 704218393 965370369 558403598 505751591 941415967 935830893 896360597 804024357 603084720 27701010 237951632 799854032 223462298 413632399 400757670 739778467 939721838 655376014 369766834 452295976 750632247 692653452 199720573 387433239 984144796 80039367 666345659 877897102 136472993 756703411 126727953 615698269 22156578 985989253 142400426 666655354 818915975 195588366 278899526 742403765 555752288 268503620 937322123 485107880 242912857 355717704 651464577 554633557 302664016 186986747 60598298 611492726 818278264 961020279 347434807 2720736 579067800 300866066 200168542 622336241 78904248 99034710 306676583 775842864 916125166 741726332 60422616 613038109 817832303 506088024 274539789 527368409 65330928 737876823 661867660 705055900 213344385 841556068 128336771 593039804 36270671 262072978 523133248 166038887 16235936 844136480 854893989 302414332 45636954 806801921 277293663 53800594 490884621 549604110 237211584 195421841 863770916 579760075 402341490 8112305 89117930 296627682 392079923 542119303 192898958 809773536 611708750 46887540 900240459 825023905 685476657 557480686 322178534 868843738 78969882 698650946 696209241 890101640 478602107 140840437 821932777 529191128 806392046 898149840 65256388 856776178 58531247 501742065 687265883 701856796 832011333 572366551 39078830 59463383 83865396 772163186 543533600 247999485 177299583 159070953 119685492 12315731 172662494 218606126 216824680 345518471 995120261 263262404 795412404 622922940 510938686 130495893 221168783 889219765 800000612 370586124 907878942 987028295 184395585 355779674 682633665 838939395 784609400 973538805 607365143 280257057 445098580 98986596 956938731 623696755 740700577 623843940 427290673 564629649 859790690 306730291 550454627 342767904 948352098 611165106 398872525 964641735 258303599 184984906 57787950 806365022 922291289 374992705 149103498 38949924 49742525 108388051 718884489 938233082 858272201 176188041 468410354 661262762 890147642 744980780 909337041 424851838 69550085 807509740 508919730 440715107 309965132 661216923 815464693 973841584 260288784 287928147 260133964 778236017 38200312 982474635 226453497 51607534 983783113 593191339 234845962 316121794 161485771 447859591 209902375 952341232 337788250 905470716 806171004 327795722 646925383 746614560 312324710 961835905 206620707 533594795 467712423 297809901 914729852 681823638 868808668 768368270 943436391 286047964 701768276 673723990 397944940 216251157 773429018 139138386 417788055 331143044 547572210 308865372 554301983 631251323 517898528 435763437 276821177 648452955 895320355 436081112 835486636 734784167 543709672 356206090 746887470 18962097 24292381 13132126 415161275 675303270 146485629 815402527 921588897 935736737 455427649 831224922 83726939 508198037 509454288 627149915 349646346 457637678 846239844 731315610 585382030 428335662 969999607 880982871 728758281 47729081 628776413 704339553 328594426 241598003 21375727 282575710 662767049 736968725 72331806 496083457 93674376 378372713 413692577 529349543 258386450 947325747 280088246 412229409 466762658 371983263 419497389 337054131 643129445 267668596 508580306 95132501 994415206 159668737 450390692 777282446 837635479 877888030 395788623 259458928 224380851 112488996 844227416 236603487 291232087 465985215 543900748 957090084 21231653 672975229 164599037 865374700 195579335 226797116 245922353 980003997 259341310 506812882 370390026 214883125 848042870 121713664 817505610 683510008 373269563 257575732 345137374 820783438 117229994 493213387 617375909 779960982 153980778 700345817 400029056 367175264 357729414 173768330 449950267 227113098 554759805 875743904 369958880 611803020 278499868 17495602 765431450 903777712 780296643 281775909 304373431 220000657 197853341 160856758 470197686 74547587 166856700 391215811 693507389 80747768 107254508 578347500 721071516 742445889 431360203 165064189 854079135 636112963 284313489 276965352 199271849 365344580 298873608 414494191 935851723 86736458 654706106 841887097 605059284 195060014 376407878 260412513 230697365 439019005 266696471 607639451 933632399 805493442 126148436 169957190 992535586 855242875 373125329 913125181 518157880 505667503 174657661 934250402 219500424 330912268 790532739 951382478 731986021 421483544 719156341 255991886 706372757 745167478 129574235 464269278 453324802 469429515 221939238 150126973 781605147 680333253 421401823 942010780 252446194 269692073 634078934 170930495 327912627 422002921 976033454 856036713 302660967 568133967 81094997 923429210 218892094 834648473 94675730 621023904 4319630 929288036 50768916 544352045 716808880 970902551 258007938 440427850 177530427 281217099 137050115 893267267 389395983 795536887 777529613 236423995 550322174 878266140 595254541 489342905 506602374 16901572 843670680 834338102 969288351 673753091 759853957 628152542 804746930 56909641 622523756 199688505 517734617 612577997 173420632 75632972 682727110 141694658 104815457 112727233 180982317 659330824 800194950 649156685 403953578 83213144 201252038 49238294 936729567 686043788 720038459 508903067 533229726 989022309 189433989 796282885 136329150 294459648 370103166 154439416 448434235 265228186 738051113 785213669 987507911 864917833 582120100 810286415 534231129 838943595 824783397 325400472 303987331 428228655 593546037 421316834 888536629 94641095 626358914 896927555 663228857 812869433 22746367 186773602 517021104 588953578 298733205 70308816 58557671 502046306 955301237 532828500 553586124 4667379 770435642 202883121 665163032 575221380 739921744 26769441 488618497 780476859 687373476 248621731 595278281 785132419 69328083 720111142 93438 353529605 621893421 60993474 205490399 850701830 808000228 170217886 890144061 656702115 719395479 840976696 695544587 571040367 965812088 664556034 813535868 525955005 397722776 593216716 226962991 615787066 456962670 495568148 343525696 278780112 988476823 951796430 411932866 536526437 626915543 706944562 833632835 186671760 653669087 402926057 820969460 70501883 201563286 72097339 155258300 321632760 190691643 966507844 468301782 698253211 661468212 307189734 147397237 96656721 941218763 53905697 623385796 84198362 663883169 506507425 321076827 544531072 517227458 364614942 865298720 514673477 29848243 484212652 91112843 97265844 958627034 690503802 883451602 621116975 950672324 137191328 206625770 61576688 772315173 528352698 773875690 756947418 547097248 367942685 234255875 256516307 470170772 779371507 416805869 453387360 756680010 955686918 34424198 880190565 180056506 695463470 115075531 256458371 50358739 683283884 692225020 798096784 883122510 459610835 681587408 969024887 629121936 634200627 481586996 672433629 909866364 645832442 721853326 88875788 141349174 669255319 206880507 550537003 375744438 982074315 903599793 281442908 80479022 924720203 776241413 937391942 72139682 171838543 967186812 479606159 913217027 590475629 41174465 886177191 961950098 817100942 959460960 728953107 621759791 447583284 834215665 971670147 298719467 599127551 402931435 59729301 988836453 463035162 873047479 304340789 981187055 900512577 129793970 405521767 509882069 754080487 957187450 787261339 232391460 451741014 549438861 609581488 422534823 57243388 121890637 525805078 544387196 188821104 445170448 121633050 66632413 917543285 355954117 694546404 319400077 308883859 86718306 749310300 181526026 41607669 217072359 228938458 836611968 432703152 933308459 500559272 988806592 597866776 788095886 743269208 82558951 847891057 311679623 986059328 36996243 77838032 900903621 686300434 548775075 170737966 607929274 744039524 836173819 260834595 874403955 149066734 489136978 393490604 503895518 627935827 378492431 795888910 735886987 865951101 197567722 175408137 547243048 871488691 834711755 497613265 337394055 33383643 847287026 55824170 444351849 193894603 180181701 158387897 779185484 564394479 757258601 251366759 986367288 347574788 412513500 519721002 637879612 398366183 736197639 485978526 252411867 885912384 502636601 421760651 53282092 231740809 280543307 496903442 819281080 343463173 537342795 989704937 897327051 484105430 257517788 183120138 783159878 905149291 266592651 94058273 629296324 657870225 609978797 951688714 249189640 708273092 334708695 746821029 626907628 766727388 559510883 199080716 375752179 142383889 379610464 260175843 249234585 904801835 65329494 576403706 211079141 19464170 899894788 75612807 578187855 571158247 757114193 192194072 724384943 245796383 340537406 27467297 816744455 900663175 541653551 186697516 895316667 874142244 93221931 513382329 44771613 620780221 910675025 727460757 12376773 615711396 675723012 531119395 930100259 94495608 96930837 190570223 426469549 890905093 315389942 870501727 246097174 560591832 359072279 477896249 206852503 203111908 402687108 38596123 840381822 766848823 373580719 46820518 340921727 407832961 434220121 100288055 589786111 221343204 975279771 959008321 933851936 596736906 710925362 812803147 258573196 782502580 289667759 74981947 869405105 4682136 617520685 811698257 422511425 925191722 653288301 370013053 525497899 150741667 603266029 954361056 492376409 241972690 605913615 898253098 47826332 75975264 567037800 958762318 413054654 318239154 762836841 863797666 442797251 23276520 333132130 180430057 930133336 775994649 862476584 297375253 920203201 298160884 909623950 744097021 245291444 250525130 532615086 946058725 344389739 894058057 753404649 113397966 148583769 998324236 698557050 770104369 344160533 624503204 16901438 655197125 199317545 612714489 40991132 724631117 529239817 201155351 783482534 713667935 820866926 150839186 178121680 815699568 885913935 673386803 545544933 645888680 56605209 508280688 97079615 238940181 857041533 795993581 569888194 376655185 237960795 677230959 204442519 418098660 934530443 898773631 545182366 21618550 431887311 197204157 827101932 715655962 550596272 942961790 481607685 263449928 822379703 862784739 6180479 878480150 478605942 416305542 106775482 380842178 316372372 200111604 351709999 544915985 513372044 895848271 726680704 267029090 514449306 887583046 57369219 602782836 342279215 540394977 687864380 294388219 9575966 281758862 445747904 379092658 933561158 93287144 171187090 501806491 196962381 515297334 482334962 738764478 996517931 941506052 346222946 849733647 136848330 956823222 2730153 990614842 598127147 520580211 310622802 397592000 588055168 225737022 179656838 777676759 135776351 265827593 709945345 209139172 916281835 102175857 958785720 700248260 727639998 372437231 865140820 541272478 109286136 990994728 187230890 545347837 220927361 26562695 162062048 157645372 839289260 834682895 489623840 163835347 904190131 276727163 901923429 134449253 453461131 975905487 667296670 345668606 876675272 549635666 238858919 646856638 442746083 366006992 460870871 312421287 687692962 135570835 811331049 894963520 753626306 97185818 899644730 640121749 193693562 796272994 323120890 47709116 961723319 520028758 535240913 799611432 109346409 113758346 998471157 948212392 375525536 112258680 921470691 493089228 157912641 693779258 385613639 780831560 418500486 824624120 116593475 130900954 824385871 859819783 737759152 588001513 571447892 738588227 681504036 216840253 33588900 15541657 784726680 800813989 668494207 971328907 878320180 592681235 34293710 193907923 566059886 284943233 335379523 703218818 980419900 690315030 700686648 970957732 545481173 850309774 407507669 522370011 978393653 541208187 528466711 507838791 408741510 974554463 221584207 102411633 245352019 420071131 983908743 890805094 75055985 977631083 745842323 875272821 401454031 192358153 259807474 474751161 251856592 141462862 629798189 271522158 110633615 360439173 751362416 195171541 657508122 644661159 45302953 654174340 195357562 907816871 198679963 967322945 260531144 502682880 40612109 914085372 864949638 750621619 257692292 887870085 885411560 168723930 412940517 592078350 117229187 729143888 493252299 184665601 226191304 797892079 776855551 397744237 392496568 204796625 906967064 12089411 550262839 75046965 642971650 516509561 652570870 203980552 953058250 540151119 272670907 578285130 814230544 359512804 317988409 535037622 994350436 213483257 469801136 544622307 637634199 387582121 748285738 764296569 384087589 994820054 931343100 624167332 807284721 649884155 666161070 299805553 791023101 854927749 215595700 811927680 175362509 702397616 425313100 855835237 859947475 683101582 105834763 78796425 105867899 440526870 431969950 344146552 99496737 488816590 446652038 658071752 578574065 69909996 523277813 77148083 601446804 155028951 195911939 596307933 240148488 258460213 431554816 314370488 19853039 474426738 431432831 607237784 943533639 483738783 70035230 915825570 892249809 269577879 929596702 348660966 487139283 995370465 862682881 745490576 366639674 966068709 364502459 674672465 14533389 477478740 256103736 912172955 419469176 21720027 536182868 678147708 480732022 873193007 127921244 815189283 117010876 51321944 772933798 734031768 15849261 240640347 659583553 292854890 700275506 1942080 112258165 6707990 745370846 188071483 62570459 486122730 315022993 685510095 99538369 980227267 503141637 291814878 657782199 945619924 747958419 431178315 540041451 540216545 200501659 466899970 817139738 690111314 933672508 795397595 517385458 975791062 339929956 564245431 216115048 880360508 39679796 143662344 270774917 717550015 727788567 865847895 355485068 985422420 866990033 432221211 908879788 425971430 922259719 562125726 386809949 88498061 561748347 236426792 88305299 414137191 731476185 16719505 207735623 107566460 911358905 340209516 231527251 675406684 239997519 858026958 972581844 882329236 98837606 136279239 102607961 344026024 262165404 726209795 673122992 377391947 237058484 691420240 156599789 598871296 809665921 409796076 63773041 514775324 176081025 166303276 508624076 286472688 619990067 48438686 550800926 753381788 425531585 527823679 534651705 685878096 857454126 396706112 64907415 724878435 475794096 643794408 540916831 950845447 664355321 69974735 210890215 133173436 714701421 762483042 994430970 21196061 729359128 206770995 456011750 944707830 221415758 405461702 816857383 105544312 654463026 205621378 880059383 742864675 101667278 581529977 301552851 25502801 521117890 993475450 900696269 88303549 466906607 909407685 757758701 562193415 198521988 946169884 953529393 324623007 495535773 774080848 25339147 250692974 433724191 554882762 208455632 372365596 279439510 965576241 266782479 160450656 529722656 512027086 440335328 19420290 8430417 789595547 634425877 289098569 274595326 347839055 763145016 690349473 361561581 781025378 995582369 18074734 221047199 408681081 132203770 523089105 837947503 664758567 326484719 190936790 926670897 968707793 799537858 959927559 708461841 994863812 16217521 116417803 625179564 399023931 861696769 669951889 979854334 22357304 653901141 723841205 533502039 960059927 585344273 598065386 86796527 14421231 301220001 423174202 164186326 523967164 374524722 572272921 874280519 577586706 338465278 250954435 493277440 577417004 279495225 146709650 720691976 618768514 629039011 981362569 726360627 579711627 2373061 670442682 389773831 344528169 721492800 810524848 313246582 580835382 746075286 976688772 344977861 564854407 219596928 611387530 410420389 229227060 799202421 501616108 843447611 656709752 939199275 777822362 402985893 654887174 208127173 189941039 14926443 979236615 669624571 116691346 369355874 168754192 209563988 597279089 665160617 847435104 281625879 598962473 380389776 997827229 105107575 268662580 994776878 511246323 322282960 241207892 589849859 217096993 673318167 789958003 427727961 197294716 705875014 980521061 709783403 996709848 346972248 998705757 947324079 267676283 750568068 349345001 441281193 370703687 132711122 171613153 764460720 332963684 350038135 228877521 575876057 979914230 579031348 370012484 817329172 705812435 93412461 891223064 65737556 702079295 948030513 548039073 435858860 669756286 599923641 6179416 121735721 20236987 234222781 283264575 479375755 995283769 101657847 177242248 439279189 601126526 624907966 83890375 693112340 996274798 272709330 377455642 35518601 321826262 681796503 549443469 683852660 352899245 496847500 439317004 690301453 276421245 512103082 799602412 553744607 441612952 285247387 439004865 558179787 531495583 943241154 250511939 129381121 999242578 731999210 343390282 41342130 27143673 191711321 601487462 102475687 33989843 318788521 428902375 198762689 750834959 140705410 600909733 560571393 645843066 262888212 153528209 992505747 369166475 273232799 11796867 645514430 33717441 249190023 824512243 55797131 210945384 227725664 670602455 437797443 814385209 554093475 690168572 48943543 202058342 144151567 76543524 642931667 766999870 809349302 955588974 55560981 511982970 272220256 972146345 639531654 957453227 569716277 511495264 889320900 151656855 443667125 279194395 499271900 52095370 760567334 948981969 962645759 766494228 59354150 806550055 675901848 682295061 509650553 314567658 143658920 103879979 438803310 146123308 783015274 854052397 125795681 425401822 223088383 848932303 558888260 759200384 252834448 731184524 983543706 229135302 555331124 862041179 466592493 739363113 530918528 949129025 516373055 368795966 648576781 218969617 483248753 118849060 218049324 343816839 617096065 639467845 131840404 486007060 713895496 439057357 395787702 61934287 897696741 920070025 20631430 33324009 630484493 491730794 290643995 810616439 704031162 177477986 170288414 369812458 591408789 730566169 661221324 105667780 162467260 202452135 599315224 659383305 931880953 964820434 795941781 180428144 502182053 766271304 128902615 753889678 782124271 164380566 396390832 8072880 817585867 636512661 42288693 557405033 731898885 603538087 292225434 889500930 45840780 897272321 237353937 476759973 977763302 44947322 518065193 195584341 78838363 276022197 302110355 913720578 957632450 963514502 630506205 197303412 62142753 611528008 469642598 799608127 624492857 721273002 250019225 477716220 485940262 624608555 31292120 873542431 856396078 882173322 185175595 365269212 68789712 493707634 771220233 268327081 433165538 29290742 732170448 801993072 998926200 982289450 310377098 33074111 721647395 392307655 199408128 196876643 2914614 968563822 908761799 491608261 106119131 463070023 249535493 77997561 356481935 106103955 748231278 851135259 112647387 635396690 668604518 892791036 802108802 47075741 475174034 158906301 716602689 855663478 378160560 534432814 223857104 534171197 646335635 3284019 755857735 107166408 584095341 813520786 29617320 236704472 121691435 160702230 115494493 504341267 670922865 138815840 980162790 612738415 904830085 443354261 152790447 968534375 985407616 654094168 362376139 420804304 461741597 52173735 280279909 236242844 574132756 846669514 220283996 609022762 664680825 740204842 275050838 381101925 825220371 253158956 325038150 749608451 601398972 811358326 212932290 936224076 387835662 598891442 941814641 46809880 518808285 323234119 531809433 909706828 267141934 917951779 915737671 320414242 46441172 509289097 410791376 530258692 336281759 160384089 322629671 970257096 311515344 387232286 64976763 630672045 423773070 536901424 696448041 638071458 346282998 350148053 299310268 7807432 251387987 222322699 958606292 874585530 239214969 546933720 956502490 637763440 428192286 623896709 880698300 909226583 109107796 505883990 434716622 331367911 797119167 530824408 390770333 615151959 476786297 638070319 336298782 274019725 749213814 400861278 90856395 471637897 394214736 870696428 860056902 172285796 668162615 629098382 209654017 202503060 457477800 350487581 426746404 753967046 596781862 512656372 609482721 201179436 295950216 626767280 884663432 214824555 610703611 567129436 823284239 718074545 978570120 527246505 150155924 60899098 988881243 879553373 445315190 303737342 666974019 15962799 27025392 540412479 434685592 223601203 840841615 286634427 162848053 716673541 813664252 938201418 350860981 173545113 58633484 555877224 639114690 34792853 572900081 27065684 278260038 249238496 150781071 59659351 989320144 307717531 796160335 932919214 114613857 229402705 760302169 417938465 567079782 463337735 721921072 998140276 408818855 772558542 711713730 583578295 239440361 616303062 718623957 666927164 751171666 541574887 234800592 377473897 293168637 286495857 533969517 995798050 619224512 829666832 654566931 130097681 328696383 674948525 43825714 262917474 360622106 832877987 421579063 489254946 902053693 580377117 562617011 456626003 698604149 623178435 316141004 272385220 363178889 817481765 791078845 314419609 580728254 990746380 262673992 101157876 511133041 744371738 435639840 355677395 390997088 122496422 480662494 221317877 51814173 139151952 679575720 497095314 236090366 568253260 255273658 26653243 455185094 262659010 89369529 270132461 252789670 333509406 988529912 734685279 778459703 773504942 833619309 149659554 639385673 11878109 903562597 956153283 915730099 678225155 106460472 338629991 253876667 568883145 13440371 476526129 75078487 850241374 138577882 777694938 98567719 778046235 726259120 473171287 36648697 302393917 575872874 410297210 144824920 399494992 542533838 800037558 828969863 609674683 668612548 672241025 41050544 484435530 412783108 530266145 901749214 528342341 38509209 575771389 544142060 198352010 866099284 790127082 106490117 339470556 619160387 9207396 687689092 147024339 749612848 598307054 667327285 408530971 27455134 28995775 232821869 892573260 779423401 864825018 907501027 724730862 3097475 463211319 131106841 890551632 945530719 939288034 752377583 147722878 144560648 883138205 193450492 12569946 203351288 677630507 873544386 225752645 778281701 533449654 465545334 763807865 6753318 952480146 721094769 98032955 276250882 186933912 180141304 791005880 591143841 593936004 676068065 654133071 956504033 744964023 613234046 151794024 116263591 829841537 604867663 211269895 572545863 155136431 96332656 543512986 814629744 786661133 914648664 810382558 70800312 495021308 126723333 558785621 173258033 101501611 900776253 841123329 124377489 391843721 524742768 870773254 500218754 650783494 313592994 392229191 425749856 686632390 143586519 760119868 114821116 597105676 623701724 426558303 767951093 235168549 307715511 350025209 27945946 994575420 105116308 156475432 453212797 196560540 320185775 206747462 690252430 885329985 703629214 822857063 38195371 455540316 189901609 842575359 113081176 277896721 945958059 729081895 428422465 58267685 307151387 231717308 545595828 632266670 288628607 955343226 216731645 152493291 879579954 546327435 420771874 344997583 859284212 48406748 34394121 228476857 520210586 669649850 158601838 742281458 685391595 998035361 3762946 817026247 622979241 626762043 922741254 729776267 387772797 692826244 418649242 239328494 532401604 6789996 987721285 250760357 85629876 461576749 978774881 208798074 59930919 3034451 276782829 403618471 327280301 290002209 50571748 628448969 424682523 776159025 259316276 674527284 318225222 441644146 397043121 30396144 622233449 436242780 248449190 962497626 22554964 803093832 27246718 956809805 841745978 855074012 154673708 305143325 458038225 255705334 102591146 247016176 990796914 959237471 86875744 874205313 450627914 626415353 678009502 499535951 932879495 989409591 440015993 304565736 935132277 115141673 472110853 784784739 789353661 573511366 134212026 400951273 303723769 240973187 484184416 178353893 757299488 892170061 152836583 658791779 245505002 215063819 914204760 758014032 664563229 430496932 21731094 575059700 303108176 929405984 210849103 713772331 378342582 987746232 826561897 155100686 369011324 787277558 964854919 166515698 337971369 823296315 260075734 179364931 892489835 954819968 894765442 917384467 807855271 577535304 492881999 455739860 396389803 874358561 605261655 57579027 907134889 24500687 348221077 179491553 487774458 395315691 159012484 925765430 962062617 232726365 922660721 286741546 881762286 444334444 870908685 109761344 69026811 808803322 107306743 125105564 397237282 723534971 342446370 808365069 253635274 698033834 601080343 263668844 435876243 706148403 414235997 957471224 569985506 249743061 918154579 959255081 295546072 505645004 719204612 679247925 17881723 954166345 527868145 624459458 174977435 708487118 696051691 601023516 747822671 798697719 348570755 768581667 458648192 293343133 860422937 372752284 256188169 34924279 369950224 995334336 631539452 273864326 676011199 191000569 800501244 11995403 695985993 286073775 725737843 438972022 195709147 940564263 457706280 423649908 820685487 67018198 426803379 928172685 413665295 607947937 337128682 260280285 14944894 858504811 54106769 611999764 410760409 218827789 178092962 303706471 602211950 68717854 179673451 738479964 460878286 11344222 841395215 804415415 554304401 174006928 938171419 23161979 247182932 433629862 777707295 501159047 566706794 696388575 321373324 902866463 744417134 314826925 598440339 760631211 814998421 279611693 600459983 344623000 989357556 580286041 492025074 171702065 53088949 95708666 408587520 286121908 324061898 660722749 679808850 272987438 671700761 775051259 37970844 468188361 689218291 723606375 958279764 210298718 823065294 502428361 341434223 999479714 995211996 862362929 484354237 972867852 70301042 449400349 473165506 194571173 701219739 615188321 361366788 831016691 181166075 656875958 381198532 71670495 187658993 233095893 226958969 541759907 331566019 875318490 545857971 28797211 150567108 525457742 205581611 927702430 537172389 308424991 176834068 623549242 38153430 22678409 314050035 543152382 380608170 138759144 674669371 67066248 170375852 70161061 856935165 40275999 173072692 659544324 540814989 626845177 559970616 747507414 694234768 70957622 9765292 851678106 59704825 634315272 75298163 397572429 658279943 137484580 287222850 399079616 862832839 632099218 87232564 570866350 421935981 30424975 354320404 321228409 357816140 50895179 29151656 745165545 40394371 635889520 918114647 897662459 441876472 348046914 470462205 526845790 571371446 370254712 556994715 550885518 437244828 256321488 632858292 112468353 997987828 504935152 138293432 211912727 337687193 508672619 720816874 941598491 227327920 383097178 230984532 532586055 932801900 904287827 407269840 136560697 568175125 894166395 684189433 830039413 467863155 614573962 70576802 657484640 420469548 590296136 550686643 787428303 859869666 228928908 226128824 163103893 20808009 637906059 889810119 259525994 836612603 605876395 850059915 61114870 34036773 143396192 546774290 642627882 231428296 648163448 191226967 94248518 246209072 595136346 464274019 267460984 144116576 146422046 496340022 94728327 394436440 947222152 411943755 522998873 752927195 261390909 316849777 278059053 553724340 888091393 287784998 312417671 590204966 285496027 198604824 714879688 530581457 935798829 897723003 703653428 360142236 396252726 979379566 653328135 549024052 422326274 457179195 618304202 877909638 461737352 687127488 776152179 420779402 124262687 691879890 905127304 957425454 866926443 748503540 243460849 54189624 933204193 781580158 602592629 188606248 70615148 19663788 620209049 42123590 581262273 586078709 560443338 349744533 983117879 89065112 893345045 894437914 411790378 389985080 580990896 327751965 453578707 890550064 556844421 648395512 539062289 875026097 993925954 133556917 698387124 524994034 357065939 884988119 51405835 309688222 500486725 433730076 229408167 343306010 519309332 610906843 521977383 779937665 623569696 278615450 126190300 669083016 902771372 715823099 141050287 988175180 984193173 589552749 799393651 973834823 654840753 571004196 542549356 3374596 990601700 234824363 639287287 444746995 792717667 550399071 272863810 873392903 69487787 246640414 474799709 572420405 694951512 411347533 605699520 780041712 601926517 226553110 553644586 570697961 69593130 315978981 743690078 794484129 560959002 916211165 811662917 453740442 549800474 49228649 2629102 465637946 800458656 800853848 644149540 821095058 365396970 455168252 941718057 843642052 588692475 118636857 928541752 173647771 770997918 289256061 225772381 924023930 832360044 920218247 889341693 10625601 532431389 655182850 677263805 277458575 946085194 328153226 972010297 98541587 255154164 341292831 465074543 702788604 175080338 162244324 985802476 146816073 296469197 642652415 305071681 905981372 207336083 926208903 765175283 520556440 184096749 443909013 550000703 898942208 11604833 267296084 912204915 301001919 833990060 813327780 156443031 13859694 812407639 60923499 882853770 328626544 295304971 291686640 109794254 111039103 564137896 931648066 570022896 335744390 150159398 663983858 157595000 788813177 215426490 297071278 146192836 444707669 35581941 16284716 821052410 404461711 877023202 373164931 994539834 336140783 674627562 69521130 941919038 171127288 521345381 256974334 24050016 36788559 959596559 12976966 673807553 72232115 912265028 149922749 23077508 958261745 873117846 845306331 520234962 320657905 601541340 962594725 102194813 480293726 615900 691592355 988109080 376279810 564981730 706332898 800382708 878425195 798764356 168432923 450232116 454021798 948269117 49077412 468014926 654610299 641289671 341258208 505349940 149690551 887059593 975084844 935896757 808379714 377893211 271174159 648956866 325194770 443290976 415628430 449583996 830079025 376562771 984369892 743360056 872799557 357364898 536320065 317185926 335409764 695984027 11458490 320558487 605143461 968949588 893877093 88527000 381702020 932805558 21671741 487048810 129311962 466887294 292773005 346803562 77654463 238352238 210508022 830219311 54286855 255441250 567436683 907552018 496679326 468594784 199157955 253574998 570159107 36532066 384298316 972690445 608714491 927557747 123370534 784685700 422581610 265686444 996670083 515152419 854599564 589368326 828850339 919958486 660138030 8539491 575016092 315944222 932060654 981321076 9206816 944870570 564297011 125277153 488983729 605124029 677750788 560961713 609557737 899235096 519447107 546104827 447669054 762873972 715458594 693857367 601129941 736723577 688669676 485540269 676577313 390065925 60314839 788337797 656577829 786085007 942867047 974688858 311894161 505785128 534474180 244971286 768914354 433119355 948418773 314411517 825312033 188775049 61597830 693916439 409730293 706324232 488943898 203480274 844484041 591365399 393953974 7364460 898377343 136955971 312529035 17739287 961464929 704155472 431487062 887513667 142540245 297465074 722103229 580845511 278560335 816552055 716008202 143118125 251530449 63697365 131336442 160360662 555228763 884194751 651138415 182665732 15579906 146764746 801719779 280953431 555630498 466012777 678011773 87910327 753023516 61124376 982554388 612535831 86782841 204932605 331445489 412207786 937286767 203774311 847635412 967143081 788790386 753038889 232979212 433268204 617190674 588450331 424296044 213722716 172639676 67786687 450053856 527261552 831870657 812104370 857033425 476574856 22959282 526020510 535663015 409455571 418383049 834770883 429097056 210593033 375389152 544987733 431036480 348409666 506230362 879141267 546811771 347215769 427298823 148391671 129457371 558805336 479713053 341483942 330966327 796213490 795466831 110080883 190132 958236703 405738522 543490285 473943637 846548749 835353535 711101893 445994735 648576192 88397949 671734245 833380805 850837158 462512031 640800673 521939100 510637403 43047780 481750646 751498801 699858452 350936588 406729849 644629576 827160604 236130172 261471837 839419037 391291832 666169000 257430555 621460968 690742711 293001274 900173870 76097039 852923669 417176707 309207260 285456108 251565878 481836094 28579751 463397684 926864958 270172968 598029216 513758135 180572000 376635472 223546843 114195940 764038609 495065652 184409957 658052746 290767254 843569411 844824221 591127897 390661197 950078130 153503401 590052638 791958429 300189519 116340444 147940352 296072094 365207918 257977082 788152075 673704881 482946066 574738742 472733844 915961334 494073020 642208377 569698088 70824728 607432538 434615150 529722986 918019402 112357885 552070510 26051440 44153513 987425836 550447339 539232092 317978537 288158710 919738962 99464630 692716348 981989477 481839137 379752211 814483916 143475400 944386552 831389383 271610658 156510255 245167810 241466560 207081213 466199792 795001812 936354653 269450217 691791786 354494473 272731138 944620620 502629684 214014519 759899822 582160388 298185220 596475047 120818961 364222313 729293379 270116182 281493370 641885211 699350928 331922915 190707662 667670947 323542515 93362479 992854055 502045368 726260742 543680288 312373049 274482587 82875463 358871674 980180502 943130845 888612981 762294295 428749177 838370254 569045425 857135923 352679964 135171869 251797957 166074022 713200635 645655645 778725892 102388080 68274343 601037605 464374860 345053567 852154586 935911417 299339897 850413450 622957551 966318278 830735891 750426545 133783674 665311155 428048219 990724633 449139085 945664700 125411555 348297595 751555195 826762850 603001288 923674344 234168062 182453736 165234772 588974298 914499604 248964843 315837714 634322654 43442719 544036050 268320138 254097965 191766448 763266011 676310237 733755527 205219642 437887144 935406819 97815793 294513228 634170945 164042496 38603210 139580166 550954999 49150450 876887198 436810831 376541265 325010856 265245346 364219126 618661576 853909975 549816452 644492733 23572715 75469398 294919458 31471316 996606546 95175947 390269081 741838104 626846490 298033379 377269219 193415612 902181293 836963390 910089580 317555957 870915618 341358181 67380669 126209542 193045351 213532893 745166352 694470713 949296851 194341181 626796929 297838818 604754324 293156906 825955674 169154750 163228099 469695873 675424096 597527030 148314199 820459147 162079792 782352160 249134414 91185658 583125280 439744048 104275486 204559013 932988005 141853185 694104228 157560786 43852527 274994380 535258337 989757807 755129549 988711081 650258395 897011194 790405324 741149654 357528413 576490059 704240955 11501068 492008113 216289957 592315842 111823401 390284105 540037799 861735170 975789278 881710469 815208143 22825080 196972268 517506604 585795430 85706107 754249109 277227074 436906521 601783757 562897834 704972105 8709269 826834670 773680864 193941549 977618186 573958958 873080742 777653583 535119836 487517391 443879892 439919447 648773860 386537083 131027495 403791944 170416408 317081672 381770264 67611815 888213928 430521280 325323030 162082937 793831579 866173951 643173066 609200202 50472672 131670769 210384405 246153911 66416850 853030364 983608494 43971441 860181845 465783756 716911159 15084035 864963448 292804888 356307357 181185457 440723656 896334882 196251064 223597645 723995022 539504015 786597923 127125630 738954211 22847414 508863494 476695223 311977959 497853571 330881844 731646571 409430626 357513765 220140274 368030019 241494800 138678357 844512192 266439635 561386813 873791927 107828273 300358878 891404861 24841873 42668969 327030876 113163793 458101603 897567558 499431348 593537356 184232792 700368981 734680441 989650735 230210581 507407777 188302303 398542065 447229602 816520621 458299294 337494922 707989987 435110448 48575310 927194437 440476993 50175362 187372784 84496591 753940107 365063378 307261859 212771762 867796953 942155935 391677661 830180744 504879685 148449782 575486790 996432165 247978639 935364268 882627061 190525035 368033916 479806311 686074884 571636644 63502690 99086435 784868964 320764374 335061610 230986962 191401198 135742804 965850402 759348563 710648928 212604497 195258555 834697493 140967770 816725107 227312871 517839480 822410083 87452835 680136071 553107367 554422006 800497970 880306073 253275210 424171890 823069472 746121491 601822452 572868220 556454107 48368558 790885107 905687403 152313840 923687698 510239431 75150700 26703697 256778321 462237458 276479153 664513699 263195876 559125675 123025777 575922672 887505306 647380878 935484730 753904551 321383490 899468415 861044706 107100465 594582915 633905850 516840682 180152668 150511256 164355757 51365337 305067599 368318023 943439460 211453430 595643680 394888678 368929536 738965387 331170979 551431554 663721829 849167031 282991457 84978036 647790970 924845786 735081280 792779557 703797855 766122684 497107223 178529388 407455217 269231476 152356595 489685129 430634666 359806202 417694702 191753829 643554687 129515477 746629830 254271278 687858454 178323635 908589852 764308517 268251085 274037072 510733939 317144153 803752231 112233172 249380397 274086274 302397370 749886590 77326243 563273064 563546767 796590795 761963778 564533187 475886087 311796508 228000319 139689427 572253164 169409663 725717559 215905099 408859226 70842646 60030824 86319003 620963000 641716223 432182198 742179805 919990897 540042732 282255318 757199676 210468641 593165824 984052488 570073402 658604101 694983626 69713489 912123088 488894893 42091189 686849336 173245099 842793310 715567097 78679947 379812201 388477888 627861260 494763343 662557514 563488626 808551141 177265638 2365915 117581770 247583339 163459221 725827209 374438083 616993568 700026390 486164236 726248440 584019506 805323240 958465566 520574348 768408955 233559348 814536668 535123040 697016807 191039122 65581136 627687386 216366802 640526632 604200651 183778590 315381507 685420753 485548427 9310230 468290404 960499610 124315061 883054880 856840977 515236012 100873966 169981668 32466271 112805426 215798254 823327092 362503870 463544142 806102367 622083971 606855673 364836606 641964583 262661704 276331182 572392671 929268373 761208026 964258005 736398226 229719654 951835378 249152635 792863479 6854588 187690163 336496552 632356946 363961381 920281043 344964300 31579050 867171394 724807307 338512446 161541245 181147282 936990182 3422079 53461510 809919271 76139922 109442091 804313313 912259594 35874937 407369288 377912892 98357626 49414959 549251960 750278624 732810900 860678066 382359357 506786562 383184137 582746649 921521922 271773528 57658176 303798484 522192105 573876588 512931816 422270473 74901355 341003510 873112514 90055134 926932893 829376848 640535784 306138654 541574421 172317559 699134742 681013811 665163263 689008770 181925259 800582409 626810912 505055176 437216427 178056459 372703096 72010917 314107800 970139109 753747734 964448313 929821648 987576614 978856849 764738452 666021921 567696715 608553431 238768192 684191450 742460428 404693042 286293741 658446201 656770109 154745378 499748285 245303294 896210202 29033426 228642262 441945879 287211175 646062371 445454074 926341611 69791246 910958748 932106015 723533378 306904093 319754885 97341048 342776949 218143064 905882282 327510796 50997939 254513647 125526313 262541399 221132029 654699013 626293249 224042200 230237834 946295377 731761717 715117007 673967974 139455890 415896985 353101375 399605281 914402588 696561559 640377185 367906166 41357588 917017015 565040225 226352732 55552283 72112138 552834057 245496140 848384916 187963846 909588383 184748928 641678872 562845553 344287733 68343453 617971087 702328264 378158123 757205483 859942764 747908829 888249024 949941866 779199567 619660872 430730575 590620626 920233722 810382867 82964757 656729764 666369886 82525954 316796705 110191512 480289681 623986202 393097332 110730387 610084960 137667572 818877489 610111850 563683675 716967879 627325749 523291350 704534966 611514116 130083615 771728541 669377304 582502976 594219136 169391094 10011822 331225787 876449283 340986237 269226920 240359542 818489840 585001839 767184254 942642583 692544957 504753734 270767166 634228140 939771602 673531087 415456540 574065383 985475513 9600792 731539070 809586983 28278099 64656820 323039580 353654329 994962805 797432390 726965058 244880647 297341419 325480469 615545351 547915215 399587341 550688862 952785958 115197201 400899882 98079038 38736857 300898485 625233622 525311777 907985063 20278967 643080182 48813538 58764194 463711567 302193385 195318495 652926966 899964043 39261473 942610459 419952928 307171620 680994608 61032926 202143593 224452917 119394860 702818602 903873647 149684465 120097922 986523287 713018923 602804732 852599892 602843586 513239998 686877995 714714842 70388459 323369040 313908329 217501357 858307730 78109810 196893130 806258359 41385823 940466482 82645308 191409570 176520989 854503531 676752773 665436708 662688224 703999150 253318650 608921203 232593019 692934241 411336338 928707648 216957430 501915364 135205076 565633684 433579204 16379581 128606575 348053012 561263409 457692379 418749590 264046347 756604033 892500411 589803580 271869201 331821376 647901342 925898578 512852601 144657961 991739734 88449800 66980812 79983670 632519381 904932373 512650728 258066308 546302575 48024377 800033916 577978351 925238318 998993765 577911938 862896512 992577365 226966586 357361283 520377185 303066110 512494704 640473444 394935456 391777854 763007236 980803714 974347827 23218329 84316770 375442136 963623956 320705459 393063382 410327290 634519051 539763811 711933926 204067684 383306365 172249260 28066298 149381713 921383601 373438658 17895135 658686844 770921229 51439876 101524707 433013659 442557247 462462591 54894025 646693833 148234075 47441311 619381026 404795758 272611599 967175748 982045421 405923471 909294053 338648064 730571782 899589990 149871641 254395976 138603102 411102688 196355742 273021731 635823652 836572553 967989500 601373469 530545760 790358738 759063348 10909616 310380907 910706522 826596410 435694827 48808463 603530851 556929511 883750013 950536712 338168637 710030710 957989058 800879223 985998960 860168489 932858172 957165099 684545819 277035048 777401472 709767090 101286183 937069982 319078608 93327262 374349223 273620459 599593078 726977804 997067840 174627803 475889959 93212377 26084425 122269452 509009399 942166094 982284396 54453979 978666731 842187151 419883618 538731177 511205973 10319645 119283863 374402228 389870860 784140384 891797413 994427637 748791186 766683330 819564100 456081265 420886270 993711497 837427637 950999888 564400593 554012453 383356138 577266768 730940938 685407903 126070608 73893477 351489435 286422584 43606414 736057762 70195044 151190363 476359602 335498504 894079700 388028689 486653751 984285168 684747093 743439830 454602203 307414040 344802853 412078713 595433985 366025745 141288768 679559641 25155 504020915 409604393 552558672 568144792 590803558 240441101 87146164 159976803 405064951 725208323 226480993 472040868 660342602 392430821 365752216 436566123 135353918 864200650 365630391 788462937 472817740 159485128 952083943 142928704 681132400 85867175 527223402 953223706 40851308 134648332 517662360 276001931 283598180 987478886 346858011 845591922 279409038 435417872 497281297 688595653 587841384 938318366 812713755 303398180 782147378 306073241 383672666 66988028 685423235 181509056 25684943 958654284 977032264 547285103 868137698 613165641 125795465 901187978 892608845 703124759 898465801 864329679 408600473 37483718 563635110 24944062 27404314 476093582 45358972 617960107 141591787 602866629 736340605 693889233 235849198 444234591 328113938 886783467 981700974 216466774 246460103 923308368 24803581 321818063 811491507 726751960 461285703 8496477 62112879 758687602 852663063 496587742 150606949 804603879 499061708 174440225 393941467 827741950 631070901 897683176 823706986 639232560 28656291 358821851 313364587 66165145 999418661 809291080 791539226 553940034 501866024 526136113 581738922 802775319 318036067 627990519 922381769 953758230 647421102 56402203 230809089 625056669 663438283 386540715 619791928 754647128 563270185 803534127 340372452 437835549 642103829 419543818 504791184 968393834 995072676 872674792 438529093 815559110 797985153 101693779 478931465 873764050 180370236 389622203 320844852 198182007 297644506 499655736 91893993 288296254 212645801 957038171 899461579 794808441 955901149 28493448 182720993 858811668 165388730 555057032 261408850 625469407 624072055 973064933 263484319 218499284 191324646 28602043 454742965 915880115 364650701 621817491 148547514 485607576 592562618 526618035 681705510 462556468 494249621 347969414 571406171 2952462 975526828 531729735 736612598 147843153 154039787 60399371 798255015 443397318 740824687 433485712 498343871 126298874 118590020 363445732 396914818 841689971 351111946 358936010 610661945 82138633 925537592 342107759 200024888 45649333 544463156 209913637 384564760 458685245 845527947 502394725 341642312 979494822 924185902 51070545 162144054 647192097 376220861 242275994 509169485 203465134 507890413 568334885 853718934 578441835 575214938 628661867 447728711 839254169 984712835 929394028 365187004 704086999 266743247 515640613 994230905 101593175 363012751 919542811 891456880 883422703 352124888 322556751 587400702 205512898 572000090 251417128 795869990 923980861 47831720 214774417 876371996 169015906 942392694 378033580 739831040 914251292 211312636 447130398 960901587 2339539 624087986 140829853 140627805 776275023 457784393 936441759 842148582 404582505 739282244 751732682 947821336 270269354 136348331 627838602 546044076 574513274 596880368 343541980 716658745 473924845 928489087 637327667 419631504 106078816 836494071 192948581 366410146 696587609 733208556 623990159 35294349 599934532 488192326 617929645 773833121 381880472 872262830 525932218 490074590 251050935 808921885 326514130 880925748 17352146 115646539 253325296 350386113 588071166 659080064 485221325 970452387 67417540 807724033 510544513 710456910 685754653 712634026 515506562 540548693 562323471 687023266 636742542 620442665 76978094 21205249 134175407 367354644 135496187 512891636 413398182 608021592 960238807 771536645 924358072 659643277 693780236 86430089 231278691 975739732 529643697 488930748 34316962 835536230 400267032 328343977 217185186 248639286 95158970 276374689 933821232 775412669 793457760 369721466 814432017 29079343 818880415 831664889 260508399 121423401 873422918 487685120 202374680 511802390 51453469 610039630 385769573 763037356 927645180 792301366 832076242 136611575 959189628 158612504 336485374 799646909 151130943 867769140 496881117 17861886 628662605 909864719 611927633 807874084 157229020 901915606 281629068 377281050 685115687 639408565 609872294 585109974 757570053 691373381 995570211 282093480 641503563 535058353 903559324 599107944 895936752 820886574 462478371 204058936 228515673 124750586 175474601 188496868 845785179 88600306 595639990 614042778 292405063 885734543 4673180 503456797 792110722 581939818 936137997 219629646 344269251 323341852 48974437 742262363 634214073 862016158 177686006 323560034 423287578 971500042 279019681 935792489 873685082 400712650 941930720 738142120 231906935 387573661 121412172 962137328 176778925 307903107 594283925 946405707 871444045 889628103 191601785 908512809 85338399 625899573 965290225 249201879 722387668 733100369 552960600 338037605 345202733 178371225 215591471 38287876 334228653 398830128 691317402 97395456 795050747 575338741 581525383 325588942 604139921 429624006 236461988 611230483 285244819 503889690 621416159 898821279 995560810 716438785 818596587 30107530 768336365 629768646 293424970 799035865 376596214 264773468 579888655 609648558 881060111 429464972 24738611 749676311 283958912 136323300 279924413 774830067 460914498 209345598 318057255 678885906 263203760 650124278 377803461 802769254 723679689 675193178 643166046 250670594 102295717 104059144 581275693 945305341 182245281 190055956 179544271 797210817 581068727 919271716 401850582 401401512 781822639 716783321 246447090 806183758 269643462 235210426 890910687 460434869 672025988 852831240 514915667 465956094 320703018 693859415 633467557 584804832 932604040 798510494 652061075 851050944 224725585 201616674 188223102 951401047 234591417 885393584 381592819 297531379 804890435 388181080 424281612 120839217 471798201 478358868 374197479 872824773 276928932 344998685 957242844 18362558 128501194 723604913 334387150 659627972 787121718 866312935 455585977 261159559 318348983 252298912 76853064 37196995 824210178 15069379 202310925 439778123 46648323 304742301 190173903 140046358 146407180 357835470 23873213 796105436 588320249 603754622 684568634 549644114 712684558 415112700 245523563 204134614 29132717 524083464 767074510 468298396 536368084 739062863 355054541 502192309 143702706 108933564 103375369 311826313 865514897 440494617 409086743 189115264 532873069 37350071 140889156 513521544 801846159 199595636 410760575 431190745 573940280 547549253 831878119 548308287 169287391 528382536 400456931 927248007 394873537 104899589 44310451 799391950 849757202 690255271 306235288 123798490 286342395 671995552 885049568 3227156 890769347 298719529 970851274 520439928 583031453 718670869 214860590 310970506 537265310 157774595 326734298 156761651 350843386 984124121 633128373 243480031 61699899 404461 778083717 152067716 712422264 863628706 682227474 230061998 996383100 781068468 562852432 545421996 26008175 825774828 830405438 230963448 471709031 317515338 712034056 163285072 649271549 203076665 966321438 424103622 706387073 437648312 344213466 149706016 942666150 873340968 739776534 398703918 887889143 839844673 41301949 827709695 708221649 428811228 447900791 442039531 576001631 937148127 676056911 264240626 421508248 862321891 183303956 943925394 66339346 109950611 4727669 580048605 740563631 937231625 787515457 57010284 10852946 28284071 321267143 880815551 470206144 817859726 703833706 319420865 991637798 245641322 699495414 887886127 195176158 996401170 678195242 29136016 582352009 913693978 475087837 159680948 622774778 373589891 270565838 951082870 458599957 330467293 652976366 774066417 784262681 378533432 741440360 259469223 217171431 554974613 241651993 655968399 917379359 682167410 245079250 310248482 48779537 678356326 684792910 753411468 310377199 474522485 900238734 496948195 912191249 165856382 198213832 252541620 56552195 30820592 583676207 785058094 217839591 546900751 831813655 743399983 791792877 318888939 142613052 273413220 573829669 255700459 379792625 768146710 860334774 168659753 182553981 599764332 112449215 9393680 522987384 900778911 644185972 870194210 20201389 972975111 774424656 608416448 220769057 753226922 997267193 55404099 616183638 657625743 199738418 933986690 975591941 347156751 741067480 923300769 51391599 698774258 796010274 9081551 266364562 623489820 116286062 146042468 141005563 951245592 309736763 235815654 763993514 721719140 919996049 837265961 480986764 700278258 406971703 502240797 559224983 331875317 922765370 914330429 928049721 340701315 601956035 168452055 8759778 456852299 738851226 928665660 68520154 947869988 958982996 268301475 57990830 681947466 207995709 560276780 467531563 753009266 580995176 655451931 403617986 706352638 207495889 699765559 505101694 656641030 992806301 738588994 634682809 407010842 975448116 988892808 60757449 867213283 86694232 380470192 471403839 918764194 617617560 243611592 620189353 909343977 599132627 403857157 973042242 40402508 470733482 210204353 269757752 884787391 48696426 238503213 206865170 762267180 887100846 723330466 308759067 166066492 845206884 46768000 669813407 848818202 910216053 825899700 373107267 500720363 302239734 475696972 952427537 673311090 815021853 575426222 855303687 325430572 764438234 961135686 978264887 227432019 832070377 280018395 392180909 229701313 121494938 705121560 553987516 590533458 553311913 361026967 638165939 170141428 410689245 447805373 264330940 540483600 362758154 144224171 317398196 994844432 863454207 521772288 568191917 860081697 768236415 585073860 146609691 579234851 227369787 238559048 204878436 214215131 293633786 153781531 299461552 197151466 189280244 856975806 573500410 151976396 410333310 641333032 726844927 362430545 446588962 381651327 66063153 715209680 957179211 842756249 678909469 834032876 310185733 7895733 93671260 470803075 275016453 375618067 784879716 258893182 715060968 435408660 849898405 382419951 156870148 361004112 90621784 881500329 218115 203988782 759857538 703400773 120422682 257989873 536960480 536371193 283940508 937713834 20617400 819080979 590328464 240707719 938741839 338715255 656424021 148617607 683226138 654195824 82423337 76381596 496546293 502286804 254376917 501103073 42199519 695741860 378535942 947745362 963916434 13031604 297734639 750607259 915194704 680688833 656570403 479189177 523719083 244163050 18188859 694972463 782265683 896228963 954936494 99013519 54582096 470683276 833560730 366290382 581702704 475836652 158903586 224491710 72996736 579542244 915434500 710736242 887825992 72219673 43864334 919371949 416526847 685778047 541302198 7016548 575843767 979181482 629529151 979119269 850768703 983939644 878184174 324447236 305594296 768399169 555711502 803500930 350189528 486312236 628958367 482090501 789459477 592728078 52287000 810975228 685176060 808531882 730524843 715958041 105100737 779208928 925381773 712740896 951059874 428200154 356313784 841189203 72205168 683182027 368418023 124034699 119971456 188081818 760947409 599820133 553915062 410277050 588661854 658175207 56229812 741394540 992464843 585135424 972342956 24129911 833509430 971618296 222171706 998064399 595332885 569866734 387612893 774937471 912871634 525735325 333598106 698247797 91769879 752924745 139085981 942098013 999548359 829793379 964421487 675690199 829162488 51510715 334996149 606452754 298185439 556834624 244708037 626772356 993084560 684944424 278633983 989465932 863213941 659166515 134691610 282267978 849461064 211480483 431581170 871323624 646926584 967425560 267270003 627116108 149521516 267862950 965229977 686974632 337580101 694477441 162899908 728311076 909397561 795931849 23007044 80739928 255892453 958428227 48132099 902999494 779249429 533938157 919988536 152361591 736869199 699754817 939311617 543427412 112541783 495224613 994006650 724646404 836556503 614009051 445762089 557397465 975640016 799772606 62117198 71075886 579546597 389591011 478271989 718071776 496259687 524149153 140693161 955373228 559320240 584125888 323403074 482884470 545108858 398125137 78814628 330946179 378191110 727009617 36170770 595127267 488539210 261498358 513311734 770746445 81608894 451822246 208552339 838876780 795864200 746555659 53998181 427861471 391288269 443612962 672629180 491751696 957592744 145361212 336919271 533770260 51253762 242071830 605934120 549408423 21941120 613812380 450978565 341080319 130593663 715535258 211872401 212678052 173646951 850828817 240591617 878346366 371299440 491859765 967074800 207708339 201725526 724636159 241035507 396309357 207939862 944717617 548178104 353554713 734055150 736764381 417873929 782468009 109177399 335442234 665253492 905560423 804985833 881501303 655387885 6625991 928813901 575318142 802028280 40058217 955932379 503561878 656067906 735435449 621675595 379400186 932189783 160022260 772945826 229541402 858533149 901093232 477196488 638940119 650860084 659501526 964165237 603184228 312845451 873294584 408846435 681839412 913614961 751638829 360116353 610023690 118511229 996717559 138606323 936441085 758554608 915503944 29333084 467350759 869277949 830901242 931803322 302916040 536585053 915769134 358331115 321377347 676558590 685530466 346693820 42080025 232747906 996975147 734673411 686906712 352211139 223355826 651647605 418327760 534678491 780199864 498275187 592920452 459281037 481366921 482924198 511325317 836355822 650289632 460562713 440782249 728235076 353657968 228821045 144964883 906575171 647382933 375495097 247562568 34729816 815187834 997461753 11870364 264745043 728800537 871594691 4893691 13692541 685602881 159415182 400664515 465213651 216050965 475412974 133150079 161131619 156695309 806404782 284670418 303941585 578275099 93617048 2616387 509859147 193381419 955860842 994367808 894360847 11514952 610375869 96438961 135921369 933368020 510859019 836051932 975781908 847646012 165598247 423231081 738020542 817206601 106723041 33818987 728439091 77659362 496861892 903080405 259908194 539530215 274485118 647502889 570340858 46659825 295852794 658458355 587633012 211644767 243433246 345616938 49614062 477665184 298316837 262114196 62673235 132053977 579850845 898628920 940524263 466078919 554348699 593592 294862896 492978173 970164806 461006055 664674558 118644922 859383564 617809542 554936466 63690958 829096551 212909836 934076352 179223249 763427497 674394895 28486583 355452167 36566690 509706743 550286644 266685631 73946910 115846478 574518463 610758150 753871945 540218731 516488818 244040495 241086822 258006807 894840645 369230974 354977603 833056382 977046811 857352910 22468801 112036728 22230679 100885676 356518635 868161634 182147308 45804484 532888818 195019175 386201298 656231730 286575176 152148090 365242389 24910631 792094427 567245479 420021661 956067026 140323624 957066246 339904671 785612958 244250748 112063963 139585877 713106940 547375236 761560674 956330343 593544313 602603500 649510447 53115295 682696716 691288756 781425538 365059164 292921133 525376979 619662865 319639160 955547163 921495611 343429050 788024162 306841981 896102633 640551449 586085544 514875583 333032418 727478894 903808701 595165884 797766153 940622269 510092186 221598143 28801901 606084293 120388381 56446824 695495389 777480485 692744778 956520633 258683129 688867432 650941287 859138134 314409020 940337020 485655096 24825425 566549558 384594781 303679389 874593745 136318839 25960717 687893741 233166639 590900729 96648853 270461938 426564002 915040508 613398942 975866324 314408115 417898734 892947855 58511372 762480674 938403029 38884797 378217259 813926757 79639898 200934670 105356033 280059404 399284488 3187810 834338407 63326225 11136779 244039598 525206124 943667038 446834523 945017943 666668534 116250739 241027742 371894645 488575314 491461424 621579559 979838006 302571026 843655565 5714013 604514225 361507386 227296069 423382800 921353044 155575740 850181701 124473603 65924621 717409779 629210056 362669614 695159053 916780335 402789916 989286496 726667895 746813249 113652377 292382015 391844972 41263955 765378066 406089849 540798826 727131699 674215488 46172685 757633616 143545116 28571651 484369318 634363136 613978485 965827448 12343031 867338028 638898224 660367454 922406257 802934977 326113360 630062892 64279140 639495645 647139693 12053969 844007363 831904067 323520095 586639968 730099446 250898169 955727926 323924247 804280546 238591821 394349607 781105954 965024721 417655553 673794007 105159320 348546557 711381564 478294007 842352159 158063055 723928762 202740142 381923578 184262166 730248813 798844602 254766814 728446348 646578169 963645761 258632689 844333840 808559366 386173151 368532866 800588969 154163397 920356899 766106151 281961757 913742810 373264056 250861185 840093520 906650718 136564310 79080630 678539241 628040731 152557238 475065149 609366277 790403658 260423797 504951273 216623544 23905606 250429578 578188966 602310648 950079561 789361374 334713063 166568633 680232373 94442660 950612285 45848826 652007863 635058128 302771822 722287125 841470113 176599051 592795462 568924949 215067572 113432528 854044431 196708321 275499326 423831142 903327788 926063412 798239208 316443753 664605764 523373841 144300471 614165059 223473987 356269273 515320088 877077699 698296078 970819492 902469376 233609782 304974442 820756013 344834275 458471931 943739797 452915545 167679565 160913184 346919458 121337962 112742250 48266023 120284654 525984777 511324241 176660109 257062182 604193594 725802560 42688830 776512144 223355298 482274351 107259343 861086862 405301014 331568379 602363322 844891307 338520659 353781852 595614214 174123032 742456958 681608442 897021688 164680221 704383938 90497705 603854859 133971252 683914639 414393215 359633818 258068397 951663279 510307988 832643432 398608998 326320873 147855405 276690859 472164363 298678831 590217919 219373064 513257483 63085758 682946263 825134904 839433159 131867118 233729332 80849742 92593331 318147475 795217222 822230467 559955051 60050714 457135872 788635190 733119732 45402762 871519069 57749462 855891397 677694213 854632672 332284910 214074209 482852645 388407416 248711510 753656425 381395986 930482238 294788087 304923597 320811300 318111311 61905011 139476672 569374063 159640357 432957819 486493496 745370428 817090105 765752521 346724469 448083935 579887363 427909638 293804985 927277594 121923961 822651287 429861569 875003622 725894430 985521857 699602055 328716270 319927606 267932952 554164731 207295861 985904394 364665872 177442292 376191859 94464845 944259725 239160907 900047659 125092668 844544751 472605211 433216967 836437038 414808973 320785982 994484261 529320036 131004794 842547244 363426430 648183541 666044914 2072597 350919051 71313385 610831339 755189692 986070591 882444841 331503619 833804911 943834994 637104083 564662338 572144251 305554279 589925095 866676583 735530881 518315483 363828053 764812118 155784844 130464953 454361121 81335912 233504866 478801115 952492148 311656732 57939787 678408542 590144496 471120968 401965209 854542475 6764932 158673764 828449558 568730307 392570159 635459185 468642381 856462332 555795091 420776493 10574949 839576648 36065792 596407858 124599249 618611957 319613625 116915293 65997258 80448180 837649197 328167953 325119880 769988350 586131627 47079917 598236626 349427103 139724701 699393911 292132684 858241173 735501488 859142585 214757436 924820515 535553162 123840340 664294998 190120580 96934936 531963316 294891481 424560374 928638137 873340036 309838063 551800463 798180502 637185763 477471122 10419737 855137684 455063797 673347640 639226087 921826508 929251668 909392761 667675954 787557349 830199788 502068376 300398820 332501344 925528649 161644089 272427274 754482838 888268720 207732781 566722087 274340235 796961366 304570564 514651123 860440782 590969983 216738804 292381160 615507205 59402927 309328833 198298541 265225486 225563088 207221413 25230976 744976107 492261605 763244195 6556964 628330581 676586976 713174832 407397736 924800799 276143430 110834485 45376154 814977006 586442451 684082048 883414473 118793318 830169485 487486504 257874304 231232252 206227533 642636898 195561586 521807987 580204137 171064916 530021105 204694499 69463630 146009793 630522961 735503914 303521181 314406004 446923165 189864183 401116020 252646693 945195171 574359327 247513545 40195950 70029359 686429151 386229841 421808821 772060356 159278703 535282960 454501957 170568423 50371194 73482063 63823444 350332116 982604262 641077774 320033449 590551546 834212145 44722170 986183424 545855561 774091693 736086762 368660371 270794631 765091186 646351876 847357304 65642405 946096952 180583457 610308411 609578014 396330246 910857829 682398037 647418917 920022040 182968584 778122319 628391350 528525097 735132933 583356562 762096582 335679934 799249947 523087322 584640476 908747247 409686900 797983214 42101997 457126712 458321006 463412306 518496336 895241756 194532792 959823616 388478542 370859381 160412604 957732091 542961193 85395470 639971345 905964042 705924788 188606737 95125220 436607350 981994394 949551898 259844083 528598464 428355966 865570521 656616666 779358810 424874877 97751004 303829637 798755765 76533942 882090430 254911126 729276428 352871834 825315064 471638564 604384966 33688659 632579506 524144170
