100000 361710770
692339807 291032625 465093313 916658626 708243262 714429901 203976152 529009321 208580024 685922036 875809562 497374115 946959779 920829334 534087421 245479652 266035090 623762738 549949461 342128906 380101045 179388491 632935005 502294259 780907908 545678458 372782604 192257675 352377211 792890530 269230797 44606820 701094958 947652562 233894086 495883760 942427712 915392595 102211017 241060940 156171431 465584333 343184268 317268505 610229105 180350444 771801708 170481491 829061016 920288774 340059654 822977449 596972342 15384257 869115237 121238161 300042914 56304142 870338096 11383257 309694406 657656994 359060734 617998301 48288917 546055705 559518523 790279915 416550355 134268227 830302890 598923869 928218798 78172582 766964588 17333675 555875026 813563131 533229988 866842273 719606626 276697805 739984937 966434119 829448618 119717401 686755278 75250043 261887745 922805409 628936625 713099649 929343898 898332290 334488383 205242773 131635744 310919782 91576492 21139722 496200085 828319442 247028330 133241206 269028929 429835879 621201353 299418049 912092049 97622985 872209472 234493832 540644732 184417493 432151456 659023557 765888774 894679868 886202952 167197665 986867407 157836617 767020165 436086843 798126019 294746908 886694707 212436416 458530759 199596038 997262651 827689710 483648936 12898605 705286762 925984184 504608158 405288396 435051087 882712684 458879517 987637659 683987738 589465363 26479418 626834221 672619053 412658304 60267195 689913618 756567071 846564372 143631916 590943114 346345317 878263996 989309224 156368510 455397345 949758983 778184366 268539332 205412233 393752234 725282693 120336660 358803956 936522620 713822116 596564524 327726297 455619768 203056257 283141093 423829586 654692967 736439445 716309918 181905298 170523104 167008958 211163293 773398662 296702201 495995960 109345275 68990916 493795922 606365268 967931418 597081797 235869582 845414195 664275510 485397432 685614982 468822264 21190144 40665401 772707695 468669216 989469016 248062400 368178271 275873569 192311021 227470284 993494537 174707727 123863914 330751875 847774579 107264581 259433268 388598349 554282146 154069763 530032746 647123214 342357359 319188674 361018784 676416967 967728473 720344344 923039001 258560143 758841241 623670002 541611933 881289833 859903852 816411138 553913046 294959804 798211792 904888156 748950014 988121913 447220560 579669090 548696934 59034493 113873224 562334242 247168735 645725230 990860272 354258161 849167772 799152966 411829391 94752711 931018638 91776268 952556649 962391118 165575860 791417960 471077417 626164330 49631242 827809997 601610541 293980760 713312646 189069531 296641053 277670116 859995961 167454030 651207099 625111204 746557126 505475087 75579072 85459753 231711542 236934798 148219269 67309327 466455204 393627372 382043107 841245336 786796545 559882052 940601357 736335729 163728404 233255622 525355712 642714192 933716562 20708373 793589560 548611590 729731440 8153363 480277652 169943157 968523689 910517723 991902321 662226684 349551490 471071366 518522113 469264103 705068967 83701722 126140078 518712395 934115198 763576111 630638374 91979443 412827944 657674637 553688524 358849428 931543167 16676332 458276315 573771123 787707301 204050743 462049176 852025488 937685007 861018865 877976415 314162560 477078449 396664770 179413826 127266778 433429152 776428177 831808059 273640561 351814400 917750771 569609364 768965472 701320289 750919053 727871704 777832690 213227146 761740133 528432023 851525789 357403688 264350241 145990208 230422445 828011829 809245360 595578742 932201521 701569514 586029200 492334587 927671021 810808274 289392239 205798420 549919249 505002285 518821352 165928406 254619632 270295404 97330203 965710002 786896489 603581659 140473457 68333948 252243615 824103742 487633222 307157759 905374937 912450899 503587418 519380007 200159964 485752935 202631879 270611199 140025394 537791562 999036618 636667087 395283731 944321068 815296641 697195596 355435226 194721871 407138292 960421405 560641836 669004556 337041190 17845553 682687959 889936571 111560593 625491054 883351115 797715436 743441765 671955617 218928953 971063238 442189981 258517430 647687627 594732513 91762666 978562218 652566880 267619380 972633007 939992577 93562563 539352548 129397196 760448501 530304837 947672349 650591942 108858172 469421123 347133863 300204783 304008559 228712447 646590302 246531148 758064352 593044936 43476740 811553542 817690552 718567803 962841850 88554180 783063234 657206383 47348351 907039587 844685102 25295745 328511599 722961041 633770908 179295132 873054832 635209006 136672075 705468946 926076942 959970066 223388110 23637622 366100914 782775727 291856174 253341770 591850910 940579828 402855567 706030533 236017277 291348304 382588080 633129209 298141190 532930698 57635332 611592598 852834279 646247233 854471837 151740937 994840752 181989864 452125679 471815851 133927225 368656141 12672232 42557914 92479441 528270765 714759147 887225737 3103818 709612867 524678365 123581345 598242497 410190255 185022612 809178860 382125787 654332561 944222081 803092177 890915677 995316789 168281751 922521789 715910016 21931813 433185810 81871582 364509295 64722835 133834462 172416568 120991651 759830789 399472512 515842303 476192845 480133123 570394943 738442779 385612558 84787532 78152488 923129429 572576018 402073332 279730876 934069095 383928572 456850357 26356220 300807531 294541967 371469162 435255481 860934281 31411733 39639573 256556042 207070416 151093539 278285451 504003240 342277192 69801097 168727041 374611592 173508596 909364748 956858199 497015822 418548449 659929049 205058787 570258110 285109462 572856463 881504729 636579264 418433961 751504825 862855381 726345337 260297642 159886896 927497825 812236795 83755027 971022903 82808028 313624774 209085874 196492003 734543176 465105102 119201304 302556429 507144249 558462306 919701160 882283614 156935397 379044146 142779081 146514635 996941855 722215834 706632979 401566596 753637748 597787775 230859548 899869912 313724761 935707760 63051848 179083303 346682121 54101902 452898124 474033880 70522525 182551652 962257010 979397987 668511143 538013241 634316604 938651692 728060899 798155346 847908083 199413799 49124116 673778776 909012747 50275261 641414894 796813563 749998692 641972034 87862504 756889700 635319972 656133853 835862811 921932944 135505069 580773735 431592041 676982731 419509559 421745837 468669941 932836740 594374327 131022812 228507355 343073657 43725619 297338656 98624703 518432012 79060140 162260468 590359301 475749469 13548117 845881591 759082521 840251471 747724937 821421323 579151443 424670277 297602003 925530801 869020934 933625989 262531410 10119316 192833593 60020110 822502206 328826151 674683291 684096173 164881667 129887493 312239374 45549489 35287291 401658915 620738454 20374603 981140033 738715323 478773620 518687883 816472193 297168188 819769008 810292408 174840777 96011565 294501134 107724069 558677345 556433826 532292007 545154120 241538847 848238711 741822191 484428147 685252011 788452415 861449078 330965957 594050965 243315407 404346576 12126586 177378682 700364005 287769910 243011640 646939586 81436292 335490628 990537202 77433610 416568870 543679230 515061132 360403324 849626633 767349076 365402423 158152820 261789765 118738709 112448106 672451948 939616127 177870943 818971796 697518114 749054142 951375035 850233534 57984506 244377723 4493845 47887258 741414595 558056399 976250128 460478834 852898243 433397841 989413038 554712841 410635606 628249069 5902507 129536205 132950549 326232837 932795201 802475613 811222408 576496666 488044408 319147444 327918859 110657158 407608138 70060168 971551387 281572354 989665562 316578232 804740361 655520090 822271850 158611063 701898233 108120983 9000651 519874483 313592358 66359453 959201469 870381167 582531319 857027422 744299221 720264343 911318248 725164224 648096048 295272526 553961448 509752613 395257321 66705230 481616832 446904020 647965432 828795384 697476780 342761627 195259703 243787061 806851430 149024363 458574678 627199299 120685352 351963008 217859385 309703779 211166245 485838258 868856299 210091280 406866731 767176535 675223348 510564758 940942830 816560560 316883123 70684961 718164366 953017055 174441579 866856618 584046091 756243875 861630795 693169645 685936551 219306137 782415704 460617743 265492092 324517230 773650042 377128974 476790950 362670926 294481725 435038016 332665357 444498725 252819678 227768982 265091270 683806103 510990998 206209703 248468108 81808898 230380035 115387822 372955155 421234236 798894130 84219910 392310978 867820781 326788574 402200170 667874974 902629308 542091036 81435126 926838574 971291306 487750872 538537290 455204375 105163809 804066472 348446051 826647163 890940871 520186842 816967347 615667336 864555008 704713375 273430839 362875931 684954439 215924011 664699819 159836613 622165689 120124424 471312171 740592776 329828485 645552675 191192712 366425443 851254873 644138728 330335296 803411000 843243203 926164451 529325284 738364490 836815542 376781769 461352941 208425408 121668224 876941313 870432657 243365131 826339674 398384724 733455921 829280776 953644526 764094235 231975729 237253537 206837755 448107488 272614089 981601379 734247173 839299703 835484143 778080551 893963176 607844935 313857533 681950536 190800009 81826638 612959694 839035698 385214329 835705212 104114978 31227014 605593349 569530811 964451603 15091307 724358791 866553275 659856442 560814365 575406553 729053703 826823587 143735747 228569834 529174700 323696606 328414507 160990249 83865828 885804370 553128358 623519381 969738637 372944698 357746361 698860330 793044085 716563345 204520764 600392426 870922473 272579737 19098102 15131011 248563417 374298396 194133848 379325004 284672814 993677367 564765975 239128890 353379534 593607039 662271189 493705683 451454145 938301640 81795725 732617018 743347404 949197580 600428570 751129387 641566930 158271234 581025669 47902259 448414022 829683617 145702791 705548503 835715894 379403211 117231398 653739282 160834488 97165121 118105769 901622367 243087060 330980802 637211044 640390375 597248717 916914898 243828936 354736583 116046248 96492550 450604387 284855351 728224187 588883055 726336512 713483070 389852095 883558484 127530169 296439461 92930274 679080563 167871696 8762405 433304380 783644802 182085127 275314584 614053226 707191527 985235991 273044275 160635183 260180540 429192456 497679503 173904025 868471449 938665207 965046643 602901883 930368793 792383412 359480570 960356045 25576224 394553691 305540810 909235051 402406702 657945388 667142965 758403902 42009638 791193792 180058030 819194948 883217528 37798368 623737994 562527166 1977904 229536428 312550574 20417774 371910094 202559924 591899933 239783663 718181225 592953742 666339590 33352784 265592688 280051667 878838889 358654298 754192685 215198685 743846253 119757668 459101251 556951786 433265245 556453318 519088539 631831771 377481643 976495317 58747895 124607704 128100587 87024724 815022311 607679688 2610912 866391730 315701035 832810543 11823616 986468693 567117320 202672377 977993793 875219376 446142318 176032030 821025792 160388376 936900624 33890437 40623670 311109047 404536662 135564828 743458221 55402689 19678112 753902908 644005203 620641839 775045169 326065070 601851243 721884300 419711703 475752092 99127477 323323808 463998383 667747174 724668749 828662171 644541517 35569671 74558635 433583385 708277637 626434155 555972419 901634473 771457120 803300203 489408830 966776300 357595480 535963669 667288560 196400573 526438530 36812390 139858875 117953412 475688080 715879167 682321784 240970628 271799841 78606429 5570912 394907704 844174024 27988791 622297035 315116822 283499056 645886827 770673720 570809563 752064310 166542106 469097897 517394854 27945167 423679206 847980698 215551608 599378269 800243636 137997496 277170252 22067178 78188844 492945389 694210893 775081274 590194835 47392173 248680618 770526516 742316743 315010132 747814890 938871076 192398528 895677324 167134899 221834624 331681669 272565065 24453387 962986390 578724901 748065870 173066600 16455240 445789275 642201802 276209308 876277760 200642488 278654184 602609732 51959975 598064749 246933119 503290089 214508594 976333114 857837206 897891046 406925281 477981112 459917991 611229159 706554848 356471488 646999378 111982220 923200822 124138110 8401187 504303221 819389434 112340577 854560270 830881101 446849208 239144922 626767852 617391726 131217778 473054102 97446941 549386979 780485051 953218206 661089181 806146944 659551698 135364347 180150582 963698471 341734122 932286763 611086588 742454242 461452726 164552886 330173983 939270266 708328527 940766937 997494215 920549322 745242179 519303840 957303418 13519847 769192152 338379563 701370196 828257999 198784149 722227671 587385481 582086606 496597831 473670748 423558290 8479368 277294440 535409618 983363817 691944670 500565813 486552136 939217009 461308171 616224524 355825163 140405780 195896311 295187859 966324102 182979157 966948213 766602131 324532946 759230563 263928272 461330409 221653445 701470023 713280476 470386949 51937516 422969427 527091840 907804168 705756726 732698325 48366059 804049475 481865420 135718838 358515636 779537659 471050983 729329197 671551747 920598533 62030697 641273483 681638716 456005368 101167650 943321173 887222538 868371484 690358250 25157004 961931385 732387247 923052569 970989635 612354700 135361989 795807088 317994913 782487037 189639176 629878422 49435907 583433142 874000597 897319641 377399403 697911959 318111701 558331753 800318153 830968285 230344006 780600492 309862941 905830160 590951425 216750331 101194499 695066464 112979486 967715864 307344368 716923572 753726641 186304151 795073989 294828853 446522562 485020260 213439799 798226955 456444374 905998476 29668634 96504494 662112578 809033047 864058029 897575511 840299160 822779613 579407769 225876825 312720952 573469616 667868415 434481903 47096901 411008529 285534896 791315360 138210453 884111295 279845651 584777375 735397921 390330921 323464654 461571781 168454093 873619511 732064164 298759643 153433764 960532246 946001625 453702286 450920674 991960026 129930963 16674271 290724236 512293706 892763982 370234809 196333767 853388603 16555823 828595033 520763654 438376936 904591113 507810098 419718463 218121153 297728510 316489173 472045213 431828602 851288837 573263891 948219679 84357534 883608947 825138230 509651059 222647332 53021818 868540618 580656442 186266723 596113597 45631362 642115560 847021557 530208734 304369039 507835888 973311312 484432867 345888524 721459060 157337250 608568709 52952026 566622337 394638285 412409128 238364283 975432197 185608795 429488473 558301894 180972356 548791420 833516716 147110131 170450908 862520061 440249071 95437592 462529340 412762751 708397048 497575649 968944364 911956912 291976040 726384790 79061773 801348477 209074448 185066330 545300541 37300691 803937584 58200946 527434416 985166504 358526958 562131145 198254473 669644659 895548657 42181006 236561461 906648509 151083048 601337663 98163040 617888983 669852403 293879938 609468367 182075577 295744364 222760826 558654262 749759728 523193662 111278389 504066265 347875789 856259064 604147188 318800016 881592281 386163968 754701935 154453939 750662205 298216185 177718087 339813567 523808573 536413482 481248388 54337922 451579826 228482612 462874479 245038876 730058013 571305115 857744261 35678399 284220829 602601746 472253842 242497772 907145920 963901785 948480126 966975834 278965374 840018062 539483555 165437148 209040468 383719704 564115461 159404510 907576545 389268336 398501446 70161837 423727705 751276473 104743985 152199093 164877316 59276979 509121406 813664926 809358423 429230669 550951360 680268292 342854252 603384425 978493793 578190628 485976876 335126172 36037093 353437437 933765009 622289623 173730675 576265037 360071643 563059324 159229572 38254450 359937633 462147993 967039170 212942431 221775342 685771030 919319343 56131985 745925525 521312745 253169561 828578972 52052308 343250389 719633058 210905295 70656547 324052604 810565715 474028325 210727237 936904277 641143629 120711358 345457271 325678821 714712121 749746306 867165337 597630 585206629 28360292 333326734 923023428 544593582 890293541 969417549 676645737 104943677 745862791 176859761 811832531 912443040 533712704 495903198 564889104 147765528 678151165 509556350 340883453 259284859 401295111 673175921 629475764 947643330 673056638 724506050 64022964 220568245 541354155 744192676 637301641 179195983 645404885 366655329 556224478 185197720 30176962 58336640 722810303 487998492 119243398 401490996 904898249 217325515 227757574 894103221 718759424 759865711 175909493 956625602 718856782 790334798 148395969 296776233 853620912 678177172 460355266 680128932 772244940 971204612 161569803 79254625 772972882 737029458 425289851 785169139 536213177 180226613 554450369 17977508 827263152 336921996 91452923 746070811 732263221 649872142 534539399 743372513 999129152 183878039 722300961 201628403 889025662 464641950 20682921 647909748 98921702 899986408 838508459 706815260 834904116 439367401 928985273 897973550 354581509 173920445 331885704 333661382 970447979 445158964 148640832 721223033 404760040 1842011 11323 296610882 937467630 278878575 518269893 838037333 253615937 665504699 836197246 918957904 982156917 865141313 364421643 910774706 657591288 641096923 270567902 452697809 743798063 500495708 232410591 845187358 18184840 27715659 336732435 735191267 663947881 134216947 222448676 5461695 553161441 599034933 196806547 895876227 517625500 135260021 606197043 792644614 214314471 474611736 256893410 455420811 142107640 982086898 358219676 829634837 85430884 739538190 709115864 459512402 892159866 913257992 389585299 491881940 522604999 428559504 855858838 829043613 127340137 734578625 620909930 30027404 13475153 928073378 248532906 642718706 598419597 322302407 508403725 151183949 363138959 186710369 879224886 114735837 399229137 384318306 616612377 94502685 651729008 483099618 40793242 775809941 998969352 861170751 809075397 344552511 498778306 965288854 101691842 580530362 372186904 878160184 70048242 157520639 736511185 727044290 196842547 749590891 935892274 447470552 506277232 344029654 110125941 891017711 854646609 630825401 82092326 636527522 565054329 471942275 588731923 990693602 940883385 497108499 468275400 190445088 594264484 725456285 945866811 588727749 626784300 542788522 796028142 688032830 764591985 330126950 16123286 583777574 946175246 445034488 421131928 601627564 694954880 471218216 18150822 369451842 387190242 583964161 204436244 8824450 239500512 263676440 15447209 28277958 835675797 565384711 195826213 740987066 372418856 936919671 13319881 654734263 665077219 107069376 672572280 189898109 780817502 231565910 859947038 983030177 51125629 434297065 29135123 773244508 387806365 204496936 367798236 742669817 887575999 385365954 958750410 905063840 683507780 431173511 763482889 665823909 175761708 861614554 686686945 174773139 108373438 86619018 320296175 252500710 190503874 283688589 69190212 482721130 756387695 736902432 950968468 416180510 460737208 395285856 574982381 138034969 521342198 139595267 393287699 567221373 887817809 571800268 371360880 806403160 499177163 231803507 824658316 132800265 804683290 643769165 277661165 512826559 508607871 680461013 949211558 911452342 926322546 319669744 136856053 356933008 703490405 779332754 790140037 448358024 179662772 15571673 48492266 427544699 493265566 181217788 928472656 224147895 547520726 716528212 833346432 647817152 85868357 13574391 847735622 348745015 846329533 760619413 633693855 844643219 923778119 614814410 766394865 143466894 705323133 72845499 268793740 229550244 752028520 244493425 465128988 230519472 469634791 60061698 723276899 879866883 290183775 636219398 645229185 976929596 718231927 185004936 824616440 73178746 469364715 965623017 646531984 615416123 310829505 145028317 879049679 332782416 568997883 120064244 560085255 530486624 478002801 581716267 696215840 579576404 511806116 774651535 62893622 953874860 79450634 159260573 253262909 742475917 45417362 746207522 563129391 847233662 687302683 834485280 757554402 260155462 67179548 987881769 242849345 645038582 401686036 487987624 894128143 121926598 42606359 315025073 560963167 595003567 151460207 68861598 260952953 880488819 517992667 856595027 525198685 427305846 96909289 919735532 370133839 520219106 274653785 639904125 27482724 277694377 476191060 915181541 263994693 199220761 164573558 120415832 528770692 345421179 839134075 116207600 227527409 194336377 699065225 752569540 999787552 609611959 15706338 291759114 690339985 51370226 730561780 132850417 905155829 673620010 31388189 362854141 561995501 5831922 777497808 180469501 328771409 342640180 533256222 393397202 387521202 241622797 472028268 844529668 206122704 215770610 274507974 143423123 223498830 587861457 190857461 433780002 522040324 305254291 525853016 304320719 156617423 979837467 290881697 103464323 519350185 79296540 536392238 296311162 311177797 13202630 131395496 436359166 768962874 81432923 213821529 438552239 888519536 671825997 654539658 938942718 342194920 335852455 187585910 230796731 230655215 529332809 337693074 517014258 318993720 536207542 965275362 207890264 759818749 934284045 546309443 852341901 827341869 902899429 98548357 928439130 363871809 197391688 714389421 411079363 673220893 999565596 330053631 221489514 971621787 237433317 172167352 806315699 795629342 373956262 851791894 834853636 101607217 695129514 269326847 821043696 830763639 223764809 814051431 150734451 601572268 738827492 714289796 703894948 273865080 167293016 116506350 371131991 751725662 225453461 323678721 548397805 711528675 717471570 86367495 36814311 950955635 632067544 940964657 8753163 898222840 838908341 662533000 981756890 293197709 866537508 368492843 446802442 502677244 836096028 902412116 523270665 932850900 877488884 142920037 898259397 650088670 98119902 918744954 421684101 940481146 290728282 975858924 87236216 86145216 321972432 379212320 500377303 263550170 52085613 701485447 956723851 263539984 924619286 787403097 145982224 635079327 95954475 467698688 785902260 113693456 307378301 192252782 117157714 141590413 985275399 102237851 461768712 485396115 890517667 977579439 15798314 912543670 316782830 502464529 886262619 952763892 815673833 993003219 296808799 598720853 541243428 583647850 151054313 305346918 202793233 243921854 583847765 255630084 992139376 431126863 124995943 145018458 331601646 238190475 798610041 318626653 512836829 159659340 302512455 469002683 434440341 270853143 150647058 957510637 681308384 70252946 341568115 311138965 39438034 919566151 867151460 90469867 925594808 28003448 674287956 602948294 936264299 444480582 306215875 730857159 24701246 60786336 977288495 6100950 960647895 408151364 237093383 755214151 690192773 137315919 519214090 873817171 409939180 642749948 522483677 717105367 411465483 108897839 904337913 30657553 440844511 818415434 190417145 478975275 649534693 773482505 955591447 27965755 593872707 847845971 552706453 565369614 772603268 295602878 162640567 278117535 321686168 344863364 61113238 708741502 615875042 710417366 94479321 876093162 333097198 989382933 742858564 821666785 998255642 656969811 543940316 202877816 399273230 402260 280312505 600834829 37012610 236953869 473849714 915622069 550458011 839516482 850586125 662163060 189211157 469503518 823663036 437273442 739746735 329415357 654569999 531154644 774075471 839007470 271402370 739222425 219636383 79797586 511320968 782997298 567645155 804497231 584195364 990561622 113885516 768207293 573077579 253516934 250733523 583028089 737893084 575561555 973318009 623591774 726893168 760020298 115229580 544847969 447366804 183474318 28993035 211309885 576402185 834883505 95549008 381113798 779474302 7892860 752137674 97171806 30932435 429750040 118166289 333150880 779843849 260701065 557986246 851654799 247069067 307578049 339375912 949033328 784550924 107981026 868463013 190877234 137916323 414166608 11609379 277249637 760416307 826069317 242414709 66547004 335190344 610417983 27915736 791682599 355054384 325646404 43398468 85393809 414549505 678130257 947660005 881751644 122052261 732251811 340552763 60193652 497348121 235309012 457142982 189331188 150189638 341813512 242650370 947751422 771854803 487621932 367852328 611711071 362578068 199649206 563279285 235349853 553383070 191842572 981202456 214435121 241708344 49785651 675797797 369764809 834969616 133457645 562948560 613361111 221014290 711863927 189382760 351352397 758570064 847369753 120579946 375915960 942877749 351435613 235243040 829237484 32528064 825340956 148041317 985373187 66007960 775212403 173113051 105877451 474345633 168055658 827915216 119549655 682924157 923538473 591863476 792463650 479952464 809751577 869386556 51544152 640995912 308599688 462345435 520798566 502637416 426133385 963402745 420142210 137166811 983022209 885649019 518721424 686839552 68753817 568397616 302800685 72879461 39227900 614325185 455767842 698997451 843454380 584301494 470366511 473507704 433580018 614186243 500054924 673186090 336238504 578933182 929966642 674287237 67369761 327173162 699358606 863472346 457967720 925482040 802524776 278419475 612610269 378547551 969113652 17864371 83878202 600126633 611770276 257591444 625980405 419006851 897540971 350187085 552236070 821577969 272533256 695306622 2580041 176575956 550586046 460586821 632615402 686758825 643640075 326251488 651575261 216202512 384058028 173908148 31711650 903425674 208555684 126279966 872913270 614927841 591119690 296658649 621145069 575960440 180507321 734622319 923270754 109706043 28318576 458122627 733643594 321640947 423875450 429181951 255997909 760980000 201018692 570168524 224456725 137627606 744889280 237748704 252692686 113870147 675078788 600604029 221531059 27861997 696279727 223221761 999635934 539273547 799289315 37479780 380551167 777299380 910170861 983836546 813289334 750235148 389693623 653609166 854868265 66812234 419822652 408800211 190867491 517833957 426131241 514512557 665045644 864430521 826975634 798446218 665506507 703608913 305769397 139482365 5408284 586605840 765201509 895005759 804432800 608804479 220972806 331323170 192551353 191117179 589210758 119859857 661473094 956453468 168539242 514336574 52730826 127454725 323615393 203939377 827456836 212067676 189693747 272330314 327933346 498791946 378377035 675605144 281061552 238143229 213086159 608259072 355290116 847970648 706498891 774038735 916719112 223732474 413482977 853458879 91330684 23911323 338641486 253535517 202922458 891591342 915069637 393809059 591196139 867094380 377884463 927393973 977050532 129968702 602037642 91755608 419360484 810942722 82750855 811150680 911579677 284990114 356717489 390884075 825371343 478202058 619680652 301929986 621064586 796650660 841425819 773950976 388007267 617768656 963722122 499373989 17826772 411948289 746791854 769582155 574224390 817020646 684756594 180484920 108620105 355124370 159126828 188782352 462904284 633959586 763519993 400795856 685191910 995870940 576181358 541702302 841099008 877671712 80807765 702995145 390006616 798714506 488509756 551391161 50490790 634274190 912119230 707522870 345968237 402820668 53085285 904117612 528274774 101539081 578306269 912237841 88872637 533244978 892125139 108678825 243268886 713405213 941084945 190142402 358778365 771456187 699655065 967274694 240954284 737866251 549229107 433137994 548771885 658568725 823007650 842990446 220747562 422777027 412729792 137200500 933954936 457396325 854114178 728044784 597337502 849190987 911933722 626797216 344357090 297382233 377081355 167095048 306345895 246169898 471152480 396734166 10167142 677969084 870802785 763424447 684150711 537069737 300908315 413653337 616008370 419801625 148055061 116819643 70885910 516155383 322362964 418298287 374153339 731127399 695375675 960702360 161048544 98002766 714827309 308042402 735645038 442635633 405167333 368831006 753706766 446457189 490369913 670323486 235891492 412967484 174967732 335434000 158273462 423646759 267395057 888317546 425535128 58995736 421582899 476620001 651373399 506772905 993717408 965194412 21160957 52934292 434468387 918512392 413973147 568030054 122084316 809076029 43859120 419785657 66041328 845537977 263999743 489731280 321829883 724466494 183309093 637660945 357003242 260122788 34584537 315640303 792749486 278860149 65820024 703177 630891273 815635642 424350607 609903584 495550854 31499537 646671165 337734140 593640679 11951552 511854797 51091876 916243704 488605035 4333671 506029307 321426124 637263174 391461213 858087172 286376128 447279574 244145985 440952781 573622371 367217545 378841477 683385275 503275466 127200320 278773677 215074502 292832128 628728275 321173475 643692615 635594019 536775392 636813607 522121443 299617048 520258314 259008773 420714739 425870306 762397049 951106804 317761481 729457030 30173854 796691269 740944348 394328911 549936329 494830214 589878048 845796177 766829326 841340049 565472294 721687470 865968301 80331587 170874177 235680462 32476017 935002768 53845829 222388871 759308094 478304834 902178138 411228853 280697334 1241527 218153023 385097330 244528982 334982818 743751855 811369533 816706590 346405395 42450504 983131519 822201010 184920715 108748906 574569765 501812524 209187333 718907931 183219935 931632735 795016911 371847922 719986055 990810266 19127642 415192085 211934552 171156125 88611906 388540375 4376122 431063654 383945138 127712206 616207810 619730051 768939294 746391890 304331914 347988928 211251225 74852241 647420754 632051765 566431995 779875607 769643562 891084895 277577457 175098967 254508219 760126798 53948998 204170721 739375071 701696404 941550697 169431603 467884305 415749444 597963716 587725409 560397184 157412952 944428149 499548240 156178024 598186900 859009537 753389587 7459169 356208839 361293081 134041585 795654760 719316961 124724704 990052757 491256702 765776316 340398653 886928189 375207968 981466801 94157656 271294535 82478217 823149717 820718475 398978964 392705964 895160057 427743456 677723771 468979956 458645713 927423500 851783265 745079918 904144650 581319627 38492823 634405627 57724435 969789829 572772358 432025018 779622078 559513888 252768635 416238989 25081266 365940374 987183678 206520545 719241445 595776992 82830576 745993330 107251833 863141773 385625419 777634767 808386484 451612902 964190323 969015153 820361364 669885250 702761450 330425301 878822459 645707166 347011586 712764817 481563218 170086915 816104354 835200266 868713463 887103090 841982451 407282421 934164835 763047623 110373155 836676965 539196275 240149289 850717733 945250533 328142180 820329284 300222624 237488673 852559869 209298104 726004782 959940894 652200237 154570412 299844548 229650891 69665817 807031786 828770579 966490547 10612714 598763636 42329664 275154158 426015243 386727804 768406793 445943739 242528560 335761939 44605690 84446460 555610670 511795031 363692590 150637367 86117474 461234743 448911560 666980253 685245249 939172774 847162788 606719125 856348525 287420905 774136907 522331608 584504203 37079448 801926285 731128141 353967239 640210155 521954904 150641450 831991596 219885005 946471790 825422184 258589125 109525520 969081203 962637729 117535668 323559887 684532316 782135310 884010313 664900229 719359807 728548065 790470408 440094039 632046495 100103302 533599708 570889000 960278070 943374339 204835843 548704318 635877913 921785191 637885078 168688627 777366044 189054202 858024078 906738209 842294783 60435985 278059287 383195319 403472127 885800181 81256761 446940749 485449934 98909714 2888305 337479276 647991852 345993877 751671537 675254146 507349748 864737120 58215450 364642699 877049508 169554800 674981798 228868511 905460260 203465995 287100733 95511247 93210185 15614502 866164015 95146077 392000958 267489965 629751681 865375819 67576317 187128213 714804235 341814144 701393501 171290527 527073687 291884394 234824635 342702949 330910698 236224502 6269872 76503652 435683961 661385155 495093276 490194368 848304203 842034719 414425848 619362550 312517379 112297069 365412073 888748245 442778064 592499221 267556399 153090023 733386391 93972167 272766081 397394199 341853817 802503644 21142299 372958271 166558791 827320403 40899162 439352036 845738886 795409761 711636511 837249463 50097618 55975381 741836449 900534164 340633710 719973404 262357902 385474863 142437854 813930048 968360141 242635546 623851123 786298316 473387183 119777882 345487889 28951003 443949165 562306474 707651612 118158497 372064612 18326588 135245907 232481513 392979340 973421626 765990678 450126687 891582603 981595396 668715765 843368331 227654428 542093415 143358459 797118629 533137345 210558426 682531485 909774010 362607780 950367661 478186794 634459710 2691119 988357985 179162156 145404872 956572744 440911739 153882034 775368371 216189069 458877601 452613994 441062450 278149857 251710222 687410672 900610678 778699535 730368436 161616586 352555975 839344022 175950476 483261491 557649305 835096561 479148285 58708418 313280929 178229973 868061482 293714827 863381965 949121299 436552814 135618973 228549867 826608306 60606226 705561225 583000525 769314510 53223683 275961980 339323154 505216259 657906242 728817451 97462082 441229072 115349376 260477009 982837828 159453426 99001852 758404470 561898738 242321355 79847555 986741975 219497358 265268081 65452049 978863688 363135096 3368840 134352375 663326079 623043589 849789944 939352412 675392791 54613688 527413591 596787045 896686931 240370415 580646270 879555950 125476735 62914098 411800769 998262885 617475175 179663644 370480333 703831989 397177452 170314181 129929414 692860047 378935485 177848515 280967766 211104555 32987760 115674947 159007024 909388261 882919384 469513679 61771327 964384778 207190403 947478459 29054351 635167526 953325637 783349986 191961710 718648014 782754613 196267619 535135323 822905660 330828369 720121372 134091712 722832645 814655975 548780735 127076541 912707027 196282206 997145974 322462591 859161449 546787871 310366128 349356914 430081003 862696135 73859687 349776533 247339852 934076331 844726206 700121441 863433520 628590189 335908870 122823019 667803878 954174007 254668410 846781541 955753865 412316598 829093816 133321384 109439500 147866751 503066024 420785136 902555612 450180062 644702906 480120823 542920618 940809649 379312963 645998678 787795992 457807626 415413118 742831382 630356402 320549983 545451563 472228872 159450696 248525698 382414033 745824283 850841721 711750038 335375702 321458421 213327918 294592356 736555501 15509308 400430326 638915503 74529721 602797673 860645466 343006191 829466499 377445571 3211931 648445593 973326896 508726131 652138653 306283219 642566330 930762662 493429589 151213429 270193094 38940646 142605505 913423593 833951500 712189847 436199894 644650502 998217657 117029411 619757668 30556015 474242407 979671665 588364100 143943986 457690920 400502153 303900380 693424636 61632545 556582186 504189542 437593236 329474319 880413114 303206970 761966922 221312994 173909016 578500668 524124118 181218229 990526204 107398938 429899726 835917617 914039199 929301822 978885037 460426524 691248663 161580620 325992910 864129359 926971354 90182213 135315879 577874764 352570418 744241159 529327714 641154669 783877735 244008071 416343196 826130292 45069377 644825287 429981047 304480812 106606377 508762567 219211372 912924740 124860895 599496120 810994864 850391130 761253306 849416894 976314447 299603601 846669703 216304149 449357478 590613363 869383301 672902111 202596394 239327680 417912772 640367483 221912107 50375168 327525233 97448592 626210791 681567376 711061634 322483781 27652587 334680769 888823305 189629533 984641446 807820409 266963801 251135053 549164108 486477867 234990689 352756995 565836533 487996269 223715351 574466538 576519438 440460671 206754941 624080520 208521195 861447099 483631798 906341567 173099222 437686902 279263526 53302455 725284840 419146485 567945380 763525088 118884269 299710433 412979547 213776565 688794526 859494145 899993754 925993166 995415258 281664957 97710959 786349584 241940428 698808003 501226790 908026762 46865012 811221715 767072795 3050742 431055056 116035610 15525525 165908097 217497107 538423458 21374484 875523572 19110569 616102514 991866254 190903817 424232055 151767807 424166990 833172449 295944565 82235766 502142891 538015124 794543444 546635347 589845830 70720002 862144533 115315027 202589418 609589895 362996366 552907210 46298546 103556244 84745003 292226112 587301607 222947621 903352768 999086799 789369474 777942305 137364104 713198105 568137523 913338946 512782898 113246708 408158873 388461406 142135752 841841439 814000621 611477482 72482857 509909212 416174018 526331726 226121212 748080496 652212034 215418240 371940324 78416149 654920866 223812014 382088817 697767003 989630328 219525072 149680815 745891633 397145170 769833530 139651251 206744431 651991658 17056854 550689714 821262633 117101807 406680478 733748913 235558756 355605157 954453117 656362337 178459912 896470210 441470347 600408454 191850986 585962251 317833823 510764646 368844562 3369379 784054139 543922836 614132922 486552461 67529295 462303248 741746539 475356616 863407226 187380213 859446108 600216731 969735339 918860261 123613171 588541453 674758695 970710125 171713456 872621986 692293731 722388463 85596397 483682653 140877143 428625711 135613573 734933728 116773647 740347510 707313130 594243300 577051174 945543279 789218525 868760689 122517624 931105755 813353203 368256535 211579007 214945033 521630761 253541848 274654043 150885109 89069655 654775219 852375436 946452656 690422722 289910782 55989785 152629415 141508492 989415938 458215062 937539709 184923596 721949492 2070719 460482242 768656106 73828884 427835041 15878803 617401846 294189536 762416460 52943547 391077776 347810598 892482258 80061640 102200761 702249479 230465894 407030287 698058233 898751009 857316931 691339668 373760648 158511358 879829201 982840203 935284249 493333410 120317717 691852421 228841535 85352538 535741179 623231546 109087080 75096042 921105585 948338625 902998940 192151685 627962602 253051269 627047588 637858571 356782738 141749525 764310102 277356446 297765305 991877405 182728893 81110496 839892760 928007813 964609092 86282814 579777227 867805898 35371754 592621620 255931259 689248049 803538134 218942706 204711621 128808495 592682112 136853164 886011608 537931343 1493116 811253333 565982133 65519606 609929716 481017779 883548956 900455884 572332969 752737675 292286272 291158882 598812300 283027734 821780314 891018752 178371106 791948346 202104931 978682819 187119066 429905510 919858645 806422261 730956710 705549323 873153924 726441766 859459773 965359917 321437587 762183823 391714708 685039443 787844016 104164 534716678 303133449 928057142 581105939 417499884 654173850 676501213 96806468 901133476 927326085 918216622 409500749 4123784 196379013 25875080 223872330 207850551 837967888 40292281 89975443 878352015 752391947 589014177 121331172 20002989 983712295 133217648 128224955 854358197 190676300 353732520 167954928 680242988 804772514 661092795 510558537 966061819 813641929 264049905 950006220 323248615 683733905 472586649 556899001 225201095 543024066 312434233 385003134 89704734 179882222 407866716 21940776 743830691 966141732 766304659 594526674 676727523 563150945 81852167 265692589 695320808 856451952 261461069 111073167 919479636 806568069 765325275 387847979 408019720 498957752 356351643 977987295 7564571 41021964 584091881 111301600 495554885 743555149 967040011 268516388 276907129 807218898 640634614 306516178 472331123 374338893 919940732 226351090 709482355 985281721 165676688 110165395 247622591 832840301 397780947 756735623 939528360 304564479 667961580 467311466 983174606 127914089 542355038 984002736 554397659 188047331 352566732 734943817 808306000 617727683 884852028 150748825 138715697 449515927 904691830 562324557 696778429 876100788 896623826 739470735 4719375 69744816 303918769 303020810 766450792 730296815 769198529 303193654 362379095 884923683 169852915 739963469 196618944 821000732 442794930 489536726 548677318 709847739 554045558 853530633 62363786 652976487 234086627 483422421 490349504 778436814 101259354 956659713 230750891 59803289 668004638 702538760 565816987 758247223 217772790 853588362 877334494 55578883 37783446 647509710 278656695 835651941 871869861 228330086 738109929 234580114 925203822 630540792 388125296 967604541 141045916 994380933 620112586 130677416 805764836 122918701 214102602 596945308 41812240 161766502 462596514 133138153 754994724 617061564 262188590 688018657 122896484 842972302 322037058 958415521 961227556 334776986 259889048 149104852 649175567 261251134 963359962 546793677 724340312 631070305 978245412 883929076 548067309 126329195 578229681 270614797 474480905 768485755 586789261 462952666 149528540 339066892 936266929 612480876 987042836 843530715 386880778 324157188 349365258 801664369 468751694 91713417 352082525 116090167 728555009 220085597 504040745 323449192 84319241 102979163 116125699 301015810 799839353 407567308 701608831 464778128 336479110 740871743 519637128 371369854 619452729 604765867 601369320 594541626 497034796 699237965 772403573 873156596 60602583 682948539 537283160 990425295 975600349 339185904 952640347 333583413 107746018 932505779 76018060 832797555 346132602 702577003 835917504 464659372 801007678 302631160 359540554 501299303 371049658 592103113 623729312 481265562 386526128 47277459 309316587 464837036 659452613 691441755 665836663 564903327 874822532 47655320 553949403 558375071 720734179 142509801 29653618 526798663 268593672 575873864 220357973 128729559 961132895 464650110 283491085 839569906 465869650 326387829 259217825 547186031 985756443 128022215 960757714 521503122 388389973 187343181 880710390 832801957 655983948 243168659 349386684 636493483 608209765 197008332 429076468 634717401 315382109 536098758 478172869 553670907 704346328 246220638 392836712 793510844 135144448 430263061 978533463 265849528 495569818 932854767 851523342 40018245 902735850 366171368 887786062 987069475 908758506 737445467 784388941 259448351 499170971 942429229 287339582 477568696 630600199 26397179 979558504 159957155 888084844 742874052 646559790 566674935 822926171 399900235 278243208 611067654 487725449 923684754 671081584 20120613 513042460 577829885 883482 970011341 790971500 868078905 37930290 842577820 314467636 622848457 512771288 340405175 499744001 917015653 407123920 82228867 752574351 970253803 239818784 914002221 545834881 197165027 630584361 193546481 898697602 335530694 675938940 601046149 616627303 612787903 405287654 380238674 717609920 510508527 802614794 34822815 598484779 225325627 323802205 581329278 105834499 649753912 922413915 169939124 337690363 80373221 294945562 228748028 896144795 336442972 999515568 38504877 732648295 219822445 933163321 860998294 386166597 448500670 206962267 2235877 22467308 179348417 373509431 283228754 542675857 629484379 139821614 902494341 397829460 790903 747214477 806984175 615879765 605694341 512703640 542597391 559891850 205923609 608156253 194322016 743894948 933281883 233648305 733869163 507760461 100718381 246867156 502067661 556178949 22422160 558313559 602311851 546706214 315790188 149850028 659863188 668557660 124252612 406786969 93660951 931199741 2226276 963491068 872879307 322709264 649602851 12654596 543582637 880053926 687493120 142630221 239711644 407434137 625311288 201817868 93913803 901331023 825306374 329791892 241127406 816357459 473032383 986995054 740106717 868854243 820508138 763435241 565051267 548682304 600315541 954252553 778186658 211028014 779648454 712823438 812098071 230007950 636160436 490539373 100239276 927913649 701236727 838436919 174279778 562471694 289111656 272522830 794318178 615098434 470820568 877561020 87680943 312005015 608731451 328721293 967396413 624216905 966244302 531246169 37854343 9131778 72243032 449079242 175806122 770243762 291809638 66375462 477678961 568253436 728094539 22795628 761978578 784453409 819572944 986133798 654066953 6642360 175395256 401933859 985947606 693379662 625878065 282192215 795295287 615764751 123701752 997967346 131991881 497898527 693160194 642666070 206871863 807237066 105851262 259074105 403051 216636209 910257265 638378513 615941110 973524694 398160885 116912156 721615189 128109842 688880882 612197217 955853890 39297031 890107954 880968408 788305422 994736129 45748468 185020252 179313965 357072795 413789326 845796063 447649584 470137831 56288318 339740815 930324216 507864780 390186805 627299650 313040239 233356005 411702854 109348716 718074010 750398077 981376733 958600616 861347654 510083041 824290957 852907319 847319126 87728989 599936715 254329931 818021849 911364922 389440431 146112095 913648246 444866391 342486435 563155883 388587313 677634127 887844514 732347831 527303581 719549663 153635710 436747016 214466905 725401924 674925905 790583110 536597415 552210120 185877595 50759600 325248290 346906742 81535107 189044255 572141960 836232349 609355856 295335712 197534449 859554832 429201397 123967155 451847567 876039289 310978307 227084105 888068333 279138138 35948924 78346599 18724769 431239282 18151366 448104954 680091335 158403355 208771170 438163696 492827994 896311293 736106501 450206356 629923950 522384819 472139642 868827525 463637065 669238568 663457191 303364050 338264541 148127181 739678871 327476361 274798081 411335426 218371774 908333880 790193627 45469235 646960354 109256851 481754895 694178831 101553222 122533837 433633398 311720645 173762922 390771875 357663872 544628578 687591458 710539197 698024624 24425873 208631605 891245370 319717601 763119557 771206268 460100539 228284590 846952394 887526614 46416046 576957218 140940064 983693677 704112868 822842290 825184694 819565431 799883482 881271862 541694594 721317223 555567747 84769124 45977802 318165741 120088967 812116069 216456948 790010842 114055639 983476840 774936627 904257501 316387992 754027512 540042745 858240878 750459698 664580587 551062707 737368984 372407838 863273218 333838681 928068616 541143787 611752868 575788503 919752520 196466133 833557436 257879002 623733289 953893262 336224686 308135010 432830045 1874238 518536244 356088497 409862876 301031644 923914010 421634278 512595205 310907223 562391159 206327000 5607981 531134810 47218729 646715478 933618242 958958509 797368240 701739288 355399837 905838053 689041091 156000291 470900032 966551511 432473878 423085376 840076849 851988899 696320637 585184754 852161289 334057763 196278375 282402737 741759231 980494896 621988956 378323272 905873608 668894762 555995730 791719175 766519882 847838464 140988773 884538669 591191442 359411629 941922016 579390142 307300941 425545593 922390016 197610332 285320794 650437763 611401898 200029227 889022896 857084887 260882307 503263123 241518099 748365232 266473232 203328203 523781880 505719496 372323703 400820179 387689131 185024222 530948731 767376408 613701367 521137894 232923673 967777163 721927651 871400523 981984079 874376795 393531777 105624444 187805682 93356838 864724336 936719510 623126225 999385269 372502596 297488896 648571490 159425340 596056230 898322626 294856323 980521352 150460713 203776044 306856049 306372267 175542576 158186038 597361189 374956388 125859820 131926391 854730840 302027885 375974467 65912550 595146390 819127350 520971407 773907795 657350157 524763941 122478286 791335989 833910658 90964346 884914124 337210794 17228199 112301242 660091471 14307870 102336648 97866406 501270584 322131693 679854460 924950203 530443046 382128777 998583786 823876647 690297557 991079765 817041434 598225455 313997302 883380939 47562956 416903382 681495886 461859336 242584036 958317683 27716694 498298479 508453917 920059774 868858042 969896357 937757379 934915942 664738887 711812395 86043789 146911654 561612482 900960245 431917612 754349014 703043939 826943868 204106478 356891036 258655045 403448512 162205475 539676922 952141800 715537898 300851766 510344547 222685201 294790334 891273709 389379115 517856962 846057256 620058906 478652721 140358422 700822941 424371340 591504297 813981185 139218490 447571200 386221308 554331680 566061210 856484628 439153493 905392021 571189887 184946351 157254644 266484882 431650608 773586775 675260358 536661706 733088576 653141965 33120688 948584260 502298963 138396998 621230761 295796752 985358012 983414303 911209030 624395396 305713713 399524098 897191657 978986694 68631487 307021590 73031023 512777246 981199220 444496622 362088898 100076060 135857722 506545975 623197779 175047284 565922166 494955965 510002761 265508909 480060265 367641179 732686832 361252203 906998499 299656398 666778750 46151050 523005884 49816255 590932432 373705822 346955438 243969834 628631947 752234890 447108344 124623313 737042317 953619090 80174108 367720781 791614578 497951432 616387561 921074777 850740892 557279447 131816700 655098400 81641462 19184022 181080174 973736055 902130163 811369154 55787995 574871393 579785500 96308923 66277528 513413213 71797354 335820270 97909012 852290825 715372243 442748015 170212783 241257329 71786233 259894845 285044689 40929712 716371882 596729729 324267676 879042400 72894714 473730881 901389777 906334542 768185714 515244612 877216812 987175427 855523479 809911343 998376690 249695999 948228289 105599977 641262951 813531051 863671510 901257933 235134488 699974391 934201852 854301968 626077561 413871510 373828830 949409879 254607502 246820236 537731694 979730778 734736293 995181926 947585243 742999092 654506681 452515909 966033622 383733503 699971803 856099356 777415276 511170755 488367563 378254765 48007672 785479556 428300296 39103494 879769070 929949506 86930446 423971216 454603670 845900759 734696064 818981010 76184939 606037854 706457050 144253124 958674657 482133125 790604513 589129204 17913879 887906612 594987616 58983666 61044664 443504655 333114724 189976722 814078412 788738386 264685214 776484498 873046015 124867369 3860800 288532880 125037978 79541272 859337465 156341877 375433274 944650906 435644017 861573548 862752814 883449878 862654302 459776777 335106454 244490881 30796849 147103542 465214733 726518038 333697022 354970039 956588274 320169043 292219172 283319161 880021033 62984725 649714563 21704522 41052394 637536133 296966488 467818722 48611355 516435713 239188744 836565786 573190111 405010409 835798592 680720820 139278295 808364374 574949249 220033504 448050839 6948863 248806276 651719840 982152718 834244830 333264586 428412146 477406830 566963881 371981728 328832377 389898621 620916719 423545518 24036124 207716107 443100863 643466064 951606044 979118067 300891202 507124021 981260452 781478601 949670914 108055901 596846482 366732436 941697426 656031388 691285273 721696161 290908350 144023995 839718208 474769152 511361369 266668406 395234171 854109955 286195789 104141601 357351113 761644959 269434015 893724679 274913385 570983868 669315731 296901730 159157063 711941780 563030359 50008119 347471660 584921708 309496583 552044909 451241871 818774891 451629327 608586448 833884939 182707004 68206491 903817103 711588043 265431218 107811122 772736997 586351277 218494655 139723982 37700424 912338532 467160529 758310741 136055782 213615328 936640486 384845372 105792376 279429077 410020861 442585536 620853650 613351750 881134672 376613736 520381943 931545080 533993657 664647043 49743818 861502351 252264161 928227445 787309397 30433221 829227068 670601856 731077019 531674922 652947630 35046246 485298754 226625888 863173205 639753652 299424061 561587640 637549417 881999718 762966257 644379403 661360102 239592600 131668792 356952154 214573457 272531456 840305341 666223090 882743419 822995083 462568250 471145878 537877632 220483225 8506098 617100560 445324669 485184805 617255342 46386507 352254832 513588458 804810486 750021816 335576169 534000429 227140483 362894782 636840111 127026500 5889707 483704009 616791537 458508917 612224072 543190081 870292476 483846529 886631563 869169262 372747925 895461681 146438413 389082626 651779867 662406893 559712005 632932243 87416539 449598483 354631929 586456597 253403447 479384236 469901254 351919304 996953691 547010108 75658390 462864228 289111211 668730343 875320542 697309058 838892069 684299914 80711320 139542114 461268261 430236403 150998488 806424679 985153506 458345348 244987181 73953638 823797814 176462070 417026070 343211964 853357421 379333948 456516665 540077603 802149030 705727293 133569629 911811206 583634291 945935157 708470729 695338365 484334329 791974094 273889005 798123843 583754874 882748541 666922889 471551846 187105121 203526268 836961898 450717665 165774603 409624820 953971650 875784261 200989297 39859730 296922207 774001407 33409528 572088187 532624316 549397136 562229168 685961192 266407338 628159118 946001611 33227491 994479236 979550476 840832644 268845518 296697605 631913296 981644438 203002036 881534498 177075689 589181985 895940682 88108758 784270067 567103086 100778451 237511127 714807849 466395128 425473996 734245374 372193851 638315297 140581691 826637483 482806407 159188333 945746215 819248758 948368858 93894365 236282176 750903794 463956833 508728949 217302205 850087732 599374991 555513314 578796865 341209129 625708509 352265968 458333426 68590533 737695345 287158095 176486245 176833968 141683935 747365162 495184313 30382836 893399809 375969586 89343783 251226309 931919705 323949168 306127409 737913553 620148611 35722871 104873329 627344901 836264592 209369076 858132110 702269260 949391676 872471677 898214080 383116580 249757093 724036298 247624494 12896991 434235702 418514928 754454651 61775467 449463649 190343289 434283715 904317232 151041027 871147305 527402913 580913882 332741432 223979316 167293143 345726165 925148543 380160747 875506105 97724744 280007428 945611231 239876245 168628874 935643188 393799722 309152339 254915468 504948051 51094832 486504855 43531579 127475986 643433404 668532518 624410435 678060885 398206599 180548606 16486898 988246345 200156605 519186417 193738985 70207435 638877741 662600393 485023814 359753397 944477825 26159182 991307229 494484949 864160318 95384097 97751140 468364560 720932040 699663893 573193260 842326730 907068686 685025348 494378264 19935571 769538920 499432117 657377586 402474597 317858401 107617956 737969611 378421649 251940657 55673224 429431591 298172186 787063677 564044020 998717432 369369171 559915661 290697615 190352618 639653718 717131946 47746811 452534167 193214304 817650098 978846185 408129177 378584581 685762956 339023124 326955171 856347770 188460885 711984894 570477454 34598692 65177051 860670614 9069338 347576153 730005171 821304626 228169920 311079008 240223672 443479010 413881261 888501779 242229774 735305505 437883239 169026004 617275391 437967603 834278913 996056212 951558217 75579863 985782545 845710525 632904294 395805320 958200846 606547566 497400203 594350913 587875345 60107191 982604192 647765424 76663302 647166978 158493304 903505501 503947426 826819568 731247607 49131968 615240576 106526099 540031437 494289224 437593564 179441274 81610019 232583468 138114893 742068765 552478630 261819981 799279761 373577131 576126769 66240242 82367815 340509848 731077866 446366133 913773847 37080476 501465355 279177001 466085076 308437345 802338513 745478477 703013174 366626313 246243520 628879983 83220872 625745681 141249749 672012764 267398706 841639726 405725284 38179244 470963801 330142118 301802972 932875130 371695086 966849466 288561193 284797967 868558062 763333091 969151219 147951793 423405197 543869701 561980132 955625778 889794664 505026167 55830427 31067965 709765486 996892600 995404642 584631910 223847209 896133355 489938178 5691464 234286901 68099790 370373880 403847091 997679882 12850262 530444714 965855632 647385562 970962725 509981441 912911665 941059142 403259679 878695955 721801590 672674652 802907549 728152006 831642824 139763159 255477998 494096279 171893569 575385620 998177258 379303323 230235457 212943234 602768764 723943308 714781860 610452779 43866670 961699106 314726569 993348302 177757774 152629955 902247775 44544523 340711446 732462046 877345875 884511602 426718813 332393566 522380446 45592762 707803483 613770902 393413784 537831576 33428756 930615244 438892373 962197993 38090049 409574096 596104851 98554628 142707073 31567950 333885048 646776177 680411886 62965635 185061162 298134529 957800764 175941942 752491262 166704389 330292466 386938595 220557700 54721518 617251208 191148538 932586655 169796557 397981330 800726279 970954095 384278064 837113346 567390043 455487543 934285670 224750435 772526320 402266586 722250804 734587906 655264284 773799792 478597775 664089429 308682986 296936228 512676502 371856073 614059965 471559225 18657 344832223 773148602 778344030 750410837 576264915 432719648 368977473 272114876 232115630 878162308 154367112 750455384 296747428 169651676 59956435 940151882 271722840 266168407 776374459 471299519 434347139 415727614 216131598 756340961 19344317 405222857 383933555 960494781 211494165 974101764 715015182 842704048 961602230 411162293 1601184 166270049 412556542 125440687 875978987 410519368 285667793 537829416 548484113 840276826 911520191 162638957 385094800 541645885 411990425 745253463 899395739 108249499 712778454 866970458 1261381 893307023 809166099 904489077 819198708 230795300 618596566 307305131 61229849 57843807 214524739 233298223 394503219 568150229 754893165 356577047 933302597 506639190 690087035 749990022 794027533 443432043 624047507 245967626 529269530 979342676 18999729 822693224 990113509 778224194 414330509 612279999 547452151 563458702 652910470 224110780 955721093 67213875 519685428 243806229 160185452 689448216 396049483 142135412 921986538 948606912 322809979 235405570 848946069 922628613 853165683 198121979 356453777 360358964 227859599 569278864 348331901 538239357 872752771 302630747 368521695 565561476 952726406 95601926 443245350 579163368 382805448 734783686 493711102 900863139 271436863 404413858 442918911 365061924 249429562 350017664 644145585 586170460 548907777 377867340 765303263 194819771 323199369 782373883 803142117 434437847 735212173 236899843 748222460 105897929 322992586 64461117 336034076 964452787 719337239 743671771 68474533 277408400 891231637 924812300 563458851 479231785 781264754 617516318 733671218 84028039 886768234 288385657 593298308 789339858 990471445 583689784 51369035 897246716 641027729 352310902 292255096 430660041 767548030 713770629 842488466 790869185 223811203 356555164 680767964 892490462 349184336 417436194 777241337 849484669 643922494 445135409 157630922 840548965 319417772 500892412 141417601 353395762 781670101 297998161 923627069 679236057 688574905 817330724 87204120 397860936 486867582 357061404 947822356 225016219 190701785 840152840 753449120 137065725 588691899 426221519 317047018 188772877 205490107 455567463 727740999 988382138 543853211 624044047 732900488 831809971 397772548 55296754 866922873 660416663 996984171 722378173 580455080 676789572 698031513 860467164 514274285 353165736 846877265 915450099 90654989 108677135 291578709 550122124 796133038 555182865 359679251 841937284 138125338 381010366 291273713 185351962 328335886 431610865 32630488 25291018 821512688 803742453 971711780 694907025 776064019 749025482 64616537 635391180 561574563 803149492 803708285 127661122 846967726 456272340 969806772 45121644 204463642 999347120 943144792 308347998 218981578 404864753 218983167 195091204 136809436 170485336 676931830 606283671 232771650 810292664 945472649 452288168 738107494 930029391 342243501 127740970 775240921 437063667 43173536 440954301 74923766 726626455 824378122 612730100 595282339 796302615 33786147 731234409 436504066 77829904 806973277 494584562 825405749 389266090 582184120 937905285 519203095 971004222 611448061 747508213 370622921 638668096 915495298 439411300 965859007 254011012 748689656 384042952 573738135 808489714 175153957 995810051 439229484 723088842 373046388 642176681 235406953 59268137 520598376 932323067 56691337 570035877 877692178 426183236 310372259 216082912 506086952 916648101 611707782 692155040 431992039 821849771 929964841 735575032 146171556 380129888 581775875 826856571 368420341 203840091 497949857 570947656 36224695 150144651 25555807 706456413 722325479 905684872 874451535 240371415 324112770 608988277 519204525 61423415 952810776 760596324 511167561 613043818 143826773 571740383 430726745 757894973 9953525 536341893 222649173 95431655 182587316 503638524 380560431 46158147 819768345 33722192 129231634 223533692 26581474 889108888 722329212 810252813 167279634 493367862 62841871 206377574 975599422 350432460 144263142 472695286 468779466 139420095 252238957 27589581 392959627 561934610 898496858 963739065 980580191 544164165 260726593 74407873 410130805 378334407 869664489 963013500 959031620 84638426 627106772 914642705 733562508 549373119 433207533 672854332 485618611 910253889 883296506 411551478 789565296 283533457 396229454 447119533 303564787 401314759 456463662 697817303 216972156 488456377 335022692 260453355 463821797 572661743 556515500 478044311 615325688 905324565 46584066 524549794 984708560 872412845 755994294 963069063 151210452 867651763 908338268 288382284 546675144 82337135 621058394 378126163 985270830 714688893 261136629 753994163 407426639 714194592 440913922 745059037 284682196 10622578 934806414 842027926 109375381 118564243 221432424 51428222 188510406 967757663 61830128 725250338 861085999 744946078 405179965 116899760 165957177 699951850 803137396 784394361 596990400 452609518 323382425 990189316 329697816 979323078 863406060 35540169 284539373 453952494 930975128 949421594 230126598 65223385 757756145 918180894 619828477 291398139 353950084 719472301 225003278 628676310 298743767 639486593 474513842 588565079 49692836 861539925 899120404 465176684 848348155 921182960 507523085 208267461 110130144 686611897 926521986 877116496 375249341 674966057 280400006 808063140 241867453 593227454 864448032 761166326 93627054 531321632 657521912 750003318 672253607 710553956 600355220 294668149 666924942 320638248 784117893 552370268 931332308 821675595 734339471 209805574 83682784 452693030 955021368 9995488 509745815 461571513 145812563 723106767 656070735 50452878 873669501 801338378 73450883 509740490 425058786 731982582 546259844 140707283 930364755 701628220 603473905 739027557 702603208 513150317 943869473 980011407 657353627 533265289 971705434 167158552 570289931 383221268 38189308 154539755 535753672 843166744 174438672 665210919 712426912 781729999 981230795 935132274 453447351 864768052 914898402 798906124 903333842 333013902 609310557 575175086 909022495 762712402 658685325 279612527 952372417 862251085 158393036 891911520 959894200 733341208 257792308 121303219 310055601 50768051 609258716 692594503 37564094 890270969 198727932 837236079 772104843 653825731 983142803 277082136 400289685 768504479 441018183 565110037 906043828 652480428 133964927 592694173 28639470 438509657 872539113 745111541 865296506 53754824 312415664 885781981 109787931 806600912 934456436 756182757 765111009 743444751 781312438 929764169 469739252 854852594 200450758 669402044 12278165 469674704 930817843 315555330 899390301 157224050 156994360 435874499 188382146 920956812 2757300 19025918 293445448 431803404 673857088 595037640 583406392 940501899 918846345 781173167 782135749 395535950 575490261 956773813 676877485 649875544 846440143 136231063 18009567 241791907 90797347 379861273 143932585 514383129 400658187 535050500 68861355 995191486 961221044 454563095 215310106 709788554 207339539 739803528 169500590 950843785 943190455 17434578 964898772 284140202 759927155 772942995 973927520 855279958 632683537 906981809 150982335 83021847 189181077 129759531 589534759 854327790 868705881 691900134 264759373 781789956 435536082 859953623 5655198 623817069 17685283 94288694 816427722 763363967 508441080 866787149 728350646 238844596 784252936 401655002 109821593 531776440 644265704 439837422 143823733 628674443 676386126 922404860 153254180 290127978 177090765 957597183 843292478 612255818 599472999 467274835 572458815 817185599 339661698 758840163 143310716 429949938 435244442 406124757 419563483 256260086 321322452 37844789 218600949 840402466 563728176 267841147 958401896 619762874 565173794 711466102 446020179 725185470 413859228 881664684 669700216 718909782 476837088 682829835 64800997 656156075 588477849 690919773 863619833 905249047 122436164 555458488 58435012 954611456 912447777 754868398 932856201 238292174 201837606 517320836 99063694 914741010 523863802 929497402 669175812 76155530 581898888 98901181 172902331 890827869 997392579 636168081 252600127 791280050 370600238 885737065 235176641 133611004 183279912 882162658 660443162 747224222 434167479 508816363 845474304 678329150 437638740 578914745 140277359 638603348 961980576 511418863 294005906 402602681 314239807 267611119 322861503 671486179 20184933 536276289 762083455 657774720 86587008 946509529 99869552 607623889 801720313 418490942 978116927 939874424 7205636 153076686 939498183 636817065 7444308 963390950 957265100 321980137 887015880 887992067 983795730 646462108 891075204 604184508 568364573 216371726 265506988 296328533 11486048 805474439 678897267 276509675 964107507 474212436 205168448 420047275 428059809 669595820 28687581 640338495 620565005 451689122 13952919 761602068 665030988 720924055 859091306 450234433 830514607 197865435 774707177 137663797 224444913 38417379 550829399 457046330 247560312 440898429 12530633 285127641 489695426 803682733 974906070 922423090 390532888 314007257 456770931 72432298 848531913 965675527 900161766 539428875 526340858 963320171 542720631 957704722 811561755 2295200 264515596 915340516 534020465 245230493 222915463 985678545 59821775 332380941 921886343 159299757 361396045 775770492 106423373 767052771 254732288 636001381 451951320 354339180 683318740 751189382 7789006 93058771 416642751 162516354 510524196 31871023 872577118 302227540 488804428 28211090 51387885 430440259 145476251 136888916 376486249 710417813 56335938 114639376 827658109 941940605 282317092 652093874 674525821 171062350 57984604 835642711 711883925 765551216 353407648 790851838 28939906 880753938 767877814 285654385 303802531 491370508 833171111 692478056 337622599 556197234 605509995 737857827 777566984 328871728 851572787 436687895 70674191 301415265 167818567 787947327 126329025 899403788 311906798 199491045 24825182 295089344 117089597 827819346 413677718 711115668 240168878 413894572 126518147 452951470 334238596 721197157 472353762 322212446 317473534 579848484 476007049 155525714 477632471 746829537 758939334 973141161 210622898 178870988 285336053 202642434 777104685 2494375 517940629 546953732 5303945 51164533 248480256 859150865 238500966 844637943 697015005 483598128 689995790 282336413 729230047 672993497 562363729 255751228 539207570 433685511 368135455 46827596 882639760 672859886 79273217 386748158 18299453 534016824 984464089 984452924 50238899 373143263 995910454 70648331 870088845 32776389 531230771 725452887 943737452 262974013 281690242 491361686 674839018 255222022 38641429 212559239 226307989 392901278 736535729 317392817 911977625 604867084 246479943 270211894 178271226 58414443 589561660 404578820 515397891 396417688 122305979 813998686 982881315 281869630 379360584 43018765 473390208 627849334 507176278 133758233 266457145 905434533 221083012 362961965 27159059 362358138 965551347 460545515 44161525 972441498 874523608 728922368 579718556 676212818 598959008 828591987 981206461 572756280 266020001 738170867 901434236 467557248 648338417 178551593 997401481 943425005 717746470 142184207 332459858 214635748 992608861 336364599 407031745 46954580 494906065 345669297 556658087 648392369 728938806 553526135 432489988 528361442 60411481 190662507 308903243 520072392 689902700 795258853 904433871 830142046 982808987 584527272 799664739 742920738 856272317 993920998 929627443 372070764 145058256 719748887 654277079 59370503 991053959 669097017 356543748 28513697 126765277 781457263 753239644 12187419 527487616 871015412 125359911 137539260 497872149 144298553 173327619 458134675 308036901 88649915 610784339 52601742 469690201 135778875 798661602 308602589 408956838 204283908 139626727 26521465 620984451 405118490 3047429 867694791 79904911 365024798 823113670 264151777 165096194 432278016 471581382 235542621 534620805 551511357 785077342 866485041 492358118 683625820 163223944 883315973 239758982 766657540 546539711 277473353 928265808 43443450 362822961 338185300 167409562 929892409 445468934 287530056 633959518 105530434 446689514 219583918 72755983 971799496 272002415 343938120 183941766 474028939 782934815 738971463 227744698 327035609 456005890 630903160 991993928 807118137 222442072 334233089 368625787 61290675 453028660 420404046 174159464 454034244 494436823 51465512 683753766 593122396 192739039 290990075 926678350 174562354 989969548 797936820 103912428 601630087 314516533 916178951 178136230 830995513 563237936 146327714 797214259 894300890 135039337 330261148 322975575 360721744 209584433 850260243 85374987 625202651 376295454 523029264 303694377 730414112 577426059 251982940 574680551 907246537 996273208 173470399 311437143 769561422 890940532 753608179 200930968 145793753 568620569 155327775 324889720 439603043 152028911 864422829 588053011 953916665 887129631 231450490 505126394 695371138 416113235 490536990 852853383 285768370 804697313 934040479 978374564 216037816 552991844 788228808 915044505 622044442 822731791 109987934 882636195 594719207 962073597 956934326 787581946 591043202 236562217 883968769 327793394 711311379 454286212 927709709 975871548 732288303 243158101 985813353 839216861 858057839 234070455 417002468 17208999 231703472 366972486 45262849 177565222 964167770 555102703 321811748 478063685 776430207 987395942 227748199 418177858 891225943 309035025 51653327 274955247 745333409 678835889 718368061 565731341 162925533 698296354 648633432 560823426 649832781 785261697 456896686 29097193 953326973 874067822 757831790 343370352 576912367 792545335 166907454 620718209 728744667 647649054 456689214 98553571 399996259 819527052 446076613 910887539 761285997 263027406 761930484 808534268 229039031 659223565 104321807 968653708 582920192 451100403 427842123 413404037 780994443 710337062 144675576 218737357 397539686 11095601 559381453 390288150 225462627 295162769 184372470 162499606 53193996 764287475 163287666 474680228 233959968 819186383 623406354 311926407 988752629 422133212 627554440 543094129 526825193 114189656 71162071 216254506 912981224 614312125 683181253 662953762 992718149 385994843 896799175 331218051 173834362 255193525 606947598 847570826 502502335 727322732 388998818 670266276 717815669 13659013 707799600 526423486 878463801 147249641 991527095 755900069 155241315 865554564 529743565 892444470 420779466 920436257 127192436 240770270 122311277 519574742 298238460 581779532 377986191 751030691 841823634 572386387 504823119 332508882 740957914 758541789 846891152 490952317 468481367 571776035 408593762 46275220 435327345 833133287 928842898 711512804 301730031 50545492 630771067 990201501 177899696 563752533 772784485 321705372 141882083 621979271 741275517 591579164 706131102 855932589 263281528 627747033 912852376 979702276 312759495 342340449 600828906 906331790 482711228 962226615 438608950 486307606 855285762 149844870 922818162 680193068 401045221 820695681 604867870 35283823 873876606 198796704 417051684 216051825 928560179 879576674 798983448 298062184 128396215 223012056 973866923 148440054 300163694 193548282 17393061 504062570 518182259 686008433 276431345 452758620 692199667 191274795 548613897 722979866 378182534 543052130 278777807 648448854 969327425 666230308 364639153 150650120 881010605 795992034 152920274 792434449 168642100 715251125 86523343 140805195 426783557 193897479 919669313 478916365 981954656 753063472 564208668 765779311 201059981 438346433 335351112 129317672 994484375 407284284 331911945 632660973 669449665 691899792 763301766 319375375 769928865 616958928 882803744 990876183 286388569 529683281 638652166 21774390 72209688 893601508 811963603 961068427 898820560 98947874 412387063 874250752 930032706 28991183 55299009 211572325 801176452 135617514 330405373 875289089 994316567 716128553 774984361 122227808 217755204 879278232 701704269 253380783 944560175 830183408 540925710 805005329 607607734 591577409 242105044 42417048 582772864 654540704 97595853 703722501 96238940 426777054 902282202 520227486 531188006 77119838 503511309 147309415 251926547 535269742 265723367 810527673 459481976 539910753 563714493 280395134 882497325 956504633 123712332 405630553 9201866 921136146 946664237 160022274 793717654 75606989 611460965 171735598 769598436 895506261 74999952 311738614 637138211 697645860 95408319 893292538 155339928 635354048 967483404 891203954 641707646 113209795 225239969 230777218 456539286 170403157 723919906 911318437 614556751 833096671 20088673 622819976 113653039 11072042 847309271 627378174 652805836 621614630 550804410 266447224 425129471 982244858 518182907 604083965 577185721 336101134 79819065 69303549 732578644 174842454 546669769 332772172 77036499 816423513 957817479 529203284 454436266 803910622 495870137 819949096 444649099 281198891 998694608 720699636 11018100 843359618 513474397 799154825 661179608 3535635 218351238 666381711 339982379 973376738 213283803 795680645 556814985 798221234 42402238 557569404 662498546 11184020 911950734 17674128 95896015 162864068 436465810 787421262 456442012 134771553 5698637 113335221 363916801 407064230 924587859 492842596 721669862 783157906 72873438 193664218 349882217 112371225 550735236 50148850 214755318 775455909 149931716 87982599 430472093 27172587 843725896 210290091 559916422 561435955 580920494 900953878 363108476 518941779 692875777 681750876 10073057 783135964 698789841 76583550 716886689 16335007 2872287 329658 190927928 100612168 778712560 721965186 947413394 326800613 894784334 207602933 104322559 990384723 502739629 820146608 531110127 149735840 373981979 436363820 879212457 7378542 434195272 637989937 583772801 638000439 11780106 556888558 16220744 708237314 897330742 378025486 586012346 853351124 4671718 655104154 702831687 412612655 441154042 196984375 878677675 960539115 684472009 849294246 428045299 43105657 527152815 536933997 589400933 891906407 995464731 810605514 949659446 668679986 433801658 462344696 750948788 410302737 722859607 126900007 518572835 167886059 984017513 947719770 487689539 734556480 81043901 185514651 447497020 687312612 227994294 237022466 981448585 676554900 32394610 8174111 384817230 951517570 36672250 548514502 130687203 620359766 45997684 939584688 856873112 101426223 259387395 165252766 75045193 100506380 76729954 997375784 768593025 165298692 55458123 68359394 609974519 882369340 708054885 452931871 722961745 561024775 43222595 357636337 830175807 181697093 345192332 608421048 446542785 429439223 336183621 412378192 214542711 623539143 865860642 60907350 92047689 208821583 16613513 25226532 602121637 962847544 252062822 775733188 130390592 457852090 807846242 524525311 434001986 332439812 693658202 579331498 666614459 952874702 57562176 226742501 937806882 192368345 885166226 396927809 539684376 500973702 331038448 49736156 190943621 134527882 606926124 288461886 564035436 467645759 715636227 54381851 727699654 264668775 320958721 561882899 170348724 943746557 27722916 263367024 49613165 111236189 811819397 478573590 228011945 359601611 910726836 401531355 911766874 343674464 402727752 272109186 534626657 564232365 55016474 532596161 820963386 578776386 152299962 802245970 222667278 686789442 679706952 101452433 922085590 573704138 812595442 455265488 295405323 171384418 423223709 476224249 126137956 548321125 231652141 515874058 780012223 963700788 52528960 997905384 205411916 501765679 840455373 22163147 956293268 65974788 633302533 93509280 838824002 178995993 699488493 286850045 572983440 615699733 668623474 831985161 693002386 485395651 989691573 889192127 216018344 441100738 745225290 34462242 321954817 141774847 802995677 363942961 279243559 282889343 16795719 372527051 622333965 617230746 344973765 46199214 918868565 826887544 799460637 101863026 922979522 844816640 391683011 428166322 27218116 878943015 560949158 453187169 719155561 567331336 985690783 270836919 741565564 981943405 898654961 53480931 107974179 144375694 932690055 341695421 5823286 133959201 735307180 392246197 343875144 85881979 130640677 580187055 586224039 355318768 747906941 655035969 242210307 397214022 421917187 911977341 299769452 506727855 939578473 767482021 465901364 444188685 193052350 876418415 990855083 368534204 406869435 887328288 340062460 696462224 897431797 731980047 101773971 951249524 25822588 320789005 892074125 107486900 46399294 236735310 886289195 689423318 453018821 872783627 315753175 274824467 386851840 83352324 232725111 73441356 872849307 40756995 826678191 874979220 672092616 107143632 180402464 506254665 622193216 211182070 927584165 271660715 835967960 687240454 80366078 3026195 474736504 939563639 742645174 581554146 140020959 687050209 252570524 434712684 427787545 877148295 884697570 560424199 760430424 78020529 715795058 778536578 841626538 759728836 733550715 522193897 917565364 470106006 115461698 549993814 636690710 656352942 687648068 797556790 146497321 599415259 439717916 955437152 621804465 519345283 543956205 559851959 111453713 303549183 607332824 634122833 962583659 353348673 27155199 52138577 494961755 480197838 145110995 871028613 494149066 150484765 639402529 295097414 476652693 234879301 329334471 664389457 584727216 1831439 328996480 702696625 923485986 59023981 563692238 23489496 547349766 416007937 544654835 99953694 189238452 209038091 214763120 255432931 142366181 519948583 461476904 312648853 619226449 920241338 492968486 222436726 416251803 630151582 190143857 674626405 173917742 358708390 458199481 557447755 425515697 387325337 693360404 156829097 820807034 235210146 949124670 883040598 200453562 856659742 692912361 136928077 91040755 696153840 545652208 576481234 908816130 272620040 36770249 253428848 948864510 779607056 992303268 514406449 311229338 691058408 541592537 134369098 106047533 187808751 221805512 965715019 38177424 679772936 996535849 191121725 339904791 626719012 412647108 475138081 88805410 929017269 838744203 305959716 24668330 399028686 379187399 167664226 390902537 86922118 242053961 581632361 589166960 92341439 730372933 208444541 715303145 266032660 475663411 17901125 960470079 310127686 551944864 375857586 672260092 790105140 610016219 640852155 733323974 12054594 951889288 139235698 674991630 399498224 760350766 768885483 421468433 392870225 597245940 728682506 909111161 803246686 278437181 416473971 30245112 713095880 482569188 575419023 762446862 760286090 318837160 923604617 265116270 35699589 784766800 478881857 294653742 181145492 985624039 779768912 589378741 313913092 909225457 65575163 17202884 85802659 695246555 181746370 247790551 233333643 956572906 181533202 229645683 46235570 86267854 575094606 39396970 56486549 799355535 486252872 960025031 634932031 322790081 798682504 153470528 468407532 285750481 590006889 64728063 786377456 146485950 468137508 742299069 229982098 489678188 510725133 589836680 110265364 531074181 419836361 791387597 532584444 275762718 570984875 80642744 81265531 915350278 434745020 909389027 859111894 905329973 681015495 772089941 11213985 236197037 480326576 713714313 281943184 195018957 636181372 868466765 961507833 438745346 887162351 222192932 832447045 959146268 599226825 678187596 612572319 795480915 860318524 235428669 289346214 451604393 720796025 357645999 710078014 269196006 14183051 58193309 213899182 798095922 612178837 273713062 292222614 342324564 717683103 947616087 799488798 447397160 242042715 361452899 390481719 647099866 415845637 401425007 382603508 400971033 160010961 422300321 451419754 363632833 752682776 299278185 246776830 165212501 780125970 642280797 416804460 906390745 738018316 548763786 445430216 4791433 484362461 327028842 85668050 69292155 834116713 928125060 329661175 270950534 920429460 990177779 192506740 156348561 11839402 414447559 141089421 264443204 596135300 736880556 88692200 605485116 706813379 101537029 202638623 906851343 627488639 274798702 285781514 959416096 316660963 908447865 963932722 326808212 81284529 252651081 171441545 474381361 905695880 741145922 987004468 771866389 53085468 318639274 705239559 825181965 197555307 414391582 341851965 978721875 566487991 102952835 382164330 567151584 226189356 15419910 727497694 536399963 176964339 818506123 135042923 294317893 344039764 143115617 369973228 166289916 996011762 285945811 887936546 252469366 838934425 279664599 908180489 164623907 388286272 752891195 547757436 673739556 533141748 372116211 399665658 612892314 492758249 364346150 391397041 437492454 421936165 978827051 670103704 906574845 508155234 582306499 298886361 552789441 176643567 511520935 691278571 642645089 900891622 53204094 805962435 423605921 659964082 86615156 648045225 835688487 118623177 584853228 17126054 648530988 200157572 862258992 113434389 612642861 673651912 597119075 270294759 668615054 507583199 677863877 203004696 135288914 815313154 125688387 880187343 915279085 852705144 585620589 596271665 147652472 630388120 317339306 123746521 916565860 492473616 595395280 948796510 909502198 840177114 429035447 270774365 765476321 52099241 458285268 673389977 128370736 18763443 642530348 555563986 682517900 253496485 17613278 940753179 61982845 261445439 372063726 668587126 127017014 596779268 429714735 364209618 831411706 483063362 70637560 560501035 506667998 489675188 394837442 999078379 682107327 70649608 548913247 975587833 710119344 342574298 175295754 804121122 918443746 539790432 754601148 781098615 591616614 205222667 391519305 592745071 694230754 535810062 184498992 708960209 486842351 349532768 653004337 309279103 625311460 595139165 591743195 725408829 745176413 238966619 646364498 368057270 718827114 126273335 173988117 336789726 730174282 702210281 776761587 185652132 349597351 619551268 61129513 616444146 100406546 584158103 723430614 496449514 136363903 382574985 797618765 188844822 768550306 251761383 625882907 521650061 121894818 295855973 22418943 705233459 177457781 883712198 516708288 267007961 639081007 288395506 258806024 614496761 767693100 92445044 712311218 567039160 675554231 808647580 540528429 933002146 675049145 603896321 961771075 855579629 384667214 47703346 175452755 135920204 243396765 790990902 167937350 727254889 910227564 361666221 874681980 89213956 657496518 711054582 983938034 382004134 649862773 443286521 170077512 684388043 87455356 385906361 242494493 800555404 317084088 433669513 722832442 255164471 692289213 673606599 846716215 431966023 979948735 798591129 114803764 674097672 995276868 48391940 713600787 674266444 403804837 551613183 209755862 998676726 115571572 833119050 19987753 460384509 510870875 866432911 234325671 133028170 347880737 286062490 482882694 932882695 270914068 35669246 630777979 997763820 986197698 563037069 206049305 103446565 526517349 774314111 308561575 330543125 582675162 847242047 426618085 341193966 516244470 389510750 554040980 812669366 948543000 288754031 745861720 891042862 662295521 192683759 311565528 408219297 374002705 437883368 147940300 642335900 409585206 617827481 293315799 611317821 207443374 969269447 445544772 327967646 359014204 716196892 496912039 391912542 207619655 55679971 684748331 121145261 817780831 773450611 982504477 627354309 38681803 319295210 467139420 572012439 138535132 199375993 570557029 374569568 62405372 533933724 870074238 86125708 238677285 517056888 528978331 241747246 582232422 239118328 769440153 340860696 255252721 672015967 529509594 656372884 869596430 535063763 43759783 93563553 227564027 880407897 851012946 66479211 880573111 192929352 23654106 165488751 725617795 177030997 836580221 613106142 185571986 625829229 237912310 631964923 571431447 696153461 207956811 907370948 560712364 145517955 685553610 462742273 939700151 660527827 29045982 160222340 277021034 836303741 206197225 40101837 28596783 901385163 494313075 989932724 353926807 433970155 901729481 351540094 54302464 503657853 504881387 913510949 78862960 620939330 961460677 424599164 21557852 235136947 526093031 894442590 532380872 996613084 261351500 873001620 256002302 209185647 218671938 572570768 561952037 177921889 773172885 844719552 826661204 250593633 98809309 180667045 42131054 543069186 29314373 209095659 816861659 247855450 363094262 374127148 497617852 127492366 378102184 564721384 389637601 110675439 309482010 206953511 511340219 963738066 603074509 442611839 41621018 819667271 940366287 277812799 410619577 132089908 183547877 836310757 855056101 282327208 822794051 194500578 428971329 218964722 631450614 688223952 631738177 470099111 689217837 553975136 540821288 66854090 113139634 644911818 548877872 105190482 675736619 157389699 175064889 600992564 793315835 741081070 424721177 825652494 156801074 793610414 798683710 682141073 601751104 736962700 871950531 578707633 647446828 486805080 11572727 660559346 615651998 280955151 872829490 431813109 497636900 238085209 75119538 331443946 631503846 594583083 636100102 74078177 720829444 555356946 422692153 478022292 799256196 891183524 40965330 397660079 204663530 257584963 270072807 294665297 924171284 29229973 838597044 783694937 806500826 636181637 568287279 908761613 431346349 640538592 826199068 931503611 846378860 274832847 866461349 393397466 575651814 172629647 225227586 492235961 543660452 100940424 270732655 80525477 578349408 659000437 313969178 893518098 968914703 929752939 240208715 119150357 752452364 947378427 462669885 196036313 205390599 337999851 133053903 693032370 622635314 720254778 500769348 781559734 222476316 218052124 303546019 528601610 710642548 15028396 853125606 505626370 503809324 589600852 536259216 653033525 633014903 392101234 690023653 869581159 396050441 514517234 544518696 640242428 761792927 467914980 468129176 370848983 648109768 307852861 601800205 682938875 2929985 745569840 777017673 44064284 101372080 143285183 136462608 488798593 812635346 603993267 16092746 768869116 22835006 404920227 974920758 924499108 822492785 317786945 480094096 577803279 949618426 690784552 861760451 924122907 102361928 996006521 102900418 485974460 353664915 701789839 337250518 342886732 632184959 127748079 630049606 315286908 444652775 950257843 917749640 22245338 445927656 202905537 325648669 550415033 298068426 513499805 76698514 465224202 774935448 597785851 556832282 79041680 727865561 810767290 160570437 967922108 264151599 485977693 871671590 698458022 279611394 758422632 744048027 799751190 719966998 233098593 91737726 711119689 72619930 728170373 716153983 773550430 745702327 352152584 179889713 890902056 919002481 520713418 616383718 281306443 749000072 376526919 719747459 687638466 36342210 561852288 268237761 65870060 695066605 905723905 355139029 725242668 614349086 287819496 413624990 814523767 543448777 394055020 814539783 753937634 545854785 718083901 534341933 612598999 78897319 645122222 698953105 309007090 894662444 169618558 37830039 320915577 735582131 957483959 990262368 906594271 623064875 343795964 437801075 366200095 713088799 50408926 289794637 307031014 596744513 628809887 483691943 806881895 22165047 447548267 451910625 495721360 753435355 235896516 189646560 953529250 648918211 689366361 659644113 534169178 927304392 918285324 20195458 346889529 216494387 101334192 322720176 853866268 610028484 441426865 540756598 377773474 370577785 982879485 475673167 354293748 810465450 981557845 224379104 383034351 613223997 937955868 134034908 109515244 714286321 976303173 409444093 281257966 614164382 373182266 256193386 350592469 155850405 536996802 869948366 359210318 842367571 630391712 574382548 771475340 995605371 792350221 380718014 266121877 52192891 380691397 598670979 132108760 831284152 413455466 795285670 343405439 792260652 618610233 809017849 891347611 113753763 282060932 436868300 462844992 739947620 247661240 949843154 841389262 657708782 277254970 904873098 204224770 274901280 666806234 237285274 118135505 210705408 653603720 658301167 314272547 191956530 903030396 62714340 803215579 764870438 517699136 786208359 492878837 823650842 925249122 337075978 749294365 988390285 787357411 106248242 220320167 796768938 596917541 5054947 981820434 39731594 272645951 176833153 845105954 250286154 941614550 936054530 141748005 258858990 888522266 716998139 664677009 855503043 303865523 31438707 357857243 3431297 7245642 885297344 245667580 488433299 736422267 946765566 942292528 482949388 897488157 612949908 558330736 41384475 70456247 26306989 335886664 692881626 493625673 891417423 436438630 271663189 66581037 122282883 727993246 856154830 612358058 898024775 699859659 664622243 528116283 205099116 917679235 540914510 419861075 334302462 214953767 253015663 875709596 807632002 493462142 214839020 272729762 998120508 648222744 708562830 133089953 163008854 470396805 972686959 232924836 737633858 358373815 701433192 160648012 736288820 64142993 487549918 868990558 814251101 990097736 72106139 613640914 944818159 207057783 268158410 408735589 42344893 939340808 34663713 640245347 868716059 736319538 921598860 718475169 297256447 694424739 542200142 470249591 456998360 489632846 541786877 589956381 82873506 654411142 277042022 643478174 361175999 911775617 756130415 560892417 114956177 749799200 711869995 180016611 89953020 45778803 98082299 949401397 58381720 68443504 422952156 217078985 809729912 596378600 523705993 257974333 470560941 436318540 509346096 186842195 875428285 818767264 453114051 34245011 349251909 94667592 477062388 712277135 508559558 912046002 768736742 396345534 660897361 778988422 522495210 358151525 906152021 980832624 429333576 407017367 54606041 427503913 252047028 932124662 729686969 539445759 817142226 40418446 423730196 984996649 446346917 238835790 565858925 724287528 831182843 529343929 977985831 758191395 355397703 153467633 900279618 592014246 678338476 326681038 338889968 905562704 303311899 561490793 658087759 985401011 197206840 549914013 152252482 473591355 866921880 524853581 585403595 898869639 492210677 229043899 154633354 547760709 496364546 610374936 873551869 366644760 791051989 178763836 61947046 341117022 25896907 995445394 297665147 877049580 455833966 648587803 277931038 539967727 947560419 698581030 688005883 790768987 927542587 327260762 381359024 139805543 753221729 684360850 601758887 76884412 247123176 674288456 937431996 404615901 905877692 873067919 237376372 819808128 879453364 141865715 266824488 190801792 74951934 932326821 982594157 509242862 36961100 743247179 990505853 671501066 465460759 617814017 976509972 242716161 570115880 329741191 878400834 33681624 924779869 650290777 764174830 47368982 700177503 879918507 895090029 682924993 954727312 220158311 19106231 480097420 380470806 953376496 167402777 23770321 605569817 118471426 941503652 411245550 837716807 70251001 138383149 372302758 750054691 959338796 240469834 678619464 875970688 260155688 304774873 829391389 576655423 80335851 976479987 538065209 200529807 436838794 614840015 678703370 347383780 691663818 887754322 63867372 687207504 246079813 200986369 188918105 27954225 770500449 910158935 188937564 145423008 708913937 10620706 142616297 780875152 114024542 552254065 455404603 206334916 664536221 318784267 27860230 559651479 433189116 252676704 838120923 988718507 351436590 455114351 864510277 829399360 393163496 13285239 209990140 61800964 775924052 404767175 722734913 339924796 426192931 898681911 479004940 482596181 212721571 991061673 364068258 233058001 222910778 587369861 615333422 558090271 224819969 333265574 41905012 188902756 290987312 205562372 253823370 639883999 55946874 517603651 631951751 902239069 876994821 582165552 140901088 555959488 80302758 844447747 258542105 928444946 697884423 722443351 892721583 664934191 151209885 532286902 126366136 572461520 203067380 166345608 429232765 51823812 26340757 596805548 729564350 58050073 622359214 422776675 460641955 89838309 483712491 121690973 242090474 96252324 468823370 192269657 619763437 436031475 566103345 196399995 21610090 633641456 756257360 179406426 351310248 30307014 2191663 384997896 380440317 535903618 378982041 114390955 180116440 17033810 400555498 273935754 62167043 198995931 227515420 688544195 792736098 93159296 809949143 238615418 269998684 560589750 787510611 223519949 402445679 79347482 543496680 288828754 669001626 144581209 760304129 804408028 561096847 295752556 486872224 762462317 606474940 424380293 695964258 23072306 684126627 960697611 515884795 222281320 540913579 650517598 56058663 708175336 962835538 829259710 401387380 398380840 275639854 765918508 993425188 846557514 135214257 699549003 736954851 922038944 875953151 66859388 883037667 259762203 497146160 697502519 477431937 456257240 230607643 734668184 849719091 631477496 675970160 896706363 799062044 547118453 351781923 335315842 990161605 854845648 915886156 265871758 626987082 623899469 812838243 128695472 160788 777047024 191667757 128850848 808364624 562913142 793349982 822743948 813630174 534231439 781042664 615134972 810891735 244866157 457186682 832910635 54565091 315271368 147610539 457340179 187053476 667274059 44634804 118134336 589778857 213989684 5272937 509466695 403602871 586206687 393582293 430654619 936629607 659284604 140244583 891275484 415038011 458275927 5442074 256185641 668765259 139688461 583654141 413697148 588542179 759198093 675386570 524106062 441812088 995514415 101804289 130292623 655919972 940080217 769403440 186291876 66189620 577787837 814670134 132545274 931456057 583024651 985186547 445724183 923614985 214302204 900469651 112300335 518197238 634582330 820374661 906497813 344897529 112261824 394616255 785419477 766368963 164097721 572123194 372422144 805079771 76531137 796386611 899837791 99835574 68467320 687653328 838552215 523180389 67307969 121574075 218254243 362790495 763344579 285932068 428596658 380931522 572936451 171602571 689350326 30723846 202329465 267398945 933030445 526406610 452688333 397641892 225737873 870154857 814637044 205055853 595024249 675310013 46670492 663912641 29730204 180988135 551387354 65622582 295501550 105718818 815916121 255461814 702815876 127236945 691372219 416755515 426410874 356392787 781643414 356832146 98495119 788544847 538024290 342606800 771703100 444721036 540833749 8923278 675475581 465346451 328104830 291540439 74134319 647765682 127442548 160225568 637208967 89893395 200755 770938355 461305289 701393731 19447469 588767374 409175707 863934770 656051730 181693655 96601003 829097003 448306509 6817702 649179575 161306681 351314601 572341749 602408813 63823987 655323816 227864887 426829951 286842078 34336163 805609047 35137920 197517230 300758733 444192318 539933998 108281969 365867248 834405071 696787781 457448483 662971437 85586950 711694002 934218551 481143678 588259192 561606887 938888254 190162524 411631208 371901441 407625874 559391423 395436932 111784730 247093477 82841555 490643912 48008812 874795470 146996717 546255655 725306215 980515691 453431452 220094758 314920298 669468944 110740129 187523836 725082444 947617243 834201068 101517758 270618804 216898905 14392315 846961016 392001178 266916775 235448807 950638819 579034031 683668040 648008134 185707515 847909300 768044559 940448605 49169938 137770156 408215016 887931999 540983294 784408734 306590931 294995882 103823580 463316145 608829757 154289051 577947902 938449198 473062002 567831932 542676715 271633879 619190444 23901695 981331114 270818737 368362914 85654087 788070451 620887343 507400249 390283842 484280827 316885636 322124676 590272024 415266754 66641188 807878669 348921923 296518109 971438559 228994438 740380020 354271772 662870067 801260792 206151546 764562314 3800831 390643564 556033706 26091671 768772860 894761502 72005560 36766396 531246497 778376027 647638009 671651764 373546029 126348134 164879725 147330921 236828555 473849484 328806747 901832987 957016418 468383415 84693888 886692471 752139110 89363427 585310226 255646859 327889121 726355166 447362044 665897123 266223910 712214973 601827941 640703437 29169067 227164328 451716875 89530883 159361044 521024722 966249727 140050061 815943646 944027899 122322106 558681633 843273424 521995260 176248101 955227636 592028112 265165594 549991911 890943274 795717895 970003561 468187462 270267505 490669488 132495537 959295847 951225623 740929195 730613422 599159468 240133182 150443221 284749661 948495110 168351035 139064449 131381450 577448508 402219748 399992431 752741301 618804069 297906726 667782928 472714540 263910119 606563540 590088191 51884331 805086314 641668972 110671204 679185970 564505991 400156479 198278436 305983561 162213267 586369492 501813012 903615307 821885481 648098188 580843529 577761342 419207564 494069977 112535771 607864607 822303919 88634486 296930723 939133850 975654978 982253216 4285338 496421160 737402645 697162968 646980726 428298691 960759130 799774165 939412815 958916260 797973840 843824996 744705980 34765348 893038974 332864970 944991212 652197604 69603014 370442661 825961849 103911964 205545473 638770041 440736306 170280710 350944782 798606871 214730668 459261077 724003727 369080916 264567484 151552137 877681798 786009324 566027475 297404153 405234781 519692519 233903739 58642726 88702995 841408516 766414910 669256345 501137042 229387944 709562281 476220161 502188596 777704710 388052532 594085780 42231318 999996252 685404957 385242965 791224776 86886445 456795190 403720072 251150349 772696022 796815769 257840067 330959134 398011139 446863176 859176146 777183915 952647370 644164260 170195797 519688236 499045899 224775887 694247822 564139331 804336089 720809930 558157597 772014543 473645363 977137124 545060964 226577993 625888566 162762575 45311928 328127974 902933643 839542708 904353797 416319595 397822630 327523793 563980404 822778741 45985356 343452295 962920908 161538919 894358743 793209172 885793738 668675987 768541397 976894094 13412796 278577552 842052401 872205971 763008265 134558285 687984713 505928526 442419966 607706255 581146456 971275384 86900827 91286564 111264167 873302667 285350250 586512079 449743601 321761932 374042843 42752903 829387981 349118756 428939785 68117984 971352119 929416254 173451382 997943858 19094692 516611337 942208665 918613224 317062415 28030710 484430293 656989510 495447748 84496828 858665462 795884536 624132583 598279202 330236520 576165636 412427212 507815428 682730651 538866803 555440293 331897289 851926186 396019917 634028755 419563759 815821429 355849806 617411422 450179542 984226253 643300361 266463946 728476615 850036795 387971253 883909903 573819853 798197325 599446639 649154786 490996231 538238076 380264254 771180542 562097842 355884828 677834415 45432394 45319075 826017242 578289819 286939924 943278570 851217623 329175852 97158058 528850587 6436044 362098621 373731671 834843807 303579947 351632927 811134746 879296970 74078561 571430559 639607421 981844145 130774056 531386365 724942717 678638354 531952167 178533222 429815175 775008036 264211879 907040968 723422363 745030768 117424426 654064896 217163531 207917688 970248936 873185195 38391569 376209791 871730267 997336842 781779028 550503207 609767022 434961769 281849451 246773975 789744263 310118512 793503228 896427152 62309434 641908459 826439466 478191441 189437770 689605300 138444771 507300870 861438398 264186082 784870612 982143313 973262885 60823565 526119395 872336061 911071063 361691987 390420031 829731960 796426869 99539432 292092538 647919366 698540579 612748372 722554115 117394927 269483627 258478755 199006029 312690640 81854186 194153304 400306892 955537133 639540731 449618690 585629901 749842195 674053170 342585083 402218352 90572652 744686148 216182066 982908608 154746334 790073397 734086151 999221196 823432893 818406667 667337876 253104884 159165419 286337057 35963017 380767477 237134946 235711098 45729508 137902490 253106825 772544108 998392696 693284588 638838690 920504383 233266921 108051911 588546936 357915186 401329656 210911322 683961027 475877407 457222497 32970593 993033129 598969874 741019065 993615575 186071656 615158095 933452299 935698136 919249476 562011479 298938846 805108400 244118260 222113118 888253397 571661107 824198692 696240001 967815512 971536099 307716766 765887771 744049317 182364334 565553699 733309425 108133210 865877963 652038433 361273502 523154737 789949335 726556744 601190847 529935909 774397898 694166491 218350407 309158405 988508888 222260814 184933629 84526955 333475559 428874735 327867803 431891537 607212418 982136720 727566205 243346995 935118939 395794317 767525351 246692056 889614842 598256978 593943223 738606504 933730193 70705422 620003735 592030467 822594254 657258152 379648507 141215572 834173695 398917029 118760357 694917793 518355921 971124890 934506364 408279768 454827465 745778305 713226430 781116591 38105402 410078989 516071915 718807572 806036405 967088145 101015607 860865891 43701644 986058203 387491295 21765356 360779267 103077558 393020471 591757029 340924952 754404482 714700505 670916397 814559705 249391121 603128649 309861264 647170798 175202161 977521767 927211565 733364737 624629856 305213240 776560678 544320653 396757939 787222607 110665615 443664924 683060721 608014327 485709342 663908502 590521085 941296517 550367791 610146353 834117712 949385158 207321027 904206043 357964028 583781569 643462447 691205608 951481714 911739906 742449185 76683132 306483074 509228573 956132403 786388121 587914347 730899758 723408907 726296516 404800422 822263369 645059429 137845829 998896696 252301834 748868367 499819825 108257122 388726291 86720866 184371769 347206115 647450962 15289000 958998615 901364495 748891538 156307963 809965877 493141828 835386 259069615 597046273 15387303 271279841 936219857 753650115 121511715 196955554 174864164 867355707 430473300 515516157 188118143 597660469 958963527 823336932 238341794 525149413 858030016 978634808 799397961 358395572 399221556 331008864 533499680 22893729 511613334 556852661 604999885 547652754 815589524 261469721 916240163 214945558 974521633 138015869 801062962 576287175 832061592 596068501 137916863 733745210 371418370 91354366 741992691 927032550 455814226 202285704 709402081 437577983 356323347 206321690 603285380 84629163 186817350 506225680 455643690 751033301 727175152 621655110 877085812 786933016 338052250 486363592 442953674 579487840 327144274 972158002 463895507 782733190 173171291 216263304 365102987 345427788 262584910 748269004 580857985 581719876 349429928 172501887 913802716 986303747 158591437 761420219 368672073 262652078 840597016 467890284 927876390 793746386 885354439 604386943 82420048 784944606 975748146 919043142 807313746 244767110 930927710 614453289 609074792 221715385 394008166 348108655 703667084 718314308 615046893 928547005 977639617 397032079 964508569 545076941 746095623 522672209 40687481 555267549 257786658 409591527 994554341 274205873 933829067 795550104 367820166 860473346 814365895 79397572 408957331 899490120 136328925 271019336 911395854 311664819 511655855 261841890 859798464 303738861 675348785 195336367 634510414 724561569 949534674 784952694 89857940 153281445 537597532 139110733 695667950 998105253 732091768 770255093 725639921 190441406 591116591 528888867 11735350 100554681 994850948 387112479 615148752 759541628 549755020 846958481 730733636 286087660 510551402 72638985 774404387 763810256 654874823 265463196 880100596 146022876 14004408 236090429 716610915 467183479 131337103 62045705 137203576 684573769 667867783 321876447 565276847 158818655 927907539 876307867 657275390 359429467 264725465 453745657 544254284 882613372 69190475 613080420 360855899 704137357 788718542 511044961 625953917 126289716 650208599 932703479 7115037 420891408 809432975 304809146 819427329 174316835 123430711 245190142 118918396 421028779 676427431 9533773 901884298 309133318 721494874 132530677 801223793 64389227 967253286 447228437 879318348 201731642 134897128 127651036 269165637 111964567 418797905 563299186 905410975 478455870 873595486 420384978 409138474 843848451 302049083 877176726 228661953 948823902 735525495 908351404 684035202 960024671 658157560 603173847 55482476 130772155 918598014 29801105 537773340 505759858 757018131 986434218 867415163 672738749 405992530 655689202 44828804 23947322 471469419 657950651 228593432 624354673 230085894 348705937 16024009 946650398 843326634 857520552 137717498 76295859 727979133 129779615 815320188 865797462 873330348 252320410 169370509 183972492 570011481 905275728 511657409 659838601 508236594 173407958 54161008 991172209 264568633 771877263 617400928 842567306 358288344 36032306 473460968 653738853 997730984 205957968 132113671 984692964 703758339 739502307 372550017 492545024 874646100 857113665 890522429 365585627 116176563 611475475 2202907 594243620 966915933 90036879 992596215 160956933 236257891 217185793 774846007 875866769 746699319 560378729 811032592 742275125 815648259 641166531 591641511 756897937 545243038 908324290 209094846 113889668 357084057 394664649 541881284 530208467 467664919 239769040 721259427 460722467 100406758 848618350 112352764 752988591 22240756 853259600 153886230 48738762 324287636 443007294 579885760 975033736 891273209 718321455 858304660 958090349 406780435 418457663 660941541 763459828 511672817 17911077 776470837 241129260 259035466 233346873 553181234 858182732 786688773 593935194 760118704 817093702 604004294 811800640 331560342 792035222 713602585 450731211 319884525 831564745 892340885 877041443 196665086 872745003 469244731 999169563 83453568 685468733 963676206 348904101 58845687 231603535 382957783 404676374 75864723 115656589 698480463 481298259 151014344 655610267 614331981 128813513 844998310 656921573 776773831 111831023 149495331 659335297 75281015 808923882 958599377 458064512 390112714 655366307 180645804 988138826 848124485 537781191 830725414 220559374 391319606 823948576 278913348 776062898 844241939 59457349 726871602 297062893 95975418 66806694 249196389 501272576 316214780 476923107 925480857 476374755 261075777 312522299 848976869 636241581 908155999 364647494 424640337 772815580 432002461 219176741 128490899 454567212 410105592 577355973 246588723 391940181 580610277 28277231 536641223 266589694 434720963 283632687 515724461 224918740 229183100 920520538 945222181 585296811 795007802 771372598 525018856 947797372 428461080 903116050 427994491 903451048 418159525 391918747 451737401 620610342 362430508 645490976 446499843 273558693 922651292 845182727 386321096 438447267 764784704 661652457 843172154 938196922 893498822 463708049 122400703 729154009 355499187 148333916 8047425 204436258 356434579 477969457 545328729 335615027 497546596 919681980 589340686 553468617 194494150 460630039 235756039 841631115 368674861 951460783 953508317 336662989 611819074 692844356 283446379 725292511 213239611 688244618 691902691 466086819 197019628 60094363 399034331 719113736 677712237 738327041 932367320 821741971 623892742 654173153 893870122 755051678 110753575 526976136 649193322 915770408 253040914 241122582 675064221 569347507 654443311 561073945 717082418 401586142 49988639 124674628 375063578 420787512 723609975 896314397 979976755 379220208 307311869 213299467 913810756 180942559 528304753 314782 866666460 38921507 354804382 439278530 464801345 629560522 379643044 780724287 222786800 663290026 827755609 996672821 9797297 856205219 899045866 597281854 710189245 464758184 400112177 415791735 202397242 989934099 484519367 598792824 928752704 788754005 855361749 969452171 803123817 236595001 129262541 430025349 236655726 526107657 899263190 912458260 928619982 481302834 939697417 921583096 787243904 695816850 265318333 646209049 73113278 966148357 472596385 560929385 759058396 36090120 327489319 304410360 140636521 220098516 617344240 242398294 259608945 796438163 708478659 63796858 986848471 325005571 329982694 941502927 710499507 999777744 851585976 614171580 697736193 444556542 715613589 936599248 518695716 924293695 165000155 418832854 874759188 484742799 637363120 479374285 402709769 695358553 236051576 79509654 338949267 549880687 408996966 25537524 609492140 805090015 469088349 787067797 183987339 972508093 609359719 597147936 458064490 322780062 828232092 128270788 155458963 431668797 696630984 387790711 312387197 851507606 836069078 951181069 684938700 159554212 487247967 208585378 886009928 462235752 75603601 581578942 532624709 73007955 979561713 183469830 307360089 901381621 243977021 456913205 843165838 278320522 324481318 988151581 63431583 833811651 108735648 1899370 906107781 191160779 557149672 391804227 434578915 535515025 806076815 887697067 175961968 424736709 760274946 107624914 948184262 675962402 990270143 303580820 955305755 786928538 809133136 981583437 678208759 97965500 48232173 941739834 9281221 57388044 618863281 72695780 80676209 704254054 635649870 735193747 460542068 175000620 746234496 664584473 841514163 890858982 269097803 509069770 839062807 621530044 571205738 756729787 215490157 844332287 49981549 667871791 287047855 790663501 599088881 240681516 435635237 319418642 433152737 930284967 843597361 310419167 857230076 591691745 866067962 470772407 22902975 440187907 230625681 348051296 223539265 656162181 597422139 352894455 269402327 886033147 274930431 63046487 263951441 447762465 589754776 615174800 704237514 89001425 384591359 81289884 16073374 169780926 179112337 197776141 204705490 803979103 389199938 975503859 893312815 966686171 62208894 586113234 830176394 762984662 437824122 111728230 331338026 275427325 420887424 396603145 760370480 407520246 367321694 315725600 2713642 315861417 750614451 944392834 54699867 349329516 574055870 544336701 79561831 411737939 563396711 342405348 384963687 681973177 66116342 194166191 754238880 142196882 569356468 632036407 475787500 693852251 845175742 307243272 459126348 966075755 813588303 534928594 33604100 303131159 77192639 175000113 355706008 914383074 37806668 1025736 112325900 303146540 70002838 800684236 900202497 720510390 984892717 11603635 403535813 945936800 719991239 175203968 950591901 404094136 276904662 142057540 873023437 806519867 228974276 488085561 940192075 16493381 589635265 5576293 496924077 833564629 550543963 549092682 713410008 676462982 965657471 787967008 819124981 35474901 161046047 55856359 858991010 147347969 407236268 908647364 254649526 430882279 662318234 578512890 34428717 576485350 187701408 639972899 321607794 808371339 380037332 402737487 95701764 698594733 754857641 789904371 262635686 753865953 831299995 358548515 730802250 821036340 632511056 29895079 399557272 920199549 392131225 87291062 414675172 359271995 619300179 744063643 515132829 643306209 588204757 416259434 969710565 513783338 823445781 808034958 513642401 29262467 845225808 118316851 358863795 432194685 601775820 828937685 917147790 594043100 274985557 909553064 311488494 190497935 643864704 308113345 932376628 185693209 376548576 395027591 328537626 310351868 270452275 243911043 979783118 708213610 979525040 245868750 634333276 38988423 456820667 129122453 649682746 385143593 451624967 595210013 846966837 826180880 333162238 293625611 43036118 70136889 760147369 908102579 758271347 486567871 179722094 171489929 856503882 64353318 946090156 485631701 739541773 493749835 922040598 792836517 564293463 713221368 434681248 989693534 103916183 566398468 277003917 100824463 871630633 399079459 215269236 850360736 276938485 234073462 533233803 20909390 685662415 622273927 411652971 3114384 641676709 948718916 534416170 145098024 427158298 27713948 599844942 331995002 488120173 9875551 627480845 411733748 815437460 795350298 559294136 813129036 653568882 430924952 89915917 211365217 523049728 727307777 153222862 388988754 91324169 103810161 576465398 384855703 631109877 428353363 644246691 911749398 693737968 926977568 82256418 979698785 508408468 689950105 509536850 503665410 380896294 955903268 958550404 339374422 849367112 9718772 266351995 277284876 560139689 994538080 615173445 958567104 679139423 292911124 487692206 55223149 396476604 588330749 921403974 980014285 431902017 823464230 179588243 612207185 73692981 642787674 546099208 709425869 17804754 523639155 746004973 20353577 738100816 464696391 623020302 803801615 264722794 717814687 382974634 451054295 465618178 31627565 446335269 543043301 593330170 376563346 232644157 206862708 149623285 695907334 131204347 79798366 964682247 355969072 878987255 657563988 470312025 964091952 566939584 357099317 636232180 35774657 215134316 980567868 142898912 153465720 793509195 322545508 71309742 781971232 259985886 260533866 165492637 390058991 940142406 775923101 618839943 801995487 315610262 361735261 546369094 528853322 820683321 480655886 137127940 201688827 67150805 570131427 396254026 236937786 715599322 430002231 812809274 936534834 868149972 801372987 436774600 856243290 389578178 666533844 292809814 719516234 198647344 842857753 54572672 525959632 824324155 977529640 599067869 339302028 658769532 864886407 356348575 381706253 137876727 64933972 180628086 108390967 488797778 542690907 426072762 892400184 410750124 834721303 977129314 974573290 688239480 669333849 618748624 37274150 364588946 149842542 71639809 728858210 322346519 634602106 791534598 949947050 101399866 247904349 222812665 464479986 794071368 186746174 553223259 957185973 844415092 398813176 171198970 686294183 655322836 424895435 975750928 482109640 361452749 239584907 256802657 9465564 223315632 215421779 210291260 593794546 386635611 699200643 715621062 204219010 670775769 289308376 188198559 371600249 79696423 324359023 924886386 376408655 376418065 273163944 374304915 204124253 669011833 866025363 83380996 785434978 134350708 530184068 175323419 21213276 539191473 63898494 689669422 848404442 398473181 161980038 13523010 757053378 861393937 902820363 241791916 741214058 816736190 134767462 840889327 143183171 500462126 17577260 883374404 504098455 210208639 268383122 110692316 396014747 418160735 220198691 947851638 945218948 988063406 392075412 104146226 427563654 930449592 310768953 290853050 336545971 114688314 54700753 417878357 853147526 994301231 163143462 622514118 23812239 215439178 900897992 54601459 527298030 316673894 446367382 225322074 197527107 465509897 853371333 769688726 754869393 520096875 637465222 34428910 798212092 18572049 832977993 133537743 573532910 51062426 340595163 745767811 569372196 569250911 618581009 506288219 597746059 353021115 857553157 729056171 837582133 367744690 922733813 525569883 976468512 111203185 574663975 37309906 31820144 443472164 861388038 918936235 76830418 195540782 774180670 883198147 574270794 40364944 241504927 912973109 433987478 277580841 841078316 576917080 543032795 762950324 63432921 154318599 895905549 647564687 480150969 404249327 897801520 579134946 694787773 512361730 292122313 750938065 207972256 93509182 642148757 43477800 823643583 50589535 76728883 706190614 184968113 541074455 659361237 885336998 399022778 337805632 879962041 34886053 751836597 455741337 300825406 574068499 974281013 888396484 623656473 674795201 566132548 714384464 726498126 612147061 30006724 295971766 23516053 573003068 494221853 713731815 830488480 841230821 515021043 962770549 639427353 394802878 196008843 872613016 195713381 320366830 135117964 789438711 499513670 971058574 993721357 717459293 995210036 891390471 587516139 423153939 406854592 418346197 189094378 203614498 757048474 40148161 556853610 242073074 995788858 357573604 323697285 427984540 66126123 440127096 405619988 305456458 881945220 909702679 293455098 210325049 102625449 112362339 671825070 562347950 255613702 786958905 254043972 748331806 108768608 926994011 34913070 166024982 870424338 595057509 936880457 880429666 742066573 770435207 856257559 808789546 836854649 752433290 514481582 937937870 302062012 393498840 608075229 695695405 688819193 996452983 783824976 620871061 693581682 691087703 425728569 155597519 409874954 515509774 736258482 771498093 329491633 523670895 113736740 712600323 782230896 277517498 87467754 353006253 30036555 892361794 905331874 411573349 371951929 786141823 904817181 771418897 379208503 429336167 223003027 712735019 759502940 104176152 889298900 244376539 326557895 562554831 649252930 870850117 662751015 282242893 188015316 664105117 671903742 886169017 876429078 655922169 94481454 690180588 744336701 758340450 120380551 151229928 65986481 891105495 764593882 44723146 950358963 807715134 224452771 656316659 172814031 211633998 185899915 770401168 583252376 28496166 790736242 214086992 945109682 635999882 531061147 733462244 591620323 73605216 622578371 644210091 774370980 515742274 981196881 605174840 423950995 393853901 150044602 288673876 411940529 986643458 694064182 569745712 162057906 741503584 939420765 821691558 948920149 437034771 273163276 137399573 658460591 217172776 510510242 805911515 532638918 865608474 579648955 18768865 902584076 859783842 188066994 521724046 132704493 210559994 969477407 269185002 254252632 974568677 69471167 137472051 270669634 422885987 934095568 662617769 617829743 253825328 727303238 216037828 433054993 848678149 354015825 74472386 536917810 324683849 682156039 646907742 615072318 410634780 668778387 622737088 374984173 544950017 183550434 232960256 301992129 293110795 258380500 597432685 792215754 888978419 967293793 602098189 805869501 622797589 440154640 786207745 739115511 789939147 515608269 834254782 565482771 513638891 11293648 418080555 195626055 171102793 481041586 371388812 751473770 794951667 461576997 794503246 84678619 463779073 504060045 299425355 875848587 68703410 480092442 787099003 86749540 705865746 443211345 16490074 167284543 188701393 80582622 680639571 166808900 854472286 96385742 209379111 748451291 118677088 77839110 208773778 930956138 164006406 536283160 737490307 184293786 420161621 868009603 935411510 707589091 765781682 927234618 763649030 817333454 291424019 207456111 609686980 684469604 944513075 335753809 768935994 371743512 574420492 700704236 783338161 56434010 14644558 415173605 243712659 114248996 116009382 212459520 879726439 826669521 194325327 790038942 97720366 266460189 977271160 47443310 67957326 386283393 634108599 409514375 564192587 42063541 149823256 654198117 742643951 104955990 907762997 391585712 742189124 135802013 770713922 766063149 649036305 265737566 292601679 160057679 981096577 927673943 265341308 503330876 843204754 314616548 360188681 140301169 191407922 234583173 534325566 461445000 825688093 654879287 901908593 473591503 440290718 626282841 494034685 896883439 854252940 1716711 737594185 45294953 38574095 652968355 702426285 46111211 316215272 486238349 583131692 278187235 927599361 337255473 852417341 935761292 651858813 717239537 587061815 356189878 233982073 273485182 310239191 906696294 338985240 715361550 428146473 836977768 91372914 969651177 401412055 40572545 219140074 361641122 450735948 199426146 905735284 486488985 423906694 602701797 452830474 767116598 595794943 192507013 580854275 169734674 281352143 262259983 371012845 663486726 924738815 172260594 798950922 365037681 924247291 832836517 204519015 53274293 934419350 685789100 134482188 852033685 269201940 869470977 570160191 9387803 629690746 478291423 763666499 491119338 628233253 1159251 39631859 850900069 877667154 654783704 953312961 156521975 778047423 363646698 676172590 578512673 517532067 677644836 228674133 526711311 683446448 136491592 935615022 461475522 568974577 337491448 430867667 495386062 124712306 390146888 398697025 454960832 911533661 819260146 537294248 224870785 906944033 652962442 64101621 930283966 253211506 6634769 775498784 839781464 223804415 784495794 37289003 613665268 284327962 620434794 517642531 254454564 450772337 804962256 525149847 660417107 797986267 930917430 556460535 30200459 523586746 998462989 28776631 682485160 733430331 996452997 346683499 804708760 74548766 600684495 862946469 704773695 88270243 367315186 564348555 703559650 791204220 223322771 698539538 128575220 104032108 457085045 446547086 882079972 445406461 371656021 814925862 511862034 75934168 108921846 531622221 940927785 552176756 405265053 997831030 822006479 205524092 384569686 450956293 178166400 961407384 468948542 902878572 57590514 644603067 730440459 479520364 723983478 143694268 675554270 235317983 197483149 116672032 794502195 814903206 897050296 337150705 555058972 833331069 793787880 249290845 131470792 564218684 101310017 942312666 583549747 498622995 965913668 290244090 158644718 919619165 870714808 564241867 325307422 252961582 889181539 998423273 337649576 204967041 18335679 408655488 219988057 277707969 128575287 386649672 454163472 87790970 672134162 9258245 116446888 354688064 166259161 254373868 845764463 36041803 932755937 763552421 890702263 818550517 862538036 172680748 475340077 984647847 780834739 49351443 698372764 632231340 551069278 242756824 148608068 733920501 457085038 808556035 814563522 141232594 547482173 883648523 854293514 221058482 560164375 78882565 869654823 582287609 207536988 842342363 975850013 959818682 394143030 850418528 399109834 471950455 560999481 155761286 985247009 805093445 541081218 598697659 702202401 344962871 188050896 378585493 226998780 162019555 730610610 442634331 704701368 445718741 286943176 982952458 642820803 34105676 387704152 316531281 73250465 551914205 691658878 806995817 6937832 834941075 760767721 868870174 472452543 519812253 337570320 372215775 736993275 654473850 133288338 441997684 820080850 461446341 829270089 111487336 294917967 22823190 305514458 98534076 655473251 710980311 875360284 378332744 620866179 204939825 467203723 940820483 141217009 348845700 594360940 998074400 100020052 311185250 690869398 759723978 112849769 652954302 415993432 896353005 396129740 461449752 482107277 218585637 616363325 665292339 981286719 439458744 236702614 856379314 888850808 980714969 747871879 89767143 489546250 310246346 382726217 608715288 722261543 478942065 134069341 632516770 898263659 308017029 313217818 345591007 340962641 350571210 735140159 542200710 897322405 180984356 5943850 428710192 79668082 789891406 454002511 990760461 707072476 533731915 382503978 280490187 821411567 302434501 688830161 522291491 278846184 14546013 127518245 307762093 321666219 214412869 570716440 599175139 256323592 337821551 350581382 302160815 929186533 88621931 415036694 656082600 561915684 590410543 913994225 785047972 704509765 330535971 453608492 191368143 62789938 237430524 877414264 317745726 836198702 585905545 712106687 99995496 743374978 942872568 647610766 839496141 227019755 417717663 244230461 503134721 362166572 818613417 311676331 39454287 447542265 204736327 408389150 135918871 542534023 395224306 91381344 986518316 674244701 936786543 788350262 142512800 285088730 2432460 10730941 472245711 281299455 287529103 417920226 548772809 296386129 554915493 554151572 374814014 584200858 345027391 137523752 619682619 899909342 714761542 739378166 941069389 660883069 711339782 116339038 329756114 82840190 687652887 404877774 375625285 7382538 378326189 695483713 176135007 995497625 40265423 695471510 862392161 987347318 70863793 61409944 250758087 752277247 818980604 719542359 205419356 857630120 783694438 786265416 986451125 563018503 589699455 948100695 933399826 335635541 557565008 242813893 715978273 959595657 679268774 742005739 65113698 426265396 326096005 467595635 997924632 723464929 257821163 408956926 126650976 504215128 806724144 119489825 287170711 760826132 861683459 588839975 915846455 122077762 143254420 523869153 897740812 451414030 296589642 400912527 395657483 253822982 863823941 49356475 129403345 809447975 357996246 844523276 455860219 708740983 262537203 946204211 934157738 497966127 994797909 713208844 76589 457865477 571637024 295358100 384858437 890727509 15752567 885367369 916377781 788899277 304749877 507171666 679408444 312286602 839871401 303551499 520510049 253094223 557880245 795260864 666243576 39348159 978750518 346109705 420624046 445536257 750515475 264968541 491445472 202243832 384450545 660506446 298068323 460283281 601531212 102929489 961266294 969228140 422882918 124984248 78337456 235855718 861569066 537638274 958551200 29301765 738121173 704712962 593670373 379781516 800232154 432293075 559729763 93977378 136536006 16386853 638456252 26577056 247849361 848103541 533824421 251930634 823555110 841974632 829940637 63054062 278224285 192455409 814176649 254253326 951215067 994393165 508437125 360042853 142615660 884256727 311784572 379508788 491821322 312661718 587835718 612503080 13649177 468327081 587408883 861745022 998265491 856724511 451568561 409650359 163925765 212713835 192982571 831925700 347573139 838646022 936911771 33298598 88726599 701586434 89687072 889858561 434698404 934689063 737167960 184185405 705544480 22339118 232368447 430764674 429509026 359807996 798039830 965758116 562495242 317994703 922496362 556530528 226068010 544794386 971205885 719146618 831464024 727272234 426260876 651373294 260364739 233186131 579033764 887565043 188031128 971261867 372423587 792133034 787631951 809112053 903110389 694319745 694554265 768906332 166546798 649124200 39007078 933078681 665241828 359547297 558622266 559183573 201658061 546430983 41426003 71346910 212471328 132925659 869406151 706454604 791141072 781849388 390933779 488187853 289395746 193455306 141722578 75652820 303661689 592771900 753043447 196708056 200530424 748519995 555169912 65586245 120269772 430472091 946290614 323421333 755058259 580619054 139420569 82720844 179412612 104958055 195319409 22842942 759165206 232671879 857396780 294235784 943426676 559022505 186463551 875453559 340001138 826410014 28040096 92466834 12887756 168023327 602068194 320542746 424966547 615279538 141045363 558078084 731663519 755790359 123941369 945856660 727734561 726294208 842667339 630223710 85329155 404819173 759710733 288766256 452116986 489034364 852578987 402706452 856228772 656684995 609029043 898356451 492393406 977740222 366530504 76752591 219700090 272382085 869617357 101364666 987902370 172328743 790346431 813071758 741266770 735225595 234412066 802371917 402091149 569427135 33063172 823173325 655702184 378975842 268335686 686816007 170975127 413165475 429126247 673261062 760273953 662115197 793956232 889609036 24686565 400643961 841767454 275354502 486073566 431339860 848651703 366808854 752901731 903335562 593578218 595698881 849776528 535211596 922333503 662068072 145561333 315346130 779464175 743968235 731286613 20347493 828569043 518528587 118657981 159440686 782650988 50796865 977208688 235200218 141499952 393999693 392810835 698533888 521776476 993549204 1876728 486186156 482240421 221221738 370266766 855749315 925536228 351208497 139970867 984930136 902321516 566383957 383995407 514038179 76929939 503183686 620216403 681519169 526945827 240605960 843717549 545015144 740135531 774114571 342864744 341950728 540029228 399752347 665970907 100737580 550916162 321932306 528662702 45911449 194666494 227630589 507310100 692837804 950021329 74958399 614285442 494931332 725130668 421027762 535901962 640500851 37219249 815820851 25113416 226549151 916703342 371782103 66158052 313278511 51795924 756190166 311272485 127360080 701174646 131526500 824566992 810903172 846428223 309125228 487378761 273944837 903497533 158875438 687884504 92932787 694888071 545848412 299568847 761521799 610682679 441648712 381477850 372874269 340082250 458646310 771512397 846726064 395200338 608163361 882924564 965868048 873128353 994203281 702616576 164435623 251052579 513431920 814680091 975118302 926307570 220722904 823452150 881178571 529385289 481908670 644891184 982024671 739686490 305700845 607536036 708828484 875755275 121361415 209534273 630528397 5253452 786958540 479855351 414532081 527058602 802329882 24921694 620592251 201129252 527513907 483554947 710370666 489959868 582072377 187990972 811859912 437578286 622058971 158562876 759869502 566427439 158271773 212704026 290753909 20017221 623552947 104594023 606650877 712933061 215917631 668906184 519239420 506291228 485572842 463926713 541472264 291660897 492641658 141808174 6736748 620649565 285594034 587991737 416671324 741153102 582718392 703328233 72436453 397544032 387518306 53652457 619414593 941363019 783400298 240550525 868617673 25325436 788857250 388384798 403786582 276434001 504045142 826805135 718600085 363061287 524183345 786901304 11969736 902037554 307761845 186741872 628010029 350389746 777794164 59008538 549028039 420774961 236976427 763450361 501519601 993114216 119585397 121025864 922507027 614598008 429883972 823112477 755412188 114387405 557134214 45766594 982216604 460976139 923925914 302574533 962986131 178056827 964347811 744747618 10465134 859377784 744570632 754625440 891647464 492087889 959767965 117946366 270940824 233782643 854461811 883217729 388784416 20012691 601110293 577378732 820203705 830205478 648549865 484948334 640565731 439252314 452533066 434999476 503383497 690873865 526317373 649131776 169382791 189555321 211039340 616363302 660065240 110142791 863617337 681604062 279796828 901273203 496860825 468031611 184084450 718124756 523554184 307267926 80640106 729768669 309080922 552404855 715551927 239460272 996238009 699570837 605044601 383375188 744425172 559647243 491327278 50270645 808209572 621759380 504961313 802076363 416554419 338796289 921515285 772749008 628863559 100631206 662108323 935440309 800165639 347981524 80075464 75576197 20806034 173378134 177155344 883909357 299699383 449241005 515922799 794862291 651045731 334733231 148663060 762789969 726590495 336882026 692225228 62997215 906553069 574917355 350505432 683413052 741745333 967268107 877311595 390846147 756477476 163513084 765114035 527329890 688659689 337451479 200366412 154886577 351496357 729588645 914405350 752666743 446419654 786641944 786519896 264210945 474664227 747729874 341851582 248991112 211528561 960265535 176818973 964939961 737827596 530154829 103239880 416466791 337434193 120219461 41119449 935868058 80202674 29633927 618981987 486086175 846517766 147015213 325928552 848713572 612931845 230217709 872149025 831600463 821780078 984944260 539084585 398764214 76149979 231271730 772141526 935574240 38915312 919951026 318627626 83627626 701123458 739162687 63131669 814684471 563960840 798959304 661117735 604610060 657054228 705788409 956877629 802309107 765937167 350049880 389856955 992947457 68028932 533041334 40660569 767294118 695570167 603825039 764176677 94317954 165781313 827300391 883748675 994313021 525964188 997026667 937420156 926891143 836014150 819518776 413873242 961586362 2445061 840853026 657009579 861345561 94624528 882220674 51447759 975010305 991742076 526482783 503274097 914120192 864500650 43201739 425958753 425414569 788635973 304329702 922799578 315143687 614376360 228611571 536213309 894073469 500 970599612 681009365 157178112 845926881 544148172 250896738 563160064 234905388 807303849 691667302 447235976 128067801 682152276 521308102 5492817 759008194 791523924 659548591 496750783 161709792 34304598 850615499 810994934 470577487 924488678 230012372 870282090 353362120 427731442 460910278 271912148 474077954 930398724 384227031 20634058 301668640 533134387 863438150 562640002 398791911 506829389 540343013 638159025 287299313 83134927 197652496 786058285 834001093 987419288 206396558 472597526 449499135 195547677 749833617 265804929 26866076 119807318 133453114 701910269 496488363 549465324 33412301 386202454 175907019 924826298 657403216 702713407 871759071 989598249 746079840 523576249 376772789 257519046 983178237 909844458 524390114 879649524 305766860 694113533 801035808 553819973 981241918 368194228 508205466 248583822 220415147 720921907 532113144 85773 311577437 942297214 188232120 548627843 452647405 494953180 52530882 214877875 808406916 264633234 36283553 522521552 7263612 254871889 13471521 537239473 950627724 304871758 656299779 868829652 854781851 944267883 717107998 921160741 943880407 849508065 384847327 88524761 372510144 997958523 499299113 226528922 890252303 375414375 540339290 398071140 166435399 944457665 248749188 928577833 23500789 263379707 784670941 513823066 507567025 572805066 827593969 30254778 780044962 47899273 294127377 869238467 683778725 422076792 791016932 25119476 552863983 151058150 463719997 569987158 698932012 831185782 650702672 505626755 774863293 562235465 160236050 785976405 682995682 384335352 890348546 440630341 236948892 635417120 924980116 450076940 357445183 741438659 813857743 627383548 698871455 454320566 245800961 947392252 560913348 324039671 466864636 225174504 962449174 289152891 304669205 893877918 145283024 303748570 32641033 996813699 333544152 296597732 32683229 529202372 464690302 485194072 173819 691837403 799114475 34888031 223278796 697557206 450133720 773260011 963943900 845575135 49710683 625335741 43491832 461212486 83502816 994611049 194114515 965247630 496729395 669065336 450058722 620105422 648934205 216163866 75808132 896416190 162793208 821348528 246212896 574609131 650000016 958239986 342970238 161755038 659066225 189854209 698331242 230415112 200846407 439988661 45309951 613302196 87916494 7449721 929864991 760401620 858789726 126507320 147185324 188627758 982773170 686872800 355044665 492124760 996044676 14068204 706540769 901076057 952589785 81307518 619380289 475744379 978733065 343846144 874367096 486646893 129614307 616994736 444673137 519847500 698342236 935834356 210474121 124727201 737024018 41941690 469344816 65540594 630609003 254043071 905027922 593489513 642369024 268072000 168920636 806186340 681202047 205160175 795776270 495677750 174387578 207334921 340868496 294760173 351756173 579259677 55499319 375205092 589575218 625359060 575387538 194398987 4132548 829707274 733076488 92708400 42571024 211557845 393580433 963654196 626893269 875516574 23226029 119025497 579051347 510938869 902013335 721372995 892642343 393939877 502758940 921700371 129721896 433781604 788390962 921812611 16494829 376377575 191563197 683434528 301822684 540289267 996641895 737800006 677482844 150699533 992421994 483000126 826163971 522319462 730016306 44253988 429173305 479952461 734677409 272313716 320933937 968369144 844283300 264401935 883618933 923569744 878951496 593509274 656460115 789018301 172551236 186509116 701292843 894271973 183183373 108578909 965176223 943616743 215919603 90262965 591890734 507690382 174580565 299989842 143022264 513435011 864447037 405199936 524569975 287642559 64644764 102978969 196025611 187586251 330690762 294677974 254228563 386394812 44079868 798911117 444238700 339898383 553064477 623508233 902257907 567132564 546673777 32123904 610081275 916400227 707847661 735997417 552751379 633262167 571608399 7863613 109384260 722440562 511706200 901720444 665160001 534032450 815286879 609830611 450679208 533260999 574537414 690005967 24214511 619985737 729339290 697447408 405900224 590078498 36447977 817191571 632950732 396683912 521328749 751618740 368614412 956053826 471029859 978161244 901421129 3601543 260259291 935633018 14629052 539127627 545948633 875919622 745505469 589507939 619972102 78182746 20309617 547695981 610705326 245310355 570168308 307126726 685313653 524408626 563944382 124855367 431408934 485143630 794351912 731980726 994139825 166644940 331590518 563478894 677946087 607706893 175122271 82916037 150973309 10869295 735138867 329250886 712304015 194119029 18618582 161510900 123222361 330260924 557028746 344127697 510967824 993158849 304522405 199965575 225416049 851613021 738355718 555822929 487907837 549160566 633067574 831783298 105112270 209181829 856855679 421893512 759476729 887593621 414133583 441071282 888290572 733410048 452165833 467225090 737099562 108531556 333101833 269295285 62217736 194371309 925992665 175898804 463519998 717042888 719218937 491857465 714687934 806102673 647860261 953956956 779478866 145991578 456271189 857580658 617254900 984681145 718554823 977701626 624576990 680519690 960921239 951954281 341475319 305732066 124996592 653668856 840505070 765397024 753572178 356582453 451159511 835214846 119657798 804718215 532810654 833287408 314644921 26146779 652079589 756575879 703783475 622445947 308858299 928311177 764004346 453810974 454368138 73754550 302164915 119081016 863298516 536238667 352399497 459725676 173810487 693803149 940359203 505665599 178145052 73816533 427255015 97266217 503106965 655705558 572312721 664627128 485358599 160236173 139129410 737422614 500908801 749522279 588831429 697072232 463805259 1002659 24704601 132698123 497150703 735224202 319617529 332781027 429047280 309322554 594273761 612601163 622160032 428067019 941764190 452076938 570676432 50611490 566496157 850350345 461908781 590880360 230361072 253076243 871526099 454244297 889214029 544039614 972182965 963659459 914712935 181777680 124718593 388582505 200995149 365533560 420976342 776364781 112693755 490325975 722864548 955806968 842883172 22615550 156651640 727385339 40013871 727131136 628455305 780465705 944112802 753756296 711981146 253974434 910115307 52760966 985420465 333036562 478317484 747871792 923562323 71459877 281987863 266463007 359245024 917786881 51947816 401274149 594111912 819089547 72212137 975400579 885308157 151581849 126010422 925043820 296693855 377135327 495749294 330833544 614746659 987523342 313785481 281001307 913988421 429283789 761840930 665792254 229310946 350784415 174825284 525967159 393435982 61865331 348614166 753095823 743200863 212940093 552632502 22856940 704009743 980391507 815962981 30487640 856997414 576765280 38393513 913862909 161982502 971062068 276781894 738293563 123693945 271187443 443080995 51260797 983737372 792208242 77231102 165670741 71493186 508253520 835958715 277441842 683304541 44964994 464195118 223639441 243999682 392758533 249719670 32083118 115882412 943504565 817166789 367422790 642178253 389148384 353841671 798833837 261988702 724680997 115941817 863012208 351858217 959415206 612922834 139476345 311052097 867075561 374814693 240157359 891248594 372017563 938598124 437850596 267976135 760843382 949602584 672383968 622244604 422234235 608311510 367557589 497882552 41988578 475949100 560675074 389151848 194641452 353281272 490729394 292235692 61910019 200298268 719936386 500285911 440511490 105593944 223413567 863306630 537053788 40517294 628141547 619432241 391349201 66726414 818303127 369784354 235129400 295225266 328052869 135561077 423761757 617735287 864059220 973769858 754243972 618672677 194254729 380810074 528907594 653044720 271077880 371546398 373350847 805523839 398897904 44619613 946934185 203116444 747729345 658986878 912352027 867031237 633009416 769967809 598620248 191565417 756309291 539135038 267152305 859893505 903972525 382826421 580167695 405765143 543704121 208673013 724400229 405732488 940262321 910999570 288604376 567656565 978883872 416588643 212162493 129028717 410721623 786984301 655760522 926395952 621017151 562282726 926940244 451568634 376386418 529134119 841757726 989614671 581781520 536708080 560466698 540521950 660703461 223842710 47133122 887162042 300424102 426283360 210827745 366086960 459301805 485823617 145229502 706825367 949477528 193584919 435878744 642565760 410483744 935578646 775606155 4085189 653805433 788803935 759438373 809603823 986969906 894725622 429203642 408674974 360714969 291077353 266281393 912616419 901810468 326034247 986293753 976066942 550638076 93945001 557484316 602724246 309840240 669583800 241942657 439696596 948643036 857135738 97781727 248762373 700785759 442562421 377264417 801088849 426298621 653864146 304976296 76853203 759136381 599657906 10505527 532988238 888621739 857936917 552277670 689564794 686959108 752107794 18172155 699252080 908522291 476551591 399124222 172682317 444139646 549767029 771503466 425047977 195573603 261434290 618384007 365376129 779001112 616504814 264669765 798791463 398336332 514134387 624418164 740983865 547259124 525705331 772251158 419496701 391729673 455366900 937600962 951413777 439818529 171835652 44522004 756561096 674957488 484969210 353787453 592048001 285214376 92215969 251901404 573313230 904087569 442648125 575709424 879995009 471120501 453996388 857953379 756066965 843534134 415994411 691632992 494210168 648398323 105538882 35036326 766149717 951041426 217418994 769746338 228677314 883913746 216834632 383745683 339485338 27207070 750386006 994520839 35236007 339256894 771815338 414460505 358658599 923330990 487851707 562234439 449348061 380285668 268744354 909639246 13656401 798371552 263540311 302843609 712438596 212185430 170684203 191611094 849853799 599657373 697594345 938687767 327702090 592336284 858008041 59962490 268068900 946237636 264381626 962944324 244956321 946543119 417921655 391492613 539258995 102930447 551299028 304155628 523117415 737572398 262710544 338355008 668584468 78536503 628758259 595893935 239699713 482794247 409494580 102415998 361480114 556082915 109974834 854643754 159255998 384878184 721320639 41338281 877239608 967188997 204207699 282425776 871649873 260799579 309926322 376962221 475467547 64191338 248839669 802388017 186802508 857589674 675528300 579017552 540499438 829072270 347257807 837184171 214835508 492277967 256033625 742817955 790964153 657268105 822241797 147770554 426930325 648057044 540839118 607478026 529969502 677006626 660079947 865290224 283857001 857586322 150076395 146584911 508537608 778866789 93380792 307832168 9040802 906081102 733367080 323206738 120408988 595690232 457780327 812463916 630950513 803695280 363782810 284843704 953159635 450085926 152382821 962074309 373666792 138898956 205429141 443921174 360311420 805878161 670347826 270582001 422202028 482327044 361375487 290758579 630947444 211478825 689031884 807965673 576501469 907327378 180926886 243533037 769849186 468165955 928671161 61209402 116737958 773655634 620004412 910928473 576748494 209259369 332022551 437017819 362810560 882819332 478868992 704321798 247663650 187029131 26584100 741935351 866880162 378509069 869005420 944604740 628353722 855935326 668125874 84323887 962809306 226316327 587439353 347651703 244087170 71940862 485957938 138920579 249505866 842446217 364515538 817440466 353224486 497170156 969055311 935454005 473948296 454705927 638620950 494560283 324482334 770332013 724983979 516325785 959727138 31184635 307421130 468153968 600417548 228456100 610193467 19194830 439868649 965406602 874100119 384630760 949206329 639499558 453038881 457064114 499610636 46584168 711855464 370264464 557363502 344932903 193694796 359766015 200726775 901102287 471644885 35769823 846760324 782302916 591826017 139066365 92929793 958924840 335601398 224400773 496930621 227076862 737841462 628981083 402613516 898873265 94249690 373443480 114565324 62741260 803683481 455890889 502450544 569649133 375024888 500494606 755694608 325425610 117793882 130628581 678073376 400541240 773435592 411353845 713493755 410734650 65935917 518253193 776810771 956394452 682715948 99543466 731631773 445057356 371575179 349060077 299107245 821893432 406151312 968708125 312314137 234488505 93059512 104747618 543790785 648726552 250746991 687136258 766963393 916275148 910995211 79431580 317635816 386462330 571826254 750566418 412587678 217382036 634447156 79818707 305487874 358313279 151069137 814091954 797291393 572837654 130813561 756221955 321480621 404624837 405908252 578314228 171913117 600553416 541895239 182365897 270670658 654230089 698661239 684279053 57395547 385788057 561778597 35483772 866795840 63992591 184503390 133027999 224191553 998231714 397077043 220975167 209836247 561698196 379593271 858964749 561637728 11858817 855487190 692157573 700781521 629195782 603117024 290635403 871174089 965252291 899592159 779646260 15206325 312546724 436454850 438722103 553372914 295123735 544446510 557640754 45080913 646165147 683228021 297702554 365605518 629947863 279308224 423723585 745484383 709128407 105533752 532495885 126980458 801724108 118850575 41284066 640910135 896654986 97358490 743418139 709039910 768064882 902308054 204387403 288750807 766697843 604129808 89039824 663473649 473081897 475658968 295097903 524083559 852242471 566031536 409839824 327116723 979589355 865352788 57966357 679666424 559561355 436109274 748288881 938256655 135524611 785351644 57854285 871677876 79885449 747313065 569165467 560871263 299780293 55581223 219853603 428886739 356845550 897442288 905770956 828926683 861656455 985520208 507661110 830699031 881000134 245771249 744978832 420664005 136082772 797771831 955677424 151391547 253681479 765068935 566070150 587164093 487459753 94112808 780282717 770823195 181968293 332824098 520050925 893795118 599245776 745747710 667536210 921740401 390139416 818954117 329780998 410019686 808586934 948297907 384231145 784293887 658887081 597284518 30570753 258561836 756382107 419547080 7478950 634139170 53207429 400680735 288354410 507876773 360685360 753118988 799396340 596687307 693591437 143521763 265534857 168971284 591053938 437602974 644678749 228018336 970246113 299951845 493713125 340950745 48454273 596901053 796515962 90332459 867159345 925379057 563115504 276274941 549700044 261016589 216450388 272501673 403885304 355953519 993874531 613414995 677145967 36576848 301162103 495523110 138446989 319038690 554255148 92010896 617558157 315817875 350437489 534723609 684762711 771714195 25554809 686006141 910801034 530224160 849070612 195955794 928853528 793679180 783799345 948499696 583942021 661125218 86596810 543524684 716439370 669393716 573284545 968406469 771975966 832464931 685200298 997380650 785532277 835571950 672061746 445874580 854328188 615316273 922512651 698404293 811979983 550628504 416813350 877745148 186260351 433841381 255918142 361666200 793615838 595788982 219972993 77101548 616040627 366024053 515965214 451004205 519139911 612697859 212736097 448532950 978339060 379931544 795859378 196939476 567022337 406657895 935953939 953820551 533420004 818326511 261874159 824422497 523515561 691623921 56007711 429872160 113220895 812076545 709587810 227725074 462520667 906264183 298409072 593081387 630676500 30591165 962882101 67664952 153195578 683949471 769166498 150570993 470430624 40941632 420778448 54944036 126949822 444832684 934268533 989777628 238862959 911876312 333676308 831058612 793118905 447400829 417346737 15126434 768300034 668061689 903605172 282244182 437548069 402960866 502259617 258994132 582453490 754441646 483799220 814485727 316482235 168645379 110073317 666512054 528486952 217371840 149799974 732325004 319579133 460808010 76493001 751955490 490303748 955408994 847098105 664412116 472692580 652571498 65022137 341697482 292041517 190992863 158994008 884473094 373368055 691065537 872636131 184507969 37430027 63216552 593987764 507860889 821060831 196415346 949276570 532352051 83364132 390536265 813162160 371594147 735286963 194779378 859235025 467849017 106493330 748294836 562545446 753400088 540919915 885102468 12557788 298488152 471931954 351613073 649774815 100907511 312294197 394124313 183635196 264968379 230805880 505527463 582851345 726898836 692048165 133823034 346587426 710045318 379985498 575228694 539196065 296945599 904809265 770216114 672373230 461344294 652556985 440039002 614738230 81668307 545673986 758231898 327246111 248325761 740662281 397932489 822725770 258356447 674847360 538025142 878816592 523821840 831477342 527531425 569810286 154439417 990264020 379587961 741202164 873335654 924195682 473455389 444492343 486791122 411189793 911644603 67992808 814449644 633295369 167186491 904719500 673249840 61417565 465559705 123881878 325139959 851189777 440578038 734452869 895405296 773180919 844718807 277379842 792289645 570556795 767061892 241208681 292842152 192224565 355402937 846029659 589040957 259648075 588627506 261450278 903977710 50544257 13471335 920325286 853859698 877210698 881194174 181206284 412233228 920822705 623661268 229562527 746266016 351220114 507655593 38373457 201223841 273692667 311882123 911519118 872473987 386431173 901431212 136495562 767622874 370613805 99425018 543793529 106883905 196519258 736197850 602407941 203429875 372597025 505616630 49062288 603451129 186492544 892201141 849084329 712924361 230531746 791811657 235621485 230676715 308839331 588231970 402061897 535300467 551977675 598297596 53054179 827954223 317353429 794767687 858597136 381287697 524511358 786449874 972186327 116596738 307422342 844313281 627409663 137066898 866243205 819051188 38041191 221195139 514716321 106593265 567327140 5293814 24270944 660694677 706198136 954894059 151806125 66175438 665859214 19670341 206163972 921641191 504295256 300597398 800188267 841712403 82793718 661241141 645898221 265457021 13223349 509583934 366596281 876003499 72709363 178483452 602613136 826861008 972390978 51492683 487781357 140607925 472028933 204237745 52450216 901761454 537543839 997067602 248838878 851888646 604508474 800345186 36374230 637622216 526393569 210885328 840817858 496814675 743888164 237915097 582494077 951438616 989442501 621735485 130784460 383250509 758340914 363689564 525795799 302482813 496423678 489424950 204358722 178604365 302598144 848945360 525546439 126365573 938035263 361538340 877544451 736817744 458280579 917771080 252893355 359453520 444597538 566842869 183034758 801361143 807160000 247671464 243574589 216719143 997530214 183464096 544324202 819807308 296999771 162121299 202286872 174680087 722188490 422197449 434224781 253730490 775019890 23573035 564932410 868553796 539979481 37788715 892905229 93116466 630456126 97086709 330912798 615686685 339382965 509311118 573993774 216379455 311010880 226625680 615850021 741291035 676625886 973404653 714034196 677271379 642459972 723167485 159603817 645326006 928669970 669350288 714623228 528423228 54320870 368871372 345026054 697805135 916792605 686299592 82638025 782739433 50773079 191347609 371663948 564842778 448354157 861682576 142027393 368431310 416357828 962697047 893137176 701907077 815064511 904946057 165935530 790189072 609662298 10546680 321919601 41049490 882597936 223806921 217935384 275309256 835001641 882992125 848352207 685070532 350515149 899654722 44895513 51838824 656689308 926386999 540895732 238803599 970902174 591880106 199909107 107482022 765468607 384564327 174997509 588035932 635958479 802273939 136782850 66412131 278447769 781036216 368128126 237642710 121133495 693007194 219377520 73888142 135444519 492476413 712284539 158880120 710312552 847174203 682641547 587714324 658750562 400049882 133541054 903444525 616368393 745236996 850486850 460190239 77513867 931908204 608275977 443650075 607643366 350153981 612420738 541649957 114850754 303890033 773850113 843499863 462628750 232070278 752456845 714331979 659909298 483637851 315416940 642641388 867726089 185944049 706026750 554770381 582768978 116265495 761334192 302515127 140046860 621157267 724703313 95345996 239644801 411022754 630427453 99176678 938214358 257746581 272373577 989889282 88538452 954001331 695779244 24927559 335529975 738378377 809585291 593580084 487547920 14793143 352069422 556573955 506199192 242428406 352904355 176969908 165693545 837330901 588584394 111283403 449147037 827375779 123807817 945275680 862227001 193866883 402923259 793226192 631114805 486697797 461929780 920710509 786923497 710464847 565723426 897667811 595125183 921786141 867092369 793819683 99342536 646961597 112350410 424692997 131081302 885508576 375812786 664575893 721074089 174794937 56148017 769888845 217269157 6830757 352761296 902145344 961978741 713431076 958616014 187585220 190189783 417732695 528411224 726704650 506111582 204061816 23894368 720491541 187410441 8026818 742887088 883560441 50344039 459334531 137570068 791051907 268390123 103648340 399714368 743455913 281174486 999671778 116996121 135634956 231079948 173943799 869063721 175312607 391025465 972545249 135979768 287407795 57753255 836957484 922175185 177316617 140292009 6631490 924265657 851919785 950685822 154565315 615376690 431763862 826416504 71233658 630062977 59056049 471879979 4852929 17563085 906423538 430663931 746572147 799267259 766897452 391621512 325253405 605018471 278261290 833923806 243270258 413377522 413303529 101651572 473407640 356807832 960464488 303789447 86079981 108897886 47869982 380771119 433157524 123130034 709146587 50218684 700242948 678105173 523953256 867051092 220894486 72142137 577224314 608601519 680839436 433896818 610523442 341048901 120657260 955914229 647044026 150228280 309488581 531833647 189697148 552986262 827207638 212859697 297968153 327428080 928942243 94054391 480360056 508735071 89848861 219635258 53777124 524268594 268603545 442139747 530984225 154376250 717569209 280691827 218506494 79729579 815399262 447780411 660882180 363340372 980125365 878495662 442369761 321121259 322815028 81163338 81615663 209012790 836452342 295172911 306161979 361813055 159492458 787428511 470881047 669095648 741114318 969411441 569828532 413819098 767712247 647644648 188256831 623494008 653269 756841853 78217982 316269405 458300570 822896032 867159982 550505970 330703513 356627392 37231741 929630259 16420734 685984339 490763577 862480101 250084138 433418418 694470287 635553919 879618102 602166321 641408657 834766403 816740139 886549313 223252681 54519349 16035727 20763051 435631208 605146170 155171414 875974228 384643867 650448896 922811952 263221963 753954006 191065317 146163928 913604262 896558857 614728309 782055827 601039412 141395882 176241486 684710109 701780340 934285135 549553001 91174986 788758645 38855042 508286916 78980390 237841540 176621220 328505412 743743855 478267467 864402864 409751436 774636420 909968152 581685458 383034649 781657297 428712889 952755623 537543227 342437512 814419223 427466306 64119876 443394640 88204680 956457178 535625911 654784613 829082436 69395886 618043180 235215344 964809484 78955131 921163189 446338769 737022541 673617267 706634848 948087370 400157226 470140585 406573391 813777653 186699456 859504252 66289083 83947688 715238747 265925064 815844592 119028148 435201656 639723113 469396801 869953010 31879307 841396831 74831951 26240444 312194866 862058145 657178159 275199053 689863021 562072558 77364350 989350267 684963858 710547027 442325795 43842908 147169362 13165119 36619806 646153353 279070605 288785108 898997872 753848240 979971913 760104657 970823023 583013042 435181172 102363637 690407196 705283661 15822991 505026751 639308845 794253923 755101514 550403417 847114451 925947422 435291913 287335497 526026235 641874770 805386181 218466741 920822763 762485580 931084426 200567102 580370618 767743105 200582196 960128607 768903206 495425749 538606729 692497098 518755662 319159224 919290145 204310780 788445828 293507896 710491233 816897919 293480225 874850035 386134525 986352107 518659998 210297495 470376671 318672399 544275838 580262323 525290991 325239968 56910569 611298766 694133488 564965599 822945683 762489640 383681522 319532253 826041889 219328643 266264428 410912561 699728126 228270144 650483236 642071148 585278977 994627426 145819186 885228493 294036659 648893776 87156840 315320872 425656105 659422619 557473563 843832426 695526280 848883639 498751546 289935489 849087266 392803217 379644949 772308834 296252168 756703139 462029072 506134614 19961295 702497579 689719924 894630604 494170746 486632190 260594654 406179658 396003834 962194122 358373800 953730015 790077075 207124366 620694620 458649902 795354631 324847657 895145710 795481900 882762115 768843881 269161400 332422957 611681832 319156000 586192086 262766948 605889614 639050092 709198941 532864488 317947584 292265700 124989726 289925227 529334974 652315144 926024548 340888175 209944676 334770236 420594104 20427508 601091318 86626606 151520601 353037592 762368711 886917511 797581167 850200817 929657893 517779396 747803114 779762474 591117247 2005789 639643213 536980788 120947319 140697723 50581183 589604725 488928001 807405109 796844849 799826715 78470008 884200797 421525189 354157260 22622395 135738154 191066410 27833442 193804490 168499647 206599324 840310871 556605371 569991513 432098777 94538453 24538630 474782915 433627497 22618195 540567768 611074654 166001916 112412601 527048630 767660951 891053084 321279896 766198662 145375816 665003426 206740619 49796946 608486811 800514579 348067338 446978705 634599299 639963565 999166045 687547991 750160534 709322878 23605567 453725427 801897837 536180078 165830405 454200222 471113538 331084670 231680976 538353960 21339385 485126514 272242073 890903575 29943487 445338633 31472805 767627747 36923658 299671820 333424143 802607792 923275318 25518712 563688807 299627152 880144506 940192636 353095992 366295727 144738027 905904323 991322806 779288792 853176272 157443353 589891826 844142987 583203743 61371034 193078540 99813349 62645245 604620404 412647341 774210087 282937987 654814916 157008160 651305152 98282623 531776868 677257066 450534821 429440253 982707403 275827020 423945912 565808705 411203279 559715629 52209135 837397042 855902330 818248378 11818786 898558707 351701752 224412681 157381786 26117211 927732072 266792869 452621005 939530012 413840422 59523011 492227546 289896101 951616830 87389950 498073402 966245124 584508934 305596296 69773567 605155447 594812133 738200506 912618266 535785099 211257995 745526369 38872797 605026288 308012355 710250801 839597412 811731870 613212492 133092121 454065047 39984643 214128094 973782515 848267506 222519076 607311306 109493742 880541093 545541418 579463168 852963713 299222665 640189086 917006993 949498005 267213677 131034003 119798554 255627095 533861076 212515042 986011044 464911237 462300363 237039711 546470865 940237528 257069676 836240708 282390998 87936258 485918743 75634681 575862835 622344416 194728456 850606725 493718973 261858199 211563865 626709032 702083842 296607738 233156728 994621336 304806486 856626109 175311156 99823591 780832854 737752598 261462748 437256132 281006719 340407780 87116128 602443062 589143488 320492584 939336442 167485561 856738729 637992808 775988704 565537380 885137486 682623267 96967331 899301771 68079574 680565008 570029145 872598325 521308531 227350612 752620903 121431123 958651198 958342608 153349873 681853910 624668930 359557422 821281544 510681979 304974168 392372938 453340287 610210538 977425217 295687293 830352287 300075224 780627406 992696837 657424675 996895052 837518650 796940953 98971226 770179485 201210970 696556214 650092194 588847647 644039405 373535048 12549070 810115092 963108547 833342998 796269588 486155872 107931538 326498495 585345379 52961625 293137082 148650998 292223707 874890154 397388065 811533483 770826203 845665828 800182412 157324618 710241039 293069238 986632527 133975883 137468449 826387280 928658186 976943803 665157944 525976340 942130328 274989818 516314639 664713979 444607248 561627754 417241000 287145023 255098807 497356887 459858774 317908087 32705615 583896412 268485149 154697200 701475933 703957308 616215860 625626287 213003827 672093523 857663793 947968690 560423763 408722520 891394479 973011875 251735128 44672606 436934106 106037514 277453607 967265591 927172324 20686449 255608421 930371256 463396875 947937315 883666727 172910212 736126664 440967806 840623474 584178695 272801285 987895327 575510840 513190112 365184866 995425564 49090368 644760839 421538307 82404635 885908794 762680202 50149267 256265317 345851872 394923393 586709449 366639939 63429562 83927770 115242111 815995974 297335772 130150877 916733184 288266840 14594942 954475141 493233085 468494853 299531159 580426432 748666797 99751274 943576418 470396136 91994684 618732739 349556843 246477874 679752381 182793534 678589016 541299123 408947875 504173904 177908591 261359040 90167305 147427361 470740953 80173929 632807811 288180470 105117529 506411518 872093175 925003889 595718599 409512267 565924916 452925264 30929444 270673764 896852051 434909754 792549501 492308429 908153084 342894722 529530848 166052069 463773459 504765249 374545950 574499708 892874789 575772532 592568545 383836758 840036414 449858664 655957607 183431306 905392806 927972674 988026886 658982460 356075375 874315355 126553055 492548960 618172004 382650956 898979874 122990493 419054307 801131594 955857033 537423676 686644314 161720611 143185980 830474209 399841643 851428324 723425707 973512101 801582684 270502168 75665102 862884938 442325026 926212635 746676992 213177557 256868739 69139375 158009412 138427247 884883697 93112735 858889556 159229382 271811111 746667809 551033187 464025919 732038695 914367816 286789439 953381576 344617798 318453613 361930926 41381750 48998756 36868002 168574086 762960124 9074222 973101218 409809178 643731758 83725726 44803552 850125709 463082656 320874609 766130917 442851499 291118574 322327961 259770746 496074994 58444777 988888263 413682098 234087489 424762199 998794248 575661392 647167329 838755134 381967729 108424886 373184475 467634702 897381754 543721634 327265684 694598040 517846714 572078136 708746849 44052273 479012762 370823115 516522991 614583405 16996279 340010091 531063588 903443136 244365506 918845598 382197352 200678903 895758336 792539438 995399695 924817635 519994736 152273201 695779887 976610144 460077337 182731626 763012417 252300202 586686070 388929482 282895778 218865288 744216027 107106781 739720405 78843691 273842275 291402472 52414538 232135876 176772510 693539658 943310048 62209384 793323690 734710931 703310522 309333773 802938443 291482486 221127315 351497134 320352084 14447834 426130814 891998213 874880482 934333523 793990815 31629894 429590651 247257456 667525396 409727625 301637517 681004706 274076541 937556597 135425989 988839115 804303245 846949025 397138543 486850433 706070775 117822717 533783287 625901529 657195982 187968279 639820572 51054754 869063810 890390322 475271747 924203939 54158613 743842003 592819711 695418463 166627033 476408571 40081437 155138628 669661823 915867548 515771885 793339884 654904685 68151134 373680299 521227855 303805836 599297110 368673031 372787854 179572329 295461428 963776974 281423743 738440339 968096899 430925142 808338685 689542591 951729276 47919441 41740223 51621690 888348892 59640546 999547288 646761085 690753897 644829766 918385371 356895137 104777386 676303730 690787852 162597723 420525908 506580292 423971825 553865749 264232276 825590317 233551010 119016225 897343375 216548871 334826536 582938569 860250717 428030885 566925182 709654563 901449927 721634985 645251155 471636127 385836782 163233970 2073516 367589757 705943339 7763643 462066910 318601118 172480537 61654575 221198693 364646552 113342695 918683203 29765582 271215347 712974875 964358164 5284703 887715304 844672195 808489579 236564657 65879976 397912107 10604336 922473910 701643256 806730677 807980017 783261449 112976749 124744520 894804648 43759259 32643788 243131490 871875471 171260668 988958296 763240496 887445592 210684123 397024127 752268314 577091187 689329190 701866469 733765565 665512350 859985203 45523133 476778778 872693658 212915561 112398037 349242531 32137375 816511560 358447520 801672654 661799234 315212030 22599484 779605298 779779815 895948485 3520733 138444513 732753875 48225355 356506767 953618428 504635973 862041900 125572680 59303006 470127028 44545133 815175590 67095476 843569923 378724002 345601062 753634989 915310030 190246536 659893726 53572394 938685074 294487818 786078594 44176932 989276795 346988090 440380151 526949978 413069877 492157448 61652512 266399540 680934564 3503595 319133422 496227900 273588418 96966973 657977901 882860988 455919765 484220426 975752579 89260305 534489745 594718923 37700895 683682337 448606581 755531009 8223175 842636889 329088605 646413948 352096893 620848289 275467914 545776182 586594633 887790136 744367125 604833712 62276831 798713363 863082279 393815560 584280253 72088005 151309734 530145903 314354099 590451192 5090754 461508114 12610118 448621697 502294835 410265368 614324146 425240283 273916092 212824619 598545000 558079535 258202804 14380925 525943754 64555577 618651281 477340354 756847219 210394251 491972112 993642405 515277528 436887826 548774355 856989904 35080769 62998246 328953020 55141489 602322800 275780963 948133317 522895655 756705863 168472375 505030305 729636837 287098747 527566863 883798819 526661500 700486187 849996873 50110573 864472698 873946142 915422514 5619396 300630844 728682796 283514010 505146591 462393508 579373244 394799978 821645792 618783635 12675794 435619120 503714465 88641797 792499628 766660464 889855009 484015059 239242467 898359642 803687916 261212926 606820554 399402122 863926611 850652910 464559953 17161107 515610578 393867973 584714308 737121837 820060951 857401674 60184067 646494119 320960147 270327119 527372321 339854234 677163338 136444125 799453485 581074663 435459761 459058255 783761259 313505639 982283509 686031743 52890759 971939608 820887987 639992969 974083940 439638724 404619346 759546671 645345945 280216701 722837412 317878060 306598490 693958905 922150435 155114514 774566486 455919664 756389919 189765985 686359769 88089870 874944038 376376378 371488062 934219621 25733576 752369974 104691216 687737857 544352217 989926332 353716424 920150472 566705207 525882158 504280619 514341610 825340297 539953308 159225515 861432877 222857439 68348737 565445817 533061884 337504988 88328596 331364927 73074958 209390193 330450837 712640684 328933248 993255300 515583017 714748007 68546593 573790179 618777833 692738086 764952078 479359110 21622684 626238438 841179355 874785164 649910890 596865449 50855664 389955491 181095094 335444029 603287336 442139444 989082527 666458798 117844051 513724487 381358763 124523132 157248139 27390538 485770156 865089370 101882663 133369989 921486684 992662278 737106628 707643218 733358570 710981737 486103224 220125035 693942255 825827797 584203892 941427730 182575404 830951540 928831150 101135002 574676111 570399363 401923869 52891433 571308653 337213701 381785121 197028050 802857989 324552528 253607937 418624573 102763823 286880070 364866296 553637357 490093869 197684389 224273863 37732337 659000684 289578957 848564746 539812227 488740475 505385718 393496613 696901212 253740188 730876170 907459221 698157001 412825263 424750533 383830124 121624435 927000201 344053678 95947475 785313752 378606678 548300220 690928579 743581233 393824995 514156145 361695164 319535532 136879409 106844616 815361159 513889763 184214333 568085671 590902678 305346822 348712765 395813406 493707199 334715860 686285279 592211109 134684105 755384316 836701249 752151583 278741864 826436539 91197653 446067692 632954706 846153575 332913365 338726533 351196948 731071363 761934934 17317307 889101314 675323011 586858544 922619400 962694688 558129615 252323209 444916912 825889024 569006266 854326110 563291484 268895448 255380708 271830953 995280009 69662875 153730203 902801403 958013904 498038534 703184221 953211263 270222382 473109193 944146826 986737681 413730768 971236998 29452624 72435949 681657537 559870564 467772002 578420689 683563559 298065452 669205526 177935733 899784353 271497824 103012976 232038165 306619684 67900658 757571892 755544365 872640502 770498050 876895428 590473943 192752257 169483805 254508230 139515630 324686594 853596037 981126090 32462965 91943059 335493063 570426887 232482622 268518180 707199965 783505464 321208964 871531937 725636000 6141381 234253303 51512158 97533026 957203559 593364486 136348256 447044389 871195123 788623990 900606799 723961083 35577626 659075948 9531669 180671578 900919521 907075759 469947615 803770178 517455820 421891722 995801237 123567048 750363789 464779852 131310008 350501652 412452953 298945203 279175392 578317015 388967404 209986455 284726108 676355312 390559332 813037336 917499809 965124445 536455883 715449084 652727189 368787225 59040223 805254230 488583139 626748189 19513275 783513962 540587258 61951501 249532331 467105575 177172855 400286065 742630604 781287398 93910743 547606378 873982527 878700360 759547484 813262280 355406608 18418949 444559861 811266845 164727266 573429110 318557656 652115745 4199695 412855420 692916568 311326106 291479029 207149618 234022889 555181611 824133354 353435844 110183621 615856959 529417140 746325267 623524439 996973546 788996600 611606458 624934082 621359194 644796986 535440048 512851891 194890343 767555302 540990185 676260822 976888810 328048595 405341601 32509342 338136714 637123235 624855310 178032656 601809374 106974647 330791623 390682414 258029191 549421883 890315757 973868544 479390826 88606037 553768380 210284126 615854847 997186783 195920929 715410343 592987168 41107909 522555359 473553021 401022493 18476616 605014182 776872472 888241541 62926344 922087803 730992969 120745960 247209596 852697618 62525315 974537857 426694344 70316549 71772991 312631007 378747380 737616801 800787043 322140132 339298508 13222341 442829582 454058869 41435253 467210839 130779808 527161502 716596691 568226047 70046963 467648527 268122739 890014760 624223893 447840477 403521218 747771719 446072053 168392750 501233583 694359429 853360286 794088772 503829711 541511200 359220617 261768137 850482735 652041180 925977048 553657043 717784779 165189866 379579633 418404826 229142643 934779210 523917631 134929953 58372416 506007847 840289730 294323399 64420050 882755507 955906963 710902195 961892186 204861665 21784242 975476466 176367689 970626181 256204688 843488324 523131208 470445407 822961279 612763193 754227460 566111824 39850986 789506432 600504613 753519065 441390856 78915710 741154692 324488087 571971801 429282297 222695491 89299068 316175696 376560689 773523365 803886012 726558395 16972223 604909261 455253077 674853435 924647487 523630224 715489731 311560109 982904556 78815078 650926430 352567265 410447310 682170874 998855057 164465186 85658409 190461494 572873939 479193066 306348086 926108220 217433866 227540122 64260821 797008613 637025996 639753649 8817181 160214990 702069746 16935241 746581775 268068301 644116835 761799445 882033922 384268275 386789304 878176775 935919007 692722776 922332934 642091128 924226969 525762148 344575048 511352746 475883956 570235635 329755024 390634940 418601248 586455661 114485542 197005766 269547592 733757791 345516737 538944717 765959323 332070223 375894234 659182300 542974304 450795255 821456426 372569110 593566592 246658622 701282816 698655276 450916917 853928728 38077436 742572280 483052247 158867716 542306286 53893143 902500962 149021105 69198176 621289662 589019914 191385396 433945178 14428796 432579168 476857316 348445835 229695100 265608490 545331032 8560855 644053616 860511731 177986960 756821171 630157565 513707625 89616246 27717734 421695857 381243725 611969851 622208623 108432672 143570494 420590814 588814235 1041637 568961562 417623829 815514208 820049123 556351493 164105394 540599247 947414030 463711372 201583495 557165227 515475036 593022140 595797713 826919986 297425642 176955104 397763750 806813236 951284137 235727565 748999268 562423810 959396961 552399229 666247715 168657563 134357621 458596922 220905962 752279554 968656880 318363221 596732929 245220410 984638212 800663838 325739702 429848477 779944100 656577667 619318525 816201890 50079819 604175866 333125694 312465119 507256763 999580507 119993829 984754809 222660835 199591166 926802907 317554287 582691525 247659071 261004592 730799388 549598530 460107861 257353330 878791831 923771881 849039236 478096075 822081497 740762175 715473386 176876843 877452001 890590666 824886680 258253907 944182530 868403667 387595060 622268276 525968257 448976741 568324735 275951328 445638256 373916169 924167341 538278737 355002373 368573074 906472330 848774428 300996756 165338839 341496532 595693356 385246081 814964584 305533922 326461614 597688537 72603096 549099339 137676368 418823877 608691084 304959172 147732017 114200224 918357453 646569399 918506810 876953923 20324520 72518625 851940060 734507731 612559337 38312366 510892653 542644865 873907941 390498936 436273836 448256489 641382889 398606524 115039298 181136126 479630270 127654541 63656570 810859700 539169288 760717535 577344806 58424869 466223451 316431546 473952273 136849745 615674961 402514985 522604906 916801380 795668876 266994639 152839219 527453804 156526034 61214109 508129554 899808436 143000405 659872930 72043187 221571885 361143610 715387486 233089781 702853868 60094988 790745519 461794490 655763665 283068806 74864417 708449261 92758281 522908547 774427683 581530582 769995973 685251602 298816423 385897517 954681177 855198746 293401895 763695193 591909786 18544886 101559763 262190402 692914822 798999688 75415448 287208661 325132817 504146706 420735705 853582514 951457072 881220591 772356417 416774208 390797669 513618022 139836307 454202934 936340824 336344209 164834833 322868812 191923489 796058885 897677906 717620492 220573689 760785308 418342540 740546399 733356921 217320400 247692224 837353291 304142993 625239319 324379108 712048916 651422759 316101853 297364656 127583309 169822179 919803418 766911349 797973379 987720937 533949657 801740325 347816752 510136348 505783587 372606289 753344875 193070320 881607980 268980253 702675853 172237329 987567366 684827440 619122864 999656010 379852794 191373838 862813028 469181437 819725711 40245696 432293162 111693060 179659734 685844631 19477461 202109300 448772317 418650059 606955807 671485593 437625328 263384851 126390172 30673395 417822741 822943202 788117797 142722688 119978564 450273520 810550688 474252080 409628553 526549241 216273269 458233933 169160863 862885397 860465917 171532583 689810044 549669462 35179047 344342008 368345730 116689973 703469970 864974728 334283011 579414710 336132307 826637560 443224219 381287988 919770542 609505468 226866880 752628660 341299467 425480474 135370365 837095715 407269539 795915800 356844692 387982931 67431146 766560191 9779885 705135803 297702237 730434322 328915246 762024484 140739961 291565975 536784612 801298847 624959274 549215004 535205569 245707621 326604305 247949860 41366130 707104031 977333653 25630596 297546177 207313057 506355348 665553131 329495116 44553683 967423487 728770787 574513947 304351398 666923140 52547457 257377593 629401050 986593816 399388067 332780303 833709534 389322338 358396410 950071959 462771063 718164046 814642338 948358247 695399362 669132703 667781383 93628049 593218745 521959356 635855941 300685928 832121718 869829956 755813942 188592071 440909726 556648799 777950235 691141871 158420679 972732128 124077900 576987386 561389541 671858745 571889263 224978555 831482051 178587816 144632014 468501588 264229310 655747586 671513158 448888436 854675611 290969776 729348935 527777890 196677749 631822218 333233148 961599369 205826387 259845947 995258373 361257255 675941711 373463678 632487858 703875951 790845636 209752135 445333428 386073632 788052240 751882531 905826625 220140628 20531807 62061470 933587784 281154278 472892711 796084135 408380115 75245502 152557930 916516800 32779941 696314097 5422842 452025361 100866279 651313940 820829411 792403318 32931285 410293866 252592112 151905717 826573186 232846893 706998583 957213611 582459514 1062232 788160927 735450080 905202562 456987453 96400601 335047292 218619025 499207575 799371282 758342346 868383584 424367011 750372734 844909676 607228049 195844348 193102611 620857671 113189198 80624267 864681293 359751619 73347848 401387949 716167374 756537306 800174303 571199710 562755386 10456841 510012402 908437144 832367492 539275842 812223412 594657949 428290084 862510280 183871732 161880508 418530629 770491675 34071653 948829494 335797141 527553596 276409360 774978298 375407392 606192524 592045445 40422099 74595867 385580385 227736865 387392287 249816762 610478520 312728496 911035437 747883771 55969476 129445420 332671145 122282701 527666605 321643279 300450427 155334646 414281047 99833826 878744198 60795787 773790354 647108849 354167370 374930120 565096945 224730841 770958171 940901309 810829221 554348608 413088775 800302720 251960311 749421349 370254003 842779394 722765166 291548014 715039496 3054744 379467773 532758872 220806991 282725594 870338171 913848733 49785652 222480329 576359997 919337577 464500203 596340390 471950146 881001662 769050034 235660494 708981115 727710229 370610261 577745414 547787389 360805370 41241780 712772923 630178160 444852805 481307110 645797899 2337230 917870850 763002096 873677863 913975579 661712285 646398213 458521697 144119242 804359083 366065028 323007423 725018750 192994626 816888507 112636963 32283235 340688976 152996246 448525706 992074439 287924619 302068222 17909762 990394916 537606439 947782974 169854272 718344593 973296877 657698165 89737582 340320660 593345370 750929337 887647090 793574385 776128788 789586207 446837495 631817571 415472003 346500407 700467989 89252303 700606640 371374958 859195163 762385099 113663001 502095097 148136591 541253497 161981289 176539858 644896381 642546635 782530977 497358024 37405114 64954723 447627870 708953568 860812986 796411829 67118264 257537537 570878105 641078328 251462604 739784436 248965573 386971244 383844814 306459274 283339624 945204865 712405711 821683817 122597986 937278617 460663386 548973208 741382494 402130338 163931581 793014995 716835736 763196337 878068006 481807781 37287701 163856865 420197297 242170529 554463617 324863884 891583551 244113308 835045177 265605385 538244245 915758880 759149811 961032116 725362256 370719167 85136063 506601750 139799059 502819421 592763150 217900604 496155872 687204889 12767791 706833417 196073275 586490619 36244208 512477239 98115583 957800127 718468030 169495878 129210190 64058395 795426027 196461929 399606811 676891979 697493235 573446614 558039350 453892287 276049903 809370953 995005384 723853892 996513574 721920520 97218427 555119662 599516468 331990908 191593779 764558558 126934808 718583266 917133983 858007054 855427772 857783015 98658103 956739186 367236543 403452925 4646479 408916416 912101753 924890082 215565513 103876256 32419605 619560495 290283347 870365600 227438596 334597115 538894803 197708221 975359936 708792750 552410349 471856011 158759512 906901863 116134712 707129943 66869806 271502081 961761564 6565763 534478329 294258699 383117547 871436733 847409205 580954505 107398459 352812146 594796442 622013483 726830046 38715801 675737838 564959805 430548265 166577331 545502688 540247207 765985861 788143343 221611377 589633034 953041045 936935928 915682409 617443147 177490208 842762893 502640729 367786479 657166924 640270792 545585959 616743231 804163406 18330405 50162396 211534223 238846676 60682617 918085707 347450675 197180859 922376865 370343764 415280422 984904302 23018936 120982679 340523158 938561018 906783237 564761733 991599097 168685603 602938877 763445377 115212507 641344100 974813457 421624857 967832790 191045305 63811787 503630721 849440042 536060847 223493504 901559653 728765759 259475305 731545583 397653100 297238831 550947854 162270752 833426172 300254627 353712247 858007997 949199308 295766692 939171181 638359094 777453433 329240754 300743413 840237461 628449653 902043128 216431237 846596291 92752335 137041232 714966211 898039520 29353589 644608878 245724388 288733883 561735347 974608375 763097572 454302093 204652076 900101597 548689761 649289477 90463507 393916659 74135013 75899845 914922182 707236263 121050390 483955661 523824687 376296284 675004487 477382679 753303285 920961556 273311145 139717805 990598508 378757572 473432920 468555167 145803073 797713385 871968824 673904920 220697247 879864530 681993339 868900611 654472241 42366108 717615249 655192649 348497123 103331559 592467560 100894954 696572395 471683611 924840819 734574169 794416216 413977761 247346557 660501779 33642764 388417410 576834223 867758259 470908950 113405650 541565682 178196791 3779333 909768367 253883299 366573906 294052811 771228086 283326048 69480206 496293178 674822966 923364769 779547607 321281119 203788626 577589608 758652614 200602019 97936955 771962108 810645299 975792543 102899652 315723100 119750669 548880326 868690273 22433960 344528515 166856608 907122491 965598999 77868344 490480926 13070234 255409906 277817610 791557371 444218414 676933709 278656751 206675514 476062987 310215660 517619906 579984702 998329775 665675470 768645245 640687446 780925687 596847465 535169061 417077350 417600751 160437362 206091495 162594337 406567620 270604152 18592901 885677696 986535837 78107099 141619650 912835040 511309831 609875742 231286106 931029113 70697744 803116277 192311755 333360098 274195247 350854893 426501806 476410692 181256703 327742637 364217260 980717388 918724536 492361355 231453474 793497606 544536365 204936371 194947068 823185743 956693627 677882025 652032071 746087979 186712993 549180833 990721563 269304922 62925462 255269265 76731996 209717224 504347089 148929200 747554430 246658763 5420818 118864971 195248067 11558306 633423500 21429187 363550378 374049705 229507188 812199459 754908848 171308232 816807499 469147985 780247474 613320690 407539913 24803346 916180858 673688692 527553421 55849070 935932211 959944502 178725206 138314903 895688280 844749393 199897461 760595831 779846501 780133737 139323455 108180236 845677764 555179788 634604681 529941791 338034941 554878309 748805518 57794069 540260340 501212455 215493519 303162815 34493941 206215722 32226329 385312651 705899086 554358835 270178788 313195375 450688102 579126990 203293613 11824265 813167705 928337882 885788677 177590506 317783793 969761454 201454186 991502776 857715884 914377931 133606289 821282977 795292363 422841119 529622434 397343538 10344143 99001321 589976047 820862132 192019541 821537570 678560774 965539297 989522130 252211390 258611310 740184274 487125585 900793322 834928335 810470831 220621137 523850780 19247496 498200827 51838211 778243058 949999722 107836497 533353304 488493164 238841642 552871820 772229032 453568756 423262607 738991576 35339544 994993689 648801676 865100086 77339689 67033299 847896022 986265535 662754341 504036437 231141393 254694247 628185196 7787139 645280544 957122 650093079 283867180 69814273 760889866 399181028 250017827 34778679 766198324 797680261 601990603 900796622 768297771 64495922 974868803 454466212 363739137 67242085 134640833 705485579 413045400 593778393 581172207 420779709 339072829 960097002 933824237 654787243 984212443 582872006 337970305 818413241 111799196 985461574 904101752 537372245 48168329 337294978 105721789 914349202 624377056 114670312 23072978 421352683 1503965 90696677 617959659 600300504 608469573 808213455 166875372 948312004 280755542 12810020 77961583 696852481 753846576 796834097 687616811 583745076 759730671 803610306 395418515 924529552 199884978 618282678 705722567 261535769 94220368 483648008 960292871 299984244 485318288 764963611 130078177 121611145 181009232 689490932 20452294 443233830 445096509 8535845 840862344 624605445 188307342 905465153 336088550 188231154 754228361 655885275 226169092 364730258 391594888 780074497 973198574 24361829 39199972 940337113 362781243 385109733 943094194 933694233 583283165 936174771 131677298 206521350 35496934 487903351 301440270 242096777 488683687 991961309 195316870 814457123 710177564 22210211 717086138 748300718 155361587 485543043 412214484 934306268 784104587 346813204 407214439 513226799 50660019 230814801 476386776 965625123 895667939 575814707 249240032 558217911 92340557 955792018 82391119 624863173 867115616 791615017 480626941 155002557 271779071 36977577 807187560 20142120 91812014 851058997 918349467 817887792 739807156 377660899 991042762 640428591 194605506 815378893 720252530 811280075 664960671 7184149 159252664 648304219 560760316 488595494 192253064 254321130 622388265 390228502 866471699 769832348 685779070 511706914 480622587 433802010 465017251 974365692 11725897 371971901 411299687 29833831 954133201 420169571 895834597 57090466 940626353 106090300 130166029 147642259 572484931 795637556 575582165 125113521 431025523 427585734 174501133 351408999 377211707 289833959 919905916 825653052 75633554 839794209 166304572 930199213 703667590 131282312 898460996 753894305 959859616 671599509 926733669 825795690 819338831 925177064 774203482 835117887 419806639 659219748 649472066 52842464 189820423 364155172 714464437 840392667 248320084 402997405 167027341 44856480 373546169 713787960 494078408 549298036 541088902 293625422 217965265 783372164 992564611 364458105 48516197 996110062 669557623 809883584 55678099 223356390 227885524 701328250 212907973 270186382 671519817 673140420 849126253 21521648 713891939 235203710 362582080 843476838 835401621 459461063 167333175 663825730 156271717 344347450 425140372 933117228 915148982 817360628 454502173 444046576 92729143 418147969 219036747 994700333 849217351 173231883 276792665 300620394 236194526 506061920 378886318 951556474 108195977 795689032 370696876 625120331 438719496 914655968 305488928 128276892 728061092 534647630 343290494 813345604 908743550 392405291 300676895 136478431 492690514 107190945 725010595 349333361 796345065 534050858 98552059 849239487 38859778 462545756 221299074 620097569 908251068 763406848 309466478 764446834 929430537 887190648 131444183 688766197 554975376 387616147 370901651 618745301 384306993 723828116 499677028 326630976 645549840 633276110 17740249 951313641 840858136 800489688 732149840 617878392 707351764 307411861 48903789 552880416 329019839 808606747 897571751 664793995 196843821 794732070 307869207 828024032 653247273 572383536 437159489 149117149 830856293 312051045 148655642 444052855 875565896 521553985 21489575 223501990 382937705 437365314 852551704 684941504 452731292 657052251 942436886 193456046 77754761 602141878 29540117 505524321 638221325 625703635 846451687 518030347 488970749 221814901 938793656 470004651 959177931 230949869 91236692 930029096 995079006 68921160 387242920 198524003 731163111 35789469 108396741 298235932 154697125 583250374 684845627 730001447 372483280 468528725 508113520 405338660 30163081 371616180 832721813 94598282 766056564 462134644 412733937 340339452 890617928 205414818 605325260 999178174 460868595 398958285 734866027 880725582 620936030 801977783 154692613 234998932 80825288 683456162 869281205 331886593 61028947 410326586 462443756 697160906 987331410 675615585 973645832 378773187 102682858 191684079 88628099 38980568 307942726 17013011 738700963 415460610 160961219 488382111 979643629 265736216 430326669 56890787 107220274 599666170 243782404 389251435 908786205 371916882 169827161 403148181 92361647 217037997 885040005 509015335 466105171 167179855 871509197 859059286 676661707 760736564 993112569 707888309 64164353 224377785 427777405 980321451 643018366 53971630 230935906 211328592 957313858 847290020 229846280 261043541 305985333 718482770 342623036 324010979 48231951 631286317 511232203 169055752 305797257 493434425 733609330 896264290 45733546 744718267 487320311 432321893 668267910 947330732 833582215 57938371 238116309 481294555 786846006 833895134 675481894 243457659 907473266 145733136 360972917 694996322 712658717 972843630 114586951 545114830 87718208 929920417 149377651 110535024 390679528 689436841 292926602 495114531 806116154 638580742 483199120 505684260 36285521 659584796 174147380 454749277 796721355 894066822 442320488 764826014 994166436 622841161 909070432 56096858 108083122 859995049 381280902 542311226 346417311 617836469 665461571 25759761 320414972 867123945 201860637 149666943 28005155 728981022 100119741 818964541 214513336 812835935 329970259 541846810 637393490 694679054 38586898 152508769 946541535 778387894 879437794 114057815 758384727 681544754 572372453 886609141 427857553 349051228 313520771 493265998 731821662 874506483 739216654 524472444 211684789 829422267 767728757 222331235 924283134 227965172 858112618 471057568 814315813 191485435 551376496 438824389 844406183 535066878 280965544 757745230 735666115 293824631 562633423 811795832 69013145 827913149 679934411 749709200 812177522 249940622 730824831 700234906 149796318 675439760 799024858 709305762 948974363 86357990 454050776 467212164 415079088 601058998 578526925 425853370 27661796 259527745 54949141 44502649 960091630 662359337 166433922 357618655 753145408 593782244 301125344 728869652 743725843 871768485 676815124 761302255 810603641 859658730 842027108 465237414 412996990 919331281 328768137 50771624 281080073 173341909 317300124 164504161 951019004 449098340 794074093 891865898 246458712 221481099 553168644 969444067 748362319 560641129 946288305 752315740 657948595 686270201 871327150 242618614 896620562 120224624 177002421 462649397 730695509 23241249 91194009 217921913 955375043 848574222 750560864 148623627 740406502 875936124 839644344 527606522 614478370 3786573 795426485 486674247 134964984 618034154 605947708 932209575 559397742 131834727 612017673 618534791 179763015 71704368 788820648 483639890 494454994 125634685 149234000 34795345 475651187 788754206 823835758 439468600 187570599 158379087 834372631 913513974 143820988 437633364 565357963 4532522 892835182 559670046 943339727 496444366 410459885 769471838 736528606 910653674 862306493 401893677 46089184 785196914 632370383 329634200 110749846 17395552 51624765 129438960 172971534 709884312 454555875 912945579 47299029 909981243 589222771 625365185 118562681 126600614 39767128 828116344 737687439 845442750 488270567 914659302 127850150 273978696 797802987 924116824 704919670 188336597 581839475 24397430 311405792 87829023 804383703 974443669 407458569 329681638 574030322 510062047 463879793 820071641 566550028 185308466 573682172 2938190 985990352 127426583 427088613 662768640 58946605 154051923 364649717 27615781 453274911 954215545 706519600 569711716 68797812 194106552 643903056 256984765 728051238 20585895 124919560 550942368 381036995 51361802 914372758 185179854 892701383 471276911 580414717 747473565 611385298 197833331 34305141 366205553 486767376 978911781 446932396 565916043 110583871 878119499 98170303 308206267 543816623 235183482 781170214 914731061 673482322 144175750 838642919 321444043 219134445 165663579 207268670 751772539 904083716 618206837 109449631 926765775 732087527 758015905 509930135 368651111 356961696 442143620 475243689 236783811 162942632 902179659 15350137 751377383 788383491 653536063 869429062 123391134 93235621 673842594 924273860 964359877 831273552 514883265 129765908 542536962 135661814 197033440 450949344 499456553 67234059 8909005 721997095 990526607 436350491 634484624 727324181 719843314 447524279 479433903 228151426 658682307 214672142 602734968 821260648 968122633 613256957 410025630 589409260 941243372 773398367 73164529 930214131 671981134 217181302 413371863 708828175 343525013 408366960 651735908 460202786 119708413 43569871 337385604 487929419 323204389 861157297 541195245 994089750 693851117 225560119 334327505 790645639 364161784 871031563 8423352 98545453 438949560 323950549 966772846 290680205 434099428 267359944 723988548 418321834 999668685 772650926 467971684 697252376 501918981 146341483 684761756 257602135 906841435 209577643 935167148 123961652 752618725 478754831 999466051 78157489 146266873 220835476 208568947 78122879 216143838 236924545 831607287 48348279 510917563 941503824 703134901 647897673 308872734 222365093 744805648 106321730 192990710 390706520 869078407 836980180 991769642 749084008 635457414 124081068 500411530 776523192 825288549 700682619 322369849 781018200 278070297 866398428 282058581 689275166 839425537 784448318 218057006 555665542 511617980 574006033 463447754 832417465 623528537 266558248 870040115 947097933 821623396 653351536 339961085 298866729 244087554 363263405 471008521 427005276 220564227 882316433 631171994 435476475 243658943 175936174 597860616 306184115 62509197 418724952 106298651 62578096 136024301 849478534 617801856 262859507 792818697 720687390 243202640 936733959 374432691 282693418 646828427 123456511 515995919 190790473 481815252 630548988 598560716 206780773 109410236 576750300 297232914 624938584 637399455 73609131 950178351 880367639 566894744 676178713 857398463 877499912 937076124 369744563 307967006 376487045 951400721 142572326 303774438 286389273 538303124 20474016 259146227 610172805 142338621 500717166 165653317 450199522 403431740 770099388 631503560 21553985 547750086 569295566 808262423 792024690 885746523 157948626 941637585 673029057 550095737 461582257 32499129 365360218 845652864 723266312 587107846 621212798 299266739 787866129 628174280 194530791 759182903 645256394 404895288 247040141 167668368 266021344 21902508 620189339 155029964 113029125 243259489 213863809 561369834 15923305 686737250 277106917 978168398 471893658 168304181 650775479 839885657 93958974 469317484 501260458 298430533 175972422 613064176 398112583 64088034 515866646 369727787 97051971 68127800 896173620 584430489 787738010 501928162 863447193 547810494 593062177 167928719 363855350 278654470 481551617 649202099 164330151 998765609 349544808 181113138 162295127 357827803 422299156 656681472 507426855 191604555 474753244 51922192 87018246 369918361 358166927 79617897 606608895 630795639 347768497 421798129 585045285 638876049 121800914 388091158 550724524 546630049 745415152 666262687 737444477 724514570 783713302 787911799 710019861 368648403 463564054 175757426 208920533 552205795 281733399 31962232 328221395 316784689 571320374 799725383 19370648 536070544 213728524 198614833 863865770 871849923 830997662 453753508 752537951 879125364 798054742 548785220 692498078 134088680 452812236 570917803 456768849 238720574 95514729 155252396 918092739 548277843 794067907 708977064 382218707 463726528 541303980 956191244 535684849 232827008 592043605 486940423 479571020 993940499 495981999 743903913 600392008 737513980 6813455 801450789 688919264 551974362 309123178 730488982 499278200 235540574 370396693 681811533 493489886 770023776 962518990 555223065 842106688 892920765 161624833 183035611 735117003 143456928 629688360 977825138 975000933 325127674 61452596 681391125 987407029 823669534 5152388 342908875 973214694 901542309 169168201 402538449 2377984 722037916 706764948 498570692 961026112 732865520 203183326 217154288 933509176 650477122 526937324 578841406 953712614 416636148 415931871 661900793 943523386 619312989 460823861 138143628 142382469 244530438 100372574 657656254 951852733 994594174 859821214 528753578 658023637 643277273 354452601 394861711 455521979 9629314 762003589 62148219 933851631 358363533 945333906 967064373 955762851 212456426 865313560 281534547 206341314 564373948 438132949 250670554 262555649 542420570 479616142 157740759 728896345 405354839 651472988 817108745 7146033 752461529 312347294 92456241 767287113 147292576 17485483 263220840 205319561 310119004 134028921 89024464 757159138 794085865 559130264 632868351 217636217 105217279 766503558 975793273 175501356 716969000 32237900 168333440 361304579 801496916 754843024 299532221 943345939 84919169 458571623 147195320 240225638 216012617 915953258 247363710 986859566 700521965 847993229 985987289 54123671 867834261 326616003 842025417 139075418 952872849 406614763 98110689 545748502 630090262 683763688 922520528 865131104 577015461 503275364 935991636 613327001 284533748 650712447 540055058 538002873 298126250 721777893 690070587 176192203 645134687 57663164 107442315 956307981 498755674 23538007 294344405 308765104 287253250 342615414 82866206 590633659 412556532 501296590 674456628 696056603 683457852 112556817 185799596 461016695 502024255 189550610 410563537 3934845 704096681 71196344 841634821 91513014 580762449 779072074 905699150 246010878 943690974 888241969 94811649 508925624 712620485 804683496 741967690 513716505 646087717 800993271 920923277 7856197 654899670 423078637 477097197 965409007 17702161 891689083 776525734 14145917 997992300 323132050 902645046 836389318 780439585 276612094 844743399 560646992 977058016 479618064 922083502 544338579 381698218 554352674 494060808 342434003 401300209 816117659 737839462 449235905 978588061 53611140 840573027 27925230 109659763 733564088 584720907 919046722 272938950 973815587 364471047 108149257 316138737 358215392 597917843 330856466 826829785 808330760 549514448 480271414 445037010 468282906 953048107 482753682 878261189 886432651 726318570 415220071 708651246 231666985 183281081 733842587 497165202 276262302 683975024 584731232 866417630 731089811 872499836 385532451 972936624 523209298 486763463 189409015 262879214 485575444 967634121 307355853 828807000 77100600 372544488 77430313 475751034 484665107 518914419 29364200 211483234 351977063 109151585 121569111 860184403 21469739 889955203 980783914 808396207 495678314 42939257 78900672 993041995 544106933 839123223 410493363 639512533 768108376 232496389 131920919 689887941 463364967 32360576 934636347 493270497 331252140 990796234 991485300 593868601 707329330 919693978 532352216 561817171 145519441 39808995 797906445 203275666 283007638 210535094 449907885 622084471 311539878 822721533 203477114 447638136 118862371 462069615 399609571 523384875 861813222 159282034 893143184 606799207 495651100 870205985 808035199 584420285 983471496 231085686 287812044 348994590 943308497 828780169 768351541 794129523 341109116 672854946 237692324 887045164 645076968 878196941 347479119 152477647 303262435 215679103 816505581 773754770 285879411 505788547 296121944 642014503 786643029 868021110 64667542 357391355 434150589 742785091 780612531 102599352 304202854 915278187 189047217 939576861 475434665 796494523 442158313 103030800 725336540 710228343 604183922 271809787 29884792 49167751 467548762 569269246 153286036 514939732 798290219 434266414 118149532 832489151 982700692 335031159 469128647 278377602 177834419 482199291 554740735 491201288 428576972 435728935 414149824 506050981 15119170 945716293 138312088 942193816 768823406 756098531 703292125 738301733 223630910 292452231 289288489 872154520 172556020 192305278 980401195 336518628 78440570 105453402 716106299 971597260 820506335 475495069 229189740 664728057 91284191 315228697 130194491 162150686 880109667 222735701 122779077 420124728 693356212 434303558 18372518 431383619 454486884 122064591 403401723 608300836 994792293 270334123 879436088 153223507 560320949 377236037 841408393 650129354 547809696 874266219 90213656 999240176 202468823 861686511 92562935 42643013 993520904 398709678 203611910 498430108 115428273 834410584 211755787 311022241 500309577 809826 609952988 381506633 151982544 518441490 665084751 660695817 657833058 613283651 480797343 686060565 934815780 330495482 791173244 476234080 914961576 659307330 598797955 864461982 709614905 62947816 745055137 55622252 653280274 244202001 235851743 595932585 985198824 804690864 259726020 995543284 984274558 944425577 77183447 412962497 695672154 900247094 989038337 89632997 752967940 767748424 123501266 806178880 767662942 54161627 981061857 149986112 566937882 539563692 597541281 474154383 600382948 577073805 322162294 73663142 108922903 676166737 357143484 268045215 263453147 583293002 585651552 493439689 800222456 422310553 199164297 630945965 865367934 789498466 248891961 287199830 356046415 663076244 379682631 938559276 27674541 35659886 671963458 753172221 899255999 317458429 461407255 509939792 148570742 224786523 96465056 340112545 518651377 521922546 986844879 69020312 220536783 301915910 286862683 741786141 643401364 805762346 438317041 278717080 478919553 890654341 376363423 423248325 559320860 584657932 618826318 666601910 148133935 830832124 796607743 644133546 25358956 69003562 745304653 823188532 795423770 659024588 732120036 666927980 439616394 328619156 141611137 733499429 844633289 286950862 86607973 391910066 633268503 342417041 403454399 129737865 951390230 819495314 272154374 621660394 230182043 429797507 321664440 771097503 64372273 726057338 429918318 739429201 255349147 686516774 302026990 532605730 81904540 424576192 806897867 755800548 965184104 936185173 248177992 670466214 949283355 633782917 530190612 202093912 273140705 543269680 726425251 78820441 710189469 888835822 443019444 384843463 985443573 989389316 984826234 850716305 61540380 439578834 466769933 801535800 315790620 487621190 985057717 851114389 577247800 588192688 913028462 213712675 820240909 922542945 386287921 126080618 454764626 354637321 170072998 659531133 29426060 800791289 442513551 911346265 226194667 78271474 718808727 403007759 913643449 387825294 494185079 523496582 277283467 620875604 664835082 335972963 844135082 174029233 627318085 57186459 414675939 685996775 347230898 97436563 689324933 923559708 570304919 287463752 447240998 722680604 50162794 877442759 915657933 955158629 957650999 218630728 960557980 568020404 361410546 501295364 830021145 624349741 885768052 201388237 611950000 790139447 909316379 163017925 313818907 461440205 145554190 76566520 708675423 964902169 242201342 125956061 499784206 861749577 374977157 476085198 45288976 604510837 164056929 804156099 320547252 801988965 861624389 48508992 919222677 674999270 818239208 658286112 329439206 886003966 782978864 837335604 502382767 193150275 638605541 867319645 113341046 973258166 776488502 150846356 872937231 900173972 696924277 104489842 857228580 514499729 707366397 256696454 858776363 262935732 243415373 918244751 980818080 208816621 931480511 534177297 824656306 27060454 917074380 194653178 387611265 539180401 421554349 405632197 122462762 316205089 222874361 323706258 95733504 807692767 704340643 101436689 181192138 741081148 899266620 171924038 259538005 897324385 41682481 496854562 507591377 207846766 486525165 296850254 96199502 788391525 885477933 149993167 662384367 515107117 117547332 128738166 665803016 435490424 770224968 78714267 622417229 622278839 384917541 465482272 768512060 6006542 900387189 57301828 173522732 471199488 901826275 633980667 126374419 488690502 219247642 66875265 8231165 347304596 322805431 304152122 177894819 409183445 293565372 396424942 70426434 438333200 25900630 480202325 607889823 403501659 924127338 711637810 333163314 908377385 224681523 575401811 507111826 57242825 423549878 247687774 419937089 449029541 177189890 126442586 308976703 618091663 117117723 222445125 528572149 554838074 450984984 974418962 601867111 764802406 974143612 254488133 441966573 599840905 454992514 867016913 57181444 362067633 769132224 548899057 858245146 457281808 121204719 615928439 913029702 251238752 840517592 966547236 361020174 663712002 889006597 835179809 502583958 861511605 439659266 603399190 417038207 933611909 596644834 570025031 343834616 966975345 114308170 701073110 416130641 158280848 409256962 285944697 218635658 337527526 52704823 511638434 994795893 524625606 369897486 462876298 792000387 226619487 190009665 602512724 782694090 178920454 507086276 145903012 75912011 222236198 37368872 144476628 244415866 554491595 672946142 870592874 893286094 321535200 779028194 806970028 962961737 654426261 615571460 337552048 865064499 660137104 545095151 176031924 841680128 135858181 348927523 741132533 916983963 43606518 577923685 462237684 888226695 211438436 808002303 905086627 81643720 859092962 188368908 890937503 160724747 449892769 641421438 8836031 618098424 490427679 560339899 634173930 4952447 980487980 411055047 802544773 654818361 748322796 501762431 132993934 902586667 384028972 412254130 867598708 377267762 1557699 477259759 905260341 867076824 47630324 298441016 417490111 755472090 411604989 118535068 521342825 400570618 402522174 683459840 337169647 275124780 90006578 751958236 618002160 968994823 48621466 343245017 707708941 321254094 526127635 302376680 685051345 331347762 231637602 148492527 870215532 490327616 516266700 51887030 190541375 552154471 806151579 877832071 591470004 917691050 43119359 956195210 975338375 399211857 952716760 24588736 991214176 40002745 81081089 560617043 60536814 766580116 149685411 429863142 222745465 80848577 659963656 481068657 397468650 272809278 541379757 692846326 796220433 681623188 393817847 398868110 583454410 616761855 570840002 378507630 107083602 825311490 942506109 250593302 957270088 347507060 229338989 904735383 528416794 517756329 182593429 849759406 419857004 159128472 29886713 852470582 271685883 243845062 504219448 20528425 5804613 214470605 796087558 381348673 784545048 234019585 23597902 922622430 72077040 120029572 821679300 201154348 580989829 136373079 703174726 653213987 886395879 992959895 234731104 845009760 360397442 789110408 17715522 794185343 37142168 399258636 635371706 596784582 809872596 393129858 248963476 906370745 625804056 466461086 308604934 728740646 945041063 495404448 930041408 62320237 971269455 658500699 804646708 838807294 301792997 519892525 712240722 294359038 665212750 978196480 600042016 364713715 502594003 344455566 448221111 665684827 977694158 798113343 164148167 792433485 729981009 989636314 978269600 923679556 923580975 633477655 987901862 235515030 649231062 216720934 34434736 500681421 534624811 736374358 560754545 932433212 701625545 729101297 446321898 15604878 174658841 575902871 985208951 226139523 943140089 286344715 771373355 323341820 272139962 444741833 271718642 338134018 194014080 905824023 552378560 544422063 240411584 910948540 176894749 969258025 982016975 149803871 243895170 785016060 104005682 377870424 211067761 195295332 863729456 233491641 588332415 245131148 890437119 116473153 589400676 528250249 734931991 741935259 770049629 474088017 600382105 718098997 236175188 148309084 88045036 245391156 840810614 352538278 713332630 274403242 70877652 251613105 707220030 219618670 733141980 363131551 692902749 176471716 602905697 223610786 20377039 70948793 811666776 269355610 756872189 778501584 1565979 485430633 286958831 773126367 148979071 890409243 315027418 309051248 87483413 112451024 795092135 148759116 767148124 164118598 627295301 702968709 523769654 195864426 796589610 723337821 848717256 494370080 531765972 165817820 378665995 68229964 779214570 454938056 454823990 327247288 617568086 47405969 111216288 13014199 612919527 67663136 218502520 956632119 266530144 86684102 214721771 543183987 916079 89777469 618329598 594530414 476004263 353752915 961482675 77228003 402520314 887133167 861108430 372095212 800002901 99257389 218670696 49915549 294237352 37967567 573764839 919514525 888792134 613918646 67023910 604728988 34985807 457719510 522570437 862196954 274043844 288901272 177139227 246696557 334908243 224641140 541429909 312144046 612001944 170874001 695482361 783076794 153525300 104617614 447744316 73275042 662755485 210171521 302910611 777504139 896358418 646536924 578763263 303520692 100539699 168840574 16668441 181946795 402112476 986499075 66896395 829800281 260923058 306126238 315561827 663449867 943575663 463027035 155305264 533071482 87400985 741145509 449662267 937483751 311644242 496793406 960675030 853842042 346707362 697558391 76322670 883820477 988044443 589083719 157059804 648320112 250891718 817196409 43507239 89995131 616744570 119077971 599235603 245029806 847307442 157313390 75904181 859280190 130620218 886935181 755568758 675126874 48335699 557895446 541477624 585483461 204064545 940203562 258528276 925522792 901868870 294556824 273612907 929121508 231812191 670835709 607981175 226314635 714469987 409570390 103147587 393862859 716605758 561383496 12675810 845854507 348434747 865465760 937775377 800200660 658732669 907636343 46267865 854383849 443908410 11311180 9251541 975370325 277280593 114872244 125172658 682839732 28294260 46387451 255140573 399440071 248738394 883515398 371833583 729093540 313576656 528460266 193649810 366885413 488003637 776974426 827796565 536690518 342891691 396041129 109229132 679332989 387970313 666569218 699442466 386628838 422205438 96418128 484798734 784897030 236245611 887338349 737362747 852408689 831556768 971061436 316356581 868086610 340133208 970852339 963499921 890508067 207657852 791655272 389403420 206161220 124704655 629860636 977124344 767850342 300186296 411750076 955853899 247928173 290165250 98602717 234014578 445854926 827505304 245926038 462314446 44400515 752841391 625373991 735156348 92808989 13194923 201623169 147801654 517020018 428247689 490950791 615685457 912694282 559763532 723041578 207813815 284443511 48793762 759871008 537781252 8330340 807154441 1539551 603250937 67626585 675441871 879817405 866795946 795818812 822074564 107544718 52779090 35938906 794761732 500940081 637972737 433443952 512520211 789389114 84088071 577787805 766238647 290165473 932613465 436536355 60984034 568239675 882346550 143295579 431607464 222090985 573340743 7155817 313087709 249385553 914177641 531750534 216630060 974052854 134964459 494032839 426682478 594839247 741504769 93302359 120763280 278135194 475430395 246262805 523566448 568036808 627789662 278098582 405178087 590776967 250458595 827151089 241436527 742194975 521126208 99058914 251345324 661317665 401109247 479164077 902498461 268731715 221109808 526056550 122813645 601771533 95959211 723949067 941568745 127168597 320296034 435274052 779870751 140138228 121976415 572958928 518605964 778571370 973333644 226684497 992992774 965792252 612221261 319770473 180424100 552964083 536423593 643676162 381234886 113171503 931776265 103934066 401845448 747602763 737799138 700071112 596632908 660476705 250691922 137755814 338233478 671823196 942173867 419056414 137056470 455140739 967756647 906305670 594822548 952761380 848034982 462777996 512102239 292886687 562541476 383749080 27900981 203352674 90155653 373668475 733028689 696260256 859684271 507141171 538107189 331830769 896367625 944963174 162526822 189210612 472964570 55228327 831656443 29652111 809813796 953030960 182761178 207419398 945731925 241902526 585144140 65398904 123306860 603223718 687673950 238054844 709599163 171668887 903630825 229208951 207142767 445134718 734097604 28639199 909475425 200596318 472271091 8631812 836061151 785446829 798918917 292396895 724637536 444712791 670824498 813686751 904928323 338482647 627584683 985268115 493158019 126648521 571010082 235613161 661045668 370487316 584644609 672135334 337427992 653978416 869670356 986248829 418438260 680077641 483817640 819735158 236038269 173515714 179357183 607411482 55918339 254042598 654785580 70282343 206772603 998443701 306663039 841452619 679879685 71039361 414468729 633016503 811513428 678653992 516984014 462477723 695121536 894560838 692057309 254259955 475455659 215348214 756509350 599646365 927692508 328178418 965424005 380171315 675441819 794312096 248788146 457239804 424721033 916318703 174378573 997389090 209437043 382045410 147899832 534823483 16227307 272305433 509177182 940413090 168120164 241492210 246750507 144431908 204356883 874011916 653522326 669898612 872806194 32281271 482671077 589019175 800454021 548522804 181007943 847667822 390582157 568131665 601809558 948350979 677607111 716739362 120352626 534449170 985246349 285332847 378286329 819580649 734430596 371456766 306129614 485844947 883882330 46041595 380567251 946051377 272586149 262221771 332374966 587555427 746099771 751316027 505532264 670104552 20146495 686964651 423740710 699265803 730969319 817744060 218214412 502409386 448543665 555957421 471430001 946290115 603825064 916168611 57895615 240990893 688650925 44571498 613168391 995034972 322315279 924611787 682978768 361644693 570466700 569130391 149647592 681555929 180191896 69291931 321688556 120897126 393290215 812513574 406253976 259646019 794841396 383623082 488927942 45813201 870356733 691458352 344931754 523736458 27528211 172202724 207092114 963119911 411158750 578636645 560153603 581641156 948770565 445094008 78887840 160480329 416664501 452275209 150694564 271992738 906353467 785715288 725389899 115021777 651975221 611244317 183849728 957532653 805649069 197334271 725073988 805296777 106792737 407440317 168935751 319098905 533283375 872411224 267881468 174249730 919681080 738667573 89259104 949054988 191870301 778230413 595819802 107014576 377816678 7898368 639147608 870275090 550826658 167733830 934704672 337456767 958433642 859085838 635925545 63198944 680380279 296936103 854463555 174302614 978923951 898602887 567077052 23227574 459251721 302397093 130612779 988374850 524642120 948231213 188921002 790052356 111519828 420416645 295690527 430252784 172304649 719923974 639104335 503972713 243373289 462021976 274993984 545473915 60823672 810057736 708090877 437849599 206727179 536569257 378818328 288156261 446855765 274798293 262901409 666403192 836099428 710334256 89490681 28839935 366826175 740305338 535096032 571100986 327882886 19716651 449225363 979386323 765504544 909299982 274128192 263920001 265327315 266557368 968044634 424083550 883207323 630332589 908854484 664246511 725706235 834880237 487196672 808506337 141612468 463043693 430709806 659447014 674625023 118503424 869710561 729463655 601337849 856073962 715197887 704491638 184402544 528915221 78688613 722396241 294522735 197101416 114846665 665270277 219930580 994106871 836498479 294708658 977665632 535577413 541493954 440091849 579746163 657614616 7222522 392973383 600308370 177236835 302714361 515266590 713508604 901277842 907581862 139378785 934703799 341489765 306006501 171758142 798832185 489092088 674573756 330666721 107105216 813359489 201981151 812686192 179040084 515601044 289858792 36900842 131718961 336959905 544462050 643067429 464747754 944310889 866016290 669694414 77051388 503909944 600195029 860754239 320240665 36493116 266400173 143601129 698122688 663757636 267315132 315779573 144375258 861098634 500875071 952894423 535960798 575729047 828447737 420305682 817298238 418471026 55546590 985030186 53046168 209555346 794015893 858810792 611076568 369821493 688478658 569444957 685902646 38507642 363714626 30905000 91655261 39804381 872564646 941220293 107166949 250138923 969334679 428463543 135491753 691850923 766162188 330454401 530141305 416751724 681091136 435165358 302092576 991886353 386995837 915383935 616302257 509111880 592825588 420273298 528936617 878481605 566424896 719924001 283372498 311613087 712301766 345862105 588912906 394285123 953750168 999663261 264399053 964294914 106623516 22160492 637665613 797822128 154727070 16554629 584998198 961847970 417065421 871031928 557664997 353779673 311932135 978905427 618636480 463446743 228645779 176920820 470283904 218109615 387807990 430109249 475947028 288726685 630540893 304823498 812469288 686731099 50446730 118926875 277565965 787728737 97439019 558361204 248234795 309384639 435665096 322352339 173536385 313560083 821074741 976239735 532101114 682193357 50405409 590834223 870023420 231326934 780975647 648152779 183633346 725907321 456392746 3829121 967556887 14268183 292614955 310352194 288247403 844318814 627125954 652719987 670554182 588696148 2336955 339473840 502563502 309833026 781005580 240123042 353824450 112574156 259745572 877727116 120395352 507441987 119017880 524042794 383942348 888068504 729924010 13294680 869556879 178640416 399487166 988907480 883019731 425756372 576871179 327507692 510019948 110569306 551210509 735843227 465421878 669490772 764886858 476998436 908148389 891366984 924206672 386657937 557761965 31647619 748053315 73426273 439082560 27006344 413781046 991815024 627684543 966854943 789673687 751548115 793205329 136495452 79850450 939344302 71415742 854127519 148230000 792195960 956265655 395233522 625907070 187584689 623242057 883182946 324898825 177758263 735536886 713709696 158722112 303165543 435015326 676240981 117839533 456085130 608875504 1646468 651349624 46844087 154208947 553225033 332290623 640002873 995462438 469074400 316753774 83769159 822760438 999912714 433936482 511683051 21154201 553965872 690164194 880748352 967570026 706354838 819501793 725513554 598975632 109206256 965202640 504240648 8333340 107489862 785801479 445613505 434668199 979631751 751194019 80268347 603014825 651284513 521293089 498946498 243070786 568832868 942531404 313138634 170191690 118047368 937169507 400955021 871583644 206892150 518837893 685824890 101004864 438663590 472503837 561941070 27685753 214497761 177832565 107196856 3197948 455989710 737092415 662548662 619855099 947270910 107505428 19608012 299268248 936177740 57417718 5823707 558165604 443170950 94869657 877251269 383809000 625283874 424146964 380585666 611165472 424059851 486074703 622297839 300780601 70834268 20082382 152907478 728435794 522065590 775953598 279000994 613195344 821171346 299037304 909059468 290218613 877414288 581561603 505249976 921773741 67069433 950929228 386004297 347754814 555366400 685870922 355449572 105091507 122681271 221077251 854381044 860997589 405953636 124843273 947227682 873887167 942477117 431095891 969492393 151202351 637688304 980410937 896884238 497906999 280435827 163242354 189453994 576783537 237221069 331825722 89199518 520018884 146763216 393133455 699184778 122755349 943195566 843489347 931381355 923600900 574611929 954999011 180793805 970420924 190568047 655565083 402454318 517571079 824202013 312049107 212856281 200137954 888484404 97020191 470060679 798723178 482038660 404485096 215448680 275735655 514385553 855876452 115057783 223308190 979867403 452512412 238503659 632482873 325980530 49511058 622122679 147488981 667631898 863253934 565911264 892402242 510334586 626061684 608250972 778383032 510652910 499208284 232972874 746691707 235868814 330662106 501688451 81412151 6856173 141604872 641890068 945491616 296218981 431908223 302288194 784711188 419687461 241787634 503363354 222034910 960040908 844026994 367204997 614366521 411573509 845406749 20901007 869026034 904028632 212870293 260876955 930358784 198442762 653907781 206422620 795289813 748126761 226627335 703002754 330144423 428533697 32842025 325734612 140148736 660355314 845669367 951975362 80853167 586200145 740490133 39366316 329094941 908195470 488251090 470759156 410613467 184627684 906196878 203959503 721616867 805197851 358013888 754893260 723898769 433437057 393419481 22146792 250829527 971204777 293246227 869058105 171232318 230638161 140950476 81987438 674965533 227714176 9091558 163365700 236343510 816222322 325181395 669233755 470635404 510343205 963566975 748516647 474047305 864188405 191531817 6529767 456627911 597535582 89134100 186030059 288436708 310606560 605394960 406195399 733679389 728512430 863057026 561751587 908928837 579942775 264259481 384313759 333249382 7260301 727225648 938689291 624666702 982434163 109834207 875033950 23461739 28945015 803337793 987491606 840456907 252157679 394175049 139349419 472791217 709737168 395275758 173189487 591441955 973476001 254539249 991753537 106121322 868091711 606311722 139668064 400614313 46403284 790757336 738428296 829957726 97256304 214471302 872618845 896795740 8479694 300862486 310611682 671469922 141669078 691399879 74652407 716015546 692910243 277350283 760681639 599585277 537289124 738876701 273547919 980703030 453982055 544285396 674278592 642100139 246589238 926019413 373153903 232718701 783143402 697791520 271513748 558684181 185925220 964987075 194544479 64060180 848909698 121074248 114380046 600513120 224758992 584632431 189974813 570971363 558853241 310314769 282470075 320344599 734243653 757262097 918147271 130918384 403774271 259598281 8240681 212697790 567166906 692585817 555149679 649258223 829783495 768878969 718902941 622146944 476208038 440050129 940788120 625760348 727109074 818077743 392062778 118396693 322095726 145521531 138176309 892284658 559491575 629792282 417683148 142869718 142723380 724008452 585191645 464373576 784431638 180090860 957091562 72601083 780450864 115419253 770107349 469620575 992454059 367966403 841075831 270339714 502218354 933043357 635399147 833081776 651295711 948763534 289597758 542966138 529023362 434520374 382213916 656145305 449364672 801912966 777470526 154478096 241605571 917513910 777586796 485403058 176694580 706734866 369510039 907101050 948944642 37028878 750909562 674571923 382738049 115134592 280530716 923032701 237932266 310290924 709349184 307499552 399678464 755908949 497463770 218741779 103079496 497620663 772713083 576233523 3241498 760993127 461684487 620774166 730473699 314247253 840750797 646604507 504692145 599011026 633756508 474310478 845387668 422220325 99953533 815673956 64711741 943023232 581378210 708346876 443082432 24960766 589583341 792922880 113595711 777173219 250575935 673918968 250233518 30175643 59476789 974365264 337910599 612821517 193109990 103149094 714106530 60541065 455774481 157846723 125935635 370173375 557918669 420012293 357222077 657657594 550924407 919127464 382786130 359086894 511929137 792969564 275516347 573092184 586246553 216844760 158186265 136589840 236542818 796833790 731007843 637178297 640575407 611414240 326731515 208568473 128467828 327990141 409515067 672783219 369532399 327105924 697145408 389571498 160244076 363212549 234274260 730665270 290959108 343843375 649421366 431854485 446731269 181434763 92281846 558230569 308871225 741855966 268882188 256363797 51813669 939869818 860164606 628414234 822365002 145624917 7769798 237686145 422606796 260087088 907161646 780973462 879237434 907446068 965707771 350650974 896194334 182967042 62214355 232914385 545186206 385624100 435680710 489588591 971960261 118551861 839865506 159687650 122888941 833710407 481437781 896273955 190532639 614330471 187449847 902966631 797085327 50201503 989225024 857273466 689493020 724355255 482691262 34849456 691585358 240904393 412212120 54937420 344277283 133747794 254937802 162553801 547379084 905867737 304219346 362593248 557426516 108395343 830461953 909064257 159790829 817011398 317792141 301546406 581653228 326050076 852640303 938866520 304920787 532038023 53802526 751183631 213855238 59215449 304856501 883074471 648306223 193144095 235211228 13989714 406083832 102072775 500522139 810843321 575311291 612922798 946024645 637205332 330114131 468941489 312748406 461749701 489047209 907284980 857518660 284965154 437809626 333214617 400847571 327253949 337888916 543792486 879352998 397757595 605526791 869124969 124050007 739997750 990678265 257051803 83535985 262890199 566231859 418595927 325812862 196376200 301793637 616187496 618063160 231573763 605770693 911990481 459861993 462026753 429683989 181880186 537216775 527231289 2368610 653772191 869503240 981257940 770528725 523695527 684019018 703463386 957776088 910922635 371035256 331581927 812812645 826193338 614912756 474895322 442037921 25180403 915585410 657230653 92425397 98484010 391052319 836384789 437373357 428494351 56609522 810347563 262656347 77564993 289361745 345443283 236963838 153997295 27701338 497122441 485222672 434725217 552231949 210705130 725032822 681372309 661302847 412711108 688392148 989612593 570609302 810981488 299242202 809966916 433686940 954716688 951701244 249382458 458789444 505499833 465911513 521241887 181609250 588165615 810863377 978053179 386745985 830528083 463502660 295167099 415062121 484128414 756505628 240696458 984532577 179954396 977415495 968016966 901532300 212447541 738358467 933287153 221911125 614056786 682894811 415594570 407342373 677762470 833541153 857347717 469304315 880191578 50566855 461256490 382085585 371321578 70556181 522799314 101341346 909307264 50240432 780531756 57952277 198516528 392304623 386490927 62820342 153388966 28075645 832419371 982699789 240283810 933272052 305925302 829133345 663034021 403364197 599752666 772506984 824918180 523830278 198968004 220266228 644157301 374084761 538161372 362976305 332888434 101869504 630963054 538188883 146645014 516924173 325320508 903258009 683255372 431705748 232070244 101115588 262437734 995733977 724354833 620831690 622418299 552701066 685371386 489543263 376191644 542553600 340793270 539280804 585863699 875851986 481502840 39205347 567009484 604864632 459021862 874761122 571866135 141241339 736296627 367646098 318038372 783513975 157568979 113955321 339292757 886160062 276268710 634705138 973376695 105128670 568251081 720372132 803190072 643974584 203467320 382329158 594134397 227359728 41090822 658712401 852351552 871307018 165022442 219688893 869728602 396766503 54552253 706766790 311753142 887157979 874834951 257222519 314508148 867337993 993922449 727171636 33849905 999908344 74887800 393225110 366042609 962678993 678021786 470902890 207236451 781557363 656132508 865164910 303094020 644820996 59750389 870822814 533264722 28705462 969600817 10129623 940828332 273491164 934861733 920704916 942181334 676985657 271542838 53226362 931582088 965982978 499252206 18863011 170241827 478256543 392613227 686111370 231202036 52555931 594277591 489188408 283418069 698666704 241704342 240688604 217323593 627954601 536175808 537198866 212426652 579386632 423542451 415356446 766311348 459861191 152106750 491483447 112305758 922885409 106072589 877255890 834202316 717828697 313709810 448401253 373487823 15784456 304265578 298169780 776618726 157471958 591053843 698659873 200881881 85464927 450879136 318402712 974365531 622572740 325496864 552738015 866091031 148772930 791336 155134818 612510566 364330428 797289955 945417286 102843173 346869397 261998243 901022335 431731466 296965739 222634873 990957551 880961093 746599487 210859657 16966476 789993019 871657206 210863925 179699813 900440910 886494233 735152444 349013170 540608583 287105821 493979631 838259275 191261126 923401049 993522584 532045415 744735105 718506433 25366235 413601386 89572442 731572138 89891151 35546575 411943003 144590243 392005626 199633531 503465124 102793315 765526363 544352951 363213554 626277176 878273671 682609445 821825706 11983443 860927302 780849408 954879131 539589764 909278552 294555661 277879564 57420270 133528942 988977315 696529357 6351040 247384388 332386281 379980075 63285873 558565469 893047542 61647363 136003216 310892710 471768276 33599217 822558010 225175523 463603786 652362938 298752554 687724315 348617024 1214634 631358065 832167208 710694799 873668258 477522453 659848749 48118638 514481144 917538262 558913067 865220308 634215912 123004844 985062513 371631401 135092389 811583762 700954398 48832968 69436550 773856393 504926913 38130693 518608613 676865340 51008936 761160923 364766776 659080297 809393390 744162121 491143942 754403539 346579029 474046267 355673937 179214520 982477221 151211805 145057310 375722407 876938928 117495663 97551955 444934435 317175937 314755229 1827419 602433730 39614309 601326052 569739388 338537317 455643323 564493607 885882708 954802639 730265019 589351750 554567769 399529561 619413100 309533136 16860298 699975847 294454593 766840097 801566189 87811743 494540517 750548222 56218958 273797944 969682778 421762565 181504355 570379313 642859342 987210818 285481739 403693030 53050410 511476234 264223344 197892576 454673463 406914381 585580512 502567128 269388353 548663525 519111887 438537305 951217069 378190305 917248655 853276802 561004180 830775245 216297 180372012 209712262 144236142 3341746 974224136 533300493 616981000 355406466 897042538 543458851 228107938 345088670 851437459 849561237 189422362 446567251 273247581 88501967 281021277 513316938 9560471 24729301 491639041 289671001 720134920 681278660 58924106 730094965 57974364 241221385 53598716 634331005 144861452 102545812 509686173 944316415 974418185 757021270 961807851 426307753 489438315 510201937 838766276 32679315 75359674 335484148 467269042 259426753 813756858 783455616 21181647 948719536 198054731 328330515 342671929 64950435 635781381 563052854 322863128 107607547 190893025 790234500 755185233 900692790 550466247 559019195 736603338 879813637 42228334 8808803 564538661 479533452 820747369 861460135 744953754 214360365 761757413 149895720 321775246 585860169 35385165 161710508 345172693 925107135 885472859 575883875 957073932 888394146 733419741 389976326 316786920 590568687 544908102 331458352 98092049 982396184 616146488 28002246 847191123 978340695 375334209 466505386 412011831 203817045 641546991 439145786 635294790 321490794 488352824 881012006 936534205 864499285 946683602 63790579 661215237 34495515 861117500 832753679 917017800 508769555 477999774 361852877 197380462 639342378 589969305 148235565 512695369 286396697 41552459 394062165 505574111 985261496 416355584 256533512 250120225 404351221 76865748 999688510 44555194 342718431 722375161 64926966 808357674 87257040 510086123 474552360 586534132 839268808 738292098 593541087 245864268 687953351 609702443 853103552 887414146 88863327 781776205 904077154 133254516 373243725 434241995 270804954 741066594 521958276 668063128 31318255 653005 431896685 166019076 891171961 905099815 847484726 873802168 81335634 882870657 299163872 821481990 545957896 45157490 554875644 385455455 865213851 904650873 877987837 990035179 474392756 948020422 944439263 212632792 730224704 507320641 403832106 307926632 443120778 288824124 143393432 577282697 546857910 926994050 171125755 3024095 667078656 229407893 369771804 952202797 506474724 649967018 366777549 788875655 315608875 387099347 322007796 725641860 999683243 81006817 137744996 836751621 991403800 775668767 569098156 866068352 20682941 52286897 513528324 316484905 878237243 30720524 624818349 29384774 216906571 40929361 704262956 815272355 695604627 387243660 861742204 346587636 467349591 835357576 318167021 398121422 887647118 19181983 314367921 956010742 6113373 39254988 260823387 235638810 418932696 647938581 841961431 229244773 10613784 890266849 662944631 687125630 851193454 72805104 537661055 765636351 482233962 782378052 763806040 736538371 973778123 993982538 665713538 182022109 808961549 983457110 533368669 934987781 980555355 366531176 319554675 669730803 214779864 856467486 329237189 624939757 947822220 115513902 605442746 140537976 206068389 987025438 734782161 294092219 124175133 320155106 2374286 393254380 23038426 863860349 210571269 476198238 100907965 388319345 592282754 643307541 494557362 956720634 466862223 79135646 246514392 549532082 813382726 719664979 644966223 997688741 841870119 729404238 566245688 985675565 230687222 965434486 883587044 983767024 439384231 759928455 521417776 589839840 403501374 242960973 1336074 550532513 210593565 419049697 420016937 697262895 735950360 550107257 956334796 837383428 897703347 877461891 288502610 663272135 836582719 969017884 709478261 622722477 573597267 558763851 185354189 762293186 211194192 548461442 626043513 186324125 809109943 640342955 676131456 719381527 823072613 771042115 744775671 314805845 781226738 92573944 646386013 617433140 242372079 856661212 50857263 949291725 571890274 969840572 469273348 939310915 459536182 434422473 487631387 9263275 971952899 221043658 588508530 189693263 778688454 411834572 401757451 277532983 423572968 594379147 117889339 480165030 531755775 701633624 518198064 518849256 448139500 115310072 979871371 10380623 122823441 610050044 910680411 420540974 677261 301308095 630727875 910776647 906397565 977894383 960686813 478145611 402479651 665396015 444871276 46115554 493599364 391973399 660255948 946409997 678914265 648003248 804485477 812082944 592435359 952110694 403542736 90081271 718762232 182494949 187710388 579602492 471531568 993248326 501519960 246146821 974278337 934084088 105283366 757553514 60649357 226243760 472630927 312362318 764401339 865763756 122666556 960936219 618060685 506499318 880036127 117958699 277703053 550764884 205980393 725452983 499291310 502397042 578777755 405221961 232360141 653631733 543003875 858787710 80815168 272192420 531116789 865498518 55096523 178140553 189236598 75144966 103839297 863447871 665755811 196636743 827691382 24971772 439656632 95493637 87118471 312282544 834967345 845057180 754449951 586637902 881612129 783657332 914608784 940118664 924354490 546225893 81664222 650368188 356722906 743142475 154563191 377692148 420065903 681131481 865275395 540805931 106712098 176425692 392994666 532842201 494736400 985372868 952137994 630083457 161287081 110310099 262975966 81486397 486291109 117708738 435839741 369372836 183092202 604209685 615847860 604641042 725402578 536197203 730356543 57445644 981764803 418892386 443214177 963295320 888112084 921190715 247392442 565801766 94790949 791208407 437798652 959147824 809797274 591634851 930916790 694909703 87151731 443937271 448499768 430960586 755450763 128882113 92190306 456450294 780761265 322144583 744888634 547500647 405137531 825539565 201070102 796603128 23856600 184412373 349461274 734461657 107191219 979218331 341296914 325591107 381561291 496296042 607246746 72037531 229177524 93192417 91119271 225727865 855521965 462993167 886148377 576144722 273351723 647247453 704383486 908889202 874396763 830724146 806426992 904440615 860095587 693850428 476356511 91999720 547609125 373314118 638432731 135759399 832058011 351922735 234313012 675303484 541195039 401522305 14828097 900740830 718908670 551001530 852787419 292223132 582889863 833372664 623433571 390441982 249573355 117714334 528637330 929995089 193591316 130463194 928356371 389388249 255034418 386146369 158504398 980842788 983882099 516241047 766317975 170066436 787359342 614934796 175919375 976552884 899232484 152670741 66089092 775435849 856630571 114528203 84129449 100060214 602256995 180047455 131077254 590060277 394870551 983909577 350664514 548742348 914969906 56728531 273202721 577567318 265369355 826696629 554142636 661296231 360373790 61252984 57329817 483694420 709936359 269940552 485758795 714654689 434571564 638623895 111604698 300592606 615573152 146813291 748201449 580366755 888838011 224060030 949935124 531291642 884488405 180447079 504200551 479145058 204856476 888289376 906977462 817562331 999308003 496545154 566288649 296648518 359453877 361767430 160275182 964188526 317811329 419634247 219665055 749778220 695147354 76447685 306997410 687871486 601839914 318102721 157471445 497716078 738177396 525266148 914688583 934936473 809089223 642115125 309513284 270927003 235435693 382019582 143176471 591055037 886940573 902725688 683076004 645754919 681408231 637495902 371396112 136640182 351181424 142790653 677639716 911818984 731466984 12670389 965667925 802564246 866478923 835460817 33345502 290999943 230114934 811798057 187615318 899032073 207257572 316008354 664740043 74523061 129911734 371139504 148554452 16594976 364193767 7042651 660129080 733201438 178917559 686098741 623056238 71537033 814638301 147391758 982541139 732747318 750912525 222220414 240279409 8278572 375462553 684723676 423281153 224270483 518647171 77019773 132816382 636487430 589166380 496148869 603170493 942320456 742384603 885958080 34473511 739108347 190741678 432247716 970332500 870012487 887168137 827149607 150722920 923309148 726602614 707859953 377316638 934259122 382256353 173302440 985678657 722817285 219218305 828780219 682318922 640559839 636379637 420454047 607307374 156616064 187539841 360952969 671620291 888865361 779789054 890771128 306067639 722532608 930319655 328867804 588668055 259040543 628657118 324795573 148969929 688358478 217397605 885074806 256317284 986747417 962305673 846091001 109019530 700114935 805354181 165770869 544328388 105227318 714822600 935166630 107704246 466091899 910403818 892196580 658424198 253494044 890014099 371456286 208772690 661511274 516679898 465364652 903231615 150256281 181412768 365990632 198429660 312434834 712780898 919364206 248192806 339793553 314528510 948053937 920246768 353429552 348931136 909524946 956172794 637927044 983276168 782277827 670031891 435563034 870190852 962760517 605561765 218394704 169500375 35233668 69770045 943115690 614671540 977184796 740610620 196231322 683203949 171995469 781167498 873762500 185100758 959592018 642579630 712729717 949372769 127244150 38233420 947277847 542005841 756004926 784893570 758926368 728731798 734707591 952074217 821581653 66915822 494770409 75462505 335570845 714329442 671702530 633843587 577485103 518637224 304307918 912093121 77828033 14459689 467278206 847235645 438893365 987641629 818086537 505313016 364574640 125501180 505965465 669857317 270968748 46225806 636465825 67636000 23638053 984769621 367118063 339073174 980166035 154733152 511196015 496516742 35633071 721473292 329351873 161038085 832256556 898494771 77676447 940279966 657402752 235717838 118019110 671950539 210447653 850147043 992893452 965854205 207745595 746699428 557849425 788062514 622781385 675907997 401658092 325597473 358000362 107884060 486835291 708033846 103708003 181386298 531165571 496604046 831145515 95496242 94609828 989420557 822453748 682161676 600282721 748391974 927681753 187888606 213866102 822291923 639777093 374119951 383388850 956732879 714436520 978792676 525292282 794975938 880469314 451898109 363146158 748620145 450691199 456835861 266807639 990253886 458449762 150134939 323510248 236922585 280174266 820131012 875256812 727449973 344434252 663679137 576706520 924387282 596151754 317330668 238181647 367681255 621475568 209037774 327637221 897875423 611410003 710976327 217320712 867466355 528725593 966989914 565868584 991344473 492238694 611446638 709729110 497233212 789700764 865680689 424725642 104917426 561299861 750759794 194066688 705195847 90733258 335385888 841893785 529976439 666151639 755762557 915895053 894398416 485873018 800611806 516431569 993922811 838920828 514506799 272039921 536174902 235263007 867437690 376191132 590298202 842632203 787433673 755732351 14691641 209309918 596367289 67519835 27391808 450575678 173227267 740261799 522994581 985193174 913413124 549239239 398408902 781514198 349383566 966733925 155323491 310242030 459980113 582124453 886164805 851712487 967164998 637786295 994041992 89283649 201004265 264056774 711487415 352034819 486315799 978073933 248458370 930721708 771317079 468620893 192020831 785335502 587291452 550492058 653710395 13398145 45147456 467735681 12003007 442490260 570488438 376326955 45110879 224921855 341167445 675011675 228623835 317738486 844544740 685233461 861198156 77354190 826174089 244862867 646004091 56689339 612651989 480549842 855962877 612148011 966622856 768524425 290546453 738859621 920985650 135456296 36241800 280092823 107357898 174627663 310493995 369158046 564083193 822060355 623284248 624526686 970327817 491952458 737889887 214419700 394318907 361818714 766991069 104942854 290943784 362907708 177789063 219113377 670246873 126561428 743689536 15080917 19460116 391562051 527422252 491445322 134837788 300013885 58461610 803355618 253787493 132562307 116226404 343276932 321294074 789411133 496431693 84395983 402153832 986814378 169612743 397782305 323818527 267428959 147809626 127995315 456924139 259562908 380182079 420108238 675009392 883245314 298209418 553334076 522832548 649654701 924302852 8662538 340512744 137248079 937045898 494992830 777078657 924538686 823251029 353535647 833499620 71566562 764216611 810560778 157165062 504083282 462206592 701287956 102225205 760303210 269230776 171934059 561973379 527949478 980541981 607330853 320539002 949627665 388487682 483263075 384747365 831210878 951408697 473414024 560834149 775880010 306065485 558782549 250881023 136222589 4694528 620851915 781054354 27467774 157306570 187494069 49871481 207493494 940986370 855694055 531272454 919718311 874661041 431600691 775714581 8853249 196187406 349021177 37974658 582231144 179291681 614073186 684577622 105849049 60818499 55500119 602942071 7921575 586724637 853330492 204245061 591963215 276833854 173808198 598180792 280040380 273594116 185031405 534373706 41553661 436027441 146947046 182573513 254556176 536593116 358386987 848397174 272031209 569021773 6049303 857090592 461716256 113730652 527440497 411288007 895637953 732230967 975165104 774730037 675248160 346527934 219477135 614911150 11572870 112270717 305875662 531569318 730974849 649047604 671653729 672814816 883719416 145042463 667011821 207682997 949188216 825522281 426580390 753374667 676091412 964175560 395857967 356532397 221316165 304659861 135557124 15913277 174117369 355738240 381809780 86197134 870239516 99551660 45078726 989643713 16902483 647155461 519639584 785559477 705661080 34211876 892083147 845360423 217945683 290563580 858384612 267320116 102922732 826280148 88766761 525445243 901279048 388288091 954984996 279715611 760963871 214852763 600481607 7680376 637132805 365684582 793784454 526876466 516312532 167154318 653923824 297377378 469726086 698019329 128682395 365590446 79191076 682749741 138116271 443363737 775528379 516836622 682197382 315023520 948570781 125528109 855499078 718274115 8269648 586124606 34793124 180935743 988352083 912751326 584500680 454775042 325197250 757098710 277083421 200782010 382623670 666922806 368025447 155418592 787488730 635489970 901372057 184922659 783618447 38766904 729036751 135707750 572702913 310936226 335897476 662150481 144189094 691377520 849884971 202889200 882640263 695052094 108098742 842821112 616599589 782879545 408912932 575856143 535460149 469848557 570356800 695082500 372548633 154046228 753067299 804133072 784018248 845413224 120183309 999535081 815371485 212591694 316526161 173439120 184883028 627711372 74208212 704882962 977453034 163266703 147134580 552552245 668290423 365903801 780818226 629932255 48910150 883926798 466885325 731353556 334376491 461771224 435497034 864969616 214067296 506793900 266001584 176607226 946518845 455595086 363745350 495100999 138166461 957225317 199805335 519972788 544624243 980764516 222285373 673646508 796569514 342274276 789328070 21832769 474319791 485415741 349934383 994281060 850690045 126781900 995206383 320263625 829009637 873972128 217911370 382473290 804783359 709508402 86746779 452334680 342445493 346782940 667249955 883481533 613246155 638381581 237597944 937024843 636569887 20914572 759344910 37533548 753181252 613688399 109830663 715609243 148805890 518872402 52795743 87312706 200606423 551737569 778190302 855611503 986449103 751406067 355761179 735360412 172531506 888566692 833399939 126570277 487934939 865783594 733442255 66740564 483009056 961289812 759203585 496266585 440330051 784601716 658773277 129118096 866642555 806632232 950200296 758784676 536298979 453435601 10813067 672360421 666876566 183841235 925605388 707112414 792926190 770378367 991596882 300030282 898849518 859466607 986956947 134725358 72504893 983476820 574614751 635162398 612117544 768982362 344349458 289527424 773965103 906384066 705981743 121232160 923948449 370352692 659375571 423729058 815127976 968416922 421657849 404192704 684219247 277290013 349284004 767189257 134413577 541713324 905635926 225262798 711701842 773735701 972451156 836344754 636858314 133980865 974839356 621069578 296441162 239498217 144105537 596605659 921472721 466002895 694176212 57160719 438758929 66774015 955039838 623439543 561736098 887958790 49693754 761031599 598899986 317053076 85475494 755226454 529369358 440321021 504018371 644533668 412845717 752360196 441017545 717414225 207778537 940701720 210816279 168050726 648272782 690540152 61496480 838777334 192084002 333275529 106679658 164888932 717941067 805638900 448005113 556947123 723157376 719165814 718553094 709622549 625408755 82755920 208202671 201593894 528313026 947507011 10147320 603093740 495546534 346736941 493963792 194108037 129402901 359149155 914369077 354323489 763821246 668590673 966644729 727714436 544900854 849480165 885959647 557871705 384847348 438909555 933974552 622675970 752689303 378543594 854269613 282983841 986811881 419479120 922740459 2252861 157805907 897395889 794617911 377207082 130453191 475231677 550436639 166572196 732342664 182489841 339593888 78500427 610855097 318038510 759748891 469457662 803953364 716142285 365902772 527477309 391912200 352052519 766109144 622035098 233535332 357723652 475976213 771729798 745274652 646062748 954013768 791036163 659842272 630493291 596174290 175024143 629293662 447579460 559461508 283727910 224996035 473346782 810026301 134652238 991695985 384574735 804694254 502147342 852685546 377174450 126627756 779220234 495922893 831085284 605326953 614538778 783148106 963962807 18351578 298033195 443825526 732829834 76631530 603677717 812425195 577400098 717451234 468008086 895372021 506057404 533837333 141421748 263544920 136027456 972095532 858813365 796472207 183785312 262854251 144684569 585215525 55559857 590823283 788813063 320449681 755851930 708082716 464316362 643129104 272896066 628228643 106999678 717744052 359528268 323298898 476009079 565359022 27664068 242302349 564586486 485843923 840848036 517933612 944250897 369746777 118299003 839339864 520217097 284731387 477813992 381167154 466704034 999195179 988547567 266649960 340052132 214028630 219234454 459213408 368850154 166438527 413772793 99633388 110640128 136319723 688444187 158225295 318681532 344813304 166527584 612143710 331444103 408032850 203788001 705658587 465973527 368408571 405037728 92718541 527767138 284954436 999548015 388151974 88402762 528330719 591561397 476732332 792679627 792631996 582233353 183605242 649329462 738833618 701300867 729328056 294228712 950587231 715496566 14378492 364543017 582037881 793883867 399735046 930051192 629678752 791238280 117342919 52624348 480088456 853821031 386860171 820456158 113778421 550495746 449012792 515228682 917346987 83737154 466726194 390643224 436471719 818155802 848479166 442503999 427984184 608299883 384460337 464863593 956279594 252599718 997709 380524085 869396674 142133974 189822188 662195770 777984943 605622324 292215264 288524373 161576381 846237254 24592798 251720665 174828215 834233683 93482921 421638945 334708013 353316507 743721801 111442165 767568405 648236200 669575310 987186833 652701413 503960238 216501326 192251821 711768689 148712511 344045946 439665426 807309951 644422552 63419155 500585851 253014517 684645340 940031115 584226455 54804527 618533111 416238830 259038269 764160091 990217056 696740442 353191390 301607408 8644686 569477168 481308200 890351993 211777753 25391395 552166819 572930862 603954376 416778859 386348938 292064267 505321427 986949057 823128495 933774541 588259222 504101620 627478347 401198483 138709079 827956384 528272699 838170150 442377364 394759081 130384806 917639087 115560439 626994965 923307438 222446454 139553355 366432199 404149427 97588286 997467246 321307098 186936836 378219714 312193232 550499840 350348045 635905996 690453516 561589726 895778982 520278565 287354322 151029518 28309981 661806998 425889676 786889523 124963525 979909597 863909500 607088889 787900345 468792425 201709064 938009192 948482449 649459661 577853434 747996954 211906905 463115463 334411357 392081347 547944449 512044048 584741194 680288590 535803797 890796875 767653703 349194094 704585614 563091449 182786415 166002363 488467079 346019983 270406758 690774914 331581102 792000437 216148184 789683237 96530209 542872822 192893742 93709295 661214488 765571436 923840427 276315922 572820123 361991426 791999395 397229578 547936871 800505674 258917311 442245497 101656324 537755325 717008534 108766188 24802443 575564162 834759513 549791934 35270688 929856243 48560553 396713472 701776184 884591721 296083432 115715268 122538177 588181741 792169747 451458867 506721938 897722142 879524877 940204666 952270117 997142933 155115200 865917166 507655289 930400460 188205966 699206115 58172462 247061901 504733777 909284638 909363562 336935990 511873385 76527425 242086995 215708776 684044969 925108276 850796878 161569755 255013715 71849831 150466448 537463514 954285405 758787801 767950946 514390761 794754705 35433890 265074156 909935209 579641050 299839220 901234479 51747899 123074602 250968949 361081322 885409946 268147036 477825314 113442617 324289633 65336292 998852055 848874572 418546956 189019236 498694694 608499964 109693746 925901419 494873923 84125033 32893092 30124612 735806600 450555868 474780679 630351350 753229064 676897175 990415773 222649031 530313473 624910704 54326785 327923457 206399825 392656453 286193809 935593965 439591323 292185998 606666602 141183514 824518727 531610915 126303593 826602964 739222835 261974913 987019633 310301174 161171863 556243054 876640814 169039808 928520031 397913697 957147910 27881506 791376788 484236237 356048335 387521146 956720092 890658698 975236670 275050811 100138385 342396007 18053524 644576271 695890320 646400992 906798525 679213387 875788292 516614511 950325539 334410410 362818058 743963129 592226645 809294606 716180175 758317850 249733413 936828998 529725049 288375741 460686972 719721640 659062528 379904419 728089193 457141872 561242613 692342925 533296517 489801745 598619232 524080007 968299406 839930674 755253828 834137562 450994527 897227403 598706142 18642294 555918322 648525125 130537484 384276528 148058673 993864931 683021712 608165969 734860911 59941802 463252895 16036903 38761084 647373707 918864058 968205891 341896320 231630512 524832260 902995191 593119969 838538324 787173002 269577907 736989861 62419102 68067669 187226088 66421038 506539887 266770272 436649122 547738832 660418586 812840005 297867490 495560759 191637416 485676007 488252295 186630674 245137301 719325408 618789711 442632231 479046877 622137851 48512330 385721588 606592382 706641431 833397831 819526811 912309052 429533419 994395768 335180785 827379301 154954475 610431692 827579458 445464161 550350342 160173991 479895219 338395655 565814557 510377954 329595844 990616749 192401179 380269688 249642283 781339831 526438655 519644192 416370221 111350619 330849396 128773623 141348340 982056075 507485760 830479026 78363371 183985397 802177536 322857976 26454565 544628695 554523686 987387843 606888956 504900583 286194363 756880809 606142487 401853598 772038403 474444237 300984746 312000752 280959740 118898746 997636329 747913145 655222719 42166694 938824048 347822883 169497405 592534283 970608246 912699390 747777716 763845727 693485886 493225425 515478997 811396055 38953514 393340524 543850004 320473748 436375424 869943928 404451159 972580319 884395424 277541904 474373696 560548637 963152574 20945168 859750782 631763689 835540761 672236240 887219212 467013835 466876952 491594428 801161427 957679786 192418807 110033735 257895008 669538558 587917180 569136149 691140351 392723816 643149082 556049661 473098967 272401817 979192333 369337154 369583501 888730254 366825179 810172358 656302126 345677855 216938575 973026274 944502934 194227715 76723353 762104967 549182199 579118972 847069737 545974520 266634594 90843355 832725668 173758598 235796160 125862155 773927241 570198892 282890724 571410252 743507288 278720979 342957321 983767955 686486244 467210961 793698931 345434817 218682926 386895266 398114093 129668323 752290803 775626430 19859705 689519920 234013331 770224031 715825214 176717535 141613834 427200574 864023337 205373051 833575137 711110602 519868253 566468732 15669094 902285065 883806021 537659286 144947448 56559575 682020903 37540410 498130432 494510987 688912401 583311123 194687430 291349501 495168983 89537645 383965648 851404040 843012151 216780746 757334290 919583732 742742033 643460847 438168775 438053883 640415861 185100680 307592540 788751236 785926556 756846678 164211291 161001494 132608194 788683945 389677174 248008698 274433786 3585928 957163312 536350167 902230780 68689530 391420532 285328943 473842909 75815781 284324907 229596160 316026087 50679289 221033556 770809896 121036559 58546607 864194273 91444600 893685652 325314020 401910965 374141032 884274787 133079299 962180743 363265444 934312802 197133124 177708737 92671067 894417792 792847805 160034367 742668415 857205646 999171170 81011211 660239829 23372953 513945304 793204917 728718012 957676521 15770360 455711839 952798625 559074004 648669600 300876844 528854389 123937324 252367108 178823600 932463593 408782259 654412949 380269216 222826976 549218613 676048011 778405061 629365675 835063649 976890148 130939717 609630025 635039771 333403 103098571 591955349 843480776 533431608 854137493 162596099 636510939 904218945 265541142 439031222 130433020 385505954 913449489 992713381 369443860 79241296 204320258 27343553 138771791 116715497 839876673 22207822 851369322 357490139 776119356 100417362 225261110 741226687 35049256 812731034 823897495 630299540 658520422 760578098 715816719 792829385 187950883 876672502 490981795 239035709 591721135 858273610 104520995 740568359 394796607 205341471 358112626 91711845 415892398 275051278 5982261 549200871 853921831 935520221 100220223 928301319 408352669 301251408 637508195 316873294 61765572 391165473 283440705 277083464 912757686 884251914 331693219 315104132 175293748 183785664 348212614 431897480 928428426 246167367 18844452 806045159 168711592 253848123 875417525 381416100 422945694 839033572 494502807 986989603 166110873 41528581 417396562 129097575 307681517 297517104 376331151 537448225 575750758 234323836 311680960 522166643 203841399 978457488 390665880 987727341 165723843 532412944 902675631 887822451 384414954 674218670 885296522 88799876 84763221 226406359 607091442 690138919 671176105 891964629 653791870 301275547 330968949 201333130 270295590 994397754 341082356 976246311 232916076 701139412 172788810 253454277 460718111 180651893 941738014 42318082 917564477 874304637 545461329 896008208 259554396 547499897 657576407 526494463 789535145 511110214 891294637 242886560 273347293 314289447 166380307 533866116 936508012 719159569 704118367 565398363 235932513 615685791 410944693 485081513 880854336 334470498 638637953 272738261 699731841 547136873 692074975 680929681 109137691 591399860 749892940 168347019 703861811 180576851 448371993 658239295 329301137 248659047 753042331 860221437 687908018 172850588 370128354 717299394 79065359 188418804 501360933 490118465 101557882 373057153 932775254 196202585 843781809 566636540 439210255 977058006 932489235 280424847 397577964 199886016 216567299 145122631 928444154 262087672 55875329 404674650 884384800 362479941 595856852 378600395 442412402 203395400 486693270 304254906 607140889 709502109 427970234 436590390 147475626 452429062 751702018 498502725 370959094 811485849 150533297 501441762 673520527 879477065 536581296 492280264 610961954 304018083 215144601 261156812 515297474 311648711 222630868 464727323 56348333 301295300 979259893 524104423 119268397 555732979 400882162 565778378 388838443 425512081 454698833 351643864 930271385 94240880 679149146 473167010 601506259 122064745 707822761 340058321 332711342 545943573 737617333 320413433 109429953 460392771 260221265 649046467 841069304 644963008 525497528 533631399 222161599 547537140 82726422 536090307 453437981 306443519 429384437 592904875 579206360 436274835 717840352 225942163 167482074 128581804 959350930 699806508 615203770 834884348 232615566 982610041 545388062 948647251 717862139 446085247 553259098 202930776 348178377 96426266 819678246 530547003 761300052 433592441 350520103 601282002 944027942 373053214 125853965 358016349 891525231 112918355 551690410 351640000 332842074 53650027 664750348 194899491 148501844 135547572 84094768 535137938 389795661 768131848 932890491 561942373 826631483 790587961 134745863 306679146 642463653 831725919 442384120 699646712 453040099 909635196 859703737 997273252 675339858 596183342 812052595 674939368 855209671 547903788 435474283 999644977 552904946 919843038 181580750 664802970 550905737 275688003 434720292 764132995 374818469 85023141 76127735 342348903 310448732 23787651 393472227 432519053 257639900 507232038 211144877 273653693 946039943 321251642 919745264 168636675 841978104 579719962 830807798 889915926 885461604 625030570 222606404 808071223 318437726 218808088 766359483 568444944 560625003 717196886 410500014 775337757 965446780 996740888 956468488 765682994 443280581 695856400 890525160 186909996 844793066 39499295 363588256 775760270 687679604 911838171 249961226 645416605 218438437 120672285 287721717 283198008 268569552 46676771 631146454 477196294 82025575 570884091 200835053 313167189 517069780 266233603 549484958 82770513 653650254 895984133 603639679 12736182 6496176 153857918 138285521 256823872 3932379 830978529 497581680 532384990 211138985 999815146 906250178 974011596 730252282 781104362 115828539 287252024 702031755 897406880 862704846 844526380 902142413 48859791 989949014 309783744 743750894 173382170 269183170 928773133 147699224 238678468 828736781 68284943 215796804 907868081 332617617 419226642 867142579 344912632 46520706 885398871 963659534 252320666 841248991 914337727 616581959 334306449 369457330 319607568 111898879 399722938 29027544 44442729 549145669 1759532 55092659 526304612 868866473 358648359 716261866 494495930 508408500 893388312 675817657 790752118 24353166 304816027 209594098 31962413 739694811 212276812 828598092 466468170 873257733 446829164 778507858 380007221 966148189 159858576 563982638 477295087 599546945 520582205 654802503 646139024 744468376 919035150 143496871 255914781 71105239 674277290 491927182 355091214 848325377 905061400 50441259 445848416 586919030 435231821 861057377 877148873 303370955 439926933 597493876 125809019 754374237 639948159 342068638 194290899 779665915 783795788 27706269 510176362 844650371 690217656 292136541 541956616 380988273 679123469 71561672 240556716 234785331 185736986 589955562 629877389 886638991 761540360 91831129 283685836 120289129 726511155 11987699 807775996 228068339 9417524 287857750 729037985 951016027 362463081 570828872 100460693 438889241 536699206 631262987 980265723 649285459 909885434 407966345 956549345 259277568 418780589 743644717 123274538 393686987 262532906 82286323 913314340 687897617 269458292 165086708 11250369 736056262 2358629 910093163 508982456 951908972 624485079 217527502 345313347 694279872 721842312 542393303 322068590 144250986 48467361 512845433 653724914 209432151 509552523 432224678 676374552 467421859 738801369 772595182 661400761 730624252 738756520 340128334 401770339 810738930 176890278 240298086 784522425 372307794 785236658 83336392 823917527 489296769 177112452 524434457 871523115 507213146 889850642 586048090 450828039 876349472 694566648 720507395 183197568 23341779 401141853 900054473 46479046 332175611 135592605 571710 512753419 980763385 796949212 687205254 905580555 986583358 354815973 438493944 408584196 612777246 61784410 373412084 444676277 612544374 581898175 672163213 842569942 856162632 423199047 65931576 421025349 476825322 80730510 571928596 973587750 676155845 646705428 822381327 70598972 823487362 513092688 872567375 588752100 845939431 751776266 757266519 626713507 100084683 54348019 665025314 341540353 112633349 108516394 455257919 762159051 876373151 569623250 784743545 862819913 696519905 268480403 940008337 158789141 697989737 601621616 5550341 502646070 974874512 921140063 88211190 457399479 11906922 671585349 56299690 835074122 979103231 565541327 612415608 370430200 783340484 882714236 538099248 587423182 174297783 438797164 809965795 787184064 315471125 14510493 68566261 380922172 594956131 781307989 419407752 809875818 775699114 432991178 448467444 487388182 714083464 365655782 691938869 934994657 573741868 23800899 51610945 400981968 673574725 82789949 301959277 326508443 546550445 310914988 408651878 937090794 827902009 124269731 163609029 655932125 576238426 899797015 981902721 132307820 467046558 144436579 706681277 2257598 167182056 598014040 60218331 398403286 341096098 957569129 502534303 734779448 988482893 15775361 354685774 743202127 141690130 319479286 801441854 695707108 258783807 997673269 850768895 891287789 50175881 330068208 648249847 233564840 273736921 482474 989374007 953160339 923133735 300046809 692277688 135960645 491445531 404039042 378283281 157662642 459223714 56750354 801919316 532135487 520826680 796328400 829539441 163631691 711198082 787069855 461873980 807185661 445868226 823409125 296361338 493726696 526076884 24236513 741659455 633989502 723066968 640220776 158608656 529707792 267734614 597614068 116615856 957392947 29373038 289667935 341205398 138434318 355158044 597654056 605572801 585245509 443244435 965719968 719804518 992798165 749359819 331771130 986620982 376228375 561691522 577533246 583557792 412604156 81518364 1445340 349921715 249687933 343483760 486680867 413913043 419923857 270305396 276823412 606071408 54232595 733698063 998626982 701654478 498349405 729369325 260395770 657412381 813432421 320236439 98165026 268017571 38977960 493994119 542902051 479399262 568259705 543536784 748208495 3828101 790078584 513795120 868719461 436575059 281602623 113457316 909732017 375896161 209193790 414142983 370396485 102516903 107743084 418096036 923004885 442312713 142317645 834758840 652594503 676373178 573311818 225788029 449520399 132976281 338105466 801364834 88428136 553341977 350139791 771923985 523245093 729348081 818646676 748724794 206062827 256505980 943336849 741691143 119813681 639143499 409549052 957967101 392436707 847022611 732632823 785398067 231007007 217311609 807928213 254231849 421076243 544260490 371759213 829930950 267924811 616123490 779306791 172476803 101935124 815030045 17897033 90863248 689773894 593192445 322002670 490391271 454087773 808459741 874874824 368018710 882113258 362023501 384736964 409031790 174880089 145434123 697730785 56922426 686216058 297637433 744881659 230054642 217219562 895456908 808780572 315034371 146319957 322414997 817933491 764773325 253127336 78698230 23892881 616627494 865306205 699707408 18889931 551647716 692322422 400063084 571554670 140422942 896381385 349703077 768518458 671518369 259129972 28103438 872219440 5404909 536029262 419309537 866226140 728008534 707284918 427428139 195075359 757184665 157688429 80711160 221134668 129811271 22041222 664216957 515483018 492386949 906854297 892499958 668039491 834513361 410029183 87437155 447441446 44735135 224691952 158756936 817284416 66087932 588067591 314351941 626808468 70680170 710379458 450091376 695103974 826677907 712661973 720041197 858079071 369266125 107777796 28312796 646820217 37921189 513543472 355601780 488994483 961634415 179602697 795771254 605947792 723547626 715943467 938339866 789199509 64875926 537525455 209313100 504724078 731582616 84747816 195251588 862108893 797460956 931949270 792426673 714250867 786159436 883962328 652693768 319313327 678091751 973853859 832276918 682860337 612464984 837075751 396833363 560136408 805818173 142773581 749713067 63059311 307163264 59991293 357851704 912582157 856290557 937107659 925566068 523736706 129211608 285406412 620822713 63190005 128365058 626881621 746622543 497171002 928140268 165303916 221157056 948015506 722213319 761335534 950484594 723710535 888821196 706687103 358957330 475503203 774724335 545042988 299487744 105611785 349428264 738577819 344443480 294807163 936698736 443626794 668809011 409268921 452969508 292415471 117649790 666485130 558342461 924890380 250107356 899444296 978029477 145705262 463447612 815467710 405456442 257892959 515913065 66612374 575098619 756276668 685169644 633940650 696584765 410719078 309673671 145535118 395741354 959570365 70300499 634945744 605736962 836939601 379348468 266003071 812257682 439896773 867710850 30814586 776660209 546770750 326725200 473008095 263459092 850600715 202011048 120563325 353050823 99664319 981567809 775046483 322456521 208601098 754005069 107488958 977706714 208834044 229793238 382930289 389414797 224024001 856154149 331528290 151720111 235355487 93143819 887213144 270828288 61213211 809581843 743475122 545681533 300164027 735454125 289167822 80531172 104371422 88480154 292906647 259125894 206138565 159247197 537385868 82953378 194441224 706887482 636803811 168671753 901740447 168607125 123839977 742724366 625348144 167454510 864140671 842659546 444268364 764787213 871693378 606998140 680988225 650255612 21228609 401481136 161569502 677676646 437818651 529156766 259498105 571296305 103184743 277548310 46714524 704734508 648127590 517905857 857794207 583272157 154880753 475655042 372237004 916311685 123231287 201026168 652758849 140419061 408171659 483919698 864101748 703409986 916044157 993226997 485866293 827844507 447840370 249821744 445585741 331504585 925281516 280639210 308049504 347640103 811407845 726824049 419048879 545258570 913161204 733960570 863927158 205275648 328443195 636048243 586346228 77261978 465863177 670618733 317741856 330189762 676610343 255526153 91413723 714584698 210866941 28820525 698760206 544814823 188999678 450754900 792144161 919127988 769398091 737411385 104224001 180287002 346340587 201142373 956088081 898224841 900426737 921249839 39823378 148405197 904569181 920476465 685310583 566556339 509058076 949576191 234211043 59196511 97993693 254818231 145844287 923297667 169501093 69493956 498811468 838212717 291095333 945514526 513820778 161809950 962328847 930371455 382389516 54795938 382059761 318342799 274531899 110359931 185503113 730504712 835142556 810452383 158084271 457728655 566573539 390763931 582074576 981924693 167131252 982927714 428444941 294176900 836303262 952906464 699808367 402546473 467002737 380197293 951468776 94708929 534654097 832184492 763441127 725433862 232971129 915790376 918778003 908377490 797948493 826644999 885239088 361457120 453182299 112488259 675665123 406307161 549270654 57458984 232301723 86703660 543627087 724332969 611559594 337420893 896580605 206810606 364070687 558212377 291661118 590304595 465459795 391740721 845241308 82383220 76362305 47489820 563789287 84425458 566537021 730058704 209396115 813922014 380676370 443702184 93499106 267869341 361075110 684486828 339973761 356720666 219536496 29699576 855541817 27019098 108664744 355123834 616278407 611495698 797322631 619284945 252021282 825712576 735373777 337938322 241617148 773698198 483990551 707362984 200504113 430995195 840558053 303343895 846189378 849693642 425308920 778981316 550940925 263069005 227951205 491364926 260066253 790324403 733564719 538229884 945144808 451681731 194722542 142555635 751400930 302360945 970379634 157984685 395755426 660100267 118082276 165400892 499613452 221972124 992249928 515849348 780799455 402807581 209569477 865386487 357544920 908882091 307442563 886873036 289330901 504109643 776000783 957674639 91591157 670086666 435976939 333538605 100030203 657445 761292766 136741905 225806138 881734630 639431781 589712136 852904755 918730041 91606675 418145627 155348055 499021240 74094334 323586144 826027111 755012635 714929021 496083491 837076589 462812054 757946844 252958873 21082399 160148412 830874868 125477660 444186110 464303772 405357646 555265071 179239707 517049355 428042007 601294022 74720870 760252824 568478595 520263422 766663966 32185053 579636127 734075698 428772483 103042412 867381122 102545413 37414911 786861629 346559769 307090691 983652537 819860331 973068012 568040154 671147955 763123086 849194945 98381255 297409283 384589201 672637481 606127852 458620003 86033271 752429885 242102040 874285695 906111471 888092991 466886055 983621295 321204107 550707652 542842447 160154453 240303647 305870493 597637624 797306466 979266168 761107959 247109751 215029949 163789785 192921407 131052599 929194467 513037129 622109357 5293199 266990064 66272560 169129309 666832661 783336247 442766287 707052239 340675554 184355368 920627113 847500493 357075815 782833751 368269409 389247242 284818415 28203736 351606777 355320514 893316632 473972499 56058642 131126665 218910944 657219557 319324084 910718254 604053318 633305179 298461124 279963558 884871943 821881874 631786101 6060558 544376604 697536816 426150114 366619611 427028329 967855481 352512001 991560635 383914113 21854525 93030448 58224206 524836756 666856813 823774098 225440771 186385211 524322140 738432164 887030346 215681272 166378103 200085487 16105825 228690429 371452147 680627724 326557269 961156397 159513437 916030995 389687981 426825639 781125831 298244264 420810121 632679723 313172384 36407549 896989856 743814509 342573313 70533670 325214453 557325794 272948870 892236368 681385244 609360932 366768514 532983225 564397441 173846161 444895718 426983213 109025506 199596111 868372469 263886057 882162180 355952685 233171756 517066218 760802252 520360066 86885650 922621310 971936075 41077163 334941627 458995394 729138953 576537710 752142706 342593339 843384434 854289134 740318658 39644094 295353569 708753087 197583693 278975180 944223578 364768790 484679277 867384717 861197812 253699352 293839251 272680080 661363114 583355410 383654692 210698528 470541661 957626616 879670794 780353249 648074890 515330976 680662821 133894785 15480681 293111473 553179216 34724780 797659451 290962395 261525309 315745972 403118583 322000738 358928787 140526277 470691602 533893687 9072222 779064054 680257185 430269453 183134152 587704934 328685338 300641672 592237255 993335171 659305110 533957047 359878165 587292662 935705830 546351175 160845505 180188605 309653069 721207113 996446830 876958407 21370794 866305189 78143780 209593267 939352401 78213762 920022795 643891911 605086417 501014984 947299152 879547560 125681595 208483867 576430079 660572193 240093267 204103531 891389789 579418765 41603523 589606827 345729005 535768920 529127856 819734486 810140880 276649504 983440697 692714755 371251009 819435712 151674584 337033591 352551518 689488432 868242445 885170587 363137020 121458105 136516629 415830179 697312744 223658813 629705799 10349797 646050815 411876427 661157561 730411603 990456985 413915140 869400085 493607026 452033436 882304510 776396391 559167509 73412803 460910529 444625812 548795304 357458370 199918256 350500369 142710854 178066907 699022588 874797680 490764287 720531009 948926062 700195201 284300212 592776553 125839404 316955353 213271714 571886476 633997889 29161776 437076734 271596158 361295843 888624506 105528195 582007709 613174613 496882529 515596896 380826156 759041299 79355222 71735297 320797850 384322098 952605566 610845447 89835853 518102200 332690793 570985379 90186521 511502551 797712001 41405938 280992901 874244318 389938670 677497990 128914238 542050390 133134157 303922609 348171548 323422684 637380282 134096428 804176035 69301929 111584889 277922060 475496501 698425600 408387463 674949945 10832192 88962206 141965623 614258073 482553046 348982201 714033362 538062363 660250274 440484410 360712076 462161773 907697528 913884183 987971381 823373844 173858092 534974217 900060682 185549873 267658553 527619229 648504812 374875675 794648306 149637034 416431663 606522553 347305879 327308600 145227632 697416079 72240540 767222209 389637533 494480089 845660993 706091915 581494325 438992586 519427342 764198011 131917086 327209637 585464687 110812526 790752867 103902731 665578157 852387325 161381484 935039205 107933118 250637288 607342266 729486411 712503422 51513324 971025926 721265036 399976747 681045775 103927068 683239798 417384569 614433923 568419169 609275177 73995009 538088572 501360132 277534427 877117644 580361542 506063613 216694071 794759617 313186005 361938419 707860018 952046152 39361686 494054610 22993562 315511900 870286601 59815667 318073673 506742841 943020693 874431989 572057261 177507255 916417077 637844678 656511496 111147406 58652577 912450080 190635437 900731457 521506180 149526262 515995993 708824765 827633838 688781673 92724737 645517533 644825304 79023606 634541583 173128967 216307909 348325889 432109012 984670273 928949864 994181167 864909181 207798165 747908684 6850072 793202989 13633137 928326862 716934772 277358144 724406789 297441878 831669237 916144424 549665284 743937794 845516746 192440295 591306236 134945640 596452580 808980017 841951998 785405441 233336092 456451240 219897237 766858881 716013462 845062752 426203865 4435383 163641609 873765240 809351315 483106429 207247521 367919314 422166375 85576907 42313476 854968880 840261668 485894778 600128995 814517526 62723892 476876491 50529130 180732141 433467509 226154080 721805369 730473896 165908127 553933430 78660915 814403682 647686614 449242636 864324352 945336716 908215274 962643266 599886480 473494889 662269840 855346925 816169409 784530653 399776359 55073841 491104990 419985252 554892883 38471413 825114502 694607980 181212105 375611032 479988616 228513379 382826541 986146306 247178924 175697152 521349765 768513166 711624447 686578216 48341533 127797278 947522492 314770783 269046532 150950762 984703989 944010887 735555865 242594964 531573588 440960150 765045350 66455690 687768380 845180624 351225006 422666273 864230279 117546808 480774592 191991650 592266440 585769163 740171390 806025760 183499530 952096593 368203490 322886279 902282524 546112440 719180243 63474839 389382197 323544134 763243287 904611077 333822244 176690438 618776811 206164653 92390012 124799852 636765986 711828728 738345183 299899864 612908523 749110097 272992246 313693117 314638388 760112200 709937893 682738500 497708381 748583694 464895464 189047045 35401088 690620907 641427828 870776442 118975778 201098991 3401805 840757585 274707414 859247671 323724352 317688121 456729767 847842395 289853282 299914297 652079454 636802010 234856807 468511610 221267031 792217729 811940559 806487168 326035313 471418116 328729757 794306024 582316264 859186707 889751883 827837397 897642523 796975001 864617997 846489706 880064423 857660468 797049820 29690383 752282985 303081874 962471338 752147893 11787507 208016535 764995787 832970701 282064382 869806372 856364544 803145659 476745325 559333897 461692706 706102279 832868200 514644421 415242277 754412930 909943970 549348346 425289565 44941782 719125450 445462379 449338017 82670851 634344929 16162993 332256638 698221398 852671082 836691402 864732210 545655825 328883361 761203915 3101712 973765198 26096252 822508796 523099791 954560972 51136384 180177476 319514611 371866080 857945881 807160967 707325842 521115747 920071953 433682191 912790709 51081537 966281097 703400336 621815298 349559140 400856582 158707851 262326127 724755426 788914283 221739996 402635636 921619692 170994703 364727666 214809959 327532504 345404623 877473635 745278067 212084728 311367343 796698759 804754218 715814184 720407974 484487535 525052059 359051036 738536716 983621927 177139953 826934596 264179954 906765784 331189553 600199739 745797922 593425357 33140650 39012544 822160140 818001730 633116290 150417545 796107562 982965044 638256056 229857709 767933312 828074678 419965537 827858519 726766618 721456564 84250712 768080159 541546553 561436729 924209681 250533047 822913942 717483971 794959449 632999289 947389777 160517008 922837300 984320406 980288076 1473122 761051977 967192798 838067141 915930383 239865206 795460831 248859191 629155091 606113300 532792627 505894210 85267809 475321327 353499757 166183723 698148844 319197895 992344605 739575924 135772508 470823255 715091771 371696410 661691320 629276979 349919666 456353993 935841620 579690452 534985614 547689661 325516156 348030691 621370160 418731324 784720961 272689998 90365774 123067558 320359053 845895754 237054680 998818892 793483572 551737721 731013334 785826429 744117639 56242639 474905520 523131390 745000995 33598272 421995461 363300527 580993416 712585734 68680725 396048833 511574737 90141125 31091516 872043265 148483001 842825334 895606821 953162426 657590288 367464836 386126114 432482268 65960454 518453834 831535734 212638370 933124901 421057554 137221802 756823217 582673923 627636052 181548730 915649855 7885293 379922770 15038040 521808387 285172350 262534615 872968178 9639273 42416371 652805591 430411182 290138967 475489785 830233375 678446631 43260099 492844744 842006760 316436952 184185480 575854443 304819689 634545868 6030266 589466814 962126290 42316837 288769281 20006417 710199706 743126790 970662025 268159701 178890758 619131955 372169698 402102655 364825777 793359575 899707403 901119000 35340482 846966137 946065960 469489545 535814015 574685949 102125939 196733912 851802583 81039388 33856405 591115378 443647987 574871428 490162460 527297700 281108415 733822658 150918589 625220168 149877962 596825284 155173877 798114627 330849076 347860285 180006796 236679307 868078400 92545677 191298125 132688681 464781376 440230396 35013471 133241353 786727712 524328577 228945850 744141885 878714860 771921107 993179260 471304832 998233336 989342601 57996322 901032559 557931378 840135418 713437696 350466328 811497080 264792484 86031678 15010079 617016313 289599165 679038556 900579148 801455112 791946188 259002969 775615449 135964545 988322119 540317610 842002797 341116645 990785162 331337067 570572933 726488578 49440793 272417037 608614641 592952653 640973684 139057777 575643154 77410256 935969794 358200816 994469026 504944349 805360137 133954967 268877420 947505567 774574786 676978353 3740624 153463286 986065980 728292176 177750284 951091689 785454988 861362674 657767617 444709689 487075289 427328426 52712548 904847502 537718898 661006274 715150357 144893986 807873265 516138478 339369355 146366365 736200264 503317542 648266737 628911393 276319897 735134717 458431784 260205483 991537937 911928625 911862237 196306172 836406166 873627117 98832828 776727764 195507618 227526619 23949002 147518903 176473815 963057780 106122405 842356039 753393081 583598700 961409378 672404951 621426742 275182797 433234516 228494366 384831904 763600942 903827330 362512504 214076736 359703124 783067162 274813965 88481029 630174163 388868994 737483453 23408585 851974881 970322912 775902106 600666816 562855773 837911064 735795710 6483819 933671744 870847835 977505396 252097237 60507811 446859249 194986392 864403502 194629211 572382023 882591576 495419237 969895508 906971284 761672230 123392092 858201240 847701660 63783268 531256255 265274834 217776572 486223673 612997817 891789170 634989583 613621097 500550396 997818442 746557520 360592639 352743096 268825601 3367114 805484973 795861483 636895927 719140585 839967505 385599130 179357058 97889268 402654020 425561828 566886104 246685207 865545191 14627855 583680685 269097876 19380144 780600296 119818861 200858024 592235498 336442558 70840052 663267150 151389919 336630861 597010152 286954659 150665981 884950045 979432160 385430345 210143688 747756408 179558845 994508727 562611035 487518052 427389328 455591528 529525843 267280326 357420215 657161505 726066383 135942442 607964575 503379425 923575514 579154580 181982434 663563008 899809548 748794026 243982900 242785973 446123237 196267531 472623635 410324667 946219601 942798297 780844418 991921798 862075275 754519030 207419872 87396381 828110742 891763428 122472586 924014089 477203862 651979890 566699210 230745296 427672930 1100612 240488469 605918833 129251000 167943108 435751772 389315895 367302362 582349568 658068140 149147725 546993855 655713964 349382630 496628885 985752569 451256168 979460265 755770949 895264246 239157361 593941647 548159716 140457852 43742454 338321980 246377778 858382259 854271038 871051443 280300584 916119298 362997878 440932079 815854147 602748928 748500719 704190913 964312378 109927491 27507483 775953107 170057598 89564287 549763856 439062158 3119464 171838086 98573742 231251444 721334797 592781095 800763866 519948580 907501075 822473317 750715359 293408125 793117773 243419867 62396405 159949053 68833189 525290508 214341365 223484728 226076110 615964845 972976244 195917770 323144951 873737297 125443023 820267447 603276513 426396536 74014744 942385984 424823440 632764247 348915737 94337751 95013382 740016927 677709041 87613751 242741829 507926722 990041771 268579571 257076354 727607107 427698504 115865709 139418713 953636364 202074706 718675113 75541640 400102987 688123303 728963460 948390574 453322982 988766157 571579310 760902383 278748429 516881863 334407206 530405430 26010451 859310974 834415256 537441763 9175546 592714212 93613303 15708745 599786244 85411466 945825918 985166952 664606839 175494614 775467190 861520808 392050694 857278905 579242760 10657152 433936438 564488187 622936127 299062232 594383607 779775916 908506325 905115245 631245039 461346596 973087289 395985906 292195489 62628744 182113183 42269298 449843331 594437492 227390269 726247135 839696752 631250750 435215498 778568532 276495034 803548940 998864082 705522239 408936379 478951529 3415226 367647659 55946460 404955909 243888173 373337731 343263126 477763883 985176985 902866253 669856623 691111045 888054883 616605140 780472582 509390967 973523936 458269666 580533633 629455115 244959940 764555722 232119151 47410879 236937388 611968341 900086824 302661748 168180081 185496575 681288935 667937162 496092210 841953859 393816840 236453131 903619452 409516168 429570066 570757495 418818574 765774886 316744538 242422172 694939487 449550362 993153822 991702299 687776028 349312079 221545574 879932437 361851460 549862547 934776751 759812015 491021258 986304688 528748214 462748985 689780386 426314865 321409939 848469774 21960613 962796600 427496096 382351108 95963200 891975094 725332517 335553955 888054734 47587970 625483283 921441248 417640711 181996974 379515643 91177250 254240030 468452088 496654679 507050831 327288352 267905693 635715879 859336398 750918129 652288260 882373035 76024188 498650807 450028468 409115266 768038120 215856966 758288578 257840033 724522268 844505849 274480354 886329067 758304400 777961060 527449759 590983322 853309348 71843166 463337992 297253880 840679656 303312584 369027865 217725870 971126754 676151727 99149042 65164083 848215294 832038046 568966108 532650819 22918803 375845376 585660978 288783014 491156038 428665801 775180794 806697858 911951503 820003087 23695693 703575671 126292747 669350317 607908234 665032127 253066788 395476662 939460596 53091749 600755693 424451173 174307765 465365532 697118581 250170778 483975949 549200779 585870373 84486761 382614144 446531215 422283120 488367972 664052212 589944016 67367365 755782349 182764599 801927040 253054736 651461488 642692062 482979735 641729329 372380915 806488904 432274012 613625225 275044832 619679669 506914277 450249791 132718062 723330001 19293896 223910271 723401831 467373988 370894597 365848067 463572058 805312597 461401795 181394156 929046641 406771919 223098658 801236085 726277470 312384138 686777816 516059805 131295254 885859215 296112711 447960353 979556237 149433757 578796030 487257482 717486746 793604624 37761381 478387356 462054193 569727246 379583121 545236429 116425335 248243563 560642589 989510033 413970640 313065255 541747281 639860369 714732419 324109241 142620162 306643597 71170085 847638872 808958273 975567812 61224776 848887540 598257791 857326089 218291587 799425336 167393371 504204553 679722544 121034735 414900119 368293449 916612158 945463427 341872402 110236436 316044539 43209318 272637174 525124147 315038780 918438857 246171101 892802939 340840245 673906223 931572655 235781734 55845901 619155306 853008932 821510294 574020084 438681368 427238907 954441846 437287749 493363177 823031271 95674109 32951824 594435765 669056901 406146273 401899557 754638677 662867621 524837647 690516543 934316074 738945456 634066146 711792862 957333659 242737961 428493734 683040979 702297093 658055902 936965867 424534896 345851582 326901282 922177522 137936164 52858525 197360194 562788500 563742525 568207122 296463381 547807002 888902104 572689490 714244596 786461428 489871719 188043622 637013909 809618128 512811192 515676431 254994374 447470378 960706173 765134331 633507028 649829697 484604293 122959670 361421666 68646436 131437071 904180307 394720494 939422444 810873569 192469593 533835707 464430790 68150622 575207835 925046735 898725007 507874856 945229736 580338854 636723922 913237391 321010581 230772096 711493990 781825848 547290626 351613616 793707730 838838575 831655653 698708554 255535377 825416575 22061785 575752632 599389543 444976433 244716717 341652785 714677335 281766164 604163291 846717701 650494500 93329104 703612226 556579537 206358503 583657033 181127536 249102420 325896982 273097168 274075600 703077535 742964242 68212202 344064238 131270215 525341652 1122137 45289300 785329483 283739018 712097309 847298581 369304696 173119200 342396209 986013956 475141479 613438401 58251110 446323274 361968970 518593695 996630250 878532946 844678975 324414565 196944118 212874894 575616449 337105772 611022523 927077081 467411385 756186781 96782825 501476752 895588521 945759043 834279246 87854129 145540729 179489898 15543387 167510452 841247622 244462529 129823864 635436848 542848249 984237967 396941903 993883926 175117125 660655492 526632723 45647592 708644311 309797773 196783030 702037774 926028141 723148690 604262632 410501550 582327111 965686780 597997625 380137739 75020874 247499887 727422495 116701053 541972689 714856374 358194938 648746906 635727150 880479657 245378108 116984135 755792481 754619887 470396934 545405789 941040587 313678183 138265212 774977738 958368697 530302249 720759329 30168986 81242152 699001590 256000939 583457131 784583855 524073432 691561310 294604228 353211475 569176079 255964622 64339249 596194617 821604817 82828199 78399658 401891343 382174529 194578107 420528621 30066509 703898304 185984449 922713945 800492625 954138484 506382446 486336987 940560425 31143880 598157810 629551103 88019364 469612832 681362776 927759875 345869455 522014287 965652965 309773034 770445332 364066960 916543621 727444296 250531855 267329643 73281364 130029214 346871699 80567625 1847421 777960444 919676529 40460051 951086069 695846109 874951237 887806120 855542003 250095999 86644289 634882364 963362547 321857592 28741157 411986537 360564152 494990517 710904172 80061222 714346906 759194084 157514592 868716340 189610038 787129782 612159579 881203486 521658578 778765374 676058724 760793632 691327254 266390002 775037918 119844094 629037400 620977580 23226596 885976292 503974121 851917563 813924204 226765469 473058240 228594157 600828972 851049275 817872885 775576454 845200232 935218768 474663054 537192558 925343790 313472830 429185100 75301819 989924245 95241301 651126923 337495558 302635265 752430873 394235932 119298869 75882251 754089612 131187691 86708270 481980253 698503110 340483302 33837808 419578637 754897037 560093767 426725640 840814381 693072997 320722487 160862637 992678987 588096963 968596905 780147464 588963197 281618899 508092134 241178180 914923693 870550274 600962899 8365384 21799789 750933516 247180139 681688758 539549683 445275354 291729961 371704842 957173853 217731968 379631559 1491512 23596630 419623539 172618183 662080310 268443766 450124737 696878408 534640685 544086830 469565473 591930780 35794735 612518196 137256219 470344821 238708777 927135979 350744055 406693909 147766137 309386903 134251281 831327977 976130732 856032956 567868832 35014714 361688073 866530459 709097039 767872744 4685615 823522943 24109140 150067748 494436979 15037598 604066190 292394900 338059130 514279858 672138288 264474320 315922540 605559080 483155858 906235654 659330998 408344087 448147669 982539838 346738127 321997080 441344373 629410011 170527250 805930257 671801155 637434487 797794202 222084876 182530408 741686533 500442942 171821105 223695143 636414610 158448982 784971526 581947878 629024614 202399074 281800772 877134675 514648400 186239472 694153597 699324115 50490561 853180349 49560802 599420415 199000302 140072837 77150471 386393402 864349094 183550891 579260119 531448046 51018700 808654002 939387939 219559444 705201721 277427134 147782532 383693055 327993987 465671778 673429358 472684567 757173118 672294578 124635273 719617935 152887673 166559255 448040553 139448959 809272707 98513620 958203045 363599924 909138832 951701720 866166072 518926009 584133665 390989747 66344705 243116529 382186466 340883949 770339784 180358556 67621410 309666736 757554711 98019031 251727108 857589446 95941922 8353559 379221877 539648960 976789548 427429191 489421559 384998221 319227922 650466210 100333570 389905013 974361304 212207037 792173763 155260313 274756279 325928789 920139821 107752829 438767665 192659344 855301155 808239025 95827524 250473690 478809684 656293493 535056078 38974614 832825407 800025883 736910982 911234801 50523514 501478686 78066463 781769690 920564409 711955646 136775476 533932261 639124243 994088518 773729118 791794071 887402412 666726145 754728951 617914910 594276515 339540176 53294045 528079003 490005014 120012627 121477652 674641127 200270222 958228960 573086372 56823379 795121669 380859881 340027468 105573685 961315047 410271690 763145809 119119146 781731026 499897306 218267724 130854636 457036128 722125746 706357449 241008856 497284819 391613587 376472701 816874599 68585205 5765580 68105460 905476068 754217213 584556601 316470855 452379010 266815781 957823525 190040783 727677078 427786279 56949090 122286456 310381712 650406079 635386875 665601665 737474098 717981383 674803609 131523739 479888860 22817723 5327032 251903264 35330098 64421117 533457655 824593715 607819780 556079553 350289784 921429345 964756872 518644900 538440655 528395533 711199421 267797834 550885937 659902605 456889669 237085245 802106505 19861563 700736909 548509694 788186092 834715103 467824058 199472826 256106938 513574278 894677730 614277875 447651178 302313938 700921218 16374766 227078120 280916829 245880375 730528535 520809650 800973278 10279543 859780321 395080484 221329501 581414799 625033153 431923317 566488035 30444451 267383394 776491401 639075915 718039977 449754720 270406200 674494192 163051831 612869630 746327993 540669547 948004558 964313235 899962358 368699420 435751698 4026838 207304954 366305903 964259791 194057547 306735989 169936192 540981572 70991592 608923869 595852121 613173260 582577450 91256047 625282004 403697933 229899939 890736148 797065634 230538080 790065072 584208946 820042290 263590732 351738137 506797165 540906508 182611336 427819269 26249734 853294100 831314900 231966839 731829752 391878396 102858096 505255638 299587048 411060748 615839718 685398097 752622492 15490074 933165596 679058046 580644312 8473945 526552347 755630054 765072343 405744787 263500023 265463370 976092978 980593619 130499230 98409246 240377851 273808808 148838554 571965956 620415647 212067633 330702177 78027709 75907382 333038127 497703132 168608145 975931072 901864015 398519022 276300247 420634473 885973903 618884492 295777350 10742247 88734422 457450044 466776280 948935699 730664100 41082057 320294236 788888705 88224931 800816085 324198447 307692798 600068669 268772457 111856536 869985785 724528390 570201969 699856403 309046608 37792665 139518672 422592792 836284185 620207081 67262349 628914915 367447182 513118155 563828916 203791754 232833618 380308522 422464370 215247723 748055002 33822604 106227994 73070180 536820433 291868648 672655801 331258598 253145259 252574044 206268580 952346985 795834012 786394859 243728535 885179371 512452866 402375785 183146090 459587264 533395695 553756644 187563634 305193348 475403054 960399414 53247402 700117169 305046068 362780125 595109746 709858842 979453744 983395590 643399930 38887442 437585373 795086503 175624156 593490492 596968610 755886385 267757766 118668156 491338306 507364301 964111882 639843774 371903667 707998911 496564938 860156617 589831229 878647981 172605960 180229662 818302255 228218264 632167369 450951003 375483189 417383711 636569534 446584244 71610565 293672947 591791444 758253236 869065893 950328967 296225089 882504831 134794425 835639978 630931585 645721813 797216695 159958236 595675743 117086473 742786389 486393587 728378548 863587656 225854977 615514820 954122390 477569651 425540174 385696052 139426676 701802988 827749154 765104698 372494644 530144459 886194471 378755124 694963707 767243447 94798217 569249597 172021696 759206082 876779585 281668762 701052543 621509916 52602446 892761696 426309603 124826740 234152212 947304107 605764697 231508348 698387882 98288650 238377543 106675493 154378896 144300891 727332395 522006948 16524037 865408962 795882649 930180095 756620162 787087135 892815995 812875696 868306744 24469479 43759167 670062338 325871731 2217288 958392988 258972460 463949272 143206268 940673655 151880279 797936523 240905927 320113345 825177884 757722646 981259400 711474278 2296857 832636660 489871299 357013212 162124321 847723152 745823574 843286761 99764921 726207196 522496094 571179404 894632030 14996461 238808445 926820533 381686622 861808920 131774013 712030946 712680015 135776808 319560809 107667173 526705490 88391072 59135709 195623405 382420388 57369369 4397679 412737039 763074748 851041596 510933789 709514515 988299870 674288167 685242037 397810255 260790521 970999757 733020057 787794323 858746557 735103852 152575836 686280074 39500489 321769077 338514027 88496875 976367309 604849504 369894023 643555751 937529675 746101472 792462923 964804495 657062157 282766469 422209603 633369814 100860675 933923276 979199701 831386258 335403925 706053503 209040351 965323811 926120838 759494364 220148731 320406167 167230048 842943789 450842426 588125565 480284489 848447371 813438251 218039980 734689701 77230693 970281702 178379538 44504712 140332793 459046479 748524725 662907364 784498585 267855417 439790601 602704380 244245757 110502241 895637450 25682781 276083604 158895838 352700351 307855209 491429284 19732721 88967529 83829522 251795003 341737025 264709435 356304350 749569854 77436186 670799658 80409748 858375876 123417312 382447519 375486482 387580347 568186313 3313677 231947082 397567453 744329434 216444485 687298942 396636873 972794158 576267998 699603319 353288544 373643511 805464239 380862742 797008917 784216572 647353432 700089505 106926621 453412 875211268 955377104 694692425 970530050 422797001 418627046 540563138 359945581 797711508 182379732 88948356 173903442 735194537 752970029 636190818 314056206 439946050 252161804 257728900 795902561 243562915 222982595 110752744 628601612 508915672 667051597 697748416 42503404 509247033 281321627 779833993 186656484 445190241 818771258 981580008 753667575 704693278 893722377 647503671 620436845 887246797 76121726 902183652 681509882 122722251 4134201 687701493 222018607 880247000 638819559 242490554 659855186 693638889 201804627 965570514 217739076 445036700 394869210 528634240 281468831 341413914 430624486 486397577 336995877 641117300 335831201 799495654 911456582 429413216 835645649 269795171 165135139 712359985 850892834 721706180 601788092 874934186 22007948 337978312 619913985 622810132 969448891 390135666 149068303 146551971 17227008 711840014 77088449 160506716 502412305 149726881 478753120 794952587 588193859 409055275 216908513 374501086 408395867 628710831 533560969 398035119 332076113 240238730 360600003 34883038 240995536 56206160 745783547 355344061 840686005 920234636 317761324 712926778 644835026 199383324 804247088 678054846 539520426 707120131 830691567 839058549 558187987 893611254 659036722 972514098 348812551 892625500 834118580 276087124 5663880 777336749 238640338 203088510 813182274 581042145 471950321 766720925 46216969 951370903 698806401 731436340 611893468 732028547 615013680 327734213 755972029 18094108 532973699 366180902 260890315 464217817 633947206 422981971 312427849 842794215 118411766 579730520 383199664 699677476 176362242 433182854 919441981 701320468 682360189 842693258 712917699 667176813 435956801 698359713 115251030 735122077 797831056 575291716 7211000 528683736 995939756 787227312 761476525 259311262 552444897 228133634 604018807 356957322 879535215 248110046 254749197 126253763 120220659 270457552 766823615 381526039 823556378 716610078 681717807 136303367 270388567 146483134 68147163 503972143 448677147 90755647 10851611 382466460 214548484 821427713 973824403 158308131 682065611 82577711 480254843 98293707 64764570 430216928 960299631 965901846 792370484 486259229 6512815 247359336 161374603 300317456 718785606 782728063 63145354 132122366 697053925 293257210 949281536 156010648 520458601 676293690 941238720 134486125 820508572 116951093 103093701 701746058 211908096 175779942 645957945 13980294 281634032 728592427 161762955 592565503 263278518 309971777 624868049 359729842 193760461 750100624 279507870 690664936 34165378 448831174 973606048 598516730 423712147 403166950 474014960 487676284 357588137 134203223 747983092 885493874 20404365 835779951 994530014 904686663 229494536 465998549 997755387 737450034 764109403 164004493 609107268 849029349 393669989 718696149 530054451 474608098 136366204 896348773 941030191 120264611 117664721 350088485 743101096 934301374 347545282 896818822 917815666 13947674 809161427 232792766 514674807 407376211 861230375 498474576 126530526 457962530 593826606 368545699 317803904 159756203 583521468 785291605 270734183 150671050 457152550 820383323 50682539 595721932 120176570 86313742 213706755 488718478 907098370 51713127 582314131 603249635 16056904 903709324 671788386 465318345 782026087 99272528 819630609 602254165 565970607 965524698 142429193 442361715 136586976 50661585 811272416 521265337 636453278 936294977 585651419 909936910 176153254 616125688 853199001 926401077 677802939 442478662 932810528 990303550 422562120 412137201 390173236 347011666 258590991 483749828 402357535 522910745 739936666 10988181 618088233 709181497 6416386 39855917 201384731 987982868 43531502 446654999 344062620 444682823 521845502 788217244 284887833 452057381 908670537 785211610 322875590 682411155 453965062 660133701 41345637 468138661 433101596 447389928 823246303 996972245 356483940 492268015 707079536 911929212 994143225 626830533 212251869 66321033 23871022 304207881 881379584 294493525 120153839 168664525 477163633 822660538 619398660 18537057 383413131 909219969 435262625 848405827 967885173 820332035 493233545 620054377 366491871 528681423 39081275 514767411 193784833 972306054 900948261 652510141 826172832 304825199 148140788 647140761 287703724 842266595 813617914 454909694 815526344 429932094 916482576 723046091 871734806 472016899 695684840 949706279 240203759 51922081 971669355 321449630 414989328 905233588 21238790 186076316 436657623 373992565 144463256 561507884 748923338 726557754 405779375 530627136 554705356 305050839 557387804 326716782 324490919 228344101 198397642 534677010 519273984 881634391 940893649 152123188 825051449 440489681 786698490 890926064 779477340 32931376 774320373 351208771 970590395 302016034 323250691 312325940 318849029 668290889 197885811 668613185 202577334 896698582 845672701 453743014 392241416 410112429 167815586 442019293 582817231 529678719 194669166 298749193 936584945 843530605 889952447 291015465 106173539 496330128 239530752 526353964 84779210 729515433 768883297 630030397 163757807 3748801 400990317 782312971 994399214 876205791 233115605 47539378 953816889 437898770 294783005 519226246 339857440 516218946 666051368 791486306 346051172 726428071 740602556 412396228 104194134 965710234 222885434 458843044 687205855 275195651 733219374 386029441 668225218 585645724 778929578 3863762 55258448 548339637 105733424 135491931 721614940 717016838 747763734 946959747 939712822 243742868 996431746 671842406 996573568 192237948 129963415 727976613 215108233 289860607 387548234 529016784 83496046 375547156 310540966 156050674 701393774 778538716 332477709 150023851 89666027 594519354 348601215 550308217 902865371 155205274 805598939 110047877 108878435 284457376 5480788 862861320 734695580 374410967 374405012 363557151 628941468 549575984 811993550 687839268 554548116 511661835 688327560 950371411 178359831 953222747 139599824 326300578 974122740 179594951 45495482 668634332 676334344 103163513 340247713 167728173 665645506 227684444 618716784 190567042 428658807 650366377 702688126 573401710 560405040 651478094 44871818 644722851 262075654 281602607 201024506 800370073 496385132 144173684 479097744 537188895 54435395 592009066 393302244 872468029 784072786 507327217 355393081 870979398 527784628 627069624 596170753 189250420 482529834 491268903 481684880 41162106 104997667 386264988 115555448 866547978 380411332 928555948 530830283 199159916 495846190 652859611 577777970 430050559 826172627 77592711 725975413 185228720 587744402 147316427 643519565 752178670 531639079 737783475 728075784 654960125 834966409 56366765 58291056 402556002 712737681 255242972 224606491 50792335 686558427 886259486 967119923 673183135 537641291 162426639 129687669 928493987 858630611 904635952 340644639 666294964 878534336 939608054 311336699 508476446 583300836 828404134 698187757 788923708 332651872 654200982 713539703 740131380 350426692 473542410 960563665 234132811 769774691 630506896 314562686 338243061 618406856 178459751 781208379 894303197 331309477 920040672 954831931 672866415 157085555 61037838 491459238 204738729 675710219 828866506 751559689 210665345 194487987 853325049 89802229 227333497 625086031 150335012 83492435 237084340 409188117 623992737 592163335 540607317 702602283 212011388 179536635 58010799 910044809 466469550 207233498 239266678 495972423 162132161 925716194 324295178 529797357 132276483 997631943 597655018 639640419 945869083 707784410 983185268 386705711 154275191 6154735 642282772 403734494 879808884 890390105 154888555 108959674 874273598 521638903 803949247 4468835 881366457 381234934 291322222 311569688 318730558 346199263 837776375 134734818 790315926 178787475 813853334 590998459 675504445 914368649 447915403 736917649 771902895 730870377 572402711 211016076 796283788 367935765 223352070 716902774 371924078 713566772 908701638 291224964 808464610 335624857 684040800 438113160 781697946 172249215 124047962 981773627 911472878 706052075 391149736 628551105 953141956 346350999 609275408 851004873 469847109 132442734 520272782 445275427 147608446 645702804 387304819 976729391 593409008 550347239 980880867 864594345 101823282 910749291 589598570 410223951 775169693 912761427 238925177 339657618 723872755 4804871 367724676 295066308 287411665 37807566 751345219 46029005 874361383 491379296 832398573 722841101 745122909 774091217 278930461 290888765 596983024 414286826 115371951 868599934 427665549 659341682 345828720 770898163 433063903 654660893 788533106 624750200 293248302 219199810 314091224 356062310 996693921 140279171 217620659 626435646 480598045 321416314 241315721 553333071 838380310 49874916 599707421 804422331 90458874 713707110 735746270 488939395 362562728 664813317 977674876 636559924 793688193 609502842 549657083 140283786 429409231 802492645 514187091 924937921 205703149 336075225 798265592 79410958 762130155 221202679 820510102 173506385 112737677 174305302 950889723 640531121 491476798 309838536 874980457 311477805 377271291 917476053 169544728 769737534 625897179 322382031 226764913 569645901 355508228 950293223 720530022 75362054 490037355 817532600 304234948 496707969 115113866 317693050 635925528 704285135 824501967 170114161 542540891 791224372 236231691 47487895 732501462 587745975 237482410 472795175 149420712 680882184 41371734 519834210 628674360 225563329 581294170 376762449 845272015 112656273 251188354 322915968 49388483 457001635 494683407 297234153 511200187 203685158 900453560 81643606 73512245 184348957 154202340 520274240 917828866 534092457 184347880 712758466 822918611 314914278 214436308 250830002 918997815 294629689 712866127 4126317 608787572 991111518 426839100 871245276 810128659 392667186 822583465 903955748 694551918 262193525 852718966 800189689 950546238 26384580 952679161 853274549 821689027 45274647 680680149 85768109 51199596 563981726 937351768 137927489 180846652 380656613 373535472 293819229 802316675 488555453 164203458 635020132 672301966 841618141 984314242 830515305 589135329 484492321 165799332 737280208 571030379 39302010 295936756 586457121 840167764 43397718 201323563 703070600 640446600 122825346 910251791 700402143 42585857 477554053 383817366 988906107 324311865 379857360 941408589 485629854 24709760 666296002 587133864 819932787 326837852 661810006 956046044 356708166 982192310 544864906 592389291 949654836 923630126 708199114 516769797 362786396 750001874 239905454 118542600 785498623 648377210 464987221 902506397 470029732 190907422 226847078 219036432 132816741 529956800 82631479 160869863 153109619 680660417 217389025 808338269 505381106 584383358 582338017 980366146 350005077 851366827 739984941 461449297 929527969 647422210 359590368 53736691 356825110 114937017 678428276 799785163 867867823 400986007 654001225 125746777 810324318 394199248 622728565 806911405 420275576 210324096 593234591 113890113 727636424 903024158 337860040 376039253 639323996 414026337 242191142 11222429 335378242 557327398 86258707 618139148 585034176 33278655 313542684 862258145 158360696 202445468 363258692 926517030 489479559 681162018 842929579 32982955 975018777 822950913 367129397 451049702 380467093 848132705 222523151 184858162 41582264 197483580 699904249 512463803 338757669 21085703 439350173 225548635 633634405 898449617 394890089 195064958 322200542 371394263 560312235 328389884 870651914 68006393 344485904 469328937 728798544 306735021 629983610 273822781 547480558 464493260 186632796 917210055 184673120 606496435 17447159 14315206 525071574 285668128 591754685 85370008 627750298 263630169 343242645 508252962 666879454 976587902 216255051 304715203 374315352 846100849 26900182 365060718 920116034 844381204 916472642 902681030 607560900 259938342 925646915 271158202 132205884 209070746 402315690 754252651 178197359 203030703 160968736 729084856 59600089 778916899 260392619 293115748 372994491 38079632 662459795 553876265 61023290 458922285 631911469 814906268 429918283 436199754 736939634 741095725 653707424 73000375 296091361 421730495 806279139 130703321 297244546 795649049 196848799 19649659 595268996 170369785 240192192 697933357 819749831 868657488 371779907 298745874 197725350 449001830 922486603 433642367 814765522 726187920 175757971 869828471 879261504 567390421 987136268 626158813 771261179 377647823 917864599 584547201 251865658 171582359 393698994 246036347 358264133 366676457 290729006 691073109 404967058 964410581 589171935 745322561 748109563 983367001 660022579 610500973 113066256 891483586 243039639 683791352 904066143 949082392 755232879 602712068 359795670 808868865 682902586 755035060 44481045 997969985 215411044 300496046 458453076 3836879 529768735 533971180 702810087 417809449 127670958 495988837 595502810 787335058 326654795 399831082 296152211 131654849 758850532 85210441 832430334 269405797 987248551 167527189 236418441 881315364 863072790 215713724 542932206 726762399 113897252 27508401 489700485 39686893 441116984 70320159 883602283 206439657 620121034 809932596 241201286 664524951 621733387 980084010 908883927 579066595 310626844 361385700 847800726 749170192 386411948 534501770 579699528 360611164 572918190 934516810 290995887 558437075 259371743 993307677 904463226 62813397 315855731 755199512 756160377 334718798 435216700 900802246 755873838 839776184 955940966 952288170 569099945 740656221 817607833 336471007 747349022 42131410 676816323 750533546 256802635 343636781 402644368 494102694 587021660 976723251 936750547 167622409 758861939 813658623 568539223 511102043 494729779 331356331 106330739 360295979 835372890 325935294 664737776 560925221 688445914 656967764 927428775 361960909 257344480 32454377 14615906 135345846 873111381 322179 32325926 370046403 980973544 45251874 776335733 387192535 252702440 230925238 425851502 432539588 12262134 378758074 757425606 256465957 855379701 772587533 541126992 588776808 980878583 911328774 812912605 466675973 728270509 496380314 942135871 833793291 405264038 417167528 242747127 512611454 986750056 650586860 346683984 305454442 478539906 918853645 28119779 229655111 969970488 660208269 792175833 688542843 743640202 372121584 831247207 128548631 161868118 999368322 446785762 484509866 768939070 811948285 228112049 319577892 568743021 972281093 866285362 3345938 37252619 629737461 733845551 315892200 46522577 779281636 637510368 629970138 866967414 129566622 27775322 753313221 942153354 555591405 443103485 646386975 815970969 859453320 725502469 841022588 790061947 446769931 528963768 641078864 788173138 466028604 975987364 846391372 635844337 285118557 711787312 170795992 464753877 708061315 170159263 930314078 690592807 814115272 445399160 658381303 451125376 17554216 950794929 846961604 349741740 81174149 837742380 711675107 497331802 397471527 537832817 300191296 843835020 296217301 335237106 605048087 745247449 334635954 143481952 364715265 25018506 716089533 353432265 190605217 274167585 63861911 720315162 136232195 554886531 504276332 136134210 235232928 441110746 391825909 957251677 129545287 904707323 974409713 349427405 874599502 165348767 91370115 443678644 710483912 363111169 52429768 830435432 931584318 836894663 200062642 533332977 249814323 494759610 717935404 716466507 466852521 910899600 893445832 563979361 816866675 444937312 911739133 823497196 849829119 423119095 900336358 224158262 102284468 761575718 502979776 175227810 205671593 408236248 854390994 509133778 701184060 697231446 696875593 189196161 869966343 995079748 579977114 326881273 100992336 154260509 107608641 720773467 935377725 981425608 74016868 475743056 260121769 763000133 65354910 735475740 770661198 344468016 72979320 871959161 532375613 810841054 991927178 977978734 607300605 924816524 166543640 218237644 620577786 888835502 201604659 606806017 912273140 23523520 752808583 333321172 257149183 839939287 631668079 146572140 772676850 308397122 138864280 581475674 473749554 470117666 610977113 448318918 498479036 901279236 884341460 742414945 516042949 872006809 280228994 920583649 30305436 811372577 267723561 260602733 971875258 148858392 930058394 781525563 196818373 365659399 17205806 496683160 695237608 709143347 653907100 42004195 741851772 402041779 769723688 403632876 830468469 799367612 689185939 225945756 551655707 533438226 988382092 391719370 150631212 915061592 742932865 212156253 56435642 766961495 104692891 924242559 153406400 530068147 308910111 520011100 743866314 611313761 525334579 487269935 491100203 507370779 981322926 376040662 172764371 532331576 364104921 126485006 532207110 158928774 82909396 484598853 587631014 53265048 209077066 980435739 693368719 223797996 809046389 960929994 341147036 830297781 235332081 601437299 467311102 653659928 275757866 975123610 632921323 302371345 372041750 520879680 814439829 617753940 129171173 995979978 64872183 334094833 961276256 136600004 802866095 535314591 303024744 346010469 364515814 135219693 405700301 429531448 199602727 172796442 344799902 496096635 710503779 890965105 171100486 615590754 63750281 267006306 439822240 729471791 674915699 752699454 747059956 383165907 730124045 721423451 514382487 654695696 434253274 777717734 150597873 541194279 94744543 557149204 872434063 487044541 786089232 552509349 605834766 866783301 175419081 962152258 403917836 576421764 908322836 120818967 897272119 143225772 984386530 563236000 741768837 104945255 536570744 974427402 641163904 487526003 726736286 618125900 656859366 600464571 28840054 34460241 927541907 994189017 225408088 116612412 834645895 33213445 480858598 983710791 837734631 502162982 767548267 163821663 746025830 109140867 293994504 550754359 964600787 298390774 194924437 958190916 903328200 860956705 457525037 124809468 987107062 92844829 283543852 194501253 923763939 472999930 867364831 913215604 499876865 84799585 671434881 849472401 986968374 277158377 331097500 416836901 786450522 866540447 661917862 509596265 882457505 192599845 942342246 895974274 861744137 910825288 614025239 511843801 76640307 618572033 897932851 945825615 6606073 515448708 61708649 790183192 307997933 939616293 499156312 548948141 777538607 364149113 381275402 618119330 774810609 696785316 570280140 883998402 324574674 27972209 305084267 806205221 803499086 971102987 418735125 723581515 294088998 596854974 497036390 20719548 25942384 903385961 201205089 638236511 731745617 645727381 538727312 956621566 617747473 32210332 598058205 542396239 754173048 998585112 538016262 956746290 89830032 905830995 630946719 137403260 419125692 171901287 377855271 66277733 425721300 544032259 98983588 598927620 918244789 224698497 784030907 402819412 411452194 805910802 540044367 417822813 818972449 706671280 718531357 928154044 654147723 582964416 722044683 243140313 937718249 901390023 934079851 724035230 285715741 472129475 514796334 335794385 252244137 869638836 226424784 252523044 487783463 565553887 103580642 672389264 227177943 668190793 74783726 753013438 440748639 874860204 755015513 82416061 129900931 319117655 768115530 960308953 107797412 71951109 420993752 802162792 675698545 779958064 61137418 822614677 844641251 326482591 135535503 833198146 814395651 647093620 893296861 588140759 212571843 846232356 186699060 626864669 412194553 795776495 999721983 66533489 971355343 526179081 775119566 79287554 263880891 26175987 711923831 177851658 676563804 903994850 135057807 825617374 269682215 11656751 217930103 110655161 674591909 751227952 769683113 988803178 514736248 109198912 266279504 845633535 974047532 352108803 908339488 122653498 74705698 386487503 617338028 214604840 866217771 927448822 857395703 739039938 88166010 52624991 341955531 532847146 208028911 261106826 169460226 752155529 611036409 240394363 561019157 898848224 305193652 729919558 210508591 720666441 180229442 443952533 40137648 453592704 921471156 205463945 39174985 76070965 786770747 342071902 26228923 814986677 559961240 286963337 654886688 822858033 104476428 223538949 403279165 984982078 194899686 874361995 185136234 826757408 592825543 348935211 502149790 41019518 776807181 264735904 86755663 341501579 919775827 824696222 557431998 538347899 457973475 558736292 823251828 492643229 221779505 595671360 368829647 34791555 362410839 964245624 469468302 244821283 374372449 368937150 819444709 900316161 905975092 191906570 702587570 639610456 901336470 895313218 600187768 197682182 527938087 649508950 910226681 514240883 242484991 198707611 93504714 343976082 631856508 417361807 272064287 518970450 935644044 99518229 216560253 614642621 153900288 833776247 670904672 646166780 615403081 491317423 321266094 335700566 923166514 827135298 885449106 420805214 601868348 391433442 252671103 678977725 854581548 827081941 795673595 409850641 855814617 190329566 27012510 110154050 581511907 857304527 954569272 385746043 627466117 231986319 711638302 792760805 205187804 291174388 969742676 893442220 846996032 176001039 638005939 107623612 832521033 182223781 192250135 747912170 531202390 676723109 651232288 63672325 260289319 557210504 599270382 355964426 29223611 647223022 963772253 870856195 572569879 15897899 257673952 922624500 35672900 283229745 312604810 654343340 926338571 721285178 956118756 540257782 331476127 649286608 485797332 117085523 219544564 570759620 136560905 621361615 464450795 315547664 549357943 160867825 245900262 269696081 834006112 403916515 107343476 810673435 491925379 201251609 8278544 557523560 903062836 626873218 816945222 900983459 349688042 151468361 68431674 20570167 752895923 2853428 254933748 996259477 519358531 31884603 252397673 256086940 723244899 182756783 829321749 898305729 662969308 842125779 93090788 439973222 187525901 327431556 478343475 117147039 571561682 451470963 303510529 309043461 985639390 999705958 42861854 632346000 542711624 778088462 602791853 833127794 23497581 685900 543925096 146341812 576887566 194405099 545168110 920856487 736786481 176943782 276153778 318073315 693290623 326700348 162119302 241712688 489293864 581630583 975309979 996849928 317316485 341441645 695145165 144226480 622577456 617830314 272339813 563602571 104132606 115739288 864438407 766708428 77606258 562288328 422464743 382858215 324464314 319020090 456163621 245010960 697843567 553630937 689615236 616948877 397419869 550951455 998873452 106105549 437113685 43750849 43999298 765931553 878784975 340588272 244434663 197064667 379530438 948311112 143851349 853788315 946980448 175187788 426382394 571119251 801473019 488054166 40850766 231821570 628973560 978356595 751660729 783558613 573557075 658009158 224858445 489646788 606236125 225701360 407417995 68004302 207747620 182013000 276714384 680158862 743763795 505414632 297093191 150076247 995567621 153465258 308780337 143834912 718454601 162189461 837781973 195212558 263293834 605075474 543455752 996410832 699085647 291718281 877834955 939013928 72217170 734935160 415866005 869473978 915794627 579443586 503051117 402482114 1951665 900303074 704958701 414846407 27111279 773768246 438656720 432161761 571363077 89716591 937324828 857940519 62634071 766772515 924232507 940911525 926362581 974504562 468784283 96965187 160067539 183949609 426308405 227245975 815129653 952922906 601864306 842149950 37812228 645293978 657583650 404769309 882674896 313865035 120164239 32660959 507447464 729733321 59263711 396945981 445712825 362434501 78827477 701316554 84689160 686011278 9797134 93810139 301101107 1268797 221581369 226364083 891229795 10041043 442917772 432160754 400370622 5728128 514308336 163483874 173110302 23302836 813742407 733339588 653106462 178059551 498483117 674333869 476156205 869344651 117996865 564858803 543806156 173625120 857233039 883844906 218301721 939915585 999901694 931729749 396944873 467896425 877006441 379344381 589180440 993025576 926247759 880736131 738556101 983974318 964746689 795972566 146421553 917830368 932065398 259012221 948941015 131122479 721504994 202685168 300961735 498885999 559864097 306127349 813413235 763090936 541016269 700109956 790078990 936849630 590886482 562341822 817546415 83583644 88700875 361491543 564512067 315662263 250524228 77790372 936726013 221039442 798007722 377337730 797533096 499368094 375488661 848891341 679065228 766081914 284412426 546161308 689636791 250305678 7917326 262729442 393453938 33333695 334017759 399585132 80556655 746756924 338439613 27009433 923238075 947709881 606502816 662801249 237340061 367839351 366895133 840040947 259009891 264930187 171560464 395675876 714518772 677552252 582509348 962779672 323467668 49007363 591788212 850336872 865052670 556127710 678335975 923309031 570897692 185558346 213229126 970023043 596400266 783826786 725360303 612952800 966175450 354229205 401713688 772942921 559489674 499732928 306001881 462330585 232658959 141176749 804980449 458527606 383240629 974412757 676274995 262767746 658469295 383799797 650476354 746830661 98833151 902442100 994982592 771921832 280435922 126117539 6830004 648486106 991345795 584494631 595133843 66509767 265617931 521471155 126850735 293237507 803018352 156930110 375439593 814614031 475169785 545850954 942937006 697597544 432554022 438053175 849973473 44328425 821362671 582398023 438881111 967376159 85653047 442775792 107580051 330322931 336299895 79842939 919378339 553202724 577888808 185050182 288975816 430323276 529120953 400750320 672761544 134089252 474926841 970398267 439288613 468657951 74641722 669385326 619391109 109630177 594858689 629407167 818545380 67178066 893468521 98086231 505309422 656172679 773702345 854549191 170506306 252960139 903319609 807874920 695979604 505886795 256731905 63717911 940489678 472426969 683224163 680334449 113043817 340545365 95113767 789676042 277281836 681679634 999895136 419386751 910026531 156231421 702783633 976669361 297614750 385721447 793036327 952813136 428065167 834881458 67167198 817147828 126456101 250811508 211267891 18435163 4377106 524548017 149336399 316631056 473758669 974610463 375717930 958073869 427417670 309693745 67455679 610221268 690871833 475557494 418972009 607046788 210312599 297830657 543183490 165594031 477069313 699192494 363029608 992507127 355175653 656247072 136350542 280618012 212532133 782669019 789064538 683567056 966683852 494485915 14238049 734610346 238210494 54436701 695202669 56160433 809922979 287821776 880175079 104245517 485540163 863086160 868945067 582203432 648627034 786067143 340078783 35255531 954928178 253526217 561234234 537729726 11392669 587325050 403512225 768486116 590968731 366765331 854753980 4625933 672963642 903922106 927148514 321378308 209345435 479051168 555943592 197784152 36934179 726470102 882752067 979235254 298730483 378653002 604164755 259791798 618057891 606150456 348927687 522332331 185399813 214922565 749742655 23965774 891512070 143637564 527294241 142612769 551141459 745071719 500797289 941208143 297842808 41681463 515301444 400038964 485621414 633519078 833519100 713617222 830657074 856351090 355381666 108972033 759517032 90921365 409954601 640592033 742359436 348472991 756714675 533209150 658400001 377299743 742056892 827183354 220679444 127950614 530320681 444055362 123095188 605184146 428485191 524467358 693568550 911956056 710490890 169908150 42185995 201396150 743489089 498197764 312779735 978476220 830507792 777339571 229225366 672310950 354902062 439293282 18968534 662314431 249117094 366262896 49706672 645737294 512108708 947535366 175496087 930970085 248158959 736276881 33855070 288819727 166478013 744316027 935479512 52128919 115394380 495394442 759460917 172356611 124752863 285024792 499043535 319659142 730014088 306626820 103034815 190412058 314739765 549940757 783301518 638786246 945213645 964265412 479235500 445470206 954695931 461154231 184243881 230599626 101771179 717921497 261443983 497433917 850166776 343898215 690265743 470487091 522799913 577960456 265342502 469173931 584406296 775897974 13829524 529946570 989530827 447465725 493047171 291237440 283683269 412788959 170556242 601712382 66730003 284434598 963069845 891932133 543890147 136486217 703384792 162923273 133706204 844109574 831260656 926911056 961616735 556173776 414912777 71363602 373959171 137773538 576755318 632633349 357229412 517180145 493847391 563757067 970868252 685331455 145509958 871433240 462123866 320377272 96272230 702148540 313233203 475560701 947971342 946383475 742568503 984741268 400842521 901178823 175170129 848212819 533347782 401198150 684919463 7395518 432486113 231635893 85806142 964319880 350368258 802671879 280276101 399359034 93057603 511059181 869717774 110273495 741441481 622172926 834866832 289141401 93608577 701355872 5395001 234599247 19788250 779721817 730028393 525821355 968718014 902597483 97015883 140044784 987216415 101218829 447884885 954613085 293601110 356061178 221201929 515498676 739427885 275672660 890172187 484481266 856572525 898495105 104666402 345265306 124500714 971211275 18143812 779577543 934155624 36433613 378465413 524059622 643923860 701171171 877073469 339399416 776016813 972807428 984591689 575246309 170763254 538765761 383061684 693275411 739062173 34188884 568208132 366099147 708707847 22388388 102710807 152596318 35284791 7492668 550526381 236134609 369234389 223547009 778509616 186716694 504793969 312757888 62309162 173536106 580630873 960207962 121368257 829230319 905529915 371052791 454014426 825884664 569148260 444285702 369202935 865798295 310873892 233446011 792809205 385964683 521332616 737700860 13829195 437647549 693883458 508479922 247611191 866184354 687883051 281885665 603137714 730964257 887817878 97211954 783425036 719095493 271671035 997734017 151073223 485578551 321591134 197345102 758849070 621062810 474057110 750493573 490436134 353058019 469217791 645821128 72774887 850423394 194702791 264530224 347913203 394372223 755862926 700359294 69593314 823696881 943652531 50511786 846087564 215441157 342141594 957034951 938868151 919317031 738468124 525766128 795963084 481089278 474968894 325167730 715301394 840747605 41346684 721379241 246259956 270682702 699018513 556000883 311554344 164349054 883148941 639501768 161458060 499824074 393978761 772656836 766882142 490619110 266460140 66252073 152404333 66131668 315096483 972140246 698907313 676292044 750107818 813000046 743381478 349957264 7312742 141826697 452933501 328348991 475583919 619964355 994299516 867488384 206117423 876674023 969495102 683558594 440019180 737362210 899279259 635507400 314552079 557230874 389360993 252431185 625799134 332459316 58620732 105038378 31163445 739124042 260767802 202383283 831766125 583352091 379606801 108095893 103654672 170045847 936143375 880133594 431541336 591439273 193972420 152804406 949602533 638761393 495665437 177428441 87790267 137260752 725220510 141625190 767640096 937571556 632401020 74521264 755277660 794873713 836297983 927581097 96097335 447143154 48962512 40765500 286805265 955618080 526156118 558216137 248925176 964669005 930086710 811379771 105569912 102676051 620502728 203393237 756045658 128214986 407135881 324252972 482713219 425942318 382740561 179546888 776016420 621121040 427477856 528190141 742446814 573459935 994017772 572531459 866373381 842498993 983178385 926220878 627080250 914724228 711355592 655498866 177261207 75628082 234781361 219580915 21673597 299459049 405234391 230299093 181369983 330057353 738218650 282088447 18745172 521323796 598057422 692415160 30890109 753914058 879320107 712463876 870920522 310471411 620468054 50960025 855083834 41664547 82861407 869301474 285359658 879933249 571751412 867146957 98962464 494937917 607619326 883693750 726221605 844449293 661403835 546354590 661266309 812621037 330356241 977155347 373735097 166071661 642086424 163092194 772888376 971445820 176384669 230128113 55178719 495791151 477084216 528779942 796773963 594928066 790347430 264971638 253472327 82586873 186441159 412139173 696740444 105473538 187760288 643626951 518929917 182829851 61704797 254559933 648297675 449949898 780434588 322318271 451633547 42650951 818945258 581233024 133391938 994440957 476344148 438290411 842910899 101016156 368844936 948977887 380579191 921564959 278485004 196569743 14368571 244428506 572314029 557381847 166514888 626354359 329931419 442116241 991811464 208620359 147245662 249028646 762561358 402557951 459422220 529938577 16841802 752167226 869083119 924303824 329692358 444497704 224768541 278996561 425203545 782940902 568556731 263220060 918060951 537866108 516783844 184555394 508700094 22014165 928593528 877454369 870100995 69947759 404338235 885857800 665539874 392447884 491384442 775169826 894585748 46794742 215198101 763760924 826302671 823832049 511348639 643478344 532999148 71163952 232160080 757763888 911031028 609176211 234832182 621444122 101514058 153837438 901745418 420726567 431728799 342074271 645451481 170975926 822323295 737027479 331732983 594364218 942143861 872519868 99143504 994516943 756901048 68810343 410113710 421761290 484838669 121532055 160976884 845083192 798254859 965690091 118812922 105202167 775909593 336463003 575274879 382825756 209890169 953161883 377525061 820443853 252960775 365452392 560740238 118793455 374622915 718402674 538944493 598769412 211194544 478336481 584168417 874821566 310648656 511421258 226737806 796089878 549382626 778830726 234979502 744246890 204027011 219816430 351339384 549253059 113735117 887065825 640474696 726475426 883923868 829312644 570007726 267695582 444940376 489143572 714721293 920878600 483857870 483598268 394746381 659171324 691648453 970246091 355029085 31434365 67227505 709826644 474601201 389265726 846810983 411823412 991686279 714363237 433986017 403528936 100832484 666331783 308356844 413695700 283030104 64338492 735760511 273891578 883116882 148970887 479157080 943831367 319203669 98404751 996279 953059263 370407856 366723169 813202982 260248000 346275995 688055688 629659191 796218565 819748482 705748792 742307958 257708765 732005381 812904146 7903522 712914488 512768782 48894242 732696947 952853647 399302761 577184358 363873188 196337180 715619974 111357260 799994934 43983055 836318199 331570640 771301676 377337008 726419903 686452692 330640111 647923933 222709168 152979844 520634661 925047785 501602508 942512438 185514704 748530640 564746683 731977528 751920621 598144013 256466705 973588678 52105275 728108514 474708872 257417966 843331802 141026033 805663627 107507760 321275867 305566787 209190255 697637202 185737310 768046327 962504320 783824468 765092853 615520313 204793413 576276206 611762259 115737679 314828542 253754866 662455105 264749235 353158886 901728366 864357927 259270681 986748127 688275675 962097899 522692850 927917500 613345857 343205858 337379503 852882365 569132425 831569631 762223361 309654387 448768980 306416773 941978297 301910628 29707676 416373344 370042043 647967719 176713703 73311624 213854577 616881639 172132278 350466682 153593830 533673715 978758975 390864471 390200429 892559789 690836592 601865033 180249499 118653965 547921663 307183983 908383982 913326692 472988818 762198730 667847580 746556201 585559744 842706 866241439 386107721 743615831 106150537 936503918 73016615 520250008 218943594 298776297 191009299 812295921 722970311 467603273 440362334 344330648 579788646 186066533 606716351 725945700 861653736 48410279 315553421 601959855 180667057 151163459 898989219 776265842 154042011 3860786 200655 664958057 284115002 736161400 661243114 193933780 362504401 830263379 37653081 203034482 52565383 538825374 31144325 275627027 85630540 696712158 48058823 201351709 109506932 852306724 462989712 668031074 776222515 243166116 67933346 969906849 953720954 70697502 900497871 330784063 769602708 24525917 506163555 141448549 591359682 885908912 886492855 913684985 949259351 104904756 56203292 855118146 723353951 572174049 843655055 744094168 27452622 777542554 637194714 43778957 17268027 889569227 242007437 834082094 946622255 136475757 926472309 53284279 210661648 450237289 292862183 473080663 419982751 122564048 559407594 120706249 867792306 132958992 357165848 162969372 464972079 59431598 896242708 680493914 55209196 238858592 719035202 289584055 323100664 707470726 706810172 86981751 639774987 827955277 883305978 502935530 909645672 842817671 754816251 683387768 697516541 189143001 298359440 112661267 608392422 839124407 332184858 750936518 480161710 193586769 948013763 552107672 907352296 613790710 915361472 462715247 882029665 459181930 55073551 663823273 508548954 278587117 899591220 515894301 60631820 811345965 609254171 871858180 279933575 723439743 630757634 813857594 773586656 412678691 783648702 886669360 786373151 710148702 313816250 104767519 118395886 979046616 443520498 502513495 644318459 176716771 201103233 329899296 916276575 815861608 729715102 822791870 76864384 776820157 738613717 690980208 77519076 521587828 284137284 288566705 445798135 709903682 126415033 122203882 517376226 714948336 959116380 699196310 815298482 816350586 514618412 11408828 256600126 178888402 674838131 147038565 944106701 639147691 655131621 352548457 110625676 255392231 281990925 691810215 415741391 141807003 561632339 146856116 126528068 430640793 753639957 125492907 618250151 830552156 293959562 281038364 20354881 274952114 357389916 292352831 640381538 909375264 377944489 481125235 443410527 528185785 538729098 538786833 851271885 87302783 443193530 320725453 541241265 191231789 645803298 728424985 797884831 157812778 539621104 355370452 582838765 157268808 445260150 396653361 582714018 644721726 102629509 726428421 578282518 83891450 368810000 950590649 103556038 233867258 202389750 706455977 553051382 870709990 744118876 200768675 177020983 512214452 368647672 873599266 477464959 402107746 413605819 383021114 685157729 985649403 756774592 279982476 450364161 362214462 978287890 894115064 909739472 113331907 218840442 64658433 461618053 907035302 310759309 338649564 610942968 261973717 865611024 464525179 706293853 883604378 240232792 717198284 13301302 722182079 543567813 219182817 875499984 741566914 948753172 901705851 767287737 210014346 342053800 673715592 775708539 426458295 717458113 104733751 639261627 254421963 926986163 749314319 833608836 153515260 95550204 869581218 197993538 586494412 468162435 969968387 964075453 11586241 76488738 960513752 864071314 34413629 125875351 866401517 37459549 642254181 202141309 910427267 390167337 366848047 85303785 175235439 324603766 419661278 16776984 972605119 924025203 628731847 314657686 347855258 379678461 166608032 985181165 936498080 174943702 981486388 114261969 733636351 611841813 629001265 428239167 680023676 377912063 39720097 828828117 357719036 187141501 967826671 114016849 358176879 766550119 434240165 960410086 290297044 13546720 661983666 216682372 804330512 282883757 917835783 868275320 397707841 260246767 587597012 40075226 22993359 829452890 620628270 142001891 325468615 169502040 31058162 999536848 348808256 526730322 805521458 705912100 952958991 286666348 299238389 34079343 182121169 63386017 38867117 943115602 757492994 729721719 155555284 219925162 178101883 615379814 432468501 339131590 441574527 200602888 933386870 543970230 174213635 498002105 920130645 407785298 478636948 19572056 51808337 523405319 903813207 781725609 87176900 36674188 205658998 330066219 734452578 426299821 17262480 644808989 489120695 609978401 202523263 318226593 608806820 917944463 885981140 435574830 127753435 851025985 463723458 182175519 124280173 686236020 547632938 332411447 65981141 13302631 999917114 362998371 491247831 996703816 80009147 995393207 24140978 709874426 860447695 553397164 230706850 502957491 376263696 624902831 801056518 199142964 691331749 41601768 258109164 796239112 112009046 122721050 120904500 962808155 990491888 589977658 467553932 667054699 116252553 976858642 594508008 21148303 189602309 722176561 916347684 63063776 111891250 427541801 897484432 453391210 949321698 999391883 476920055 841292401 408492115 643166214 74299999 806556112 652321095 233341556 336574404 477546988 367138771 184205439 196943238 189881223 153176548 366021333 205073197 236073817 307539972 155186027 700825734 288215406 799578502 518178946 898122131 884305653 273486616 232876711 915736023 629243538 904910543 550173144 523511277 762702328 373562917 836799014 493421154 826445606 248543195 746173691 413308767 517607144 70348821 32418199 857229466 592809857 62484717 713755466 219864729 589859037 700739038 549862063 332796589 558632301 47141859 500174211 240445170 600451376 421036174 559051016 718219105 910589914 81296471 394999464 720890298 27986317 128791712 824092068 141186864 225420898 177397257 346992311 711838724 625655040 79741261 862888828 925393279 546776469 478790456 695071751 377285268 226600647 815706306 567805940 200775065 954178973 396569992 937313994 933329509 560400100 212785630 5688932 5286059 741504069 929966335 951674548 512878335 212497729 394871659 220823868 167922505 790139445 789860635 149524090 644673893 511354463 589152768 684284801 234347369 952423362 694480842 705401106 165116851 467025189 411121121 339107247 440470613 290229190 81180967 239059296 275018739 486312400 769502238 945777985 428654661 985280062 779931715 275567809 689176481 969071237 264023312 977310538 327292357 340345502 132685696 365873948 864035237 617671845 520480224 773035375 751664592 160934391 300326245 961795663 659879384 717232312 453951357 840564099 894125217 94565177 39022113 694987211 930396572 429718478 897396929 697090901 89921731 660071261 426773545 723268372 143810508 505314998 234942300 317048279 749585983 2893191 226899816 719175596 33338801 140038107 750228436 516618396 821284308 548802300 562372478 674158176 332638523 662552685 244966442 651380104 393493681 334981000 17955544 946791437 788607420 261899959 39966584 241436700 33227229 130825603 179680044 977076307 483167425 689476974 194924859 648567839 970855540 593093777 628431232 745498999 672271219 342828424 403706508 240178680 489196508 803837326 834787851 721692537 357284771 4747705 677093013 951591724 291979826 326104885 294098050 446025341 233189787 843329316 191786100 627397763 657874406 456838701 387314084 750143039 17393204 495519159 241759146 722315858 847307889 993931060 836922524 66857539 458996998 684652292 395715108 155014314 270481262 888726370 300028088 870545748 837460891 803696046 442848027 935141368 620799956 112994246 138464370 929002513 479508730 519483229 665654270 399791757 75483895 39385708 475208892 426244220 944106416 510885865 7780476 695128086 188784455 794358705 250395691 244118104 595214561 163866137 578177310 728998543 327372444 351951355 21086832 372705176 251966544 901000933 526198672 298169721 842152879 951742620 397446280 843852960 396847026 803210714 475333545 473949124 802191306 832297644 268637106 847310102 174360153 424223033 900249197 556267347 704597297 945414191 513277080 665133243 512490344 581580989 264378032 304366579 616225270 54917007 2645092 980806139 334730302 31418970 593950691 963496623 381475145 252255780 884954159 417213487 312570151 14877907 925965021 518300648 760713308 725360518 242024068 120886640 893807611 180665534 450358569 412230989 53379555 573625332 297407519 368232022 426577991 174726795 144394965 826683214 685307054 613017119 563079533 347270089 843398973 89440901 537851730 785816843 809616612 691015547 298352257 471796722 62236863 66043205 448720684 571358253 319438996 842979220 734246108 491000977 61630603 194987529 735821065 13213538 361713717 539850805 159370465 633836760 270149269 715334384 238098506 870119636 206651521 721511348 626419839 50298379 171624104 735172436 489382548 449857301 543439595 253354759 844590021 990821911 374138937 721449685 988002758 142970522 484418329 328158336 707422096 837869812 93530037 950908220 995294790 837139984 693244209 538848533 528464844 853148987 762911140 793206156 608285540 231485203 832744895 592858673 188721237 858399178 977212443 94628875 652373284 245579074 391790855 660300214 627552526 8716809 392839514 40240501 442277156 431210444 749622250 358787348 611260653 328187324 729771917 874847688 216575689 513491076 85414406 430510829 226288027 323740340 142879745 185744274 404567134 540769783 857651929 341530875 13817605 506468640 499354157 133852062 653466655 362082332 12347819 516178290 194117156 623224005 862801952 318822530 761170458 294314801 416210871 800616791 962125060 671992196 514668777 408348808 277104820 603123461 135385529 368705542 197039814 619463895 413601962 739371288 935908449 119407666 190315551 611137583 424053267 697449273 616189726 949420434 618299294 284403054 170786288 743175628 429782789 996776529 859968720 690318411 168038063 677357812 220420253 42733510 752722683 960479318 637397869 835884829 332581403 388073048 871641055 607431506 489461178 299193387 32593543 9067344 413698499 200538098 757513977 997467828 952753669 507287807 45398488 165593087 947859465 137062867 85027100 588863592 983877323 899132489 849026384 174602557 338918576 859620209 106242628 266327817 440315550 955116747 645447972 303822643 971822547 212663239 972218141 156226606 287722722 511523644 365360713 557385400 310577273 771920599 939383011 616756168 48716092 322339754 163645062 96453408 521892050 650834223 316912872 689909162 353199201 75973037 720210583 428203812 544459781 785549266 205189671 109705489 886466692 472290537 363943012 811561199 775923798 764450453 481470663 20940256 398787057 279241168 32508701 980617688 135766078 79680051 971731622 374960164 278697914 861868890 151826070 19003164 212423547 184164767 706304417 626335035 316158754 666418954 393026342 910732071 159866980 964882065 703936699 922680958 490329535 992904829 898871676 12046844 200904182 320517849 395343065 721663635 587237168 731278005 943245531 588705596 844292137 997712859 717579700 912671679 342938329 375026311 711752421 584873401 178541824 192173858 348533846 385306110 899099123 919051015 448751004 202939065 758631573 146304310 297251131 50961889 760351716 959725480 585398246 564907515 878929291 620615592 683260759 939281296 350157849 408070816 955683719 468936254 625746958 856614599 852869317 794997677 546685044 747300086 45979721 425862579 124639280 312146325 757650776 641268830 32589507 934894454 897466448 835841167 992780197 571080235 983095823 152549759 884902804 444903553 952010525 152094181 816050330 928996439 312778107 240071379 56225154 88453297 800459746 284219340 680205450 749988400 678668173 477291170 957909983 366343877 595567379 923681016 599356238 968983687 359224414 231997686 59723628 885032000 303446596 910316256 303927545 585720323 800446761 58884403 103068092 797303100 281344002 952467470 517079988 311534392 151809105 445190483 445125021 377964687 34663473 811580982 675051987 61394029 678234951 925951370 739767154 535002512 642373724 147820523 58174770 120203950 139957629 504856368 872818888 848088456 273713438 391323257 258920172 750179362 852136168 169668083 377372975 49399077 23884260 752925166 994098576 92838129 446512796 489828746 27411083 267823956 695600318 212375457 339832371 884885 236093653 638066952 36240678 281607938 683010974 681887899 860359152 956911675 883232649 694031421 436473550 809588979 922725698 375948053 588096013 629865774 413318477 103412209 11135388 606648873 715597575 728459178 42629462 462185213 666685399 227975207 453336464 895942612 319051131 911427314 157243941 790072690 795633378 407882134 689758301 201037646 928575954 329066736 738823586 734116246 376417010 235499055 395859713 454319424 59749608 132443250 277234060 444554099 193826587 867422725 375279791 679634394 897806421 896359333 965407304 633218941 299558242 567478926 306844628 25665616 876632410 402283663 493691714 822963557 511852190 973598079 172304935 638662023 949047552 835531583 825721844 584100413 430943913 640623624 138921856 554282574 239465711 584977015 994604600 823466706 745985517 245311958 391286629 716554390 555878060 848935822 520026769 612869273 857562789 67787475 755520498 602059464 384705918 911677491 5187680 927850850 232538004 697207600 240959270 435119356 547147838 674532039 796781829 282294427 101493070 795375645 212752015 363387577 432315822 141884213 503375649 449301974 113016511 36382920 846615708 884323832 164932558 627196566 51122464 307833386 517149730 529553889 538299322 906690649 765694636 402270142 449661897 516398384 170782505 821980747 684320872 96501660 964193213 704548241 87304390 105521050 777797369 812842628 867976984 576835036 778691917 666216519 376037629 310355654 327278158 936290741 688423872 679705240 463368518 528197275 244537458 900800129 378718283 574112339 248385279 48131119 593418216 261975389 891841990 992821330 980418613 144303970 857308645 906831300 83963857 56398410 684724204 721265617 351181252 429876455 877023635 245649039 999982203 967948840 525027135 181426877 117888247 607687237 190448679 623022566 930207286 760515453 392021683 55151458 667785262 385745551 522549632 666341553 510745112 461944426 213599455 834102274 341944698 495276728 450275918 908879246 428864276 294341764 449042674 952596973 244151107 66233114 379103046 98734629 419661305 915744244 554221065 235907095 399527267 265264848 439337498 898232546 994812137 163966711 194001130 402360673 576484204 44933182 432204182 68734552 367717891 72135131 237280043 368506684 223400086 467303006 97690923 719688603 108301744 700385839 135450510 385238006 345450829 575769760 751597030 461182139 737335536 647829504 145494940 136953080 601440103 204384184 344666205 943466744 322862881 55958381 712928676 894614870 193891589 607522137 517452403 940426380 542205926 956520322 506824810 511601971 258873074 704097021 234820290 187041711 91594850 539344823 531990163 499195124 558265167 27637446 527847430 91991172 442480206 637847660 850233763 782624321 766085214 195387742 824717755 898343863 324330986 143306571 951628802 286031831 225208262 769577701 511189306 945138480 481618377 403674114 235143144 559223605 514808316 332640754 353761254 666594859 80305753 553060751 383817699 306538264 545911623 184952325 146877359 205669927 293866627 96418938 271998217 326839797 210890335 678688861 448764986 672890567 531483425 905116373 377602817 218568593 156022842 391946943 252187879 257518046 339924075 619671976 200943154 25286396 48020419 329908397 11910351 815004515 216920286 826361420 740746281 759300127 312921776 525488008 256086210 809671657 802479773 362078887 728967529 346946814 409019491 943854805 30620185 876088706 321782748 478531323 15716599 77849590 104516306 185087425 618465334 309401683 836252144 61281130 185024462 955045776 552311389 416042892 154824578 361374089 215309543 471379860 949746020 603530817 542402822 894473959 925145905 553889416 350731522 691846893 800094006 161933579 344775308 21514040 948921761 350942342 928318355 687464785 751416455 546156053 889852917 785955400 398397506 584746975 386838758 46977912 732256065 423329783 531880209 78911360 612464722 547749846 847904653 329906993 628188477 374274633 888152162 302589117 976186245 915189516 437410804 463646886 517313053 394722321 811851609 127145313 233463256 391489355 195084981 375138906 434352729 847753926 518856062 974200756 995101638 278502397 677196408 676518880 577115610 828105739 829758233 274923927 374392918 731436266 141826205 186553410 720860754 515210287 889568889 757737134 848580840 829049502 945148791 211323768 429263661 24268296 652451956 846450434 89736398 724874248 40241618 481456669 350477302 847198314 739906021 377939431 218904231 174413234 70265898 371009975 607974133 694452610 783735314 49698142 282354128 245004328 305773986 281526685 535910493 51403028 758303462 189597670 30566791 329438573 43877157 94860682 866154881 890732217 549355882 222501293 208775553 888970547 68383975 409525213 414664501 835109106 904982635 522743007 192605416 238435596 550538613 567251492 664797011 994347247 891368 407834973 175585910 130755310 499820339 809083289 435622550 757474723 289012878 761825230 661725751 59813623 650953348 528215861 580470424 710625567 194672523 262703976 550034619 211764228 620781345 153007184 926357223 480032190 605158269 136623750 79232719 760348247 944993212 351821384 782118293 590214535 837124072 997964558 792733607 350121084 775080726 187835388 737897351 274098202 869780182 120051964 65354805 751238665 15080884 548669028 84160128 12755811 703528550 628604094 176983718 187727525 595487766 758942944 418201780 117208904 495510963 642608548 739429902 352825843 173546632 580057628 630063174 602950082 1564816 496293910 804648592 924290465 10403074 308037008 246488632 876176853 876371054 385274983 395779062 201521077 365497157 701353079 993559936 773901929 885478320 539042345 310023143 170141571 906361730 385415748 263787354 48043609 632238494 990674584 291112536 747392031 974871673 180201374 423018834 912054419 94046025 117247255 448361909 345022916 605332528 681530396 591373469 633167388 523985983 752737570 215427573 495535601 637397825 297333150 268277568 754844813 470913994 962099770 306119433 77998212 433725954 418525600 636723874 409061179 690145286 797744114 503826722 139352483 549641164 972664599 335973193 424891629 259099850 357283917 297165649 865357027 914126435 411080808 941364901 340027430 938063134 655078187 928948897 36845568 237422046 123463654 666803407 345222533 704202286 419420119 439280217 160086358 450270333 756553859 538678430 388646562 645565971 750457391 514939290 660463858 301548095 843080229 539484560 207906487 850704127 476511918 215957221 308569285 889826067 665247599 246215156 234668834 630796567 215137140 758533968 585104542 633391664 753454823 498865824 864894317 173991032 916950979 686775551 937110927 580471759 600527860 561573085 691724362 386001643 750907730 240098476 844745610 617489668 539398044 586244391 178168644 818046317 728536935 845508627 486057051 905961364 383377944 565836538 596092932 669922678 550686319 831941484 959523181 54473796 936597496 614582176 318148762 855908704 266195317 912807961 464151791 261070876 685794921 932162675 907634351 254389028 336798376 908550016 542395039 707530629 916116649 577469706 192540312 129032958 810364438 809174881 572522694 832804615 641607101 291720978 531391774 833880063 307515229 151271822 265302131 319041486 64761013 948361875 116894490 105442270 944959761 115540407 410080593 716446892 883759697 309160222 146031036 615195168 49656465 572025554 751249470 196053841 6370555 243557691 178699041 78783719 459024558 36383589 405201332 473707631 629715357 395456681 372689889 531555037 76648752 162782725 159712591 830052911 474209395 308098545 782746608 872428840 127958073 426396498 964434500 567857106 206450368 194029285 813900825 746557867 892335378 815747910 122885796 346563810 961806867 588608640 811709281 149420227 93903884 428877499 662260670 880527575 371523190 212099757 275242156 666627690 391682704 590703676 545567756 101861437 384952834 366168061 473119173 395110726 664972227 44126026 571785475 75337030 523923192 672357769 838561595 776511226 138981943 235484628 390215155 495781544 636193217 803098863 938180345 162347859 533682504 626236739 639118203 873634223 733337232 483792121 87854993 651366532 238683693 958271471 253214481 289502767 59348854 590759814 273690743 917774933 693300714 28392573 864570902 497696095 170906906 554560161 296910415 508596556 870638845 429752892 938444379 965730624 973365794 629742956 526431509 288883478 782754168 180050613 332327568 547999367 306544021 62181237 803355357 852984673 411990153 814574484 96051593 424116495 420733134 221222622 239079972 521228933 737151097 775358158 422706214 90383116 859591741 115873736 778777388 829743761 289363021 976759452 568971637 621051414 922439604 641413064 943709731 693917143 898378749 58340537 355543399 149770867 160337595 911787655 171351623 437500424 460895565 548421661 208675714 118296015 462194051 367881516 769696558 492474539 201982839 683169939 216244732 769011377 241314219 735886004 5357509 390691382 904071804 577500925 925877400 542079554 465642303 447196643 908471903 817931253 187646424 614344918 993550643 27971175 656431968 682339797 292392360 603789205 428388992 852349555 438150809 779766704 968326389 600285511 346345205 414601575 198963181 898698564 981488987 522730517 208850982 55252329 191699586 476606076 647555864 672463761 904966290 301941925 39888071 649471810 971915586 121299063 469458159 844602074 796090125 66176111 657081953 606130397 365569696 623006693 677628473 208856432 897958926 811058581 615315906 436296357 243085588 259211394 967374520 520436839 966469268 282648048 852316810 206028650 463069951 14511654 586165141 434100000 510485580 385064837 95826903 113559625 620425399 62363179 150309851 582418607 262878685 369411740 147785134 258001068 652180937 210540652 817686209 508045495 569877927 681860347 465965442 178322302 169121152 256558577 793172410 71567035 295532318 136224952 173496517 687531557 871215997 269382158 35280843 611836626 231065958 618430963 389395193 528728661 156895765 682127268 925561691 146763795 45952889 60370048 118276202 815644274 819818751 458375646 828967373 950584129 891309171 223601822 63892706 61908047 501840394 156248457 54430062 856719398 51729868 31511366 476590649 664377410 654561023 242045117 875380896 600298957 219368453 10137629 552758278 938277867 270096551 424541064 767518270 145002000 117814791 513421487 86928550 176692824 116324357 358556207 407843632 84536332 447569342 913525483 330407860 226594855 209117178 249729503 429556388 301198455 981190629 938996978 504219906 919385454 847062438 681576023 205533045 705123186 879308112 575854583 983769441 631624520 282361315 650683538 577048834 14930870 743147213 924396802 186215646 491261694 420501145 782420732 671429618 204140144 245606536 878806411 166058838 209874127 311438284 486489780 720018994 145438046 820302040 609220322 493324438 720433803 848243106 564930123 39038143 54969156 838115858 937710966 793900634 167608358 516015286 236836676 978553620 408479686 632345952 878988761 305431879 551252464 32496145 558179517 935790287 84426155 288173156 252873698 870019889 287578428 268012904 942375570 392613730 399514830 664379049 990012704 4058276 633780807 590311477 858322798 321843832 93256413 674913458 287474759 779909732 210135110 901014692 400677427 933365999 378480137 487131496 636143296 679626726 689827531 719763164 564525212 415799301 205750254 413518425 50807941 401330454 822865872 880852357 432603330 401964394 312081104 936696892 211610601 187728271 126340801 717683875 89287727 818788571 969314923 379439905 493878173 195700366 15393859 629160056 151945757 988856052 83645593 312823312 744286932 26776386 979804804 844171253 442930028 172976263 824588551 203383187 253304800 645024277 807595663 979749664 277379854 755644090 410251994 509766921 194496452 989952951 597314012 409305463 575467622 245789329 942449956 957573217 503515932 460116060 818840130 952034560 558588386 12588138 972967609 744441702 885389942 777863637 504059524 133907766 175789894 231989240 468522023 829314591 33661999 820545211 714670416 390660772 852445581 887030480 222949231 975648692 328562288 271143480 842901195 736943785 32145156 202829120 894387560 223741852 766514369 708580570 96603403 131337883 378251386 699827274 819455596 641943413 267051169 25669773 269391137 348570024 427736253 891322704 777299374 577241428 34196445 282043070 6352808 431318417 315180772 849914271 406399168 755268761 877827916 897712715 727414943 624421010 616384 411279213 578539867 900119004 143740284 600569927 314247586 556002321 834060231 457568653 613562675 937408020 153724473 450605282 757437246 307796751 413659484 741979470 228552049 688058549 145773483 358055031 820326615 599153549 767581191 54731386 580811723 989588664 282466156 283023321 196808435 913742815 52598569 575904335 622172269 64097975 95903859 269211853 778991114 134723521 375607264 779776918 192280789 112035007 117148716 572857856 654391836 58095962 248768937 897591465 712724361 417537782 395381560 652665569 258564644 110430502 606389366 633380276 53255202 144714300 472343275 906485806 669994236 846644703 335396205 176745830 136121137 253871153 670400269 410269274 746144576 556714186 939117244 865430338 850132020 920783883 877530018 926558210 493828940 24407476 198761591 186724362 192011937 552734167 912873597 657888611 83245109 571973866 919021644 227616050 226826788 665868212 892658379 820358130 698284649 866686341 343983029 280301365 961072125 539493203 181629678 127099696 172274440 971577806 893311542 741396680 177631328 817288908 768698954 889110464 934786313 195453162 685753275 517388988 471637424 803366457 90670215 562327909 705206363 786083788 232589805 938878056 436314243 186125612 724157544 964020520 549731183 529911414 20629611 996864074 971121562 940158500 429247803 171500923 611198364 933028579 154974096 637446986 705300845 421489962 292660832 597446697 346212014 848337278 227970598 239101791 616432150 198645159 831398524 479764091 690830015 40291090 609014589 796765286 353034157 387864343 615434076 842224098 922105602 423503798 493920913 277461665 864733465 641435891 581713753 810419533 207247020 303642634 12392175 230629664 933462254 342557935 900919132 258087950 478386741 652970308 157318512 610141639 114135009 985087732 698114012 553562247 945976493 564162956 188770452 901767121 82185656 417309636 434119195 459088756 650798162 838741820 121316785 338078122 387045998 642250451 414962196 460736041 712515111 115357392 108637051 340057461 64206273 720800652 995649018 937733574 18045030 184387928 60614059 950895520 536815867 658615242 737041679 99908566 363191194 551222993 101093831 422267832 854945637 996327880 13808007 14464687 45855148 423321771 363997682 637897008 50065567 121176162 259605869 321139240 553529504 247628765 367931187 245089936 548727672 531041975 648875007 499863741 178568939 741814279 679881 280971637 381065099 647545824 814492278 343273118 80493813 552232961 454062398 913452839 799774549 198269874 783369673 181818647 995362601 838156994 291600064 33970109 455844163 520165381 396482068 983445070 446897188 358969629 913668416 642003367 161249520 668745827 876142677 683393592 235358579 5961598 241373926 83336804 593729517 31878684 689595076 302272011 178781997 870719386 687448817 34557163 390017592 580977080 29306761 772263068 726944359 199234554 498049250 716128600 556558040 691074268 229545307 498310993 300708972 121907268 6300613 548452502 751952273 353383389 889559431 258310654 745795375 940747246 527825282 511571572 869990078 30471037 731449625 977653961 242815002 677480813 851501491 70880229 768378427 728478642 396622373 314837616 859624717 25578160 228661934 29120334 205814277 274435692 548914582 232772170 523176400 125009243 977271959 216814430 834510712 964877618 391942399 598798373 371962302 345187195 288564814 52572393 136811876 141926804 632009889 407982023 934250979 753441158 930273576 413528511 843299671 481501166 320201775 916028197 268026158 167110030 620355300 711648372 727084351 139389557 927602073 436422756 947976280 396240372 220778962 649526855 110307782 512796245 596460300 633283169 812017572 366221739 602086847 584044410 532118943 750318592 372261763 989058105 234861142 450023879 289883404 996088459 993872038 354596521 862146572 833253754 909170336 730519764 126676751 486762587 875646643 158279016 439989599 489323590 14579140 899786541 695884416 812889036 904454096 691928896 895179093 109816053 586566834 137258599 948318362 18801415 490064386 140002532 172474934 273990503 174218555 161797732 129588931 959024017 300764832 837531794 135796676 735624342 573883666 622470805 901272178 326888505 311958356 583795165 69442883 414375174 145465362 889376609 268660429 181482380 806918398 766117733 815779317 406466579 965188598 694864086 296539243 804109513 881350760 147155722 11747747 416823342 563148662 995860087 811469179 260749906 733146438 950794606 789871100 509904068 636450799 618240900 349830115 8916043 342051897 894853796 384390713 307746799 130032776 243031976 904520827 259186928 68024456 140581344 869612536 526734993 61633240 141383159 961760119 74335964 581408059 363707008 989440810 798449125 451568745 791921646 327334759 260692460 298064364 669415338 264289559 969822772 468729664 96467752 876265441 726748543 497181659 313084963 444893313 359988489 509235139 448864967 607310061 679969613 590990568 931609428 171584451 845435649 768719035 662873970 638909859 785240105 784035240 339255863 165357391 684839973 943383364 492589282 874521544 458550902 910370967 607533498 957264272 125675011 61276123 610025779 724127837 878632252 263820102 199556730 612963838 428599549 748221584 577320369 568157903 159837669 944967067 657402773 563408848 525453299 865377640 777543382 399080369 972798767 484697192 224481820 187725395 184389364 106176854 400502952 186348781 515477495 157430104 506450758 109046914 58144873 795931520 409518789 457229337 753564080 917743031 753921740 399298733 442526007 994963957 876390636 892631144 790588509 586369155 254468448 698641589 185492379 720233623 412874047 705453095 570781783 189276750 249956098 130085949 600903228 388540459 624755786 268700523 537150537 968415083 552089327 309748931 437890926 637470988 279608095 663635820 334469844 900671401 34663618 605628118 216193240 897293369 828422965 775480361 625878002 750531882 732951947 251797911 942876556 627417209 886489644 62907721 568518360 969408342 489636367 884547041 646048172 167163340 894074495 581053774 823135569 901543134 12257567 324348530 369504914 888604188 53469138 486508049 283552825 66381840 922611920 635016887 76993044 660100903 958841850 816755633 112927830 297428628 523771100 197312121 96552480 938837893 619042796 896763700 282414450 100140003 791870863 329073850 446499142 992307030 373760974 328340768 311405797 993782495 897932349 71862493 10846811 96117853 571054379 860929192 842491412 458462749 287868127 1041812 445594037 835350803 876698632 263253699 167177743 454054101 198844650 637148428 429564232 742404958 115918581 609139512 443811066 612887536 833534545 399179669 353424695 405701263 933627182 219185040 324967937 2528075 789616213 60719953 264598149 264666608 383245085 237227895 587267143 328129203 57427723 19927853 971393256 281538582 771027748 590873687 313872015 186072400 162684172 463786346 358125719 322131401 345488874 740943739 384274902 869523169 810158757 524195509 51288404 268833520 16249481 169348437 21093709 818204809 641183405 880461819 549834674 729370171 786270458 369051699 326280819 437800253 463027949 730776370 189331261 475129187 818542758 859881357 225921128 885413742 296687123 153624478 832291069 891258689 674586536 633943914 117695222 222662896 372239820 810333731 196378276 91459431 857994927 428563744 975243845 404292340 284836676 533017980 530820456 584608018 92866418 323214608 52197450 101444533 993308179 780643704 314999296 26220658 147714795 372574482 455482534 512244395 23317599 512815714 76009909 659925775 445825296 172711454 687209332 933737133 355337488 989152539 986726830 368190365 664709267 756922852 193209514 606929178 511494569 875349146 68980325 172925753 896826056 708737094 479139933 906502196 345710225 671090003 604639629 919322248 900751930 943262058 213813997 609374233 319944981 578200840 696027755 961114714 921196059 24071370 216774915 113418660 196390658 650484963 99728236 770462303 634068627 333775798 601568200 584508105 804762592 665814219 689961005 754332792 992725669 801678963 341068201 649458869 530409507 559234235 306991188 893248610 949449343 579088687 110022494 408979607 56849719 870195939 524776168 391035920 219982343 332010477 223290696 727376357 64416696 856239799 337686562 516529538 92627428 367848638 756196738 722749584 233504798 685113669 749906130 995522894 422337113 531225942 175521501 220914715 353960024 829014114 471656918 389846520 821418386 869230992 97917242 170029232 446349514 35627687 1867140 214034779 386287250 30315581 332276370 44953990 898106431 825059780 178629495 599815001 468679361 79810421 274627699 504496637 808918650 858257286 322710322 212536848 634414704 901820916 975834087 691471086 162317514 625190275 529897670 960998535 429110971 204902370 695820429 887347116 151721350 46726210 83006322 32844812 574069993 450939231 525155385 222341410 670355977 25831151 305587716 424121551 555452352 262859925 659768196 595532432 895508644 126495850 419507539 83146533 694139874 8320162 164691359 815846095 959984693 77534830 613008686 157200309 421861240 621497205 553488738 877011083 548349859 122769862 718968753 622132416 843327348 315212880 645811799 323464296 895190483 426477570 119438294 672446630 973131079 957271066 675576476 573991129 362124131 343839777 906894477 140503457 343573274 44231923 982165336 580821793 471000703 783724040 198899713 650298135 627450647 818320911 702147928 965676964 171475894 983321602 430961348 419023429 423690105 723967087 670189077 302052412 706764977 62195912 560762044 783568046 8477068 53707652 95773777 108391916 192353564 781256315 573208254 613178740 479616079 639653956 761250496 488868630 892398480 811294257 354904023 503508887 603166421 402955553 119722415 855408775 557995729 233197578 648824516 709455997 989390225 487344649 105478241 619149553 164016154 97331559 674389782 3916504 768799209 652729045 467004810 940048937 156547230 128535744 568037043 632315400 75833265 443649821 351195202 819334088 821612698 811276255 460558325 223980275 860170522 967259506 360011739 4921167 637375350 528443375 9214188 253098632 121119133 754317468 885845813 524252517 738599566 612224394 221634231 833356979 53941805 809496298 90940382 889499711 933609861 478013006 489939283 574997727 476662978 593340346 370285012 970091445 796539769 630138114 516682634 632147519 766269282 792466761 334621324 892487451 5033252 379946782 519399919 408813132 794847531 892845444 633289159 991139730 264049187 478406393 140787726 140779208 519884239 358535367 164652708 916012399 528238778 557508359 21994180 371785925 278931315 789236328 334897127 849257294 107637952 67128618 511311816 681359943 54071971 235393837 132508736 259423740 845517583 191871468 572023540 344701900 649146 208189551 814238730 161680251 632414371 704490088 649239072 906497976 354247567 585849647 866376343 814294899 586749539 430198616 813413897 395155264 650203960 357729847 329031114 46002206 808033454 825904346 802576383 368805034 443816757 221090188 304807257 748102863 903670551 627230736 693411084 682064320 364714445 275900117 321267984 366075271 816910544 943174196 283365887 354630983 660976900 984649443 677839151 598824060 852165279 162189687 357419778 17721253 952310549 365698964 544870663 11976098 435485541 646279937 650264624 492366196 785965725 191084549 693347296 944656064 319444958 375398442 37000944 943944265 227864544 938075868 243119746 322196615 96445035 762451419 91030070 755322695 854063025 409090444 832944922 668515861 93510841 658172138 925452381 236598854 152338092 825544354 846463675 322156159 772188649 132753042 971466715 962412449 156517148 694075023 750442547 323915023 562858388 639454545 379309724 882111038 996242566 88034485 732463672 415812586 685199424 615404210 668291512 770711379 633981106 678843754 995664009 519012378 372477785 983624606 725518416 199894098 352313929 305872768 556803253 786195704 133352300 89474866 871173781 997293441 275426300 112010455 655113607 279109397 542149967 445036602 340195790 793693405 738541742 361561442 275235032 428525869 725165281 304555536 123526292 524107293 182137548 386335384 993177097 355236987 902282042 796793843 113665320 295271460 948228331 162769497 221610038 476287649 259756000 263737502 61263512 650418995 203186110 616436045 957068930 195768480 26505165 367064978 84332320 881648716 149073471 873964868 101692159 146831115 223474418 932965716 884378121 333275946 924551538 432132538 781732198 956983628 173892584 50315651 894632687 277612518 831460224 987781409 459329122 908894298 559317110 961959016 973846692 736028885 113830010 831552790 526162135 872429241 268185248 702112708 927250823 508539730 225209301 511971644 258682486 216828126 601560925 944160706 637641788 238370583 372957815 422511439 379170300 826537924 970768386 320613993 630716792 125068627 841990520 975273228 905609180 904180245 293220687 247095433 270119390 600210501 214881769 410782903 550803716 507413577 15239265 65841355 80013944 838298645 942517323 203235710 772578625 573369769 817599134 601989331 683228464 877952623 792519805 817834025 930155780 282440315 105822705 217862305 296623121 783765411 96511678 658681549 252101077 474029122 457882757 529338638 799348610 893400665 714503591 112757399 747433399 316838954 738710214 565105963 839509040 144363401 711599270 798529589 373625654 338280433 159187188 740309342 266473901 292813780 244192776 145573738 641932922 737397475 881732648 982013570 668819655 511203627 389202129 176998049 425665042 328771833 458585347 802032017 330997828 308993871 566331143 559753910 521697989 924316348 554258711 547029878 138288237 904783725 144807638 985580294 804783024 904159750 526019156 342915078 345746534 580905874 822375452 753509531 812244068 937976933 403544554 446750156 896988773 74727114 554047812 488143156 135095814 686931446 277090515 918603579 868666229 692949449 252971785 591121140 585463461 35313477 969220447 101750713 251570804 388130896 838217678 240913249 686470168 59239697 132387980 745170406 83259849 727450970 253220916 378299214 45059599 53996670 617191868 486784802 121211650 364531148 986222325 53865605 791318636 901553962 256058675 288857003 725157540 134698456 990845100 534487813 489537793 732895300 87162756 869362840 656007272 109067718 136630012 517120329 117941787 768981275 709887115 882953959 473852239 739058457 644827606 717706757 954190614 914317924 703121986 741864967 733302085 890703998 462119805 476064471 921385713 409492038 462247141 628183574 437411279 272691444 246754140 380076546 185968172 326786824 986312397 334248556 192986027 339136750 348402152 377879875 919549124 699901097 895554283 672494289 143565174 796419019 409596755 896046640 965578923 872732877 59872664 228823492 424635315 886250184 7106244 387538984 772097158 754830739 865684653 886130119 365395791 310927347 416405176 622289443 361985167 406230301 94865346 548655240 208349729 618077188 614250011 721772022 320812875 700212694 254739468 248866787 753544871 916151273 143210871 147762420 438099502 366290874 70080976 905630790 867959651 106809324 274707627 62849805 151611184 558435829 110408643 433405013 256021096 477563879 277558552 941436359 717073911 983253097 528199496 36865152 125321838 395505709 444534999 283562944 203971205 11755247 896569364 788329923 246191603 411571706 815646657 215451137 841345264 753422085 912910908 143140531 836420555 30501578 343692954 791747230 185405587 125725341 505146263 41983832 584258963 202850196 890898789 157994603 100631222 440025560 674991572 352146188 597487644 903533318 131934189 586302771 612251017 467612402 421407120 101922889 122636236 731886305 166168920 925117283 328378009 998933709 602490645 880526888 291040693 988155146 949029548 199238095 891639895 978301191 596598345 897616355 267966378 148557484 535334434 325908246 772975600 696213758 722018748 475245142 441795093 139007996 564803272 771116161 117345253 864537405 541336917 197769070 533212924 54101766 902766079 111723646 614363062 103449614 196779812 578382682 127592606 385704153 650725162 900223543 168585307 863407633 679924424 615898381 199771506 488022259 310714975 872160882 129801580 393978818 997105264 79529827 144049033 234243018 190641208 801356113 32930460 876500529 165363827 466177477 462786435 533377547 515430308 667646414 795709967 373308106 350495728 393654992 800162749 881909876 964989824 957698474 712548260 129775873 409491719 234695956 437310723 64472882 60124310 799644618 140603927 397301412 243013961 766389605 427062260 240689972 904513916 364710476 895338454 403754115 497901563 215353531 510875751 537401726 176982909 710720905 432463507 495959216 853017280 593348299 773315167 836301030 434512207 794907488 701283447 141416392 362966064 707270601 156468576 298901578 344298465 853676651 132611600 851224392 662392314 697641869 199341646 743910408 117413874 496978919 194146067 328363194 668357960 848499433 12762880 83820952 690147805 224558932 481738649 680144773 581907619 818674400 405400534 297706200 715923997 308667805 833865976 647938554 444562184 877663733 667000490 298101556 769158237 364492139 971466462 340737683 922692955 457384025 789788669 294885232 563030893 121629516 474071110 920485971 857971685 564534168 866596755 445622020 967195260 307461790 277228105 57344722 250939354 164372469 398328817 183062148 420395164 220957066 886271981 913592397 151552904 655395409 290361869 242443432 290658893 801076695 86625396 238997412 506990402 139277313 661777847 313292416 158578172 988400367 867097600 323304936 708624965 878648241 170459237 837672643 400702275 902893123 187386321 97274333 610102835 251770155 482315096 693321494 142274860 8594010 886199297 917603929 764185956 796685731 790493763 311183422 360126688 889454165 309330929 187491728 739835573 647794566 826043165 176630341 551006584 664898834 729760688 497396908 298736011 651908300 981492643 71180928 49221929 944235819 513634972 9944411 392024279 387145889 932810528 758866950 695469773 683584460 993966008 868166986 929281307 401255635 692695686 4079555 960254544 112291560 753079216 246743495 311659700 179857319 468625913 757338308 863239987 261408 175036454 838894292 409971638 184238871 724539908 953644214 140897310 829795159 110975267 893219774 904770152 300145333 380705593 292227413 18137916 750341271 496370845 183223385 436661611 920830634 41887189 172651117 239179607 750526974 837060560 951976765 375592013 942399890 809917760 310682526 564762642 605029016 494108989 292911964 20737152 101912795 723673221 965411726 73692614 956895112 838771325 80122698 37982645 702624325 557481901 774397745 911949035 230057479 50590796 770515850 841398852 28327840 310132403 432165983 771050375 943530814 391754692 429026630 193292424 343811543 36311894 906408819 751121729 720251221 943655767 248143905 231270484 357522503 440685822 401949451 750676778 53572230 452514956 305157439 176621656 956984706 300876860 528999931 296407631 977142000 983848100 851408335 420595329 417082333 498331782 809128621 541496407 149839917 719366652 392049719 555454182 580835300 171651676 405906124 948278031 472700926 894826899 385873512 331411352 761255083 16464065 890279921 597784716 612563163 732498974 151269555 614220071 551178960 233376623 388287834 616101420 772769330 425802834 940138433 488638147 671963544 430046443 697184707 985471748 239109366 501379222 69675377 613231116 166375331 46084306 266874158 857091164 523433700 703781212 45634009 256723317 287693222 576580840 135454398 104528357 15179995 820691690 815680403 250895248 938385086 615276980 424329355 348614045 166545479 665715897 716687324 262848400 355255218 873194303 623983844 638904888 272941300 51122696 344981361 26256943 889526332 76455088 605198031 641400949 581956819 730309781 171106977 934737890 395132238 520346125 712331158 730592330 940702739 389407086 123612772 930563016 881017680 262568602 400466607 658704573 805335544 765133237 804596005 608412375 315618948 393530324 205547935 592706819 503605303 265684083 697354149 836369591 114972904 92642014 521050933 616179647 517581378 973446717 597841860 202433957 628854002 759009665 871742841 90538339 539371812 159441653 401945433 391975227 388563343 680155796 76425233 455833158 51003914 374106295 725039399 162737619 34224262 349031923 639288725 638894623 709191516 822960620 550038102 816615962 494557527 735538471 573410229 335731378 112919471 852882866 621691622 960434614 82749926 156521268 937859918 227235894 818528785 371522953 194534759 611162107 511114349 38508404 466493843 959246107 379912083 508045643 815403291 588546707 647954699 643253594 663007369 212360977 493127946 418381167 775953917 700254024 481062283 912871375 446713867 281646392 256847662 911539830 757627938 7228971 522856549 669766766 664385395 853487294 543632950 74474363 553673589 255682352 87416116 68885154 573989016 619544645 19074752 272225448 502299892 647031781 847617199 112718037 184306674 620540435 27078781 406492712 909985727 43590813 684402865 179949344 259198230 608379234 366243116 982492906 555372865 125716733 621294986 552148962 888456717 488756620 517901435 176453197 997175561 387798869 320281148 225024999 404506234 292801077 481629320 420557600 265065898 521321003 583579317 574193776 471546210 628774506 323255661 737724230 435585411 178546965 290324677 394614054 99494375 809930833 843073198 159312958 544136018 705388169 905407613 938442403 855375634 260720675 529098799 159743184 209171593 421874919 359410595 92042188 97006257 955062600 595120811 292764449 26193427 734314541 162860666 923204840 769267691 695147833 157594021 100474135 137757688 602941531 18307226 31066129 593461455 851768327 575555664 528950966 3059532 98793104 265961221 978275718 269764297 309065938 628836645 183483327 87610752 907489219 259285530 821218346 861789710 97921979 984541660 824798766 232119966 819007683 574501982 478452440 739428788 113405286 185783633 388349712 754964610 489344120 936566888 796345995 914153031 751069829 85261726 993205507 139778711 652777268 851263958 464896614 395798894 963052412 12034908 350872821 664557863 568769709 328339758 326285361 759714566 449165571 714056680 305566657 30908018 503070263 515463715 761337938 384528576 681099780 369881115 382741454 12829965 266151640 408599911 996558315 878499839 593145177 610873257 957384880 795742529 691100695 966445358 112392442 635249954 184740546 191952610 906681230 110011408 268714985 41987096 442717129 69488328 508909681 418841166 914285695 665969368 33965980 879509562 794158746 540241741 988189966 504355129 957104644 177824146 320934489 49271861 348069386 53483285 985322325 49616609 606987581 218342337 280725756 13591684 651834642 410960113 579186759 53931569 591990728 251987121 253768078 134421848 215577814 747456574 961279095 868255525 47669888 23252183 862873353 601337765 157362485 625609901 116888072 627057386 457857 668189181 435507490 40965359 88680307 985899904 970100051 457889949 906884623 160495789 768930500 404366876 699212228 21190212 836100519 141172133 187760999 419881119 392100025 855804058 402546565 119756104 467718552 839302623 389742682 479015365 129625982 149470685 13446905 166610486 818143598 858370751 68469501 564818157 909058876 474880829 921013658 216084815 693910381 510716861 778591706 183463326 993963089 282056444 649520419 410195499 932120823 899133462 413586059 521748254 622496691 957514880 910651484 776367006 726569193 146390009 547630909 693955732 409646128 908917602 417073478 476990775 252414567 21788028 327297681 218720822 965199195 232502901 592672633 324837445 437869348 517733235 528767390 428223605 134360629 506147644 620741986 774153354 155607742 62895281 586878415 273135421 799224859 482294400 720930817 227192012 80757094 405389992 64011622 922779651 536122525 195351615 672833331 334355494 613211187 441391088 7382891 983597254 431476857 901479624 49173863 91286679 470411032 162904856 452942933 862094412 997427512 111636666 284939370 457772522 874338804 88553490 922577618 760711045 515528203 234275588 532447497 554760679 92990223 755531922 365222268 293474810 469629183 147952703 719345437 988637366 620092547 659208281 292945945 7095557 976223465 144932787 462990529 987284227 914243552 879627965 975134977 373012877 11640806 971585442 583225942 600498691 192853966 987123932 361217435 516754544 442903545 39209610 678634805 770762060 886519150 642825053 464377873 472933673 380651446 58082439 770620320 509933660 795237306 616281638 988736257 620063713 586999167 563565418 766633496 72254318 976582618 61395668 221625281 473167397 740661114 505836563 128645455 326226063 294324083 393663965 47780989 369988888 772267386 366514559 953217926 469646746 669760681 362199159 973973784 192023402 983148943 162228823 195052817 112568706 315736442 801104769 259872141 470946175 645538018 84177096 119885072 105944286 851731367 610296749 507437517 14287420 907398666 262305028 15558780 792176449 826382380 498505798 408348093 227346617 466389173 888410710 763777552 655935160 365292707 371761438 817292607 806622695 910142647 603584547 45401344 170726067 788811075 343930257 179826413 241564217 250909301 58857443 547781930 269981568 338318791 828634838 718194575 450595691 314584412 915303562 554070519 400379480 196423897 153677189 388008737 917709753 324235067 134300119 843839751 330141593 329055264 996612273 229469610 730719565 105608868 975103492 643562352 555356098 214465845 845017591 572432704 738209050 737961444 673809539 547321892 466989669 21636685 349961012 33851396 831750328 796314368 683237691 204717695 592780083 743587198 775523486 27424830 827924067 204562981 352139552 689974046 418839980 274077427 139902831 67287198 905870622 873485890 177263664 414065830 691090029 800758898 17714777 377937383 724091132 523142233 588682004 682908711 582031211 10250196 802221757 781264778 727610448 186627084 516365898 322139532 827282543 141417779 569266159 782529466 46986683 547382930 194139718 34622228 832679408 1378079 130199476 881097012 486137901 998742592 214708547 172696840 936042277 812769055 942183549 452042254 116916457 972681770 645940071 654355880 412348221 931988818 977509680 764830861 140688154 899312620 663244707 991070530 955774553 213100087 984320386 738461939 357215567 77959568 982080687 160951089 519190936 438956691 990931 700003670 826328983 571659432 705789111 131886932 140932965 736114486 114133393 209152311 848983371 795512324 346540903 933529252 734610729 659011772 608129482 361206151 657581840 402532273 436972801 977767799 699037491 312871152 470927356 470421870 253789086 208919705 759280889 200037017 970996292 706948934 51634904 953600129 785188816 654429234 946970600 989376115 136699319 660614679 663470594 341138689 116702762 534503557 967225007 629217371 502606555 536945599 656887013 994159185 327707079 579329899 547772187 489975690 383130310 521216316 22931157 831672801 714218783 449144300 916482421 208421520 364814567 283325926 298261345 584950551 78780932 123668180 985331212 1898184 357346996 143717193 219547297 518116996 292526913 718851215 916560347 98667743 561127025 348108951 258529608 439652314 817774039 86584617 838234918 726259707 371199232 927689671 810867056 714126962 498822433 340282282 773341354 407068772 102839824 82133134 342032343 820891344 550217974 839010074 896460709 205673811 345673191 949104696 255855601 650230120 742854766 367869360 332672076 230356327 227387983 309940354 920479820 473149036 917273274 111488417 397439737 301112140 154368848 1585327 343968795 849165431 902804347 617539726 991046626 88752391 638011104 702210581 790873339 23123975 760722001 785767538 496756187 762131389 38711530 620744068 687018427 570947518 954910222 742871710 650651536 480766606 383150373 847710190 158503607 227386505 132512097 797355751 401654884 174779611 717849281 969167490 260438885 19998423 227654938 840622394 600887909 581947930 175777840 61124411 893641314 275775987 860438426 938832626 173334946 955543322 307850885 716252950 694922574 300454258 446963190 620743579 438357030 711950328 84720980 267997148 355623718 783511342 289257617 638931308 640252753 977570373 513114490 737207944 589910466 999227301 615635681 723823160 423840269 748432878 360268230 170870703 612309226 472835916 438522606 931363212 863184129 924705019 821868720 256029940 146226716 507158956 238677825 829043605 56846412 676092806 959768563 81874455 867955018 520800611 690184527 551097795 438132796 180993894 618697306 571799482 316704111 692645365 647823057 860865510 980179282 904304509 455522718 436238911 51653530 904528616 661250006 781367147 944500085 352906387 946034528 689690582 500674104 216756479 915302879 673705577 9821816 749011230 356497999 998564970 341493336 554330955 918663437 350671578 722896182 599355600 755031385 528315571 229511745 990762611 708292740 562202358 166617506 658147005 663295350 643570848 393622551 970379673 989614148 582203544 439205836 999703489 6321232 291683698 343583977 54702330 123525690 348209133 212478403 409316945 562225889 920447250 474050408 5740594 249614141 697748623 201219572 580144542 805372310 592988065 507875040 277658219 183408582 483397119 231401906 662325734 422755993 179749732 181963601 461708977 129758536 147393386 374715783 680960227 744534926 306853631 571573656 728391064 609341492 578201508 945263071 891488772 78736292 720024975 915310482 717842157 864769307 504246340 540325134 267353320 975741590 403766013 743869062 748984804 350914974 297836286 721016484 66054845 404963050 316293466 239220108 291819344 101483445 476790347 394673935 919827474 43084206 668419900 836520129 159923402 709324151 623749501 287993901 539443087 317358092 561936194 4876867 802018989 455702900 155645018 61770913 491077590 212225424 599404374 386435514 43408826 153715657 267174728 107506422 158823372 346937320 911617576 719748388 477071617 513438223 937180653 407626121 834343256 303971402 233560703 466495411 526055698 887492691 913367100 147561771 885123511 651020849 402029039 878716801 40059178 694734770 936538972 714900857 103922145 524624294 158306253 985727999 136537376 237929676 996803148 904021537 109035958 739337756 499677606 39075828 539691369 864844736 27955452 282457009 87877355 220731847 787799650 616736666 572978119 872060833 14356099 912391715 946479395 315459784 883784903 63546772 527186755 599324364 12854559 504065737 115862651 377978332 526584591 695547160 995618008 620148252 676207350 581181126 300481526 125046106 264592661 721556299 969222357 449850728 22756341 741111874 289214114 47745747 746190291 441303208 287783055 923452437 558236569 434241254 718948938 495958301 926936913 581100897 332901438 523409688 538240515 874353763 625796490 724622060 476223555 869782997 434842059 697874166 284317456 277693822 683528669 808301998 796923722 48358947 8276315 346434135 955780354 566812279 146195878 192683451 445367974 978102135 967049889 212100611 759596058 808099305 778937436 107571736 26605079 569927080 765017301 862387773 323558766 588381832 833302126 246570957 771011918 189357394 264835766 213803684 28339712 34973450 837319009 785173554 433778344 424199786 838350877 732459305 189533841 166376946 652053055 949303170 584894046 632073351 18230603 385509519 917996308 660337367 611624608 132097264 183599565 720087682 662197534 407942117 626871854 48184837 149072596 97556784 713707935 165996027 4170340 346908487 770546316 304558538 41622128 409775988 875833542 123412386 264222259 542593178 823886352 621851443 846833670 586210116 156151455 469645548 945857426 757478429 645841839 90707257 98530975 144466104 316503451 410674554 88393071 379094560 746119987 365937491 916208339 914514412 168770966 264730986 768522598 932214222 898892457 970217440 277213538 58136254 281037769 758142730 86408421 355780865 833588096 156078176 79404201 595729687 243133131 435859288 443226652 998769119 43407311 895176983 507584397 889258782 425377645 373507570 930591253 421896712 559547986 725427879 165782631 208197693 880701043 554297001 320129751 405386606 152094228 240192737 561267689 764613243 435911292 216748647 36490015 432161622 161352720 990380701 132314210 876053752 506164477 657637764 331155948 355694504 30787382 747583546 366056372 909950699 564423785 511039354 228061476 395570324 515418116 803333289 711461761 25408852 867207921 121463490 358531755 842341080 615140846 804462515 128815589 847465120 779770229 388512312 614026736 521354618 736395948 983320103 640613714 25346931 419110497 437973808 894601722 696608068 983627640 661393814 829132326 658584030 74795065 128599608 390012337 253245093 596040663 580017979 953489087 563769043 411347852 735096513 520981873 677295782 292067652 509397512 103351069 554469849 947524733 280707401 741087794 287525059 753028236 202844682 338378854 250343854 276844541 135269995 449890584 490988292 83048017 380829780 941802052 957895964 28722312 856625609 663204002 25296097 934640633 653722752 533763192 453499608 84410075 90130340 399027113 770809159 988270329 860397957 187654220 697760227 880234645 256636660 576306644 840761506 645326920 294474771 563367730 154013196 716534778 812864432 864720750 142577465 573087768 390207093 841653118 56748784 667816446 320167433 195163268 631922055 236910785 140774240 910635273 445053059 7176209 585995343 180868826 483596687 19801768 848242087 366744977 473848475 26611722 682734488 55552675 620373797 45390685 49385719 336822548 532126462 483412145 498309421 667565781 804448828 546039992 616738832 523835627 26703241 966595074 808034773 56398002 19168202 565345710 921145025 791953684 798252706 998191696 614458869 580015185 799145972 738346097 335999773 479080796 863174418 925653281 22054474 438571305 745378244 236530653 87287180 404253773 886450753 902970198 541670688 546110746 317284305 499231967 149873104 288231439 393430934 549255807 179540999 312777740 704258427 368259055 561721222 116506389 350940812 622111453 833157361 470456691 415853845 24080943 782954532 706329455 551060428 285654021 515552507 427437246 110659721 932836205 57090836 344293738 363967340 928217731 659186209 711457195 795176132 250295228 800613696 974772488 233802242 255850861 405558835 926197247 924012513 409258591 578606598 481610552 977461514 2583430 459432030 622078394 630164897 630206251 510296251 787067998 62523564 638722848 702968840 329513693 439960300 661190227 899482143 564664578 763936689 778848965 481522376 176751730 126502573 246751356 429432548 295284364 76419087 249378600 689030391 998408192 557086104 86972029 795874709 907873556 262402115 945315114 640704201 518457322 640359228 394632141 122780240 233079478 566438 632807360 456245560 4558706 499099798 938024981 20775688 457673571 165609287 186680432 99948077 793097214 81742529 428944698 112925703 32153165 659923634 859956657 282934048 177876935 445587011 261855870 627569752 259886111 929694360 930400061 655199884 464801717 370679 386280522 275129913 364813089 987036416 773608067 649176261 72449084 955402484 422452228 846218662 241523605 980411830 867584708 327557178 700465350 639063329 572227513 7696771 890985661 708181163 609412130 368261694 684592834 901311448 642665519 952111814 567276607 751201066 190674417 308037285 613087505 851111858 84939251 285886977 278887367 103318323 417381864 127650294 154007677 847268903 796952836 776971690 91202823 503861672 904914241 432666729 913988670 430191412 177524359 40177710 586342211 322513035 424508582 938539493 684575823 627643141 223622155 618080458 705825054 792460553 137376252 293742850 436070353 519312004 180430811 855680954 513166018 960207775 5063256 37447963 611109905 652001834 674679326 894224848 772510633 60825178 335643866 72232743 925411462 280203387 782659118 990233230 567438257 682959494 536521790 915252729 237687559 160704680 120702108 171536136 185023446 167117027 13089967 635934207 330611032 914017930 387924964 839839196 974934685 252898898 670356847 595977486 446953611 489208417 554100481 466052072 659063557 806260595 267612942 697514327 950531944 71447442 200628195 347806299 798712695 909728989 455273202 973475109 721691953 422129346 509594332 875131255 247328614 578304477 392857345 928028448 846570964 497013702 863162410 225370612 318127429 480935682 716588649 862735646 66144595 635520306 855257436 993970358 371883010 638787965 192756998 768356844 199501547 427957724 17354353 632785246 820757687 557909246 8561178 220398876 160964213 6448689 23309309 105224 385817897 616462086 244378864 438792630 320032103 815057960 121963896 752751062 27025297 162963103 387159087 895820481 478902663 787119011 99194476 198970659 585293024 425189089 737420043 275216662 124018301 553464395 892533082 866315970 976800258 600445686 504555427 788573879 487716737 599589767 984829292 491796746 216771953 215238509 265819528 947291716 403911077 107411020 276521826 478271625 996658524 730047063 252591374 8478951 869226998 384236683 964326827 356387337 204244293 633365296 791966575 112130258 865264512 156419091 71620250 796097860 489233506 672887098 786731885 971306611 41927461 458796795 129562966 154380844 49259640 782148078 837311078 520170444 32953674 627256940 547056219 521955719 579986165 806421739 488912318 272071724 239194933 293808435 721731584 664189095 67807144 545885460 713824091 120093148 840708902 951570569 800683056 761496286 165569675 773990020 790058023 928046252 992352991 49124184 111607502 580821536 743426050 292547680 199144963 800070666 382553900 382537124 274146912 171513488 712892963 604878709 759839696 604537376 661782135 836751181 746962480 758533119 281973931 620065368 677578240 264865371 957721717 289812027 636296228 367681713 830634971 781118017 474495109 373828925 218788768 202311728 287156112 203894402 623927640 879249033 684471234 275078850 182579869 523739983 546451703 546153618 757411010 531715932 803894746 153530376 790919753 602035886 510814978 497213157 337552707 568692585 761108216 587014884 955737387 972559337 304606447 465539748 338734798 954691256 549256582 61383725 306736788 323542974 485364177 741842100 442682944 585341925 958064390 599048717 865112861 963500346 871939220 516611461 757038140 395742837 378122415 853434499 338747699 619863766 994381455 330476281 4244806 303992842 204274212 709087113 265625231 97344630 807337926 268573354 267102345 723492761 483048602 539250345 796869368 925034424 365625941 597485683 427682315 851437890 342281334 456950766 65642232 242369423 810556654 100387924 914546305 609908599 160757460 496598223 209746949 522982695 819647783 209678148 164445873 779111396 402259281 721995891 103761710 477293725 454167914 59594898 626039666 617651840 773078885 722907842 561289912 302157259 309782360 97985820 289960711 520231163 455477304 18513069 940084446 568111512 208470942 167679467 578746691 439452899 115039118 681786259 703376556 369499951 705191750 765121283 115154136 956125366 634142284 932987702 414595972 595076289 513537924 82422289 621889564 742055309 283210561 164888184 474943779 347309419 178675967 912062193 680936193 818851624 74963284 560808399 761317170 191991905 647967025 910802530 328181472 212560571 946842829 501820314 835256186 168657705 209768649 111284346 223389446 897652939 999684402 673335059 623042370 760955821 367201982 618688832 327765596 624921894 745529252 307011553 804965818 260303063 471028555 32486720 505049262 226312529 741637402 195403 558799514 716928988 566961001 600294781 261543068 619247376 595604807 67516073 667548923 29717850 640134909 394897861 139991682 650312430 929406145 116813858 985676887 60614715 12182527 29871833 90313496 15424226 234568570 836978036 491403350 380619286 943220249 870511946 895364335 93277791 493832829 886389966 750238178 633609748 57721780 536297060 567819293 617133677 279421256 862991541 340091763 83864931 651877161 685666974 460402614 248180864 561503810 765522782 369807924 731367905 563146978 723241048 829340035 882458914 246001051 513282873 870364539 611596691 252018374 819874748 208007237 908978863 971745494 689680896 427613813 195562825 411390577 250872284 432440375 94518118 342699676 658013308 726598269 288186918 248103138 871554185 512722582 557803420 349089310 499521999 80278047 247366006 60664350 233794816 757388831 243380795 716338664 707505645 386686256 530193112 662848774 703264600 993491017 296805368 522603086 141609009 910536443 637784137 661138815 535965380 821063993 205254332 283970042 614313634 612003862 871469928 40862096 956782005 729355026 802417286 548386213 415080113 937460554 944541427 795418815 947731090 807806038 883693115 174497301 171820768 493416960 283331303 507015831 396515260 929367293 588939036 513537058 230665475 174876108 849558033 776754623 64216283 310747959 386826765 616507083 26399738 29075458 312976561 69402341 565766094 176726780 697940714 721041449 156447624 818603738 641911776 195692814 414291518 249723535 768884328 124646299 786862757 287610704 540370982 798610670 434337740 221613134 269404825 817248612 409980288 743097966 297713341 437478389 226927071 809871370 372977740 389828495 881242693 545000730 476935289 641020148 952165376 107048539 850265350 125537178 885172464 965074949 407903737 496694469 605239121 580203952 927334526 348449162 514260430 437319229 598949562 247868557 998655044 790940095 487425347 260979503 695832788 254946984 40242013 468756693 726627260 3494689 923359283 8709634 214267336 48291159 685028525 926066321 142246473 789066539 266985953 658564254 657728188 895956760 182443998 113460966 280978904 643636237 726894897 520435028 499429066 457391235 313845394 758555933 145387806 579208157 402808216 984776331 183872913 95124576 769152638 629658250 706713358 644533492 916822794 995216504 605724958 6578477 289287265 776797214 673447694 179550142 758224349 426346499 565633996 11392508 933355900 156246457 229728690 836915671 3569068 367043371 488804610 217992218 208738664 235016022 909059445 106841854 778996803 841357062 240578658 92636347 651444794 101166014 576841419 322236075 420477735 187197597 303685528 622468178 387922039 780790619 694354632 318288190 758770889 132804272 320884406 828254911 804918357 153338210 287713815 195241697 439162190 178859130 965887889 354490401 928198778 638362098 241723480 191452924 432929426 860056221 537934481 915532971 514497551 315738623 767443197 738982692 853391937 799355977 846776465 483408423 41112929 912386250 91557623 920635782 332811626 241045382 455843580 271145646 583407768 233714021 779151584 426263643 70934872 811751748 711717649 148776053 458818772 730093724 394962419 576245206 39194366 662236108 602844283 211914843 615259319 553489974 798671376 144711346 16146508 464040045 462903407 97818948 981023582 467900686 883426311 866376532 428652096 606526728 669405946 35149974 805451015 850535039 2816793 953454835 288636768 233537857 507321353 742041985 160573759 570790651 321810541 540706090 924293386 13037915 355529928 306658157 759273641 422147902 778824522 262862536 235421050 27793768 733524655 889251028 313789715 882165569 971062013 463876848 447245306 144571360 849137447 227822992 822696896 13452449 835260177 996864864 792661304 326767868 561764717 976622143 116457885 884696854 378261036 400958405 242847072 104631783 717149250 472948105 997900223 216744234 422971683 852335879 231267805 435404909 141882009 224837730 685486532 699419380 53717622 14965124 274511221 599905435 540987771 126105000 843825712 575641932 647274931 969346342 154642792 120749591 725982762 876619868 527435360 41907780 186783854 21426196 476321303 338000315 481031978 703625567 860592080 468098641 296186924 214941449 692302013 462690585 211286634 44352023 365041213 462802601 868206036 948224296 262604768 827940197 648853387 593119147 353094819 360543291 93402150 99332445 727739439 675178318 138201084 606372606 806304235 504475242 92438358 929202885 748248423 251951094 923797626 546801553 348212439 313763849 306257248 374036349 302486625 625555054 437604334 503711735 591989443 308368442 219659377 618941679 737203768 572212357 29134111 464069978 773617193 134783835 266507581 12089017 310301076 164656691 16044685 855600131 651568791 817442769 509760703 306690697 281344282 566878894 147555634 320959770 636293970 961525963 231532610 863400391 739008901 349253899 388424420 731426211 659835671 706928777 875504983 865376189 433739274 910331801 707002613 1001083 731691972 649633593 110050743 229806386 193412751 148598112 11500285 980005335 3645521 177013483 768533757 719107253 863809778 485632257 830949125 275507594 894084605 614369925 683240525 389451515 672202687 749097911 540105032 148717865 195581441 704990493 568995284 837658011 931201932 147713731 981211504 473782022 12374122 116207651 91188455 833979413 927751035 627729566 670042728 98924555 949271555 911266966 154062569 777542939 394754359 234579769 563901529 298912574 722606924 525463435 649601707 250013487 348860986 421142258 683202706 352109782 538798521 841182051 881174045 311662029 424744487 440264534 192488893 738644828 579040047 141935053 497229129 786742666 844707254 598221154 298389897 4105155 374051264 957958258 256553584 439714717 170322179 606410986 913788850 427685895 592646801 255671248 909457732 215987652 855964181 60724690 904743168 731545794 241099261 912566912 634400023 980691363 859130380 251566861 341575069 736711024 947058029 75720817 941120832 261990240 126146215 663894382 854980570 281252233 111388737 790562289 883123306 215356840 245026058 62591917 980071941 306150038 60530213 37280402 503697878 24891435 123153488 47183465 108740240 576436287 938845437 415208559 11080637 247901419 977660179 952331483 550676363 316106355 441196923 967778439 679866619 515869878 391960112 154637144 133883880 73925293 918626518 991287063 375218736 758453442 635640420 198142661 166915089 9337470 915734614 9183110 459606628 860923540 474564492 717460014 621150844 151240268 466264247 911843031 718394931 297193111 171200103 220125296 556073760 290148957 710794875 265821237 859301743 190501455 205069110 16190770 353139742 22003119 826014877 964792969 870641733 597903941 685139778 56761183 634304277 812068082 481188408 547712629 473153309 635593532 760846895 191221305 82573761 308902949 643995337 760142109 465630207 266102080 806158239 92307809 89523901 232528951 934149395 821778924 611523286 493187210 572581253 626806983 820384343 900094165 465034507 846129960 369595642 756755835 767315699 352335966 787305647 552251192 87646833 664097461 772713324 814628330 360759180 651013286 391306497 837602693 393788993 695496665 198260456 675303560 986126199 380263552 496408571 20050773 80250685 898317813 749054069 931916996 510839980 998795239 330424806 571894682 874289872 687963048 36585377 68542735 529681371 885586708 822977110 204379257 803612381 441528710 909638787 558042999 216676323 464235894 648752545 385872873 120657385 250691911 680097772 689679538 51045218 97323925 471696834 851804451 571964511 66641404 493891252 552978279 842629123 758650718 511102411 441357109 807554586 423195886 278514801 32332679 132474552 228537753 215195768 67860454 30536208 974086111 890521775 382629980 778411725 303167979 867816050 753190360 673249305 231813375 669795722 446312318 331123754 80324671 856757047 592998815 640341833 520736347 351296159 846184028 278140064 310563580 406355029 393655472 225772973 145721032 506394902 167155023 636661898 80977087 710271489 698907927 378867177 777689799 955069626 807480599 81944779 146329519 132052248 252675153 368992578 262927303 981783789 289210240 447510487 471256560 353694060 104990071 517189738 869258372 879986796 348579058 265567076 839802564 601829612 55991494 272711549 57703843 20513189 760620756 858580735 598838928 492460613 138242734 734969478 517801952 260696065 117775552 249567746 691605065 548617597 249949463 372054112 855426739 691160996 357177310 958239265 546845401 729472270 412814012 763454368 401052361 192189782 44555045 334933599 342710413 680559129 179419837 610585567 482005189 808680716 507357692 766532851 124622308 670781761 249395105 999388980 516919216 639418053 824202042 256259251 739754082 455450770 386790601 145200945 718908432 372720030 938500240 49684042 950990550 953305421 640489537 503814749 295536804 667255614 974945853 743077214 135333555 427988326 451250652 894659791 566827930 76730075 653386917 211660168 711651669 613967180 657361519 368103201 868053838 876307335 289517924 750907633 541708597 973400874 438971637 219967603 620275313 690091960 172774128 295778745 228422726 521945492 170890738 950650495 885966133 13339043 363620127 983094226 262265170 523022599 276043860 823191007 324004609 432803675 196706939 31235148 205677808 404659747 484140385 467664196 160845645 40507616 790846423 867863179 627576508 274573617 573503402 24935431 94648660 941704087 226537039 905846557 645193265 559078568 984199091 786652214 619824323 533472347 178111940 427739358 645396469 23204470 996520373 332307814 392457136 24025876 860400576 372666795 745610475 321251753 844316630 11908340 115908473 840183122 622700815 238609270 12038147 765548214 410898990 706936168 585945083 693808175 864215654 986877856 425884550 983947955 470080761 804786465 932721612 120658638 915755654 188908004 312518453 845555053 138046574 16622573 488994493 429349199 276814808 206948123 993078750 783351906 631071199 621711133 789716461 463515993 649927651 424129884 873440617 540422913 907009589 373183193 389531103 625228510 751744453 888532143 486341631 673673814 353538366 499070874 782865407 613071286 57590732 526898313 524753042 571081868 955977004 385940840 856226031 761936586 182412040 182324586 679979484 151547242 376655292 270462902 202161465 891927861 136641992 695727990 993697579 478661823 778884241 875180315 807918368 549424420 932820354 345757667 792891957 633425156 935726441 225895386 835245574 76717727 610294112 814964041 601916411 41275536 957606936 618501526 971292040 956626986 624917973 275193871 105889821 883780011 29447968 729476523 694945660 744487732 413263984 548185279 288434519 132886258 811123033 832491095 618818942 434211580 655618995 249655700 337407939 13205079 495310114 402733309 791252044 570558006 108208193 248957079 564617265 848269034 516650528 823585917 698625611 975119464 639562646 789089754 916094404 386939210 651411782 65499110 224087727 160099065 952544609 944208353 156036912 109276886 768364723 771968902 922200337 782620790 878564041 61091830 379851728 636178325 159770652 98268238 77294439 420598244 699840080 908565783 879210441 940484485 611668381 192090170 368357230 419679025 703885594 864528755 247343942 439329548 73307000 774269654 428491481 573601433 407545320 413443433 534347120 690167918 899141802 882264888 870738056 506192143 27441950 285068783 492973545 241789127 693051053 143523163 743920702 456478033 938459013 312285325 458063158 22212824 579772812 718064527 73261892 402315433 155061054 206447442 972982341 291508115 784848636 152834983 715356650 237233200 996929526 891516431 541607266 145701971 290633723 408298366 224619746 756886232 936215406 60762732 938245082 411016906 521202988 97044589 695839725 703861730 554823781 148216080 779991674 969422618 5612305 472997756 119014831 208843828 789951187 74062514 797091869 84449152 769540717 297733945 682824201 453839440 434736109 498580701 551428386 658208968 352889755 50422141 718331363 10103158 872432808 241030055 84650516 68367491 588846773 776351414 831423630 961408121 585744073 732213356 578609262 13102218 489389758 904376635 205524486 462900142 664542900 84525152 45147053 233561209 606170595 656031245 930832183 885453013 979276141 510019303 828571418 70254511 82498656 955496958 702199164 220056464 510721960 801369110 600721261 767905771 182911198 317116130 120739151 791756940 868397366 193367890 246869765 238422910 135096522 176376922 823882079 42322566 80391961 388025283 270278449 471231349 92627379 591560726 68425474 967930851 92630559 420829560 244329832 600577901 711224988 747796793 687787678 234353084 475503040 737030702 871498289 850209320 840224015 501428805 894115619 959026101 765505402 682344659 696431211 888741368 180760190 994140086 221447924 47411162 361610724 966253953 439528483 907739099 802194995 777852325 87650539 884392227 93841009 27042324 696246644 404293660 834633908 516534942 75098084 977814366 601112499 522211259 11534840 756497343 707844185 144844065 780634510 84685269 499302575 432208576 886216989 209736231 430192330 56980161 543306602 455798151 106362162 433679158 308222271 599046136 693027276 565362218 946586270 534404481 673951017 19635193 423503302 836863035 169821304 473529769 352301841 556192160 708122518 623975153 945831506 634466348 499497993 785304485 265825019 958878043 786684139 423724394 584161999 822977371 108819743 943384537 436356623 550920432 301639777 417846282 332544316 492418091 4785623 19459715 571993026 397272946 383731631 240843016 681178628 643479283 463981611 755569389 792898733 238871221 533307214 373409345 427889212 826291754 915128201 167370943 32890380 961644541 391408524 542146879 272136659 717242074 933491942 172756107 988150325 657677495 276510590 500427163 466131758 332673920 365393386 233611000 303474519 230827388 621538172 619737580 323219989 838007088 996972827 827766183 633048212 468689611 338889792 468414787 868037014 192737092 320106517 317724438 469105454 629619192 825247798 802784938 920540080 456552281 104340965 957514506 634592687 494747259 580512098 902494372 106944156 966382374 847778377 834260969 98769296 384527361 9819628 109326297 433280616 89265662 915313743 346840794 578875437 255723741 873354824 178157227 545530887 486880203 824959704 970913382 231072455 931081607 493199392 997195322 985911947 705463997 339549936 912310241 135082046 820498777 171604502 587460861 691036387 811060002 890169446 414428678 234166032 524196210 379052284 582161298 978467177 572953591 816249393 701138665 564397262 920459603 37359374 391219160 999631771 985588638 901895944 833314421 610332959 752619397 28523856 842812052 218706125 308331530 928713113 273299876 381444839 962153018 713622389 658720279 592594069 121136078 748208364 360793546 444430696 501983209 925763702 869294685 551518022 528456267 592363388 131367472 481483333 342998610 382866696 509081324 313489518 138808373 928181038 666490682 494255822 59521911 999598905 268432382 335544375 759951593 873147923 486074738 949164415 840280171 158061264 616743047 989292219 492072638 140129605 117242588 726550755 435677541 421076965 795118129 326874720 48377179 642316659 524769323 995102834 564744589 666564770 888889389 639925877 261434056 660729340 194105907 7672271 294861019 320342556 129935024 188516383 254769553 736086444 929103480 827669949 790247380 421871651 787900873 953215876 718823409 912510815 766915486 799379072 75358542 419345676 899181738 6484968 224122663 146702396 248419625 151830680 596977753 627196171 138087449 440163229 451791315 543117446 323551660 174995169 668264282 53654000 480687308 852174530 578938294 292378204 611072330 407421442 666444040 611687807 631353831 816662129 894383773 864723918 238492451 11846283 999993609 79998414 512357159 832965581 262561558 449473734 200378100 323729036 582313033 981127388 559412288 370794566 745155025 848257587 822250860 385865164 101760987 957521426 374319381 42591395 956468315 227094977 409747206 881449166 591474050 902689316 507753857 32562246 567710815 555265461 176752813 578430860 413201588 548499743 151481050 912492759 846271640 406297788 997950341 805983101 81725548 14968488 8863954 460110107 116650340 32376230 668115364 784667751 997874953 879814662 693567053 672627887 664583703 768283334 394263452 946129537 613516824 630858368 641967918 569461612 727114765 208140685 663524842 67653592 585083756 284227853 701571847 55225276 746899600 706525829 434272923 854656052 468002149 95919468 212766023 507727233 126630191 26330188 565466610 908698232 532500216 203936097 248497065 318817606 943987381 126900774 727158709 687227535 891722276 509168408 71515514 297081689 558274522 681164666 347243622 555432511 624471835 642832937 472336103 751503308 941909342 214185115 690141823 285727367 560257029 468756236 123707354 306028919 899922363 832358952 207350089 298562862 767482372 132137423 910393993 609959254 680213902 94739745 910881895 746054808 18154725 960248535 655061828 836504904 837575040 987415660 892949700 242899601 829031396 208630443 222280580 664034145 495577260 245481102 687315390 674804838 751627948 153254323 176642389 740131447 262334699 971362005 190815628 621487902 641687196 201595996 521578308 24361447 181502031 277901070 954512512 693756059 524742186 373284257 366236927 102392752 559844614 800799381 35116930 532867983 754987685 549029044 673901362 85482232 712809964 642428722 588417158 402429632 368008930 676515237 945972056 368541744 966528511 998633740 821586832 823041591 793857522 629010814 642732143 305191126 612419100 324344025 805645266 75453817 364690945 985203279 204114543 317961151 372099268 189946547 363250216 870636660 217601578 258552874 714276562 198824672 517656015 299652765 672756455 946372740 863974534 551294480 165429093 704232165 673340953 575094243 537169525 770139664 683281247 883834852 13672954 937053979 303690120 928324556 818506603 774141985 849416492 337125467 52783662 919185690 701530950 374517002 821561110 316042384 586039199 909298416 218250577 323335633 278797242 985411070 875716493 635039577 242906668 41428443 334576214 992265885 843473356 271856391 787677457 950677656 401753909 74668077 169508197 649975989 529667502 446148697 152775746 134253781 678252429 269156259 864446963 927581919 751728785 550475732 223713907 767298142 812822248 612257906 473848945 19350192 574482650 747269589 789202586 812230382 318424062 346423911 947470366 589465607 498352211 520418396 455813816 779095347 708644115 265820417 814030518 727943260 409356647 22612078 873909212 516514121 361847642 869008853 1355541 520207065 719827462 617824252 771452997 43051695 640677544 22293447 850117268 152831902 413521067 993639168 583195270 189119826 205347550 400650076 665022924 565734780 173106432 707185448 760673391 765530876 720206563 656470007 80939799 755281156 595682352 605325537 166788003 608241515 641142412 494781703 314126537 338200875 982794446 133910728 266100368 170407107 509769478 373163296 561338278 550582201 821793220 151309968 71881496 385735825 971861629 371777122 896682079 142514389 519200534 818729695 610328511 147666643 618199951 645908494 358567525 854504757 308055354 206715741 726709561 806294072 378061598 356403182 272884999 712662640 805392372 651365838 155307918 834073714 68809449 575933250 840817672 474394866 326627353 714692792 923444970 447046866 977028522 519485546 287071449 15159683 596367192 311075258 399716442 146037779 667668471 320072562 185554933 65299156 473893731 132356891 816485334 19420285 837375810 508821216 229604430 212248879 396066079 629352634 439090302 865666565 132130104 207427605 701191909 245736936 893214658 133137779 798891538 977618028 242483920 904848733 669209426 10463309 107787252 92152704 32565933 728079244 621041663 79815983 403084556 267410883 794932520 457063884 907667321 634841230 953258504 871779393 531294342 284085608 930044790 407865526 478752472 237991915 960285608 8277065 395741876 785824453 312029006 164040710 715885750 811303435 600335475 87678651 481018281 205749482 100604194 512984975 13178878 384764881 890022273 503533444 615457756 617422780 489697937 472057039 122125162 788572295 970204422 500730761 837064331 309531598 613020010 64981380 668383728 583883011 441704322 591924306 490364195 718185047 355863616 549149171 5458559 623326218 345687666 126497983 407059695 311232452 863144314 832673873 144961086 261234664 452948308 170798055 521573108 915082350 99139644 726973211 306710002 494337672 128723476 665551149 200906833 195507463 782811087 538138134 914054038 268995561 999057963 511460967 457997513 838128233 113788415 141112904 444850267 232964814 206663722 447508691 100963434 330713453 167488048 832621474 943665590 129766413 274663400 633641767 805663045 664972126 583236329 409926689 841983410 936628975 371555825 885041239 306575791 979604254 819704417 664358489 53509522 392392128 689726508 702002732 819086241 440566638 526128784 168669159 854077752 712881645 447725310 596949253 563294363 747547880 513354261 223587538 860143779 657114915 854898790 809680815 254303387 587754719 3904678 751122260 939775224 447948405 225392093 683472549 215820805 586877389 695659300 113535230 890915873 522071948 647041636 28425232 208081816 161609267 989190328 908793730 853382017 723949017 933126897 634297616 496830371 152846459 920702297 333580079 847970573 375446428 837744877 449404534 178419388 163733882 291275897 510255988 199716607 98875658 710283771 939268397 724349798 19308039 996960552 521181665 269058958 2696324 267029733 458211500 434103251 970061825 891699465 959823282 912539597 713706997 666741536 971505856 82177092 305471474 611343803 388645330 539089942 583862571 375298394 350625247 806743683 5271577 724683891 965871732 708325416 482712497 32440722 104606955 466346650 446890668 343297225 95758169 881074145 100470285 724446645 682539281 351073574 685441071 901679388 988162028 930041876 657955592 609461544 60226528 565987135 563479264 839503632 268546166 488568571 580822511 764445926 175005918 499765889 588652952 358385273 755196512 126454810 238590813 837091019 433023509 212760901 27164200 552303036 750667908 466091782 816727472 148778206 298766832 458376237 635820940 874097696 120087273 578961634 650846293 241958355 915201778 581424118 522908213 396428934 229609825 672996724 932930111 476081446 826636371 225952291 57870645 428654842 951625393 693961549 708438112 875991594 758623413 863271615 150810672 553064489 968899380 482060055 633667003 984184830 657271062 657626406 533412169 654727033 475136978 925376835 411110611 177176750 385121506 520842144 827048576 557484700 48239276 296654461 392375505 692638242 801658568 723899321 59647933 806910027 9553585 993890866 351813965 150411580 179775279 318118214 105723868 798887060 728079303 114139257 799381861 736351772 74772206 715319980 939171052 25919051 653941631 494666699 666884522 978299929 244209330 957912380 817543458 82668513 483199522 120260891 16032430 299857612 189557593 449904093 916457731 322753904 529471953 237204801 320481588 805225884 524791939 429319942 57039200 775599928 227861640 543905064 726586054 175687617 280013259 206060221 915342382 750842031 113597653 450278000 825317784 358349312 403437867 976587965 722781504 766353799 416665204 499438834 843268059 663092126 486438501 151754473 864140838 946727213 775733561 196835399 175781273 319066510 379740295 299692526 548476524 319292009 408501375 632314333 102654281 68281566 391586918 459493666 143533576 505615336 590593985 333637916 215414770 712816424 115003240 967905766 536483038 621391319 70497182 51673187 839825875 869586659 161854378 950457920 340243131 755023292 7348096 513828181 647594418 416163202 424968226 877338804 968042252 905058860 632900093 889662917 768163655 362589835 846175044 689515139 445888747 261011845 197664387 70809152 428328792 35167263 259883831 949610785 592042145 487840206 925685643 716051698 726034868 518668973 873413677 401208243 640290625 670452465 87115500 949177906 601570010 901928615 316190208 199470449 287920542 642062900 805245489 181139168 119579219 356869178 214460233 381232755 449105988 917526437 543967298 654421677 260117286 795998516 385388444 301585114 498595226 168712234 713698918 536008002 825109142 67903053 987931909 146037032 899432883 230951414 372031866 146783505 498687942 478903652 446303231 660859719 367712362 452899688 76500401 637347068 188950561 201008276 30373324 979215864 214564743 370701197 716467425 40490673 695219207 168286579 225068367 916025583 549928169 678903271 149842783 4736850 513904666 598651025 993284102 896484161 480200511 474267511 883557345 132223768 881229572 298873727 23732569 396284584 481632964 915040377 965837524 245927568 73780763 957032658 503251435 561259266 34518852 843060975 57107739 249129754 198898227 893037099 788206398 572160690 360099822 571172487 208653712 869393764 430653779 173076043 96847751 416643963 251661775 699625657 66210458 302064472 101615409 989139377 362487661 371552422 499593878 869031648 470350769 307290247 726368617 132584731 33295887 820643610 398577665 809141820 818421942 365499926 486916269 411401291 637184899 983387811 204696772 37144632 872024307 853562925 324905977 980707474 386662366 219296571 326637470 120795226 806625591 38590327 846824425 144614954 306253705 825364440 601865502 270079896 604022828 723873214 73086241 807416840 794921119 937593484 842011237 514749985 535729827 687196852 592510144 880177645 888597073 260316927 980651008 183921332 992069947 475327027 582651427 259808249 879361150 416380434 325442 98577680 360754870 400250791 629530088 983768558 273796382 436773990 381762945 693937536 478916971 201422684 522718873 795002814 24307185 566078922 485946645 845430527 660271831 498481740 75160328 483244881 212300202 441934144 416880914 598194713 299435985 228487645 131155831 345222768 301035664 63774271 257108147 369066823 424550701 682011832 248770957 399143369 711887683 548938394 198457785 800092978 679277513 864248451 285255128 821256898 453768887 15606353 716327393 958215786 721733178 384678141 779186467 263544264 752104444 769919636 284873052 450569131 6546335 131328213 293225106 661021435 392858218 111243527 714258041 588975304 781869331 369653835 485055998 787426871 895426001 185167081 390736770 848041401 474174283 89541070 917493754 295382535 968123396 155117921 893829684 648966449 948054115 109778200 831188505 54307515 27340259 372753916 76878859 875676812 692898971 767593700 835098667 450360004 321908384 264889468 463626042 751252737 337103209 742963338 721666918 999432268 184796238 604379626 781802704 516165170 104431502 701865089 391372342 851910656 14060604 185243711 357246503 643100779 893536187 101399997 556068692 976740323 513213341 451337695 804366827 493675409 293244824 318327264 251900174 454790825 458315600 12273866 724505121 767172775 346931359 290419158 207501016 626708156 869658486 43269191 921095510 724572050 172628189 619588341 195603093 894049527 334213478 898129836 218377488 480756562 785018417 351305994 367833296 441398014 345693314 37719425 356635753 996612958 503656861 780130381 482438904 653705978 538822132 757388517 53080232 804259305 940050827 565015029 255344593 726279654 36047536 155178365 95585696 107869900 113468622 328652993 720006770 765666450 592413518 135962412 387144957 580116355 706784835 394682976 953603856 356687321 319131542 11196805 805403309 247617004 150449316 890152054 816002148 728319293 550745798 866639551 925269661 816973217 575566747 889218752 115449493 883179600 811203683 324632766 152788802 839189052 699239133 235600578 714883668 924262837 224579294 512735283 298393738 789816937 536477944 69816637 747101645 49549196 245684565 367866705 886320090 609689915 787026462 951304519 348471162 907479493 532801010 638078584 90125080 530465147 176875895 341727028 668437492 109311697 287825227 304303584 344395573 949316914 220523133 820954168 362968929 215720718 536191860 648138907 173856293 245681156 53760643 720931243 239678592 476600847 177089167 670916744 240571304 94975677 918214289 548163774 594378933 822683965 111022483 394916469 686497024 361262142 972784695 822313068 733699696 852681755 445404558 843666871 842463368 633658797 674558095 84504850 85337228 284310428 41397737 165670221 443470397 792399456 684453758 832723831 961043389 229357758 245066221 964836819 108815425 808651976 271104645 18415681 24238148 285379279 876126183 257177254 439360156 929604887 88611126 784641205 26002289 541001214 218660893 800250691 308535348 842843463 896922689 954301380 717233475 543805427 474301556 966578652 674415711 785641326 193661944 819232602 835684251 708505576 92234007 992933343 274559531 322628007 530160843 265573321 743963538 180515488 296698584 246829294 728673522 858549125 755585846 186002124 760882615 889681829 136149760 438192530 370216441 391811672 486390273 477424485 531093771 551750747 933508787 615148190 56777033 198729812 24452708 645043893 986703799 219407982 126832088 297713601 675388778 399519329 509538698 302003684 584828170 708186814 568551611 461833105 663227936 740310859 25974801 57310746 957851762 66889758 469264966 161048751 211236316 871546138 918688721 623443478 53563642 51848361 736310108 402647955 780251121 909988951 636595077 912545397 296062676 307350039 322493143 762874079 777309990 332177290 871960769 693654284 330985451 185592136 819812289 850420522 961052923 809600145 228465864 809583454 355451845 697812145 177533404 530018561 951078756 293601756 592936653 786708718 6356838 560072773 764133895 24838436 771095475 866196681 990350704 911450678 440345673 87668593 981528544 273624137 817270850 189017963 347714052 503279461 232628682 219791276 457877852 952025436 396302382 969214755 953358165 95424483 521472570 110151125 320003746 884573051 524874934 782299166 777449253 141438114 75859336 792452394 832988303 325908223 400037351 854774811 71130666 963104502 934489416 444540068 987190941 618097611 956089754 615470125 300903136 502993010 965780325 532236506 955244504 196767246 8251543 295409060 168959296 90647051 12642271 403125787 234696264 430094509 915327944 376148312 430476217 224207159 237077449 233445802 323933541 335095853 591775121 762760495 65248389 533522778 696767244 341566801 618170038 781192150 196502625 376389497 691656216 669593315 585545787 480995276 96964888 680875665 817083896 324478722 769606331 129684692 524833861 164714637 789149353 122112167 264445131 21980254 911305578 961216087 742783673 282463135 146485243 678058702 570979558 791494800 796990749 636193610 199739931 37639653 259697436 628439835 446293069 698494307 898444813 769340761 76053433 839648812 999480375 310507007 822246774 524085484 415256233 363853281 873616261 8529259 734877995 189967777 92075036 581001022 14478863 971845417 578420267 931198623 26144731 36550678 353630390 74710008 492957355 18081412 164444285 709817102 629427457 626268582 798167975 824239840 318522616 387560346 117612907 648650170 872086141 535427245 543262697 395098318 415654911 636854185 22793685 638865893 700547362 511990245 573023769 357131157 738104996 62629395 734053469 628149589 283906464 749670567 428608992 141736295 489028942 283719223 178057915 763646354 430765706 591549407 304096323 562373871 295046541 688835222 902611787 67585397 727863267 737916821 617764142 833250142 935318424 205228840 933867138 950136572 107256507 8248759 774203792 312762170 665354739 219159561 183970640 32766576 104295124 635276698 805956212 209353708 790727633 480252614 770443994 20266949 80623028 878636129 171127556 732066856 716390371 119387508 147375905 150871555 338952926 481882113 439748269 600061604 692168559 400085000 45130012 514283222 145072856 484855496 396708413 871807542 489633050 449935182 850013832 410682594 798988838 914809404 790507153 446864826 193647258 555868714 42221564 920284094 611404604 431617313 152057072 561212801 793156301 651510486 10158602 663833137 890447333 504624634 171775249 884071891 447049542 479125203 688278531 849262272 989832542 368344798 685390067 618645913 405050656 462704950 835143455 801119906 245269753 100261432 190962355 393428556 910972052 788291553 426852102 531092516 613362401 245693906 535135997 733976988 169497162 864986040 432210784 33280868 26482215 953923759 632362478 712847074 685544213 578534794 646393010 80794027 358895842 771069702 971246459 807592501 442540194 419688066 585404387 79884215 306178759 858610247 257073466 937173460 548647420 422421452 976146424 975253607 50214558 506638892 625121839 927521701 262988544 564015972 582379933 478274423 712586108 419206695 753666900 749808904 960797281 962677413 615651705 267474951 733513895 142894762 455399017 532051088 342845798 476052136 546703255 450602789 846500629 9021725 786620677 550336872 707196317 115154878 121856253 652561561 953400117 782902663 920814281 16873432 395815933 564964053 197775825 373818639 358490181 484997195 279919258 423132419 575148367 579463568 325886115 813337255 269134532 132487558 189521545 643461920 977385809 185227878 89602763 13400362 927993044 689705500 388448334 37389585 71869476 308627615 87329403 804809500 487851355 543957032 769052650 283747693 375230885 217850660 203078059 247543693 701141050 453130458 477499027 936722978 332622804 8619932 850083588 982012099 560588954 468553959 141628554 159604576 840795980 228494757 857664305 899791705 580090117 969438936 39187352 555680238 407221447 557395233 212518705 515026406 803858971 44891298 560629513 486832834 661444057 515472990 829316221 869253140 198185335 295176580 310734033 698326523 205194600 721680840 398575485 256839693 488722805 235315993 304072713 578611788 249190160 767197073 594493629 940179 889322550 939848644 71813493 928324849 476906288 688740693 89755799 194078728 305393222 591589426 6602672 549046952 785693813 79306102 528696467 999287281 479251957 113201732 97713835 742411083 470017662 296251200 832368400 609906675 574016391 656947810 993608449 916724317 862406423 157888550 903093881 928330277 928484670 538377751 738648494 989400472 137204949 881053588 272125451 710307149 547608339 560292762 109298278 934714307 84509234 588672426 534145367 542698186 853854253 625069810 295302037 29900384 228849400 139539378 796588833 443391826 99612737 621034215 796853398 181729778 72454161 664719486 568360013 996947696 925152435 26588909 884656550 368962814 459934913 4148913 267267916 940087936 906159308 792226135 27209220 476305675 694653430 971399853 392220207 322269629 134305219 652888980 619051366 118726599 165665687 211396810 332502869 447369928 523237082 314012251 250344218 719115782 225346069 519155680 547244338 883045605 485200457 760798984 791079668 44184059 775502004 403709404 406310806 461150038 436774239 39613854 283705610 858810717 926586104 741867965 966126413 837311052 808785796 168709735 625743298 352015763 145748499 580532656 759961817 133508084 562628775 340499402 565860164 981871860 773096911 931355840 281411230 773242683 810566450 976989098 408313540 225542465 623756919 452930047 772490481 271654722 601907640 238919654 363148905 192682563 471433091 412421083 228689663 75176927 1107684 662140879 258123866 30797774 290943107 886414047 906899493 845645006 959648503 719606722 52285935 450428052 276062769 348295979 994652811 578855288 797878842 652257715 439135759 418410142 885331837 657688910 749883466 602433050 688995599 817423693 308191801 15097353 120476608 934243210 836705304 187615997 262621317 82156042 193560154 361837364 410207853 154779599 109294253 139684299 944666171 729788257 861711588 770919090 179374176 430057791 139701852 609923210 455021634 922008397 470325406 39801771 285411439 825270713 751097099 920874647 810289955 121444231 533878239 62960120 524569140 642584022 17506222 36776387 754350245 994570999 914305889 938641367 935795729 550046356 146185604 13797177 88938406 908461292 309222689 387925816 689717659 183540470 712618277 951894008 368715370 57149698 630850192 558549403 22463672 146828474 785984138 276277881 433865885 641011115 127646199 972266307 139710416 446997575 547823002 557108833 893158925 520653590 244166177 780462550 691007363 232663200 611639043 79230153 113520974 917577680 542170923 845522983 686195313 356529239 664272881 697146823 740796611 856741931 130682664 946647630 603025563 451929148 813438807 727170203 540148257 877784545 7596253 110001197 146080698 617249698 739125466 868986245 290371830 533563440 749273928 922070065 980429659 244012633 998350694 694587685 696156694 116641321 860287077 407215712 802591899 800468472 109131984 876357371 972310921 382729408 416535001 667755051 114496246 870643017 606374211 251913904 73187850 769343507 91520264 13645754 354098624 828170529 889926494 694530261 206310663 724054166 238834897 31980139 860751128 568357455 538083831 597091300 432113871 243257364 578850626 644160421 636665390 492388861 377271323 767161228 203339895 478678415 642019564 363970472 352199349 756176737 688599162 439620617 998917849 60777791 35114027 482981079 160463414 982529369 705115922 909668720 881915955 409012817 596502866 163695188 464532406 829848715 580235826 253948823 691032409 959616039 269689459 91219630 304870755 439952839 899159971 96433338 529737614 288029467 711745223 240788792 121148910 662095719 523895738 798858253 340587918 41833271 247569685 945316724 675239658 591863721 332479068 15798310 781936726 481187156 939161035 105425501 257357135 61480265 995689032 762345354 46250456 436984849 160542213 156335511 592427085 194842610 164138125 848747770 41536776 100078492 12112534 700524411 105699532 487403976 332028130 4431657 823868230 993378255 390832298 762204991 888810161 651035219 838334860 696863748 627163425 552826639 741427090 591265509 784738511 317243672 839538074 967512836 731280535 844447718 250454670 597595534 677911612 232353960 72341610 323549991 284555289 591564417 667276723 748203339 376588438 319932596 406764650 139375097 535266474 402156213 397422077 784761641 231184859 342080693 507273142 999115669 405018838 839868790 951315735 257863045 332920149 583615788 957671143 393463809 128373259 917248065 990443444 831040323 202006614 722877335 143509994 328613185 138626295 691434921 457891318 468062114 299674521 352810855 60127021 322801797 685798526 896172287 224630742 934313923 570973805 526922629 137406996 288035643 884972079 804308702 227782686 685133314 56432462 10741479 452368634 527078280 513412188 943365917 133845257 884534247 754149541 276878276 575911685 915135512 268816220 970813057 234813245 635532752 98984694 315666422 462597339 913783120 148066926 240011609 695749605 713678738 423686470 143607374 376833215 481439258 555539443 119495775 66144105 125187549 188016502 877077427 854626208 245813763 989708327 495841713 911573193 369315758 653488215 209078445 435365433 495026314 797942077 294446235 496592726 304849340 963515507 678245608 691441243 504921532 946496992 432955730 319303572 932555438 975470206 268767007 174974312 983188936 559053472 243901431 275503950 474942759 186582474 454842223 311356785 989722485 282549457 185779707 767045985 38454478 744568814 810644453 375193672 58757188 359661983 716223992 663814997 926721866 826259591 59571618 462264869 970353127 956215721 251072494 427594731 635909707 405919547 190723083 308711707 182522679 789425524 199301275 996934044 399730054 288733814 519399220 186180925 781558528 377698694 276541698 448780649 926134449 568905847 232852935 908506811 860048491 595473249 867509941 49557552 215433074 382446373 303941578 367689559 69486512 476336667 536245845 811091803 785661025 651289426 54806597 947957497 293544516 300292558 489133560 715800334 819257588 470953652 559044522 697410360 697543315 23282571 197867852 117759946 259249564 651516457 761394786 35058012 884596949 291962310 843408861 554128489 164591340 846616957 25507822 617481316 74000684 783861398 678800984 633432629 307983612 239197808 986988556 669567562 787088194 862196348 587318822 691834060 308701320 856782277 590167944 848541732 724744009 906624557 90728114 183008684 864044127 391894862 341841626 914248884 44812042 364202130 689403383 499761357 783420687 578336744 610726707 533876520 924964185 497132197 284749124 543430560 603928780 374517146 502801609 787401212 514777144 996243767 681981450 151549604 355657836 446859196 912508920 624673216 366319614 518490007 59985374 279960791 499013265 803424550 627411108 537268085 299539796 64954058 115678419 446472131 309692927 465176528 691245845 423853278 81385802 787731478 610445231 370345552 745277115 579717700 439074359 559262638 601069818 472529574 469902427 752405458 752139274 514438433 825577018 488357033 726710533 794496613 829235261 502718905 915818849 461773455 725792601 200734933 838732972 92819118 435072261 253981527 802351451 538788067 868802267 122975962 229903069 203215078 302572926 304366736 689230328 437022776 857880776 740252459 82094619 313445628 643151731 962969620 471234179 976039758 322466864 962588796 576537192 413744500 56444813 591400779 895395389 767301502 985875285 247263123 982893824 304108194 534078924 284485810 887099132 178410225 337365125 57170763 108608700 226735790 750767634 971306663 804329236 943721671 879225622 618772166 691843511 375716454 925882982 299225134 848625843 155532982 843187179 909543013 281141686 935012677 557306119 455413584 394543004 274209864 998498458 538300029 828119021 449244393 65082957 342385729 156584251 3080499 593920389 308045280 348063847 646158740 919622873 295187898 140242978 778563218 936586377 40648064 447190030 588481027 976179535 850676918 140239393 772528190 99332907 68270315 285664326 817481627 61302244 495681536 778674009 550822859 560790461 915638170 999724816 5479417 69271150 565875893 875866227 806756774 382385246 258656033 569094050 824288334 715050828 72184673 488122735 91939988 189610377 981138287 48894283 659323864 962119447 713857858 352403807 283151305 445089726 252082582 546815029 47978256 112097165 280188935 390440225 146645871 637631623 437369656 179275221 505786057 528967381 149686500 180792466 499614617 892149950 326941088 366878081 755134785 320637501 752210127 439565803 937082923 857407645 678906294 20762781 205745818 628016088 191455048 915622403 783959723 247929963 60406242 478050320 614956927 788935737 309927834 803558189 796987878 111598288 391347592 760400195 83283492 245706728 608776973 882819616 997336337 139989491 374610751 213494208 919685305 51618807 546513116 802432973 447286752 785067740 27838510 490418626 770354296 585747471 663895959 667369916 800081486 512674393 497848595 550591446 709769758 294599845 762207993 304538906 825474819 838431204 600518681 718557990 992491563 524818139 353257754 144237600 649732356 991483287 423919029 718247115 719371991 917647161 8269068 549874014 301276085 139670247 730998813 948618613 372255716 129537141 203155304 262340872 505560517 496688358 883276333 344019901 429776264 512597499 71875084 904139306 375006901 115632650 195641472 813737944 168392555 138886397 817406667 957870572 204036795 919888498 493752776 320151054 37805485 142290836 962618243 852515407 288308488 386013290 109038139 783345242 439322614 372091578 244265516 855263792 602354389 160949182 299553167 426573012 975545760 719890163 501026394 850238588 697910326 267201134 47568549 879955931 31668449 469702442 619965836 752676543 658458044 105082046 871600015 256466280 617454500 598318523 801119889 943044038 372663968 663803687 272927134 597919296 342221450 855138333 630558834 552748883 155904705 447348280 54390358 394704294 87456476 791329783 230669039 916302954 467194970 48626020 661503198 925581914 763953075 241526659 443857288 241545385 957889776 943526912 582271040 906907764 550321979 637580663 148266271 203288704 150976811 370044309 298220405 428822870 20377213 661269280 92225656 882873040 300009410 975803721 96792888 237270209 451992848 438133534 98005252 71313084 283510692 899256840 318795843 893185235 116629070 761749869 306398377 826960829 881160042 81666052 820511773 63819262 462227168 351918402 79633813 230061631 926735484 331666368 412544587 299576325 974839268 410796820 539275624 876913198 216917159 141248334 49989964 220223092 173251438 780248484 812340556 323008397 71791105 855138880 300203498 908300633 741442668 849512649 30128495 452214818 973879092 495009729 195988935 217378779 832984549 427815325 574751765 89288780 210595207 465617230 543192446 935592764 198002213 639482704 18257005 130586109 852964826 693152616 82715676 53049667 756012352 829854959 896088000 731442600 145730719 507750555 667349557 234351739 407815883 143072277 486730344 585931016 600756970 202461812 754079108 10929506 157111891 950633958 282080646 98179377 761528709 458490729 327418377 849513382 219683484 15968558 332815889 622681901 113088686 865967430 146074443 54877614 434411925 530843102 816300729 739497681 248693498 797248667 29835716 316443008 885085893 988211548 616261052 592576935 484791563 774454708 159431795 464950452 987148012 708671254 294118921 128900524 939573043 216310138 294971334 650493552 766352810 682076074 934401314 805898045 177463586 815340067 885124583 902279912 352586829 888256026 188814363 266671071 888447993 941144289 5367877 23703511 369932428 775914448 674957697 449268258 625795628 366666596 653071314 270246828 737512595 847057263 822629047 934271478 419593950 116495943 987907963 764041580 830089460 247593993 115461666 75611675 136399807 870487411 249239187 863185083 373137305 766850105 637485090 134942360 169513539 613281830 223926983 55494440 604302307 955569167 823515785 289207090 278411894 560034908 561632123 400945236 345129889 552588742 402351817 668386101 108161848 546869631 868736707 615207198 398657464 394577505 27432691 554962757 653799841 676555603 748109507 389804792 889277471 503648979 466382941 882272948 616368355 331129314 592825546 581344631 336519850 252230040 813852545 686420697 353816338 828596395 822460002 376142720 920699577 370515300 202230606 363196591 787981774 337444296 567814629 103447876 934461659 796130831 875688777 308031391 697631783 989330075 140524612 596793020 414240552 629586579 707078376 596544265 322165079 761198079 752272165 406190038 993033343 966771924 159984083 167123489 964117764 171560807 622772126 606434392 642266256 382042279 359701920 636318691 284407719 409674362 392418534 252213503 358325355 771164513 161669956 920036161 864518047 547241168 582156407 565085846 859710855 893315910 310154762 30781361 7965977 651342121 356530219 812426267 446622396 215000583 409907811 145464835 895716156 657179451 244174158 685979395 97628274 599050757 437107291 53722431 77107248 947501516 177293243 943226703 500285052 286127234 880242771 511083424 176546408 335780961 397211993 364922452 487220234 829507041 522399159 677514783 354332809 3598601 154209493 692038029 58029859 476228650 153093841 765733536 586103685 300516298 602013553 341095724 233072824 139989961 439045172 400004197 673089296 609271354 340042760 478219932 973899349 644961637 797551384 356349588 531943049 285575409 341651225 662505715 876295215 173758621 247707945 546956745 985111483 560543926 761345519 286908160 176019908 787144261 473510809 113284748 745254509 547101021 674927785 25899717 598639983 770877432 203453786 948849913 9201574 819289826 478998937 550905144 179194611 772426144 368451529 878972448 37021472 309441447 443229817 106436411 816948827 636523071 425927730 776030958 985086710 467578872 551189021 665760046 251542688 282102691 162795856 387560620 755281192 535065511 843638533 767260497 460932486 203724242 256388349 472138333 823210614 492355538 689881561 910902077 884586669 987741084 512343049 773266144 917221290 704354401 312414500 580325338 629736900 92501173 546235122 543344506 847628363 325183649 141875293 550680687 500194991 555621180 583520757 573727089 57858354 257119032 895701535 331462501 978353702 820175496 321645202 556466461 56312724 528336685 148891092 512904088 445377276 278613120 241835445 215502842 568812738 771261208 46993792 285239397 797534495 889837209 622608036 793915129 175080358 673123326 10062536 38389749 331238155 82999375 130050277 375566093 56997637 831950902 318679669 837485672 581362704 202318481 789726674 817934715 959209696 500104467 342514463 141221889 268494578 276855116 684326975 252652331 614393049 4717146 324618196 973440100 717149681 191498298 627575931 326738515 810406273 419815686 261762569 605131584 971343214 589090821 400174161 543531917 718924271 207592690 447898505 381453340 983853669 324285553 281222073 505871495 550817009 411042336 49862922 288232140 795564489 239874997 24188559 820418204 452882918 994984850 8407903 148665721 793454527 295722509 393391682 330982923 57313523 802238993 108503022 355782778 565501266 340518095 505175529 267557336 72560482 195082970 196361471 141073433 777663737 993289869 782914136 986050961 233120169 92068063 71884034 55802323 958836186 707322703 508541539 399131939 565003756 991740083 585763588 202834051 357362307 716619142 946625356 49700167 787005058 789425004 680301 724283633 393454212 183682571 448824611 556279146 238684124 724863242 657922121 380829127 934248146 820672748 736693022 615353238 731187286 128564061 465663599 989310081 666136134 359032021 458948994 569471148 228695781 325309679 446761444 108791126 469170037 576713280 110848001 27655057 30650564 360236926 879806815 75740854 50789610 347596598 326080238 535793371 758028816 891214241 247246405 968953428 146221505 226810112 698995522 760513095 978158918 358651698 546433270 569486951 714106528 295351561 741418244 342126993 515167184 224901550 952079009 996051471 582259899 979348104 436991828 693290952 889460188 55805150 756545184 951915548 209285097 516363557 143497656 240362486 270300126 277024612 24522861 381947533 722417887 113321138 818556992 606502179 953998366 955396015 490926519 462007202 981054939 309064871 212715263 711204083 559078730 654606159 732653287 963052382 292571558 409535475 602280547 226912565 826264566 543348441 537834025 158483396 661686064 427359384 795864448 545519895 223527732 883762628 412757062 341928774 584316740 527570860 114942916 131376777 503890970 67382539 294679177 322375682 270741889 621485402 345667656 259490721 982400518 758867161 488254874 791480483 886230158 471079668 672351558 341814236 458537168 930018961 946743097 968406629 812552259 894394787 628116311 228305139 467836139 788343030 452432741 195367909 779685489 121264506 538317755 699810792 315646653 297858772 964853115 427191157 422900498 856433176 901212079 597232267 395195498 406494480 181869630 322625151 29350809 4193018 562515074 488682591 705512369 593318742 654634753 531271937 615025671 91969027 685455678 246186137 91398942 965408279 289718106 790713147 844224451 979740405 428708405 423819170 514236009 844341716 201290659 56532421 998102874 386193215 532411398 583641648 130354724 730499894 119371064 354460902 545170856 364690062 445368800 469253100 207071042 301681823 16036427 747557648 335175428 118904240 661032503 264302736 625065043 27751605 668807154 423540258 166114951 516681032 544716168 365841474 201949987 771481854 671966368 922363962 607882007 124660452 316944708 198442041 650594886 833139330 624793410 845752917 527719159 241521431 311346335 685319289 219459145 861875939 792117165 469186381 169951938 111929325 415957520 443103085 193583482 488220739 638786489 642662045 390741125 912110284 366952519 714656180 322023946 776375392 796967194 418354935 288184192 228452558 788338996 257707978 289082176 201538276 312889044 449548804 180866269 856593878 628899320 365544323 581167190 890935512 647196678 701682944 36869991 875005287 914803312 977706348 567483901 777712811 974688724 994054100 544532912 182005950 522407572 381167215 510306581 340112845 962994994 10762695 939839338 6558447 955745199 574708653 165444697 56379777 415535916 152222525 189155383 768921987 75192342 48844780 75188644 167646533 343336985 625875722 797474449 184158918 636348169 220810916 352044159 843265299 936035116 199246363 18530668 886778003 374450562 23042358 616014129 441901133 791637061 742295979 624965481 876076314 784071978 941379746 528696843 909950477 32324659 349465094 694102226 134773098 352960191 171847173 604467901 45143296 146876750 399439234 881157876 357415377 503988376 516156920 558107079 219034820 158972254 642439586 84465069 663451636 532497267 433773501 1032940 83171765 267642616 817090939 916320774 835820866 811615213 271063744 164921007 122195689 322056005 276224955 666833725 208564672 848785270 474491238 14891397 301165528 936068290 212815945 840447500 177809138 142081306 665717550 824707120 745346930 311843356 284824376 244880341 209186590 667848600 207077136 86929775 683689192 706498553 82091305 147670418 124809131 911632461 560417568 444469570 784265200 156077859 857600138 321673546 98324884 286574875 125654841 812855573 915579258 39233032 277299557 255858777 986621975 37909366 752763199 832549007 669952028 887538204 563545458 703740648 816937482 163831982 328121481 240077534 125816857 234612192 653005250 588237566 559154826 897014014 804142365 130979553 961338292 956438087 45700407 216184889 403093121 651891599 171012093 499368377 982299882 550001314 304004797 160222384 735530750 956007349 887549251 588757638 595190242 411080301 563833515 936288856 9646641 259748149 332871960 107798468 651914283 508851002 225332896 773388266 166921435 49724872 50947071 827412896 283903200 923967280 976942450 547746325 144426875 322363549 117639287 728268923 110993151 533706433 766279979 209415522 360922970 271860288 54876327 316516803 137791416 172189151 785719071 843290069 749883450 939880154 973078617 40416376 556357999 105871619 973474232 303106571 613697301 72372638 872610453 428698600 633247832 284074238 673484622 176272034 55876340 668767115 277378616 65686359 987253999 554780965 917019599 451113875 929230669 993592871 917902296 190631371 386692893 886288476 974413491 885986704 184262542 600259981 815690966 808747983 324682221 860863171 94250761 141276880 61841051 660340753 788847452 65076267 787188004 674311209 80849500 493536402 565463732 325735573 677470442 250192701 58591049 528185047 957402063 927387387 763169854 182994208 947604621 365939078 528053812 834350119 793537587 561599156 623056523 384383254 343849772 201308859 5799603 610541067 569909837 539437770 339862420 243254540 622159876 490425751 121159423 460270347 600969847 364389301 51271248 786594491 851102896 383571875 258403479 404476743 245597047 633737304 965207682 673121481 231986550 208195600 362187942 454574633 426630771 886864851 780621333 981634827 885778508 759823081 349311962 12394651 356763571 415263104 408360360 189980123 656355368 842037718 914586777 941481355 105693396 422823234 167020764 582950559 680702775 772647746 686744003 840178325 147254959 164306000 412897577 756394949 544751513 143361715 4971256 37047781 599226233 782366451 232933437 946066581 407672519 410055448 637417555 149338843 290961351 510527876 34229343 306678418 280449702 255987469 120807949 933692809 248960639 891852033 64651580 239487262 887777169 757905752 502044571 324077374 949058399 254487313 78325459 751189568 776288933 359498470 290629042 328594124 771171178 296896935 3159216 909066221 162516122 261796552 870381264 438013710 431525543 218260545 919473344 682876583 711987647 942454498 444401964 197300492 366532702 214938250 212611491 502041851 919596777 122370741 474356204 869224305 749608394 85555082 442683981 737438539 348680764 241460550 344266933 309793089 867111882 423790617 20820141 899305878 159196714 35907987 851566349 98762442 298600091 117030530 492234710 697302846 112928246 254587917 881871815 905686803 956312370 145413693 884357957 755713354 778526008 66790247 869726344 82584257 808599895 552975072 92791779 282967734 338561350 662508702 767021251 969760098 349393543 316773888 24851095 65692552 13914206 658250739 236944137 428285509 253371412 875203540 399490910 62763105 727563226 944878972 850135933 801262233 350297883 107447977 199472854 594889870 698691814 883800741 665776714 583792221 144797222 352341405 879939506 69160262 898309098 787023784 726442443 31205495 884931732 773518689 470060354 368187748 354813035 554127562 561693895 401702324 547056513 50338830 18979630 834609243 600517437 495526324 365473842 67206521 836428848 401490806 362806838 763357088 327685363 252986651 574841969 260067423 865560132 897170831 217855519 556077265 417395925 483758239 323862202 525225035 686569433 967453185 366919309 588624034 784893815 745219066 928385531 301562903 291332193 587019913 38120430 329676856 19413508 210633238 82369452 571101475 91891985 428743174 215086702 714445193 886734694 47582280 487391439 275746638 789201970 666889858 420918112 741439333 172440715 937352458 291297026 725905843 302261698 654643829 575479642 876374208 277774648 767741352 849563026 272857602 501857344 411128813 464502505 903486397 781386503 600237496 208188350 792506926 351666479 626783697 862527424 306269445 341471941 954454354 227027633 656364482 89273117 916243725 964337209 514132653 151985924 644946288 690108736 112744250 501466614 281298983 880075123 906707250 124687985 411164037 233985207 660763054 526002707 964492470 42096112 963301706 805360527 9157099 260856869 836514795 273939028 264090539 628650574 430961943 571780730 60844744 778698192 976562142 507015652 890933537 309957466 467006199 866248937 282589528 961019131 576775614 902039617 92133239 385762907 528277569 331492642 994012642 510678309 696963898 794900131 267700155 691991412 940393927 447190315 980813534 591438485 99180800 748190820 394092731 113746305 73965606 698380458 313935237 507269629 179138524 974265011 500819004 123643278 676577889 690001546 15859817 935788498 724263134 300133338 463996608 727958020 758690236 373750599 301429550 457159436 352929169 802578158 187940107 904385571 493342954 30588784 87638398 870162978 72310754 451836624 464087796 349297958 79232293 25336046 48251639 32204185 264823284 743435826 291718623 244176822 349061787 639981196 957226330 335563278 941793402 174510885 459789195 216671457 204333859 483393347 495220282 327082029 542827917 376496288 436601734 112593839 966623076 360621918 573626226 923588603 629348329 916355346 629892703 113464161 430502096 878028922 93067366 976438150 276428926 642026090 782223155 835835950 526781101 895581693 609967507 138230811 827647724 90473472 809301640 947272689 967109960 990153339 723029028 600897777 980160908 601511050 27022829 558085974 892015613 492621897 886278911 701205084 110854186 438041658 457280172 191473564 434351995 416215767 646629809 129219895 836296529 105884204 398890040 695522235 768683630 341428253 589106189 408469396 560229770 573076526 423084629 949885332 208171320 869462459 942447237 550434982 457057154 235952117 9717164 551362724 637421120 680032036 464762031 22755849 657577686 102050872 457115377 522141267 636727133 719110967 968656909 991951846 877456526 103031929 947522139 784956346 371621880 556060946 934396842 33336718 215522739 84542990 10167972 934309899 738107528 632806232 103505142 825082391 161162024 714613428 484148566 739572724 816988865 604955102 351335976 760042499 816171832 501001838 478528603 544632057 311730988 775488626 840543930 152571181 128665360 77060193 53447058 535262646 716531171 437930607 693748372 36585069 579541283 657135692 782603452 502788976 966533014 41992501 499134474 623391986 287149264 376200521 563487739 495046792 79936869 691000048 748007459 938037137 913502611 397054411 189285145 888436116 38145787 917996725 955376934 774939235 6847890 488204491 407439899 529123097 579683467 963987525 292759679 494821335 484895066 750777077 41999724 81276046 822119220 89131181 755508128 439654567 616420341 112760931 340112608 476835838 667243251 173681321 785426552 929763550 202168102 768549678 602142592 28777310 659628133 850636381 152460540 338906338 554155102 602438198 695148665 522200857 315666690 248401304 286915421 813044797 862368610 342695386 504521471 469294908 524122344 988284228 15690507 820700420 373152016 10666918 239916566 668746167 48109107 476993068 67860410 77038244 741501242 920283547 222555737 714486829 28178658 15478783 727662867 590342828 886136884 743905510 580548931 513116062 518859421 429918389 849057996 900984523 55216504 593764149 598770005 810257635 615337465 213576061 984305717 833212461 993749293 103991669 615975973 498149837 905166256 364866846 435230627 120542624 732260440 490434803 26396187 522848653 216239003 782735010 169132834 711634644 716741173 104225193 182620633 790033732 37925544 954630013 877755995 178315194 574395845 425756692 434433619 760115450 894690530 296773679 778078955 623638091 495268434 799088393 95079137 630829940 847581263 728211587 784547384 248852509 966289635 283786979 523245490 684143338 663609300 938606691 571698406 200367393 294986797 819964105 159928219 394554297 606844096 439736620 714681154 271991015 637352430 857433163 238966358 37689939 396990353 471184335 483442491 818115920 54288885 643837222 562588749 688009931 383136398 559749371 689680563 406456182 958244862 943417022 959514869 783010220 229243686 374825854 993124520 598742501 102503018 981479191 394951872 532041579 772807517 886719326 720714764 64024130 941153556 77452824 830705198 821502347 365616833 122493283 838830743 380822842 79945549 48008097 878818382 17940917 278796377 404899855 336281015 255794881 225208599 360943408 923505903 559642398 973649344 202283443 785498007 927525456 505774508 703002494 121894540 95059260 392512739 384728517 765684435 150968159 523321009 227481945 912672839 924761691 843561176 485723102 955432121 541933975 285800795 41490117 427710405 480799032 234850484 853921104 962546564 884360266 147329174 139302566 799560237 781688586 294431008 590244430 812670278 650822830 777983102 603573308 356555720 721993621 452563852 162376865 458007536 560455465 105219211 125347511 813661713 842019945 632044096 240182075 733695219 342422715 603729276 504069482 166873169 60898147 762738517 11720613 745554351 201390515 207070242 947807844 439188049 557828108 666546117 728033112 606062022 234010868 880777448 748153402 507926390 969925115 299838362 487020918 769824899 675857211 214426751 941374725 70063198 699078565 323885219 914839320 842540749 939599827 996725443 902680088 383963647 847277915 165025815 720238849 64523722 87407852 619220158 740286660 75290986 561448140 88571528 416239085 67906308 286260344 972616991 177378226 859161288 407332075 363084004 468090246 828527521 892173060 800479305 915075893 846303623 538819599 242121779 859631064 677372878 674210379 935678722 785905070 854840846 347918097 536998572 9878848 827462909 75721995 227254019 525742025 246378022 35837961 217373453 275420249 919172182 91179822 739338387 649984415 460837747 625065102 197144854 406402025 551513325 142260399 673569182 273179134 137973456 650923402 785974517 149113688 39329628 731888366 992218986 153954835 427870676 785048060 423254571 393995520 899355120 160945231 204798891 23090818 530695907 234786305 842147691 699835179 438875672 994799970 961254805 199424968 42586241 754684370 570398947 53879276 478413003 254429880 194850704 162718245 594868271 811804991 285615597 863168273 10599874 27692796 996551548 463292884 584962166 940245934 584482252 145277504 190877057 490766069 175447571 400255236 680673757 141283336 577355891 946494642 894831420 443030759 731148079 810627046 381879918 416835440 582260337 957856784 450584536 643123749 816310761 353653603 54876771 349467212 262170816 983070582 234643746 718461740 856556420 681703837 687831040 23634419 963897207 571059494 820091703 909385767 700545790 152113839 344496473 912275819 927810878 184786891 235063147 190631770 524886330 792747438 664447991 570286870 925285145 535031016 658438724 238731679 159695174 258775138 550388901 921240343 476908147 778316968 76407995 220984196 918923753 295517531 425472322 946746419 617413589 466747910 20709570 523085376 791780841 580370982 921380143 277338398 555168735 721808876 1902897 523797805 462513094 986518525 221414480 484138046 660651373 274489703 478809018 608289779 407671978 203043293 910415358 816551284 845818920 120039896 524514458 470165011 784821583 555505027 614759972 493209223 272189882 715976187 875039542 131207580 647017093 215847226 242074492 938334452 894147579 37179505 333029405 626115142 34051342 377846974 339710679 286261368 776701702 379695874 669034631 976515977 232332164 101310403 151092824 504511259 946777815 662857186 302107309 821868714 102772205 702939483 370849159 892539372 726955347 631155822 242685066 391155159 541941939 855529511 341388116 429249686 283437748 691220357 287355280 161715086 68659733 784075621 974710415 518880524 145153984 2125384 83664191 656583658 712195050 634829592 18124129 122821515 272740952 229471620 433871304 153115658 897709771 265611774 378778920 671595868 632292674 149746551 178643644 331246092 204780824 10778953 966219750 579576911 399770446 719054152 16875720 234272409 635293420 930151604 329685007 371206317 316715872 924194892 557577205 403477066 287087124 716054539 605461492 379567793 337356476 231519520 179683180 554516517 406851187 248696051 95408039 876872745 514404799 243788063 207591065 565046232 753803392 958396603 302889457 866325201 590097831 879476322 66594824 195374719 276843435 672239161 661212483 579870118 333504652 201695498 536318358 371388431 717355973 280499363 667722618 36876923 724071730 102408335 608363720 828197220 121959961 696262235 95841928 299438421 203559928 746985084 960978276 712336966 632239174 994752036 415749118 488446573 990466170 532152303 623774810 701040299 645242477 836648428 865757345 592176971 823656930 223885101 547991577 627203690 124336717 437679829 703344553 874810574 9097455 821726393 806264134 601818178 782940656 994433709 907027064 591958281 30011183 863542999 961033937 581053211 52117809 816743211 217513147 495741927 900175916 44066585 419560878 649591409 620368183 317434844 841731391 144279095 996632016 214886269 161727828 570723214 170483750 610736728 887911966 648370348 521407781 647118413 696018840 158470786 202075595 963866051 225141932 644725060 25813199 430492236 386560923 443834374 568204380 32068574 839059254 501717732 328253840 833611695 248528803 155179696 51750260 828469428 769491332 960894151 385533379 823946656 658452889 142054364 398302215 726234318 659907743 128015812 592943092 417060084 667562247 271037221 342957520 323385452 432761434 81687669 677436556 598074784 635567133 358760747 78300145 878670459 659780649 991272199 858083728 465064431 734219625 142331496 839690940 787369237 319983203 46607346 89780935 542651600 313477863 269969316 425931117 619161129 662488035 675805448 270008123 228189189 83887998 15227061 793055323 495696744 826815828 249048862 727863453 407167542 621807877 305636734 559053621 928558584 157551955 571637499 672132167 900118043 319617685 25933000 443596443 827688051 241358522 592281974 466209876 506553347 921749057 986775153 159477981 108694985 222832936 559563489 228198456 829127739 789522425 399392608 735845425 766802496 523369594 179670868 870857554 856239111 638514279 820839333 462975775 992479218 86189832 780422537 318599683 650209178 501933671 768505938 178978649 144918093 841716144 781048456 622926468 979527030 931990875 421820698 20042281 481144563 816566282 974023024 305983790 545324891 740536226 128860728 728098994 960586176 497464683 861144667 274198658 593475158 472538386 641724465 15514730 475152587 695273906 574128935 916572542 138800914 118629812 238369197 742315436 463820328 51923731 304815816 89290010 253697529 124447122 879656973 156385720 922628474 275370068 620338973 178127803 331074614 827739173 527993372 227066159 329367205 18061523 596293222 536566411 401642700 555679970 565943190 142358602 318154638 963358269 103411153 914157581 219581226 879722881 824678756 582125475 591325985 780871661 762897109 718438095 639663398 912513908 139462019 864621850 875040752 401161673 1755180 664275066 54647440 111237567 864651544 243042448 364805568 753953696 922588595 953195485 441094620 765698563 463695693 154337049 305356900 678073043 147341861 432109846 592628540 857958326 5850783 108743439 145467444 29367849 94288103 469785935 212085169 720316743 622703487 244170464 46791621 821815626 756261321 607172080 656366547 477782728 876978919 684718822 72760971 807537507 31842857 132252313 697353672 770728945 924056029 833339013 867765549 778692984 243450800 75429939 866388157 600356129 82350577 602212268 278215111 139756967 318908019 733817511 407691753 65866406 837044790 515270217 745256831 681554629 981030890 672753947 467773514 97416279 151689787 66145702 991456061 32257123 28084052 195123401 476504090 400932084 816610512 241318123 176953125 324828958 669021306 633408389 863725351 870914339 596868036 432164237 366677081 575813425 149014053 73587562 695903845 870315386 148483867 157292502 629883536 115714819 351800690 400990136 69526358 56098332 297655426 412013996 605927609 44093416 784942286 396970200 648957050 240974556 773911067 842108941 137540186 532036133 65359034 130787711 839539330 917817800 907865420 950999211 4204505 662080171 212774678 525449093 206021837 3944967 7690873 163121867 866590994 710051577 779428560 402658763 380630895 804277753 777711852 555562570 136443829 217672279 569995010 746265817 301898302 725288593 435562832 650378731 863062476 81207060 26884718 351836448 55633255 496223271 870158800 500878238 439128088 161093589 340853650 178853184 845346868 354667500 129327850 301186994 621424028 687341010 568879954 240424017 995198380 322774681 382613503 470363656 695661990 102044879 168299521 566744467 17204988 687477393 842193844 672269536 961980929 103949187 85673927 548584471 355554027 462759541 778584459 959626327 794398018 314409338 776430230 861089347 924543959 211338154 25984030 114375544 691715568 942413974 15171454 894138641 498125340 872437302 385873283 442792273 500420913 756446408 194320582 220512226 956369144 597178948 172011938 963376024 658494041 296162541 424870030 980550142 267994190 101535187 576716061 171048936 949497841 248358078 64227304 205611162 316709462 365406860 249248105 215584416 552916454 269111463 343720627 745709911 59306803 861430987 261260727 189367102 348207117 918996922 126762931 233878460 302882163 566542398 6991502 45952478 417201202 472762409 447111961 618159898 65213730 79736208 529252720 773710927 634144893 839376760 832494785 919707229 315475859 469499783 645527374 648860161 485497063 350129895 589995414 562309247 431026908 396471277 906121344 580170275 185407785 37289559 73596873 468428620 872868810 149532716 895673370 565062386 241523923 367081526 421637507 425870642 373211138 79401862 156229855 774874236 507986857 695997816 734972548 704316079 869854640 928012487 412531502 617229 735740854 698233511 825675766 314279757 442196810 821790964 712918178 196841952 430441189 232609721 777313524 182792718 197846777 925298880 128621753 379324728 829493210 819132794 811569170 558214108 620205887 951770273 444487211 488754593 865940342 139217458 436477663 324042640 110564434 566758651 752162805 113337002 973581989 705302401 878883490 52965699 573941554 225487112 730894273 951288700 238464955 178054425 912692527 334372866 196651620 948409379 701033275 745210870 465894892 452745477 267277057 202649572 689067657 850987599 987687702 578793562 894696166 216213617 397349961 755153115 749220973 998648347 379085385 232855976 14431161 91481367 488083986 50969612 330566255 139549368 274917459 440380302 428492220 829538818 870262432 144638887 850491048 820666807 89209146 379686711 775623589 951956936 784586767 476015011 150725904 730190096 916809246 403350753 173412596 438728299 98162872 255771752 895266432 396968276 318925037 583040859 866319335 385889935 30228297 88311180 358540181 489453088 567671364 290019884 372619810 530318089 76412011 249913668 841057746 225572722 252163524 236697231 895901157 47633585 188953163 731499795 748507704 901204400 37937254 383636182 285560881 809697698 205370378 229956629 999425716 746421744 908257119 249226559 821176708 987392036 983211509 67783176 564536931 328456615 501274255 476060806 678653854 940550251 3199206 640050749 863172936 974136319 26006114 355185143 494309298 248265945 871960494 815004736 859533465 417208304 327855394 351884439 339782211 409013760 272318863 427939682 467317824 827775765 796705113 469817990 611042187 249193705 833969324 641814947 222671939 114847619 625198530 934155285 462954064 261331256 238323417 441284899 840622448 80301231 203689282 72883546 820282217 961295540 721942352 379100661 623883901 881543782 258104767 522762951 444354852 664839780 136281385 338756241 688751339 303216162 202930281 757876335 37014817 959638616 977598840 564458974 567386101 233155064 761472364 183751549 540331723 479199762 125268080 950876889 786185733 290736294 466308070 106260325 927262583 212604790 998731542 875382698 39730729 138755987 953648697 205147476 129984592 997412114 197498850 561605345 427084260 794538226 645009643 427669355 275415275 506505123 284794286 556876883 824382714 673503421 689639389 995285664 206016317 795933114 792937537 534572584 143854941 44886604 714639035 937913078 619701612 34488630 965779273 517969596 422540044 543404273 3598211 843571769 532274826 720516469 120246483 59562700 337139605 948576643 219790906 432409167 318301833 988796854 91849236 959360044 510471044 58611621 342779151 588206402 391600605 868766104 52916856 132074571 754265370 986725002 679881180 236312533 160358488 938055329 455581338 28609828 366301874 912634172 37000181 668651270 324907954 610882842 542442487 18257810 594429778 113666067 838755094 604574456 735649573 297885588 311080973 907431950 475098408 935079516 386533292 36219903 38290096 537386688 936308290 149964022 268216249 691394433 823251880 653043487 808510414 933344299 313006222 836537504 802505197 347474451 854194582 956495528 125547566 90431672 107008608 404018528 815819503 843692311 855189157 935567906 493252044 461919460 4009672 88362635 347063189 489326825 826043211 960465501 513539344 15403410 353137131 430762869 632166293 623188996 543686827 570501049 388210074 210155694 645774555 586756934 506990 37199093 490641174 561269267 601192664 647073560 105713060 433508243 339226576 701313638 288279685 520490317 736884808 328404999 973623461 173095535 782497876 441513594 567806196 155308442 251661209 891504121 966477025 314737052 736571775 782265472 721519307 331796675 647277797 140322418 884024571 300956942 989470985 918445983 72330640 926443796 709246304 34735369 947662391 918563503 351611251 529848500 574304203 103358996 39706937 564648961 759575067 956220689 832135869 419961984 400422464 643103415 895295772 67805190 69964500 343525354 568981811 810628581 540902345 504656625 887740217 943884866 448347458 364698092 641193800 950910826 89440255 591003865 730756491 95877299 415581037 484232472 543266347 317536455 116033808 695442400 432208568 951277213 248602461 451744147 45015260 635983441 781295134 758818920 956934696 370803252 881336689 461979570 91695569 806203316 885258267 747206119 324104095 958474600 738088328 86665174 10238139 391005130 433025730 949831205 74005028 329922411 615916044 216537230 741915795 691487412 589499024 729317423 175597033 79564837 139046743 7447194 590891907 872648322 339165437 635963074 298016339 32485090 208531065 211190925 169594288 229015634 765080994 207097739 268713605 308778463 573033138 615458675 344201705 319397474 381541983 876136728 409023406 21670502 11766523 341310348 21820069 605848756 665823720 834493993 442496842 390210527 12144595 661307192 598323022 355730873 299014901 588255773 935995577 51182900 71858684 865129379 138600873 49621643 754877466 286651562 491811647 882555536 515113277 583164815 493369115 489160408 990651185 52636369 376470771 72589021 633306363 676511215 748671069 844617209 986257391 701386174 637831773 517465031 256111579 469585134 133765299 276123860 838708634 44796930 567809813 227982098 968642296 155882290 33150277 137879026 464174889 10471317 542673208 81358225 413887197 708500056 152931059 857887998 11634200 30182090 45901766 200704665 386262603 989514628 277082113 120096069 563385567 943708908 821619471 30737552 384278568 611541818 49269826 397374715 706008647 557214450 541534448 792842422 720498240 379168248 225938120 454040264 649182614 860587364 121619160 426056452 946777843 44898878 507392469 104202532 868296430 67185772 179210261 92734248 483616299 704324653 664765089 750305739 285865647 481349181 223539228 475888253 822237621 972476825 666921168 762861227 751046742 719913162 257932826 864900892 66353885 408993095 181539610 397793084 823323665 626567770 387125051 25143105 167635447 165385983 874574022 817774450 428698725 431263059 411503841 235408318 146877873 814563629 653219633 539612958 525955916 964479069 83808699 886214247 572622634 683498648 336979182 212867053 749091223 918038768 359081212 956071826 305414230 880627909 961541637 730485610 812880289 111065127 954316677 26369896 628770794 473819447 646186986 587900778 515032426 544343052 30069128 285865386 413035208 894335627 658818514 901027441 998231776 800641839 498704051 975652910 607492825 584711220 959956387 522024509 952459980 552403879 676111346 474629295 737808398 985915957 825104816 728422394 533052293 351758728 915999293 948057112 391617935 794430328 141181656 647987342 779259148 633528779 938249882 402191411 800725775 501546309 820068206 720029052 761990487 178110717 195335952 706864065 837650723 733216627 564129857 985479125 854557184 871000380 21579699 642464612 335255150 140102258 56565952 452321876 600778282 624033225 296519947 810965603 634491100 662552963 418548691 332957474 266413355 752016366 414170475 699882075 133155923 242922131 897525890 531553207 733695238 799750043 383345693 195217144 661605221 665857503 479433996 761766541 976828837 715664326 151030071 692254046 64747207 861825832 304841370 565222377 187829334 520601953 897791325 101785200 911048684 685824035 272173709 402522126 435282316 646078836 477535960 870593015 223157250 43514466 990241056 238268029 568955942 547594541 534711609 573792823 946068041 204919531 987525573 264692117 763277920 265954324 722854177 855703297 774492252 830551075 412018509 494342274 197348858 136537411 539834459 493961265 129719597 357055538 819198793 629277291 40023634 954266964 893951031 913775689 963008370 715677956 863208348 831593471 229382634 158592264 428475900 869627248 7070980 904283128 535979601 933987847 795766656 821996013 271341094 53770085 570151814 506779364 528275228 204892241 996482228 839403062 238454453 846320983 640910879 229919234 784097322 81159849 197932204 48716771 312936428 175203301 256614966 317658217 687910713 850924125 598649727 4216378 507771027 831063162 496837250 397140443 236315448 980129836 600180720 951333986 811465068 248647362 485441753 47503252 193199279 448163684 1657732 566996367 895398018 802468171 787674794 719809661 208699220 811139100 886291538 770233132 240638787 49695649 899635850 215360735 356000628 219452777 427386252 205551585 347926809 614058802 874751508 354072495 610269065 461412720 366545667 624333357 518710117 635506235 490881961 336034957 360024455 494704759 402708550 419503079 156990112 759008909 778034797 711057352 724298000 584917414 535049416 121545612 418177517 22003255 715253711 385964456 109746930 271736058 697424496 170509404 290265108 578476732 232749366 353222155 918846732 804398150 977586226 195126137 758317251 614941187 780847651 693224689 266513901 594355440 501105360 748680273 344818280 799795367 821260710 588131627 400181310 769644966 655186407 399828421 263901315 739062243 19902054 852458541 672285105 950393785 623467966 148320278 882257743 495040863 270137833 21754135 591995548 277973312 342159906 166299250 110586628 954871770 849615636 202947169 703084727 620732571 149436117 574857680 230500868 5320086 807892678 254172973 372507682 51838280 242395803 383800709 49096906 548178722 615552351 693616137 166220304 649626892 13756111 648454473 542915122 456138061 798561599 810940426 834802839 991116114 440521114 591054742 176304232 217052404 509152493 336730104 506571425 801168467 362497095 723339004 741424377 96710232 190209734 242044065 821291324 612595802 92314658 277380182 522946144 397054320 397128708 948436773 392071705 204025572 959576243 519375388 286595991 629106928 658411488 722929572 566672908 262959565 125403210 47148820 89590607 982603544 515062239 305030060 498853631 495680282 966536822 906677632 950238845 157210448 576634857 234317680 644584073 931059862 547403158 917607553 785135138 50144845 118522457 345497039 154771108 895096108 268307309 725330184 735642105 223243109 468401901 372688815 251665461 136322927 882237033 689210996 883369021 871103298 21035850 430075656 43016879 425120973 325978842 618416590 234070368 894668409 413706418 510261965 881307487 520025332 236174688 721063164 749724560 449067557 70388805 629302443 113153011 492527200 585568748 534846795 400563286 628756393 432357663 716442153 707201347 163769956 966436748 486317782 486786904 595903176 566886865 877378326 133814785 165108312 722992502 384693529 857272353 372132840 123402470 851909277 49337753 466379736 563791452 316246430 486796579 445579789 670878239 587456999 547187393 904950655 748797663 15269747 100879562 446792735 31403323 842560009 330495028 915328370 4701966 307921500 390258697 708499797 766746699 835943654 173688909 441174476 352077665 798452496 831165300 612300474 357192156 431651179 130049263 152843717 901882418 911644474 444469666 916772866 195924275 135186968 558721379 447444936 693895332 203329986 142450589 107989197 226106722 766843563 78839559 632709063 358681330 655960785 997195586 834571937 489351088 192065232 110231157 509250463 400627103 319941498 551395157 54573899 284904432 657725286 375596976 141691025 124616435 205019883 930754390 389073092 534495218 181587431 883797412 786918018 2387974 914445286 212102989 459376219 583266560 455145132 131496882 365176271 516858883 241075535 679340152 167605821 566153073 126973784 403314453 917335690 785646817 558751022 212102361 999206092 772932312 349638561 527376220 115573961 734884636 600001203 20259686 551255029 788689361 816390107 297181137 538777062 147871679 9103812 801198092 862678451 585792907 153828687 950014218 969734446 378503743 482441106 722876704 440208427 997753321 23819519 184062976 13597650 529515844 855106819 452884752 560456082 372629464 471642025 112809662 3508553 77804766 962879228 212308124 602111534 238952824 252531616 81336474 72133485 531198039 493910949 642716821 919005752 349876519 48909991 515796636 181103118 97599332 788826312 301484949 682763065 670054229 598855522 903182600 748424286 624831626 339100722 200588012 537332986 699432737 329546712 338091175 598364208 839770673 862653135 393192249 375004359 636830617 652326221 317250033 647111310 419330506 73214805 760804744 530467302 466490795 470239952 346238561 847442396 395436373 155836710 398050184 657676649 368084558 704122922 816182821 977131731 473898693 453766983 535321383 657855515 759196974 449999211 542254384 71114895 820842046 145505721 176446773 775144352 301234773 789913535 32731516 2613222 603915070 824728696 631753150 410050987 710097513 676296878 234122520 962354269 506391631 829104750 606727485 210687036 355369206 135239730 157347243 289992900 825711783 804764819 43715968 864438577 400954950 754180156 273775554 200474946 405100946 52808629 663925634 624387221 740534104 737217108 574949727 921519229 481293988 650658394 682961191 456875910 999461668 861400689 614988058 745150582 664108208 763980441 618034352 69137389 555499935 536522802 191105381 72393177 703257156 533013586 328461007 146331270 171090490 302774627 806162815 688653751 914015028 272828433 893145587 949905017 18496035 955141614 55561078 396415401 576465895 419875454 562684152 725402201 497590125 30273802 563637359 734772625 706581642 336408529 818258631 229105692 610820711 844717825 847636993 158869575 378314719 43525284 959394505 376923526 589662297 365200097 640178678 753324420 556704720 995273844 538399842 135244753 522243962 983891567 285648699 85251358 279161758 628240133 3686161 760053450 184843074 808413742 990909813 72714218 385779690 979009495 195863311 777111930 220389424 781501801 807304267 12180234 386946163 941604170 35464198 766960098 391282407 352554895 16896228 168372805 254551859 423275259 841348506 601683934 276669207 322583269 434771371 397853028 257286330 184593846 830942462 738714702 588958830 398570712 262010279 4593821 388981335 248357167 130385 21820762 70339864 116155134 885064038 199171899 734983039 984075794 987703028 540219534 544628064 378231187 656921128 508461933 483875977 35740589 526485921 245345310 286379259 348216991 260872645 600179070 180592540 288618633 93961414 75831309 680444681 582168213 176352531 851033423 13740399 300782266 763943904 230207530 165644116 363866720 781042744 123045927 663425159 417546671 662985269 185852571 627894942 355761294 728514103 339227594 928741835 710253211 992169815 815607736 443871102 166545435 341950831 386426487 459990677 208303843 171578458 766608405 156419101 105480233 155643179 718915789 103545652 730483382 819665168 265993315 313776857 960545180 911090987 225889574 225973056 544157847 876902219 268627213 215234286 696399518 26420258 642626489 428721166 253780106 54685320 376991889 591380845 828871216 453816395 485312827 188958243 160799820 133601366 40865032 688771352 305339758 297935323 166801750 157817093 112731517 574072414 729265970 354729190 967062909 628493228 279696138 45130407 298414121 338929485 65217972 281960668 903595442 85960244 548950717 889535708 32606973 808010276 1669355 716410572 219967304 175816747 881201153 347465450 415953703 835318056 500975064 498350415 761920978 491721484 94952410 84621218 520296229 833414570 510142963 115121419 482452772 133308684 445564431 734769291 87496980 959179546 274783749 597748920 430088223 956480466 319632698 918249301 989335066 815546316 822319439 340348535 951797916 135470057 318185117 8801294 203737569 461793630 161465820 585241549 756828507 826653602 158712807 278675842 583181483 692917709 683617246 446404046 415021120 104855348 714605708 273988875 358994759 40488600 975892188 445283846 184104920 287747160 882578038 410597630 443534136 998156189 530062414 576519599 292582991 581605354 437458839 890665425 963290405 257713085 462847349 822001433 451582473 881800543 214773584 51866962 751118836 203923676 870708754 883956254 819703738 595117283 293911480 974588386 155200572 655149142 387757881 761685532 680823054 421930549 404608620 881327113 150924318 601366565 338712397 106924541 23841328 759391191 589548120 366983691 277312510 516448169 794203492 500208614 745109372 207698557 857428317 817387102 809564727 379157062 968568598 646465122 221023089 602732373 963479848 835596396 763630487 627556252 954952962 834685806 609832959 689576717 485963772 955706009 578912306 770418520 435148256 504655138 412913862 408680232 686588981 697729170 143094172 405002336 24557948 994892333 423875916 181933063 926357277 658861402 209287902 324084370 572102394 134254914 590084500 770229787 436061654 524487026 84202112 32705060 40669659 934564642 708945653 870667739 751386276 754572439 575330172 213459360 120133939 693926501 478876561 872151794 287347750 450444703 925198408 180635692 179207135 506946937 503479706 508063478 607527857 600834811 832832870 339042428 314208377 426710834 667734466 124201276 342033124 695676848 684408589 33625953 342552148 513880097 358531391 564876336 298631019 793907509 372342431 343058580 450993615 654218955 194246813 936012929 678744439 290790119 972316483 147888248 265205876 68228013 286109164 310707799 93704920 383398541 981174596 246141536 905820133 165960655 548962550 13152954 232783922 129743809 97011180 296556709 172718787 236743656 108884450 510466453 942766598 413480646 403231091 476035059 406881613 262900357 821257633 967544862 348657329 867037753 153741990 554710419 108926775 970451233 861059127 923300876 902237009 989290538 16130813 67358137 342264799 853551269 873067127 646259381 789217968 535175804 565642954 826527796 629217795 28661736 21504093 658421358 121221301 819942516 794475583 778010289 132597848 577440192 184233655 559924865 690685055 687577343 834990095 125782840 766985529 688861275 606357057 31520882 306599381 131324989 251714926 430409342 352955029 506605833 360284520 332602767 93935004 468561929 689069860 607293039 491902492 664044794 438292054 76587267 24826358 431322173 63626644 117907351 340801023 260466000 282216932 96905342 138729978 386430381 503014478 275756987 938113620 292313249 167179106 673957836 964928189 977420040 385175946 371775052 590431747 667016202 134908052 191350316 892940234 687196541 769324501 465215576 570597282 291403872 574046041 157495021 924260942 394402278 190612608 511283255 730454261 590090534 270951920 226236664 168886482 926330366 517948752 710244003 826343740 959422728 182595279 731025385 415485270 880934811 124700887 433672032 517353728 312063905 733571829 407443784 33053764 52186856 866272141 438650519 118034861 487565022 422039297 930436402 907867688 409252398 308419614 409415980 880065568 816624947 284486360 344190486 822809431 795131351 28225 343243988 690010689 649766314 982192390 458579852 842787893 547412183 401242643 330417258 325686279 187989333 900917569 300479463 669210376 414928110 797205926 285252900 897652821 689983600 423697631 661978062 727165083 574882532 668242094 204981418 748364196 525061316 119065597 518246254 280635764 49187024 571252426 110936729 292686254 125816764 335359629 528252911 694778469 945964173 619625257 294596613 149036607 949619922 654571655 399313308 427986099 295012068 505267704 240546973 21025003 761811707 317861526 524392235 125543939 391757307 912937032 553640313 113404712 195278849 706872440 469383261 778839789 477812589 214591663 20735989 295152237 848231671 419349462 11441159 649071923 457185125 65107503 326343966 230467828 85018343 645386864 522157347 346946034 529136161 786037013 820106511 189799903 525217503 281104909 704712675 256520076 287853666 347844940 714435298 824905246 585105812 17524544 593612558 865146908 607085975 654021377 911719802 267126469 781775076 533314685 801949309 506360908 101934777 338984879 653974072 163754699 709154657 756298408 333181822 52592842 795016720 840924684 904134257 549066222 587499797 645045509 684262325 101458150 804594815 529647728 764938296 388548809 194061889 306401035 174355200 302462639 294402728 741958792 196046452 887744853 56288923 956204053 599469505 990515275 100736214 71614947 982067175 705265322 114900779 780996353 165280422 184065857 378208386 825507325 832467145 84111597 83509719 202156278 331252669 914887995 990860691 409399827 560898414 565219652 41864768 513334381 270532334 398903099 756660304 103434920 506300076 460390693 935693196 123761947 78648674 647475042 593119734 139878157 782296839 11146142 670500521 985602779 706515901 394439297 21035430 940550320 176685737 490666722 894764288 392713270 818930407 839550097 897215881 896090532 430431255 385637279 196628986 96952520 307581545 436166877 733803786 898517848 650571927 274204324 255283128 388868083 339919073 117926388 247578016 14808422 93346544 114947089 426051005 615323088 964894222 581784217 104048097 277436216 47346916 756519465 864530993 297233585 2235318 428984665 496971187 306077543 833695796 878066488 282695184 976277344 825233345 332578320 223061351 587643225 236833783 248039728 891577724 912096499 391550860 336028116 454800927 583594490 659283707 239499223 36996284 429065739 989304675 2516205 199292769 819459503 267240938 294169700 783724420 15893669 356723422 396235621 956668971 214388609 412416286 24498388 258893493 539362608 857250114 292460437 472727254 979496891 788696775 421997912 226424846 606097978 505828879 934996828 347135300 448102636 212111167 426326084 128513733 362682307 759917661 382258115 670905653 499286979 869157432 735568065 498395393 310009736 548264433 985842621 946245078 601841144 323499895 537538319 500405851 670312182 541780595 728752299 202188880 305955933 754619986 98134321 73215367 545911965 8524913 570815856 486123501 586517768 745290820 180749791 440131942 21138953 363530122 730551083 42883503 529312575 818660177 671482168 998211832 352254720 128954479 851501626 39877685 997821367 156639314 765214510 828383507 843806581 793712310 38639247 354056509 264778765 153773760 580032425 906999925 756658073 887501269 391129268 98312833 275948659 62657473 909834176 63436765 400117197 795584613 724707700 948967358 235119187 851841113 457601042 265217741 714606899 235105267 235359937 345386790 240647609 21054933 152327880 268599807 330126839 380316189 495268866 400567082 712314064 109611890 86318807 530696835 437935739 907381218 788548467 497207927 79572499 13692307 82463242 419420476 55265149 360640246 431061448 626904834 68075105 51183614 253878565 241019029 570698411 544434761 275943350 621358434 746443023 594129864 492172802 58259193 694941247 175986712 215188967 608178285 496472887 293393308 942787722 578474201 840543245 636771835 188873639 249565474 927164441 13812438 563247448 449632151 982938137 890900130 730145789 145781997 446319915 237809139 768660431 146616029 93462911 182212681 470898355 922665286 36928214 196595350 782938992 897496856 834767392 90532315 162459298 716488310 821636047 557475047 17061083 868712769 303796957 703978906 144832674 931879922 557367978 554565105 66533929 23893950 250695776 94000140 448970552 988213429 558833980 94830793 973425208 554103148 854461731 180295208 919923632 359016364 97827857 126187946 663760108 644273215 787877654 827528928 62075114 729714310 320388688 922514119 166312756 517808034 994245840 689839277 924282403 615540531 742594654 299597179 633445567 564137485 89335135 900899576 305183555 597483090 742792197 415943474 849107883 915342270 521315047 111056671 421868881 345113855 663941104 975122672 378121289 989024329 243144295 87572179 190402378 268986842 33988568 186914320 939181279 269398260 110737416 474022850 916979115 536950660 11128700 850015570 783501435 164013558 193078105 657648921 799990678 364195220 585316704 34566814 788417156 47214267 536051414 869987760 913962813 202566451 53356432 534117708 990423575 607149241 808409940 649259095 670623799 789849337 752735257 63274903 220599202 700235897 64320317 494231691 704634461 760159340 853466632 260593367 462438035 710622259 650875281 402318684 416137200 460541336 175262748 71322537 920671082 219668830 434143843 906333303 46714518 219470878 952758967 97315262 125596827 266493697 377998401 613511175 248978009 713048357 956294806 422427994 625576031 973324111 957840395 112769479 425967238 870580303 315445145 134095674 129390173 630486695 910187993 63680989 217350769 297440724 761612990 451705701 388427823 279364007 935920768 521471295 81007679 827230295 942257375 855295749 825849163 819116651 122053768 748056975 317198651 563397946 396995983 443141013 13999359 377571485 712230920 916463488 68224757 802381747 88170142 587699279 234782292 684026246 955897936 762595730 987128755 452420570 299435029 496277042 288634512 330372873 632295053 90258617 290516491 18852992 807678672 894002114 340679918 335700907 296738989 976089546 114583931 876485683 796809395 912134103 494791559 514423864 928347657 44602529 849550363 247716331 433601732 854819078 512523201 245253384 414345088 721640059 633337883 387066512 464084630 241538926 736444725 361585212 984976875 646538650 972750322 444574219 646872597 975291657 718975584 122817948 243479609 239246414 752450533 368023802 786127447 287416874 233265221 924185168 637194463 7995758 171363265 599142818 706616001 661047129 835174025 331431025 704431896 607016566 998969490 104237476 580769879 456396687 461669046 798704420 683779692 850108120 29787983 700711263 450486675 975844310 491107556 152923485 258997105 724804520 727939472 553902753 940732204 25978474 985685136 887329115 668539235 98226270 649333397 36993097 721191123 758574654 184370308 882426529 585947380 734896044 655654988 606360633 822020565 602940671 770604166 322933827 50830515 715616887 728134418 54983340 243628354 874448405 615691562 614017783 91643823 474885102 313022432 559009268 159664836 79613545 428864663 211749519 954761189 779026386 240906907 114402008 116825555 659688225 355830965 587875411 554390846 939402869 385333054 428730281 384215418 52421725 265284988 923223803 404527841 257628064 698816561 620778092 298935954 244730923 763229230 735234169 239102310 505986315 608529286 223313020 52737282 77365131 10602451 466389036 837912387 403516164 504324137 58035463 226657279 599548776 381835640 143236616 288584831 987920504 8694457 446899205 941539977 811208267 832380023 227770780 188107910 918641590 293617138 149425204 700365218 430216878 740879389 631323764 188800467 311997066 500427849 574900678 567763938 151109888 740807491 284793962 881797108 550021186 598525056 780543653 343136671 812180705 681836541 498427735 623294919 21204413 771689978 272423098 890782115 320125891 27424627 904472841 677346797 272470695 701305012 952286703 84733135 286255527 930148219 300908425 521244753 368070144 312717204 890186680 490811000 47471938 47169809 536922580 932522523 113796594 548855727 377019807 821024453 259792734 417469564 721386051 853776210 610918814 805372066 955485759 12760028 405332944 841541332 874981231 958589469 972414815 11437274 450178452 606287792 818755046 132094669 716618728 577432597 121506480 335962776 977637993 508654953 138323574 483238770 881893407 267609070 928886700 976023093 603809847 739660662 467393481 905247323 688600702 768506674 324820455 194860222 458557394 170654076 657768699 335245015 580501750 587243811 807387518 274325249 150504110 592443858 677726821 449619950 576357954 794556054 793387773 894159269 767168354 963525014 690175623 650237160 316470587 198507682 7191982 34691455 332824845 883790193 231929834 103129918 42899124 474471763 661603471 564083189 609443208 510028074 442918994 406346129 271249599 7498233 181155478 944290184 212082307 959036773 762279411 680469709 645672685 137678927 932959636 219656622 925217993 281697706 934425069 15487579 990909955 210710808 416488375 685969404 163336949 375537194 195192607 907510658 997707721 986133671 157499486 569422199 510034 954371248 860671108 552359424 687283281 784422113 258259985 350735094 308498701 86511496 396247354 248288978 176024183 62182213 195506582 556264026 230615449 114157495 747649801 772466530 70963331 515456877 943128151 301594084 689705255 386928352 557752720 409835385 177117703 845852877 810856051 876811075 54335481 252879598 740535434 424385446 251822714 646328530 933136894 334913145 966281856 438741289 988302085 617391312 745960141 126603291 446243259 13826083 907993809 461580761 330443345 972536320 120232822 690068490 935333501 839205265 637923067 917896981 926040801 642046298 966505839 16833534 981535095 995765752 889870533 507089811 48380115 756025914 702211942 135785176 972800496 650079549 188755149 43472747 541896748 331389655 99658265 406699044 490711430 699152941 53841149 911830093 7247178 16450617 915437111 371480638 395523279 141466788 632962827 908456921 921325844 656107824 427833024 870584693 954391910 338337482 677826473 17135565 164648001 565389264 484930363 689600312 657934973 165105618 888724224 415757427 28731323 385639389 533011127 984123455 15045612 124645088 269899614 506542268 667488868 116730733 43825980 890474925 832763319 964240422 603485582 360764873 883265512 385454465 885271326 18723732 738574941 672225432 202667414 757817149 890879792 616417742 928148647 182238253 340463252 956978060 783066019 725137029 471808668 428911091 14397854 316127179 419967435 298384424 903540263 29161625 351943821 228049740 789613605 741333868 798683031 677518135 507511045 378927206 481648247 979199231 222693659 519284493 636544186 402809481 202733748 999248674 485046755 586367299 372947752 569630757 231954024 645546012 911091784 600154566 943561280 544487973 622841206 678733664 23909046 528427933 589097072 97279576 450430804 294169609 288235053 309601191 381470757 163080433 727197776 571752119 66670065 911421536 508100037 48876115 263866184 367891485 402794559 413416790 453974736 553065401 477579799 900772393 650216387 334596547 487039495 825052923 999007410 381506142 505839146 508684921 509364359 839985568 737599112 219317959 155235603 830814195 314248784 282584366 693085287 196908779 599860336 461448208 651621366 775514828 636064124 47503787 374699974 399889613 932911618 71187624 123749651 121428345 618545877 1115294 779979824 879906668 420913206 868910645 585209810 814773920 551190286 819636973 761600577 159232006 182464862 226546278 923863379 774233267 511887590 697857243 404500181 230849884 848351969 674897690 489567313 3063001 138806884 783274082 234310239 18174105 326570776 415002802 96225592 317761611 468080361 211063618 55242079 384983547 664003258 908405892 322757863 592242310 579927400 453859068 122817965 233568738 303417052 705320036 688875088 779918439 909546003 588773234 5718067 684741070 889880130 72128778 244958287 113770482 890119263 20155442 161334699 528615785 679480300 446168780 526157853 584712314 498839230 190783958 510660295 664324974 327008807 821961429 564289571 141324908 932287838 800523533 118147825 671144664 702474114 170042941 771137214 311274180 512145028 144496977 195358728 51688604 459303117 163608978 101529247 437387793 383015038 836901488 58949314 960691192 833902722 499191687 579810583 679801634 218971746 117052003 148303166 295988258 186794829 275458250 670976784 356906188 878889163 627465776 546852704 518164403 967724370 643245844 249030723 913636552 908227466 667121461 775429233 252907867 654925534 263348260 529407948 420520866 933537974 845101364 686481604 695841887 75301198 600468696 203954957 174429101 335953202 470357349 945142580 848813382 259377057 665087686 9877366 670262565 412965797 772165363 703762437 241685415 287886065 223194160 490610600 753046092 255638540 734716841 146515325 283525338 641303569 896188635 562090074 339091974 48790473 343587807 506040027 929869360 162304893 810089270 95441328 150992206 422219838 395669715 820672948 789297869 436463226 645877498 811326503 110992971 130810708 563439644 837550401 982842685 98658239 206396032 520645253 25370096 903765606 938777075 655666130 152434964 844948432 226744837 424417853 996687444 471841979 942714111 534550900 376595071 59308882 447148743 47324918 799809309 8684214 89933733 4121108 906982526 997981458 564069583 99250178 5559228 930582445 808171440 996494274 553153657 361140437 356778418 256074983 89993315 584426738 862370572 680884081 753555413 232454353 434762696 310865591 504813616 413847655 801538893 655649157 147765644 894634850 386515576 402343746 6113266 426050882 53203291 192516869 775385818 443588286 720477291 491986800 794555388 585742761 409113736 983135452 664041168 399968654 974633067 513350507 768822211 141171109 598913101 808509515 746467071 826740173 534040303 733588857 942072707 527926765 166519710 148867684 568755740 55606479 884096018 417559078 610240004 67533571 715166536 466263145 922393576 451648491 94898705 535389989 177519684 299107876 490401394 60790750 166214378 933976355 411671071 171820132 311910605 225188208 870490515 88934691 284400106 164981743 219164434 858739306 377299936 394312874 497750900 397734336 857099128 524007673 895608508 421552200 468124664 798924472 368065681 263049320 476739601 784017837 246108597 181586541 934337713 613872671 946490377 839314251 724191105 492274285 725333274 720500211 882358723 659308703 288799539 264584727 718369454 310177901 673847306 511123382 321801171 133390103 803848548 472200247 189894631 535121863 5358306 276585538 428265958 545196226 187985787 647164375 906381946 255980598 586720714 115729358 222404715 29157696 676131585 244824920 287301415 852601075 279200365 245084972 310188660 328737470 117917461 262195817 973209231 152046342 180777947 113773539 812881569 237637023 62645519 438836597 78948143 671449443 116768051 908416267 967886720 85605973 842776500 426530207 415608500 968927864 79756923 394548681 58293076 416467111 87458669 788321615 842454045 162343733 927608295 88611364 748214023 462918332 794787910 31357630 603601677 927367504 82362341 412905282 319451150 801055200 409622850 620593270 242022947 434732997 312791682 717682726 934743539 202461923 276603970 104755628 989870264 500405891 952635021 361209958 873201965 904657535 989525410 743067543 952115024 730727978 58553362 358421606 977669153 37682708 196481018 86659376 875477382 711010666 777157129 676039580 215615318 443388389 852389144 579179639 730347575 190855554 10354291 942189855 903464707 730619854 370707834 941958996 477068124 750018255 452765477 215535419 448077414 878514560 471982936 865209698 755712557 725981985 561789978 572088123 197043512 263932217 139390626 184601281 675050912 712756901 340012739 966102843 960501336 894941893 335183684 657663826 178840923 591073305 829387679 959075675 893045693 662828353 221571729 171122642 899949712 554718480 527539863 305943280 895858156 244720436 332559722 521145664 300341641 14376842 436722137 706863927 890858452 133463832 961022136 829245488 137027099 164246056 151001492 848482176 809626284 142414717 896778184 98250815 439376889 427307209 975464900 228174451 203471404 105138754 928037174 208258592 643263955 39742200 499570816 97469986 680666825 537644609 31258233 717270134 632809096 269878599 320533331 152820484 245639073 523239927 542553119 445820226 57426177 353420119 227122252 283005623 405053289 736909794 451003984 533309237 467559277 348983014 645591711 300319985 199194508 385269833 116548748 682842400 182477841 164269759 819549299 485947405 720307734 902085542 41597309 710017092 767370580 593279530 688694907 9492971 891163896 802280018 572987770 271589742 472664041 921123610 972137044 370628405 586654657 701585566 856864913 114374686 994255689 631342029 477168301 655207627 50059157 653325674 605527195 475657538 934345017 324555428 740806904 472180241 977241565 480226865 7051953 346481879 287307024 629250301 277408869 217529548 781975866 40950775 911048503 612186403 568781563 335002962 346741131 548763916 237031827 435763648 405737277 759214638 947256179 594961425 357139817 513877583 491160227 149231737 455108003 158615954 98401698 874675582 526576940 125514380 545238981 437955698 27730049 489301892 45852881 534420837 815711940 345194407 873370410 291238043 592465356 256013189 636171231 725375357 616459419 331382254 215570643 566098575 862916275 525784034 133057979 14092468 779807989 16017468 715976605 53298280 966843132 503060059 331610184 282779313 682188271 490338356 630855000 466132430 870286525 202039236 410070988 827935999 591144915 246233162 84155562 444657796 129269393 697544515 373517806 894672912 114243477 172133092 741225646 428922150 522542365 947063177 933733276 712857206 937036271 93412637 74896458 438615333 470591569 563060081 799066392 42130556 674812389 235507545 376988292 494050603 394843548 688124346 911666959 797018037 675520254 795083434 608557226 126256382 419674008 229263136 895902556 986751817 51618100 37585423 76838078 499865441 960097333 342837397 519956510 18725577 914052115 333184822 11048127 649208696 191427215 766073847 332195788 116518813 440069401 699122437 172124282 967533340 885774749 300012619 938102831 828263206 5444645 760941408 390063624 660283240 745671381 619644079 372447201 771196087 936139571 932204043 696960364 530417505 305889519 660459144 652246426 334496591 510300175 712009888 479903298 543560945 431503400 995387283 219623911 755922666 187252843 720904453 337570626 454333899 259063661 979067664 879135943 741515953 364301655 492646540 31837935 290914706 464980095 458730371 871078793 120773373 723723016 183784691 503640490 270065989 793940208 71414934 969765368 963322409 112884185 878202699 747689441 143766707 311652149 150486142 501148692 335472313 258161415 2783082 550930527 903205165 606563345 775608661 339531357 57783231 138147029 198158355 368472683 603397032 37814195 469638398 438512698 889081467 977289076 292449674 531930616 16825769 34428556 395143700 603397748 88903344 667865249 600984695 980808631 920311825 645347162 731503918 21265607 907083787 637295890 792717260 65689687 503497270 161010934 911424861 602272284 474614172 132943549 609001662 481317448 140392783 313963282 506601725 566331567 930220963 802575392 84321717 672890553 682504964 939367771 471556853 773072921 101108523 79270686 229341347 105181453 545942097 895427128 583871514 936468998 175400371 132578679 698547500 575654961 737265374 724997967 49323 149559979 923392534 306520781 658095412 25185152 138833895 12039558 276291494 716035699 468883519 229648832 47891935 82885119 403821030 513962344 384973660 263766960 752233555 391181187 231325849 180895942 226733628 292940852 159674899 324812840 415504282 968566270 591639151 683415756 780420785 544052020 837176760 432938226 730947440 375063781 991210004 312345341 320500613 449167969 211032303 741769857 896618271 512359193 637980802 221946107 877917211 225877451 972125242 617202135 88004572 304577835 746334843 663918551 799438405 104654837 939202812 312837275 395494001 863483785 470711656 167726382 811637842 715933479 852190583 811838823 543166697 785910752 100275892 83994189 940175780 793561560 794408630 311454309 883760543 720645099 301285448 524504671 186915579 933394386 104092735 39795256 399160772 898733573 260077590 319321967 791641469 942102683 984078194 283645828 874834750 381496522 544066678 72518311 76753924 226579666 585746155 496504261 892355130 603898153 991981360 45229881 978766833 363607213 272726691 327173585 854490434 437050474 273805189 981515007 396241583 699175506 853268152 485475381 787411869 568234560 779805170 344366130 933607980 740857981 538901376 116335720 534863195 232781730 970887474 41780035 717138 884073614 436606200 1321486 163490328 367159473 493626103 452904691 889740153 206916848 849944779 511684261 420372750 485992597 8870467 275257638 399784765 814816891 405599754 364306916 577920965 902368407 378036584 507108965 904387303 792768574 8137267 458571844 957994703 534290070 240619823 243630282 164520483 710518715 61699818 754696198 9254503 510884979 217316472 999779300 366575669 729875495 345835141 311209732 646930968 197827567 134015395 453661315 975813938 939567935 766149563 989800925 810296185 666304142 700632365 198605948 730076844 548319151 599700292 58287551 394182396 452771066 54350269 935228038 140781944 247147946 323193876 84272918 184880219 135325223 797548619 985323024 61913674 564887109 688867522 180880789 275596706 775972837 634779540 927881704 758963262 898713839 742851456 548439510 116804193 421376171 640111255 216357887 418413002 256831259 79895969 594887139 573310136 603956182 915424405 848605663 155203887 220037837 793511587 80908818 663057338 763400524 585216725 426915598 652004820 501731834 93300010 269545450 170113651 291376500 890024086 203147220 22366795 528742906 556584949 421123301 328029935 926935135 17027157 91406889 736898210 418225972 673751938 397199409 166622968 314045987 435348515 336276 738338617 114103638 864907377 603689064 443509962 348001412 33888221 426328163 217491904 279444947 309438657 818478889 756867486 205455709 629138541 973298700 384704333 257227357 448675391 92758527 684218558 396404082 921330437 994256326 187055991 154616877 726716861 692793664 707429406 500787953 936782604 465299491 510437763 765313029 819303717 334642742 237287086 704137885 194540947 456399625 965730193 598658327 99371409 563622461 698488936 104349000 598653483 883781318 225502430 76751300 384751166 960425623 76691087 134821163 180240794 215625478 509895632 964509299 358617365 669049485 339389716 830321018 839298221 405182521 240576446 760397593 295636012 64909569 553563032 67368615 895059869 439394895 469403672 421448760 177759049 954738910 323107763 47477983 848941088 531322567 373438201 351618625 550450953 674030524 58573764 600942500 731618444 893864393 212062188 970436796 641147933 390509598 383104487 458264138 22386336 612139341 437439880 797560259 19165320 159231559 322183628 301148145 750962398 844058503 871605704 930883191 540291103 765801008 245996475 909063308 684696676 309828290 523804442 311355056 352984430 360523194 547592868 134438598 631866551 264454124 555649022 261269027 146307125 866845517 149860983 108887248 815304126 240226302 613024033 955466903 418570074 937013355 867074015 800622762 158385577 769797977 378848784 476134904 871290157 571235273 42375379 687414716 788068269 593000643 409036410 601897564 663165985 299829992 44014218 322516254 716890100 810894581 451141656 336253255 749193655 108014418 669109581 164201831 268778129 169583603 494114939 905115292 409204578 951091066 863851651 409385573 736103163 624672625 975620609 261611385 812041770 978846411 153989405 499752867 152468267 313844723 611888724 471157746 124330621 805259985 258089199 875594602 289833680 777565862 270986363 87016115 304906594 498520836 370257762 636522301 466136204 356340224 614711355 184301558 123509834 188517259 652160586 962996697 137142081 908646210 68291111 300921618 746330003 234865787 541902020 841344099 523646474 675074512 782983022 900887490 54866287 396051716 836010633 766801047 414392144 553562762 404891377 521476237 456865990 718264617 354328252 923397358 977441660 32723991 430190355 818624551 384127371 389420108 676847452 682980173 227849548 211289583 810596477 228962094 528626909 242724613 588063537 263022961 641892801 362462707 316959233 273576871 759221808 58954978 68465837 85577956 728014884 609343402 768253564 554092823 512514849 809545939 205418438 205733541 553534054 306656585 37223708 526473786 444623486 744641939 674941107 195779287 879840723 551657728 937665826 56295790 997474591 183441050 231513109 755414013 662627156 737413818 566377589 982867840 398589019 400756318 296770725 508111319 591137209 490572936 874222320 728210454 196267740 876458272 188182821 621774530 445409749 156669198 965971398 852178411 426419011 414750417 149665745 156431053 325439199 160967301 94167793 567024718 504178645 421312970 798866608 491660490 327208524 258584747 782843240 701211828 21842579 372900691 620486923 890794391 676784729 496923188 163557308 180503820 514144910 505218418 571185122 578913121 132833260 35646486 364241221 447722767 311062610 932200193 886665482 86707864 777724239 102075183 607391469 932742726 916964145 1257021 161372217 664316292 192925414 608410311 588410452 295859556 813776474 28945869 136549179 571839019 870551217 298437905 831069415 413269952 681475624 794524070 881501144 420947896 397171513 502497352 497132994 659090177 205223738 214022562 958239821 882226022 475180921 875047269 314686935 128362624 726888485 344580597 710853989 612367201 137220880 62518025 687004592 797893152 960386316 640598863 11122348 144833862 670517405 632436073 247885007 152623065 948844267 466659595 396754905 640492602 729881569 689540741 11630569 735406374 397950087 657487682 649182618 817958877 866311033 254294713 453325459 783622608 525913779 484793738 67473606 48273361 265465969 437299644 734882176 206024450 434940212 755561934 235704432 316869595 11995346 295842195 273050790 266518206 37160769 374644256 297633189 765877620 299806997 674002071 991129654 220940442 295935929 621599312 449244657 495270513 609731664 949074065 480708816 357082000 94506977 912487454 370476151 338802285 52730523 5515633 898364565 663150457 928103981 3634296 200305696 201023727 709670317 623865655 572880345 283793129 237523335 614383190 381898176 913303275 524293797 887097572 705680685 147363712 878502008 724806010 538393384 117469437 267924420 843745146 538382211 261142566 616094236 443353857 634565505 90741968 417618507 840656172 475944238 369220864 479439109 595336454 92417806 58282838 153204140 940758176 832049456 752681094 606710021 934805251 454091821 701571240 570881194 535102927 529240602 660946254 204504670 720782446 827798724 611803728 752334579 610006041 485251767 517348060 702225681 673482975 49452882 884589707 442768103 155923516 807577566 417949686 721381001 430073536 881774574 538811697 928508029 240777478 806266008 583661477 125086648 612239250 106164342 99233825 110263159 394932870 104753392 909021717 960018677 420387964 854295833 863181050 719703084 557236238 385135410 133820392 429724667 17454304 19391283 925865817 381085366 330699617 17385458 817285804 479889051 857954790 979675373 263588683 460988306 939397612 484431926 962460958 457677834 385033515 122628317 764532246 695734767 656401617 984554387 440264505 203749584 294860999 779752000 657656832 832155730 971352940 237511076 456514880 641680502 504876602 736695502 187636436 78443910 490221103 615058309 213060273 979021496 707102437 42117374 391151294 635362689 979154208 253312440 766724676 691728055 18900090 225424695 392512681 442765726 27567493 687454433 199722636 514831339 26351440 287633315 794265790 848838571 702954516 263941019 300756058 682377694 435921341 726740888 318505226 803714045 332647666 326401034 299423305 977025624 384920059 556127239 796570221 730191981 385980264 270079080 22279350 262934301 341659984 292333617 887155573 826307386 801971867 18871827 505784769 231061937 296942280 997684091 673134127 486848080 665617532 583432358 842559583 526429046 745919962 525246980 421979415 707141805 317376717 898306729 198990401 189277736 162398082 206223227 414406007 39323496 497677353 984289722 803293437 710767564 823477544 223150668 729141871 786275363 294648301 718572347 643306350 954072694 782184266 40974992 250869869 887324766 755414505 165582473 119155402 327535046 408436588 297567064 979451675 767466316 548775304 165997035 46520001 211259918 448897357 533718755 687730810 511586565 699110355 766733611 227066919 736285173 489246473 179307078 562311911 145053982 746981577 737666030 953909328 250068952 949519475 934747828 486220750 842848948 196628356 427459606 694963605 877342688 870535260 741131216 781123243 290222550 708608302 592732043 947553952 653606269 923986575 945614422 580741589 121243123 48890849 521860383 322195727 409248066 945484517 690729535 947824934 60087840 695164605 76096089 667408848 170911763 247271669 694316034 997363390 484368844 918058856 706230034 872408525 916872772 487437738 558959146 120613198 755719702 392861895 381176678 888113966 142239164 27539566 962539144 591959411 397402035 600178382 264443494 614486705 804305646 219008972 713574444 190030627 502501180 200889528 156387167 13402387 179613233 426251840 548773795 121081892 145756619 967340769 931200296 463163926 407330476 779925779 847519248 693710495 680319454 31543777 957551992 375282932 150561092 305486307 561431759 256959397 849337365 523426440 784324196 753982844 908825560 844497464 148797579 109562566 930668257 687459971 682858485 328013133 413687930 363779060 789411509 13223576 84749532 540766128 675024224 22441257 842325591 658674356 231008606 667820684 104321288 435060066 16515104 991036167 889206253 558358741 431924544 744569645 949372112 236462809 964316348 408399975 307014109 545585406 32633617 46377389 122189485 158559145 603530011 107760953 793088021 221064883 818790556 131443784 397224001 130167725 871762162 417758671 957257814 527940134 343645732 149006128 53568615 924993494 506062164 391608100 865463349 61483806 326347873 959930729 537792173 849507896 556689292 883717658 923898462 531188573 907077314 196770655 776371740 424333143 936420556 467163773 942673785 614436623 164641493 807189310 274976461 548937531 283336031 574882691 538771921 64407200 703523356 990717120 544458250 919864959 977068793 709248301 960208039 797641031 649676820 77096498 230045984 164635933 462135229 790874400 287113697 376978414 919184707 20570162 356264201 728755271 937639832 828477598 108058378 569237215 455930901 739682868 944478750 88827085 326049185 866122965 109235920 520084092 837508644 618237818 861417177 939957393 318673467 676934175 865563770 627472595 33980634 315405259 338809631 34968935 320289901 611597836 19665027 27790393 33770084 816833588 371178039 536465671 227866197 595527713 472190682 672106411 499457059 105411854 358156776 95258531 169903375 55611492 966948542 923173000 483718974 897144273 583840566 441383318 230887795 152470498 652213108 739417450 159515308 908011804 831812069 604558574 7499210 954969009 178732925 152513971 834729287 46793792 107673423 179009009 546454964 828502780 122818797 408210438 673624995 871528785 309338907 720188573 308079283 325785839 990682137 980567370 983677627 520578176 113902084 283594380 338559071 350977455 366838538 356187220 155756038 639500103 715030972 699207117 536596543 908311777 7749904 463935516 467950926 184390589 855569664 640500684 798164240 515341022 371023754 945152938 795637911 49017687 150293623 258684686 623311768 264121241 868728222 646516160 668279274 947287478 4543128 245781270 670225757 419530272 869946801 492670487 500842461 829035342 975940104 987949519 480002657 149142108 27897216 374622498 418286503 982501019 41521743 464560788 282992089 382340352 447740964 430492567 719964452 177879024 569221810 344425403 731120322 300681256 923089365 694440290 484120727 382962354 962988496 268218736 607400072 594793133 253036241 978029976 730914410 839147240 32927466 177397138 193184862 606967438 218108758 536347849 949987600 205223391 179776355 614420968 29578554 419515553 794794181 90424248 631167205 375244918 928710147 455534580 530383747 130199526 831377367 898880768 746296780 177292392 767233484 363204099 988552595 26766201 409071917 334327982 914998421 172806847 939963394 352311830 287175683 648048956 501848913 725849492 134860614 830377058 17864718 240618293 691058414 344369195 505801057 895885656 322449223 949445392 885091726 315110910 277463165 964818422 885327495 612585345 125586297 258811669 504664705 969716743 716323718 762705755 152206134 148347836 777378313 965681597 386588249 828427484 908087463 539770567 951844986 641840776 392572101 624708571 503627286 269828899 430565422 688695527 108221377 498536040 131417836 299092735 822361398 643262070 420594402 183362 436186723 900750458 301782874 656352931 251499507 812633419 159625621 749811977 276287018 195234701 106225230 712887018 117531659 508778317 248839956 982383596 431275733 887745590 968224571 292570981 697447071 329289689 310330430 886222860 158347366 175457523 603425164 338218068 457874105 207612031 107515710 200086162 82882560 916988044 424670350 302652654 679356345 237183521 632008249 441170335 462691219 266730623 911545027 452724883 962875537 268078064 818780070 456621011 400808279 236799054 101030997 386502235 529714792 63916522 55903294 445014556 179368670 644814610 729358944 936378 417134089 236928390 583551466 468281397 483201482 172439939 822669963 195570737 549642940 877947657 505988305 723144377 770106149 388807349 508447855 926346451 48129280 564427507 209936982 899568075 621631010 564473512 466011960 391673180 134844727 332719507 673964840 165954053 342781858 701594365 492886625 685277179 579141244 191896073 535578587 763661307 268270963 970372836 805445489 705255335 108258673 411553229 478293616 804838281 407742501 640169381 281992823 367539308 151781393 766568222 656664831 169557116 336782551 227031991 200981729 258612001 765667890 655322259 363919137 384232247 703194628 969428370 804336169 443373568 981054636 312800075 932337059 733171969 834915763 588928795 184187234 441929740 905931203 898250506 414853187 716236970 393793119 339244855 209449844 918971198 912856110 569662296 987055473 268735066 818458412 786521343 860663889 806642745 354753774 19861951 510358915 517913250 216004380 851227212 727308459 482053683 63752393 466498251 749920882 595216815 660718877 149249409 404580274 98440428 144943585 831222395 408144425 921097590 250072350 23514301 53500994 173799094 398378541 485922220 987256593 532463576 798928134 111344659 839337498 859815630 527490851 740695462 205390637 42095089 243872688 217943856 180463164 677607444 477067872 561269455 944735235 559274516 450321065 16894543 536282612 451736544 749777346 989943758 937949382 234125504 156375252 549615434 803784896 842868145 624126148 782396394 627400883 168454899 708611550 987569847 183895268 814006231 11621574 258860680 258990680 672199497 487817371 221191994 336264289 184694444 562922926 60478421 116601374 361189375 203240428 390346797 757057797 830024985 662345256 980746173 265112833 675162193 538838302 268571450 903854018 354241271 658925995 885836093 111771335 414924976 156097139 158371831 24671609 24581389 402518636 688584104 624740742 589508078 361149965 25108930 342917234 333144110 271245455 480539848 463871815 808520857 201976115 895215431 903048140 460408079 567419632 140476355 133693788 564225581 811631410 328277179 534304564 747609341 483386964 340594975 818687801 21959350 897964038 499333829 475667443 333995306 669963676 373177587 286261043 167731547 93083742 792141624 430730893 75470422 692306461 998617705 104943515 429867290 209176242 271104946 151152115 477394367 266720380 608545098 554901070 732772865 948109836 431102270 95642947 678354205 211471968 387259064 882988197 370362161 50853917 283889536 773221158 182578182 779074584 266111165 332837809 263668256 411492711 279854781 389693945 821391686 308383333 849871801 553618403 944215850 388047355 532939772 935146725 913307197 874789298 147585812 424776808 878151175 289865012 207858404 691548696 257047865 627527164 279350222 899379336 997471663 514691764 953895236 95746545 577229171 414375130 386326789 585778256 329992649 940661144 253054367 85928319 942619045 405054346 10574978 423752319 927682593 337044898 463916132 883905011 273710561 630866516 567249719 834602495 93880373 232468276 590202535 856832723 724713206 164718751 325741709 414213206 618906572 777231883 441517900 601265044 819201859 55751403 798104638 739151891 686350346 251024309 731171952 500169700 63306064 947376038 159511638 256107120 246730134 538885914 998094661 36869887 30898186 809829014 907745483 953981040 486120476 974153858 460173824 784063726 293693876 269416051 594814858 33055871 87345913 314824056 892119115 691466800 824607573 457340096 445508871 735380876 732298773 696100406 598141249 575093208 45527225 955171216 984627080 102302359 951017545 598480308 973715510 330341523 988309967 173220332 909378129 150633169 842163466 454266532 558225656 253364186 508121413 157978066 490106351 820389900 995812244 745932733 120689796 310794212 346467207 535551255 456921345 697778692 708891502 304635034 434629262 615949267 485433823 519663648 145032349 105951602 159375434 856727188 975732783 675985754 852381198 596424862 709311534 4921063 79371235 390175886 540690030 312508813 640398102 867632220 194755900 288460057 429884686 391958555 92536939 556880887 297359009 640704569 848953382 565909516 390606385 111487039 884237660 133133036 847151391 121271570 697593394 722078844 732670562 970291359 188977494 705430527 72760346 321786332 535197286 691175048 831500818 349405021 388826673 28178619 104091428 71535096 320752619 83611511 456000438 2955797 789791383 782953977 555949724 540698395 395376473 360294425 80966539 578569084 593142875 7291216 982362883 369487901 269087692 764908387 407591990 622954276 60491923 994098942 451715292 994311688 816348901 253251981 73473776 235052814 938338767 972352065 864849950 739522838 73178688 16704731 229006950 470765079 169139745 11714263 507825193 286666697 431167196 324490024 844850998 999773820 636092493 766656192 445777230 771173053 790683665 657300969 936202989 139823102 799560655 464545896 24299734 823493552 774734432 918927010 324485626 797066037 635237062 464943961 789314047 411563511 334555831 545117947 691517322 505299146 281499126 623980012 971897315 610115864 282580802 495694906 666940056 70268198 476139013 470293977 499132451 438392456 626058368 403008937 23860946 42036271 391078201 496986577 497312640 471012159 662158473 704015649 288388885 791558114 258192651 373834567 417373659 674753387 718082446 39613601 845768657 340661120 472003317 658371913 757369432 895024332 388161790 189396970 282891325 503310159 921397126 645231637 467793686 879020308 329869081 652602952 526700773 916376025 992074564 912718038 49517380 867689589 727972324 339973119 564476817 137461415 891936104 962346318 178023338 360274308 793860806 645113727 513604280 265627279 132547029 358669780 669885902 736760631 117087132 903007872 567386097 263616592 426290589 904099112 898666571 621250901 733834419 925111317 219249081 877086901 108065262 109666490 964678562 444820324 599209657 237526453 490096661 583923336 712606841 582735785 167841240 807129495 986776637 634492109 552002509 119510514 204821852 411071651 939232206 944686154 693452805 531090586 471162798 897204729 304829532 806710681 777896877 470369549 790790223 44856645 749414449 7336314 725117172 984372483 441544827 600007477 688467695 321950016 766319262 732199395 136836237 850455872 208684019 365812627 601547296 52730239 683246338 268563182 315425713 250499368 596773337 506884105 171748783 445410622 431044965 869738120 56804569 858498968 181911081 587372978 78804041 99461010 27938628 109917327 156004985 231320264 946805939 451049865 82007552 203052161 561117689 894276348 214158826 680041000 196514980 150629215 82381464 922089436 475763019 325491927 987092520 246779564 709830976 897276790 608713079 105118485 243268188 761520806 400598334 104055130 570749706 951571370 529828300 920543690 38557660 642139143 760449765 567216214 466883971 256754463 801201549 183497519 320078264 536927011 19735522 74295788 246085491 949871859 331845827 961670763 501741080 775447286 288050061 825541168 734672669 469522178 992365419 77501161 297378934 763342687 728526795 378329554 494716491 65338581 261169584 456160441 929567468 427109918 4570762 760020 124359285 327393743 152301083 359889926 628734835 281739195 232771896 628495400 770136620 755340073 751978886 62256106 603951296 620115931 167610722 898328593 334048328 585578699 733704688 58526203 320956703 752552827 30052076 274787844 577872401 560757723 328088027 428969816 249107619 763643939 404871446 406754143 763780075 765548875 669895325 696745773 166370986 75078470 872466734 355094421 332720916 493549623 685498832 323798177 384649151 662686223 229287829 174770337 743311963 178766977 535547137 32800792 273581060 615336127 370351224 615503857 269869329 218587612 243608041 511151633 357548520 658453929 153858618 997836577 302622238 534979156 613204040 770626381 634335250 542315399 264565305 72240904 440789374 736287041 471715901 981191472 306011210 679636019 484370887 735909501 513516583 714698060 621179472 573559278 753324729 167662790 515319656 214410157 692961226 142710262 228735869 840093255 351518613 644919862 873159652 58809966 263344252 938852900 962701048 524572424 258948062 260763640 705243643 880246683 154133819 856055746 375819522 196185758 976362260 623850698 278396854 644305490 897748002 696185694 59567866 211256345 582700452 30712410 277796373 247671942 397890133 536622386 752885892 211139881 622852196 626477864 168364068 817209117 279012039 316341918 822025594 178409819 721801496 488694475 924620878 419288488 254483822 597044565 792372723 982407138 522497722 745671020 292268065 272686744 842937261 822743496 263575659 180401814 216377626 513238784 925910553 174518148 589626424 729885669 937920521 688679826 668011874 143099240 210879674 301208491 876913046 584075418 684570568 459669978 813201347 30493325 234964353 581119785 242766073 900528113 801399421 330592363 15318898 638386767 357083187 975662236 335935272 170525579 26078698 226533262 786780912 562483624 487780286 289919287 391512707 535067593 227264847 631350439 70649157 397251898 200605975 851954615 955202983 273778406 393774446 676432615 766157450 587942710 297443368 81870922 807499277 809148068 441441953 789801512 935173598 732651110 266541694 910371645 660263485 120552448 306739970 139946342 980983866 129795000 631979158 602563532 681783311 534388686 547341777 286753860 172748255 946082604 938599901 215377254 88910484 151441617 373003146 642215911 262057996 17642135 66354648 986879237 702809920 385396438 568432015 455211234 408855562 210948719 669632572 448119313 911507401 295292603 107330288 41877711 177177175 63477810 357686447 137544094 571027081 656786988 781449486 94258864 979415135 550004122 398167092 295968808 742639751 778902410 442729885 8336870 902173478 100767341 523284226 624002528 356696620 872749333 150143875 681840000 959042772 721026593 760143641 272140905 40528139 674474708 35185715 547576676 298706926 951408717 486779651 344103391 833029215 225616957 329513373 467563298 279465728 232588801 758657187 127532838 421197063 368384085 705029327 871971753 293404788 424844317 278320854 917639909 230681385 467289250 632946273 792964254 173896413 347491227 993158915 268168297 849347998 805261342 734680579 11795770 386858607 96006803 886144159 881416721 989372503 849634731 957636749 630499032 627491992 864672302 964345618 184016709 396636381 6589946 550723683 693956254 815687658 145259246 131519668 693606386 255484316 194962144 2000292 692905828 270595104 437022838 237695063 877097253 55199374 590109873 12650766 976028874 527496687 310182612 301324018 936103245 803061364 935234216 187828792 973449680 389900109 738969183 444874307 833714449 500243817 376040112 218710558 847679905 184763377 793154228 384154068 306519295 152226308 492694486 382267746 195609205 823789522 647850161 265975265 292106896 895723873 291364925 46797992 826255630 822174044 844182978 260382927 836179009 731309216 436404849 994868009 150410723 336865467 792267921 286013072 387257526 564945717 579379641 320495803 330057168 391080367 26056788 777128528 859555761 226476791 593769818 341498915 714109828 731186984 785966779 909926159 438559048 866740332 213016249 625508752 567169601 532565338 274142695 380720288 925549204 936805658 610919141 651141410 805994827 445023680 855305818 555072163 423833646 440479923 371918231 867903382 538092462 645698172 273929665 152076319 907031846 72842701 491681245 494345808 583676520 332485689 666088678 443418636 842707064 410713369 752316232 208191684 715737450 343259582 882947633 845749744 498653983 31563151 784152040 894205387 41658161 237465192 651312227 618111767 346618560 927680562 778139246 321161184 830172589 797001469 56020670 71940199 648823179 607914379 556091508 460386935 334301043 358318483 774536791 553701184 285428911 609828195 720221726 450075965 92579170 268156 424520495 642840604 554714732 139142961 854306917 532606516 927810 600941543 99808771 333889495 241641734 357830791 7768562 559268115 280642059 166917985 384946171 395977707 251398065 43260612 306269891 245396228 670494671 241707841 860610114 31101588 334359461 211725136 34569150 236152614 657543885 881501831 974928300 558926042 447049905 306183938 398235458 549170485 983609042 964726149 818848499 313176598 694293015 525116239 57590941 257507384 220599600 864279265 775577651 247952375 485013604 450837159 447840861 818622039 179593435 547393953 76330811 324935823 979749940 938865298 503056522 880297276 639988050 80623160 711031238 458628036 495135165 888449043 404885274 221681170 170332742 309394913 885442181 494104170 954624720 209874348 941436362 143232435 741099789 276937467 138704670 123130792 682785575 91012633 456891758 241265116 316157224 163512496 31935454 721937566 271096006 231375696 168223244 553872089 686525097 852301819 879662031 389460060 864949140 221240082 388118516 294744717 175587036 542303949 265456325 576308535 29873989 15265431 893614950 171153126 827383372 29642081 649657350 350864671 659153929 41890444 522411555 995192069 193007464 184029344 818158368 13298972 990464248 820286652 752161479 574598264 557589860 384476581 763446085 22279270 638869166 766531040 581286368 174044240 636732193 81978158 341140613 55975064 439894248 498855583 421909434 853290140 13798059 489483599 377140060 228279002 297124346 667056181 932112371 856912706 207275050 620383332 71780792 404793395 4515534 131442247 568472178 518761302 525897530 644292887 147912486 408524724 418722919 106767574 455576255 76255049 883372013 264966817 972114007 126779836 239557985 987151754 793033188 821191130 420432194 27039080 877279345 34243807 41842460 416663723 670417654 210987413 706562663 631436066 566511367 982738936 450093465 439267781 135917436 159270895 667969800 119891495 985453691 836100369 561485801 910767597 274181666 649551663 751832532 578617056 713590425 560719267 110343084 698468566 510328567 835860590 164805867 493335377 401340896 942896860 66105549 736454757 666160218 919815843 694225970 935631170 394588258 877905067 375287004 216622727 643431950 488546702 958873822 8214537 439155555 190734005 151151286 122569888 551290124 478955380 711209944 792442251 141026783 510200106 670395160 931877701 316607877 639945463 83348935 420652132 299082076 106062074 398024528 719442355 874988834 780152938 373469408 262719847 366897497 910747912 267795083 322431859 974987303 354864271 410143644 382089710 202530657 149389087 26767916 160381129 322942403 568198293 726875805 806502574 100425757 835022132 432706 567448758 721687836 600632964 432485398 992657730 51036780 409801547 929626640 857837134 233748209 567019459 602609131 272973228 688965965 943614971 134318912 984556274 123248599 420458820 14584291 201031301 718095862 9444939 223731833 328128467 171003344 90435335 876791196 445820074 376385846 335280392 440005160 443528059 948751173 387647685 990338547 722123471 876958435 757032676 915380713 917214309 30235200 585117967 600450896 144842314 603472601 732420077 278247499 468325792 76732467 46620690 173346538 390801346 156784742 555484492 101473177 619273953 414524660 720999335 736044827 376433143 193406002 327320218 518014854 119708689 324626727 293087127 314608481 36156183 670738300 231801942 992395715 892746030 930457869 53473407 744093642 798413657 423656417 511342187 419854982 930480582 412665111 277158839 34552200 280527030 801336643 537988992 47585422 500205575 896846214 617680870 615274926 680013598 22709670 770755851 679591438 448531120 681210720 410351595 389531231 835251285 364970361 398071240 772462137 310871703 649325943 903577891 947576432 708973265 948743646 99572093 209868776 258377507 685321530 528885516 743719000 366507684 311160976 480148833 55817125 898835421 986761950 819619656 87796506 554762828 862506129 534804180 481918096 977737187 876090533 133776530 522950311 899857351 73379062 359761060 631331252 288228930 935346474 602627365 891237211 401832726 661569017 460694291 183318267 981030154 256089520 195211249 30502686 841048133 722444175 379504105 484780972 487284642 776677958 995832837 750444752 213933190 75733522 644951099 509485437 792801865 724635584 47046042 915663733 456481769 123278874 293949272 919349701 141701142 822181762 393571442 780167418 59083621 344139810 282035986 539392396 659782019 436523684 995919057 166798152 396553508 99433015 183800267 451486878 341044771 610408694 349386143 19369158 657748151 786513700 963037746 215538148 508611195 17162226 12871504 204420038 358903547 706688063 835886715 576575679 790039086 574756470 514843367 334250047 268151003 476686564 422517440 730924609 22636629 442403262 919665007 202282958 662240677 114596519 101231335 101744476 659195750 660803091 824331731 261131683 857032675 838696637 789022437 465910750 635835508 377333783 141581701 404824357 418169546 741890928 244562606 733521073 283467895 889408223 993838509 144655132 668899262 476280675 443677752 388797081 973409487 319045600 483521792 328172619 655494625 281946614 347213640 521155768 469273710 783727375 990694075 327699361 911025504 544108842 477826578 427771127 155385902 182868661 754069846 997459598 947908380 868839080 951101516 141980681 497014630 29798216 811947371 113370197 376098755 818959388 912294578 134600746 557854374 109821974 419235914 279238642 842596283 408767194 231345668 552883837 403005116 968535817 404831235 389366205 576490328 115306426 450185545 650278010 431055371 168246520 739483073 93930182 375763825 280514517 423352679 108183730 936558616 186466538 934402579 302395109 386489053 498010989 404533731 226884156 10131750 624209840 576622395 168233787 4332279 346160732 665716048 624366396 735254951 697528741 967424344 237981723 203298521 576196374 475525346 996799282 601466370 288152600 786283729 91081316 772427307 425311213 670636489 377477917 520339003 82883527 312803052 160801621 275401725 526455074 165784662 731457645 203279384 990563276 382364171 273627121 573920011 100441399 767244025 512798034 945995779 841889789 90161021 141250432 901030446 864215006 518549034 675765583 806650606 63268507 913086702 532743018 932225100 634403023 550213924 853011790 127158906 229271739 62596429 778491497 138350396 103263540 621760252 421383233 844341797 389797567 969124441 207376161 607196019 738406485 681030151 522183205 910502672 701113910 300936535 296061459 575068153 75321658 324900752 593379948 314061900 16192984 640860465 952261927 920936269 17536679 948130098 305587478 138535315 319752430 439263835 688474972 949574811 714711626 736855204 920795700 5566658 890132095 56848681 405677425 907424491 305047518 369424148 149441341 60126964 258517029 881202165 779219490 608707756 471986308 209727395 154499628 785862072 326857234 232482789 171543803 953115449 524089679 771141571 421964269 470982564 533817465 384502796 365185661 338717260 1680381 243135631 12542410 385116708 126858671 474327240 993362940 733827669 703443970 343889645 669400527 724328593 666910849 801175645 472616671 628252245 907344314 890373813 113055002 571718258 507427728 773157152 557446132 794543517 392073422 358460603 138861901 292305272 991995600 893278007 694055469 388314383 814914595 522624365 152550269 53067529 143933525 167210539 333416717 991251861 642946680 883109583 432812627 762796830 838480140 360403746 219941513 855666228 302355814 766511220 804857852 166211992 594171575 489718581 796060664 314331718 180885557 607560861 344193560 312671119 537374697 168162926 156076178 54609062 542130040 28379309 691487701 322000661 57247622 932577594 244609710 810949104 717869130 843198953 265015454 85627990 941295388 669400706 484245430 851163456 628091401 833160313 157079065 160839369 699563327 479514048 695778698 813521447 673007944 16587833 878947088 493935072 785936104 676619475 135804963 997047881 639839889 589739455 478448470 243964835 968094473 760926457 55060554 418573249 922070598 661909166 583809918 4393850 733501036 876679833 632979885 34903726 444008395 107188912 753855851 692452452 641686179 101750557 887993817 837793732 25599178 820121549 247164132 576995105 6864507 429949559 659654063 231726697 125493061 87570912 710555231 570461127 479819967 602868583 760541013 6614937 275329483 493862391 43037229 835491442 994351047 729269928 437496394 786018537 324476323 357065698 283069606 744681510 109586127 454362219 828136975 865687450 144518390 218491224 782061699 257147366 325303156 804905135 52617173 683057415 141224195 630103870 848814412 384827513 108522529 303706687 498354717 906895645 103237258 643636443 12664748 766471170 181904017 967514080 7436587 291532588 84285355 196809526 469727374 720504817 497913979 945232603 724899659 117847004 209611913 327863733 378283892 476493388 82075425 746911489 768218862 105824217 630695818 47648133 396309523 982090753 437613913 91331155 573856147 19321282 655039577 984533794 745755608 262741005 235391206 92790033 571111212 800526003 389128159 174017091 520118162 816802519 430477391 367698034 660742876 882134464 939271303 353661803 736393602 937161192 111114551 336473681 198882641 200907569 45588721 932723184 555209992 138105790 815841648 276863577 522758591 640923835 732879412 860427773 197300716 218418276 301306093 825670171 491927208 980740726 958109985 288257087 982423828 96606247 843680631 603808067 956611618 433489057 848293754 367459176 769587206 176902879 23062516 472099018 631942448 778527312 43518558 702379909 92308730 679508303 53378722 971990462 618964283 609525414 41870985 879426072 478590036 831582478 620774698 456637910 931981032 404907021 950027076 753555844 455241662 449013198 415616129 222986508 723479762 174898756 997097772 555044545 263284706 196676894 184738112 944356825 984153020 825492362 684613056 774748142 847782468 310726630 936913172 703816306 512717377 647623756 650319702 326362049 615921361 186235358 322933451 149369353 1349859 843232470 846136728 721105998 100736365 129004289 770335980 147470636 353792899 282034854 859288830 209323624 544018379 949386501 456055508 43160458 998398216 116316304 756480644 827170859 422010227 93887472 814599816 752564639 143784155 797973181 451644885 267310125 713646096 362341796 727156820 847041792 478914750 740923669 690348553 888607622 895888098 89404473 591593937 375851612 321642390 59402010 420480725 873666654 85615585 447809549 850420953 554849083 762270649 587571274 875306626 622955495 948842987 893822006 130614217 326845522 230952081 85572225 687583056 190815619 509600328 213424306 576367124 426821592 673729876 51892787 439432432 941568085 233256882 144282621 535086342 567752341 133455886 585461623 684362085 263102264 459542359 944237137 29512766 587930483 761901214 320588082 506237533 963666252 471345778 757968089 563723251 729732758 896157920 119768044 58859746 50653101 551306874 11887440 695094688 410874737 684400243 343828771 211954998 478642356 768691232 174527020 806537833 549415396 214757296 629606237 387799536 389715582 217082472 301540031 315309797 720888194 348445922 220381026 318900652 502192958 907952710 969400755 111132056 587350280 87267841 138256014 342045364 140102541 711007007 357636601 143981470 722406168 864262363 501987338 570703860 669461346 193615145 869982195 896620431 406275658 527449109 872252996 690911412 154263680 546212104 417968569 99039154 302696254 896091452 763912003 69059374 294403983 390551572 420566570 870408290 209180557 177551266 64438442 236987322 849089768 442863462 859573263 198802444 296153334 155864829 29580733 632766800 396327349 990498128 664753874 929744420 152094663 150635690 731716003 925313562 188175765 257750307 181038144 585356824 112973641 204527186 559230288 406192509 39917669 519401581 212462444 24137558 285581421 803007784 887097333 353885820 1878648 235389983 378655819 65827828 531896614 756062791 149436509 392903207 760156613 863498043 790120504 726673171 621802549 139518634 80502762 211434450 368885495 312173605 321658372 61714514 629958686 268959735 921614340 624718331 519767334 738302140 881760799 599250073 445046777 297722376 924997326 449823259 271242069 681336516 754047542 605723044 154601322 556896259 127637262 814790806 274002822 195556005 435924862 537636295 182416142 306389600 979577301 847764260 852117391 462239628 100663385 843628838 179273500 524155266 625285240 669828546 524154099 280478481 172803988 954767910 645486866 405459455 43014915 540625720 324163522 645496216 36577483 434370415 710409274 945130768 495717017 572695277 475636492 838571694 98779778 654404173 456305057 609860305 866736046 756464087 332038458 491458382 236475531 472826670 730280845 870289412 162353386 134569235 234278278 321847549 442789074 788107402 321068132 337824707 627619450 641008899 75755848 59419750 323153077 733556502 507318715 164644398 62613540 177795679 944120684 491282339 259756419 351958735 145657492 940582424 996995539 200566565 715938756 36202644 921111497 847431599 412350801 280674654 831876986 223650463 720592210 590986766 648846718 312952242 853204639 645365605 944944139 770570185 722130630 910590909 776725568 725283925 500774553 644383008 665431341 52552019 182313350 896808224 963390986 662355108 704830736 881042416 863610636 104306551 870784364 789057007 680719906 352833996 261445695 947323371 951254265 950742853 139107040 488821069 741958839 230129501 534248410 622577470 678171962 71962695 311946614 113095116 355418862 280017900 578375234 501234336 277856382 958889086 182448980 415149116 335494425 123280570 279037890 64704142 356712312 824627105 69581380 705185050 271821001 85284206 237015705 982716242 765787260 579049938 782917648 309945070 185760956 305963807 412990386 383765771 521029808 518814068 90603953 717580325 388274508 609948825 811444877 103602698 478992138 317529123 298982539 866136237 509021921 280912888 481421296 720699577 673839446 192950189 642702954 768083177 648665730 954702747 240738195 151775841 122004084 875783447 74251017 523769667 139728392 369011615 884133519 202823555 826691631 754806691 191200917 134975959 160611303 305435317 782459150 475724961 305212992 415181511 274099994 298160487 944846036 786375704 595512131 570626889 340328394 584903768 819515069 125690195 146060876 616714186 863185353 241846141 162379407 695593900 464498987 352856635 792392608 600506188 871255145 333116561 236050338 265453802 303348161 975891957 507552110 657839090 454791614 669939020 355043358 344550074 972784191 449673208 988320608 986270943 457498484 136945628 236544299 972769824 663087656 649874580 130461573 654434696 673199850 778891853 269305184 137976682 629677135 52818920 971526585 262620062 519609560 91905654 194579056 380141570 918682407 462490988 331543350 330873250 700364116 650499914 672641343 350437347 883186938 763650930 984672709 826742654 80103020 952930989 687360999 173061775 983807862 196374250 478980925 311823685 243825505 979381537 425292667 526701437 168317837 443515610 153850737 845615120 749229070 579011472 347788559 631991457 324138746 504444329 909181067 837877058 470861262 359003552 624559641 127346256 636845662 233374719 757356849 99627484 18011646 811626604 269414463 662769973 477867933 924994452 510005615 795520501 102786003 358098291 852505341 87065729 676370165 115876644 617442384 82123343 639110264 490889275 889837312 427783241 700653382 291126171 56895913 145782958 685612337 398524234 663341670 692114471 523471418 866218356 439833739 587018946 712845542 524436393 503955364 468832181 255684095 553866347 203593624 121891010 209302565 843632616 648435195 708814790 180430454 248380196 24151745 566391489 923394899 681616747 152034110 439132755 111773824 6623128 456237148 616876566 617595675 719601122 835825886 369483024 616643691 584804442 475429230 255329784 207446827 508169083 940840923 138916358 207966449 763229548 226109357 465484895 95836408 582189384 148907192 183266344 446711269 252085622 257824631 456679670 771396675 408164377 608365543 134461772 406438196 480700965 824190237 228441436 473106711 910962359 189010297 339268409 385129434 60550983 513365939 986329825 380025751 298029551 135698056 820804700 189988848 141896628 477529101 238521303 324506918 665279723 567383305 23238623 27485872 930105652 635825590 109822488 50576274 63315854 38182290 361602224 75840725 816103181 764066035 720580036 60475200 279029134 371328307 750446316 952159149 537771099 196429696 767099431 687802915 770080218 880507624 26712751 888507217 55585687 489713305 97773868 804366878 528261928 728780303 880457091 648896853 942614349 421479166 846457356 776172231 980189954 372094810 780959238 668921542 856141819 779808513 127974710 607669789 242505840 345144877 84572991 386215992 738940382 148449309 309771395 685750264 44977318 796499176 351640558 569398079 127801616 431589929 718354671 981716523 877868029 435383563 235513232 174435229 311262569 841542505 108763608 68716466 501724325 473391461 786936481 824006474 473448610 356205878 958651742 296542884 822894431 606754321 900392709 157682720 442115651 510706156 358698282 411882991 697822624 251407319 700995751 962544774 333950340 779487167 750367942 683491459 962289486 173313213 967585634 590017012 619963147 325099982 482172655 750434188 733332870 149869053 319099853 419088789 709145150 419456300 983709004 84690003 636176164 993361657 310225917 494396479 435659211 673076460 66373355 91314769 263486093 934029136 773407518 753265340 146136562 72477440 315926753 497160231 191779095 478846638 693232641 163633372 757079377 515914771 60466641 53187478 843129957 92701012 358618160 388530073 96407157 555829373 884644723 57531292 718162732 958429879 249191103 348192789 194374079 524869135 727049829 292714124 388901252 540849352 174515704 110535834 694806710 353469165 583755056 266301449 164191853 128629881 226871421 686634771 906689497 173227046 914714218 211879192 743236292 717566778 335787375 921901047 642936017 889298781 688131407 601038965 852744215 893638889 160290079 792597427 739107517 996939607 635273274 811576298 350558532 21749749 272176148 219461569 282878586 949116069 644149611 223023478 193490015 425343172 709914479 488342043 312934842 266263191 798802041 721635955 457698691 290151921 62820666 804257355 369857385 361152400 606019625 405223065 768616425 536506233 375730256 270939589 260632273 507728237 840295435 577018792 135998436 780814513 161940383 559176502 758636838 206265181 760114924 317962497 537161349 407634715 37839076 672389669 622928437 407633266 663997476 710256606 48770121 588428307 567467027 498187958 359750535 280832795 9681947 15197737 741635848 453226045 705577172 105210488 707206575 878632478 826688203 434053817 652511932 793388227 248855874 172175092 46334942 330950681 863765852 186625981 844866359 752532216 387239461 726469139 778560217 696555358 589015862 222593993 594570936 655730235 768586439 779590076 812933273 986612564 59414364 21387365 305275441 795149352 648272941 985020542 556868475 53214639 880434578 435252353 425161968 79576563 904467163 19612472 856790032 706090298 62040784 480788603 844205382 103627764 342455936 66309814 534030319 295844167 856134894 506764137 983988111 815103755 724154017 172985406 416796109 618391805 780803292 745905013 613354518 63518969 785310563 907126901 229519789 547291910 363349336 321755766 443273634 495624296 626863998 375190106 622672365 539604529 174330211 460210688 279733526 665049458 936316590 537792214 773102090 101645557 171950767 832048242 597287921 538746393 964606049 1472656 701041296 576940922 861799395 16233513 119367 396806965 248946122 395828348 691067608 800422637 657986513 109642911 31427718 230284325 685323863 813103673 615588826 828920426 803110251 841600712 373233681 847621877 392268825 260037799 37931217 368816924 75237693 91899319 722616781 319262322 785473404 763587542 753766196 667013602 255923500 972519837 220277744 50357477 507383269 839236635 538693607 168360970 551771871 352994254 349346385 711856065 477822921 198282578 579785306 196221094 133329901 632970276 115824572 664968725 820829205 82607807 981832908 30055738 871352139 769599462 810003911 118566392 948059637 34102333 728371722 878094961 886555196 690086003 177125983 167123356 598154566 272791702 149772511 180868493 433398689 934290104 708094714 950274655 760282168 287179455 208143203 810077097 257776780 436276800 840673036 732287332 412622078 575195306 460564450 615011584 66404888 916588740 533562625 604397179 269042105 634222682 248533878 713650687 517285835 890226385 203861073 395160107 914151583 230503788 936572202 903306015 942917797 48129590 272912200 519749108 478412738 937859268 229775792 362586499 684807651 243898839 929500295 742819361 429707735 870984476 643245239 348871413 986687467 117572680 846452072 284959751 928088489 981714554 616616174 640461589 126525985 945232311 988748900 735279466 500533331 511339979 820347655 965611883 577265963 974481533 833598138 27789811 630109643 506903577 979209532 822620997 786894945 935078219 275464464 795112684 154529709 123755732 754133256 402651578 195061921 566739547 70902445 262333244 866101442 720236395 554004054 744890147 770301943 799531236 871920015 663187605 781011357 77871002 169023219 650466579 364982907 978308392 16243551 947954574 101891335 6438001 55491148 191083862 802684399 616518607 262585127 743506190 280325688 65265702 779513699 240650750 236074803 817777428 679410933 721138203 369596494 929357150 84638041 635318051 173074204 442650524 822578936 747805907 669821091 219711464 461059775 357455408 551612788 256048635 175609276 37877722 34994512 777092373 632378200 360853793 496053762 481191815 947226549 128409668 596985422 239481018 70222767 267660028 716626683 266243768 843391115 282939318 488063459 624048593 885443073 914048032 477106981 631251572 541148141 926997913 141194263 940903578 80601049 772281409 894662000 706181990 587731221 260721918 909872425 131599082 559456146 153862509 418270605 103002255 46423655 893464021 505290501 443732710 637596321 368889202 413116626 887807326 769229724 391468298 434201103 635701932 992006670 458018591 60699572 210936301 921127535 856782366 597439969 304890871 792376962 41124395 725562241 925444719 444609034 827837109 927001120 641092406 922696515 851897840 48936640 606877442 979080690 603274641 779263440 670126626 996683949 809721202 156662047 886287505 8206197 96956385 375126746 701784825 573804243 410326726 286971056 994639980 57990319 669619185 39715480 373662971 824635153 197836790 353719036 858202848 91881399 588354142 953934431 354488878 677303248 699846028 21507438 793514413 863738303 547762859 993707777 37530597 303377047 824569089 572600363 132600886 239537525 527571692 115129335 20004888 5750818 923876794 977346474 608999888 383669171 209741738 841878624 665866356 15835173 429190645 149276407 866780261 915784787 101214211 334326950 654242319 554491730 774976858 32856740 544817491 701040876 989396879 38733738 665756193 431184149 276721521 775532931 463819401 378327878 675445791 592428685 964435676 305182677 480088598 994146462 202197957 746191382 547895975 990715030 780346619 191091900 504937746 542336072 91251820 726540642 413637836 993300578 522767785 87596881 2270279 539061634 340080099 842305556 444874222 731205824 689706613 276133488 442032013 621501479 378901167 383381763 337402848 387507856 11125599 822679839 434702359 149366660 260172874 467397106 768499311 523101211 477731657 945759117 841763570 444556320 105297349 886571844 526721738 624654799 718839766 852552294 640416545 578650318 12044243 981472261 918315799 566687127 561418765 129262084 973318120 687843787 853320944 745721077 812482784 533506700 824843224 508360002 946553495 717657388 312640661 750566972 246111866 352794630 201810696 672746564 284927939 659181472 866066661 235102113 844501640 163776272 996498684 774704793 589395686 74107254 728010658 557539258 344134573 941784037 496663290 80893644 7211211 255464188 517188340 949114748 494900642 182153499 150372770 762818532 588643725 130317692 918993089 372766754 94102846 923630427 192042783 350884015 253502204 782068341 744145747 58444106 475379294 657742330 837798730 14409115 927399558 46889918 935974896 633546912 52848292 105154321 149092243 953909989 457345389 572914528 343417226 814263359 860201830 94274379 192176222 954384859 264929674 615573052 628408095 213233016 224907950 181690609 524611107 689195949 998292597 435918107 120827404 448159626 928897995 163616016 316745314 911366520 710985113 956576905 151601831 415082142 322527203 650407192 553090229 615560354 495818401 229810243 897301617 308678880 243825228 579920496 495688170 163026240 701092392 761663035 988178302 756981297 48244876 631817457 67824103 127718493 741640457 995433820 76011902 463516838 730716756 544391175 93883763 216419587 976521607 797647951 212653002 150886176 762087973 123468547 941307753 716780363 547371160 216058364 642511464 387003056 676440549 974913112 304207376 29588109 566067582 230615952 552558670 551126298 841026543 8135004 756920779 272548559 494207584 968225828 321747933 496241131 748785969 216870214 800705972 883028728 148039287 47496718 861143352 403234064 165783332 479237181 952215148 283968467 996213583 212789147 362115248 407391583 714572187 696292932 720727400 124029606 724986867 172075107 739791261 144070815 979988291 640186910 613241402 382769499 213553144 246311703 521799453 101272638 909104703 54616926 25219269 344194470 627885685 421830164 13194456 452953011 24463031 138536498 636951219 40685224 512143240 215362055 750746194 937285878 450358174 914710936 325554855 170320744 215456688 399587405 115589857 807528593 752679406 597227461 21176116 400069705 941150384 749191203 420129163 218875072 253467765 769374068 320507547 243064416 404668677 288661909 455403454 14710186 479033792 198076825 129533846 446511707 128093424 118238816 494114876 747010261 975887126 877838230 825834784 165367893 887097751 674490723 523276532 847853799 357737011 434471686 760560970 199813008 878521510 717980608 793196173 568556903 782717199 150979687 731350540 428104743 439607561 639192449 512410750 470106844 194961558 838629864 192336176 929314620 34712855 742072929 994973753 655372088 22236696 805136213 239666954 966895940 403145046 822550124 187166434 833045114 888196021 921103209 758135555 894558910 850617156 764770267 518870871 785747082 259515404 620262565 173993142 563673272 898356949 562019676 713511832 217462893 857629304 251179044 598745866 417024318 116422674 887165330 938707930 463096530 682142257 728242598 805137284 19773568 759069394 854928042 171130324 947810808 884897691 438794939 366328441 153074123 335474448 600147053 583428668 126054846 868677203 953423529 569282355 581863769 826345091 813680169 699653512 905980596 360539754 760536515 775921694 951183164 603456172 723928889 576519710 214910548 605268260 703396401 174909017 316656767 407137648 659980099 369370397 652323395 607939393 125477537 508853387 545665362 283033864 598400799 434983913 353572295 620139397 550709489 112332379 916418542 484910422 685374302 32024879 468190005 805242446 329463813 401447741 83436893 886048709 680215422 356501664 847152581 524822615 243590814 117644772 79145089 432908331 893713544 570571047 808048225 913431760 668300021 819150045 646418051 470218380 380443531 139293513 725625170 845929412 192324065 270843296 764763697 51326784 787062635 771053576 533281955 930526223 364531822 788378509 469100599 707814156 220767718 590165148 414975249 555595141 91025988 601022553 206316200 298708693 369097519 468193554 974817118 909078958 954832828 720883832 923035536 777768939 637329592 811023617 368101160 471290691 106211762 876694937 754534521 885324828 935456046 725291003 33780649 585876952 526342309 557539992 575414795 975744573 485948456 883518525 346085251 369532264 659793498 994344538 638031467 141837265 527310715 909937451 937143902 591436617 470882255 750135936 461023040 901675446 342571170 599631311 513726094 872837880 352408883 339298121 803248136 984582888 992704283 377438415 198029555 253483065 39899705 926582359 933105846 40246138 871809883 880932548 964963785 71922039 226781718 351843556 737462534 175293012 995560453 192887075 679879104 902224883 606252136 249973781 156759052 552571907 605717079 936103548 688871286 976245365 316244374 252519615 823941443 495461771 243899414 699759294 706073731 140471548 102658295 110976585 681880653 299516797 799604022 645722216 964599554 634892965 194618405 433367232 508928878 646089935 712540707 499513378 282922450 962864035 563305223 100214576 530857254 134568333 279937263 974060715 403697944 196419390 479558889 399335788 321377675 205354533 960215605 517169895 701351241 51922104 4998463 925434636 65307026 89430389 523277243 979056384 671491944 925625953 322266688 379886432 546812479 11192357 443033984 2063937 68706512 378738940 51805684 993380596 145752428 410161899 142914987 723636652 4891925 169760060 54398090 454597425 960270387 21319390 454541881 867631590 713387322 194097823 837606538 332921016 603912431 973828232 844523286 413831792 394053428 601646514 514371192 385742747 262741517 867614615 108252484 906690017 405491200 76144404 953955672 439795440 406003941 556601312 206378557 754350487 398534522 855688330 192758306 217843747 875777880 768712208 109441231 213080954 569567989 208633955 579400915 252704863 848893396 245728000 328786931 552124201 550586103 308486864 16034121 257871734 651315383 564342720 192790144 936450926 335371409 554843063 717425789 153771550 617320700 514650905 912352566 15235733 256706484 700100093 144592172 896485744 710999179 953123816 520144941 809473117 980063533 176923269 327514885 819292442 80959736 835605907 878214893 280774040 646675186 938944744 362648897 421670676 861474889 762504326 280051971 995572448 789254297 608733406 352512181 458372290 68081655 332926445 895105473 467724574 141490063 41182681 35704562 264860232 911583396 356871269 908387003 133906189 686632296 287062070 917094268 537314428 649843354 462664046 933464299 723631948 896862501 72046599 131879608 755110291 457810980 775242799 482396884 661637306 99005800 278824348 448799302 118267085 784759696 459766245 413757780 779375172 785385781 255568956 694509359 396174239 422832829 937554418 626422204 503743074 152472627 947396721 231592298 627337304 476357295 801918870 202662425 914282216 569349219 255259365 983938668 187290512 562042014 107091932 832477305 446954337 462701809 644891341 33944523 339860597 846206204 316021129 878022081 552233844 424153690 686405373 616167000 177028877 759367392 382465689 411687647 784780018 864508543 296906307 611031645 211501138 529592805 868218158 955389162 190541312 573549691 469382401 861605512 739974058 908089996 668895267 315853842 128253146 640658189 942726642 567107543 563977780 703869037 97515230 638454940 725361887 117266046 122611877 862564591 462392828 70353110 354673132 491268403 369599212 799088451 681752337 318670481 87594102 86702373 282124708 726498846 401335360 130766620 80276032 977462447 247154761 905591059 363954872 723906984 531316541 937954594 689781176 708663461 972387459 548328552 992255940 822866196 669414439 200008058 370041659 222057040 907787673 657206382 555977318 619229980 487593374 15784904 351403942 357837862 959664450 457511864 964942119 693073795 373709599 635867062 368306809 767033375 998555789 533184386 846508196 439851987 400193374 205451649 997036772 618698000 839511411 972010767 596052725 870283797 738122157 550706255 217549727 473016564 219681132 117764403 853201076 321962624 761535037 514737561 418211729 456263811 282976765 281744760 43522986 557284390 620413520 969410652 352782436 878281099 744952206 241752649 428827638 390730488 541215971 459759075 200781830 473358301 231555026 833000987 421928642 605590361 393045698 390292984 770311087 592148387 309849528 243488245 885698166 103177889 331578996 1950674 980161080 603368729 996635296 617883477 404832631 213973937 792423134 313586319 619688702 352360774 152107312 876363806 62327314 895640653 409752072 742441249 750140438 213051338 553472515 976674106 650624651 343483788 861562081 447274844 628027491 75409485 426983929 81526556 561710021 202581848 263081284 915587348 949209043 617815106 746301263 180510721 913683659 599913956 228099314 21410755 570875117 571580725 331747338 615690992 415405557 62547471 293001030 752951406 547276801 199521086 727164139 231987904 855147385 625652841 662755395 28420539 19928531 372475228 277381052 599191887 735792330 945525599 449133157 559592123 735443831 558829402 807684102 84943986 863406794 199204898 884724981 273541516 901784766 416560034 183918802 677702884 276952607 266920673 36643539 898326251 247847579 575607874 32304595 402549739 741565162 454520383 992290416 473636462 360375902 967717567 72221814 592922978 535911582 370410813 803753800 46257855 91709857 791583189 812533033 411858612 808202372 89318470 431929628 510475586 244519169 724997949 988104596 642444756 414183362 864183691 534373838 543999730 497004282 433677968 443850239 295057207 947690769 136401045 441558109 507427678 96031245 977451927 792693225 101630156 395084736 380840625 304901030 302936634 29752040 77456217 860847486 893966631 495162784 777300269 511093627 635340607 826976028 424206626 774929935 902667686 126551969 921297380 244116541 894188323 501231348 822594970 361693681 569437863 483170486 538751720 362793334 78923488 987687287 939464547 223913164 575786077 205890147 756679627 140573317 417671450 130190786 969054491 763575878 502251354 897161555 385744484 974940180 508308914 259179160 395455932 465435194 818376405 106845823 878050894 29539779 577393376 419841477 129823572 662338844 966928808 639953607 223933605 8557064 512419370 806809660 143552778 466047465 22405652 586005974 652096183 282190410 968950911 973074690 898931837 104527463 266317261 548085662 134958387 179565525 910274995 525408300 286198488 188251413 564673957 172512567 384555724 773985115 495096417 557161727 3607073 995641005 417143299 777932038 838205977 360808712 983988644 474857097 511217087 579923668 156996671 399124200 682468324 56590686 437543664 673906241 566196306 648669593 251977251 689606137 736577774 968015243 751814121 449214617 194927727 546928311 717978915 919428961 402439515 39728844 711089525 835219890 340646768 406543028 866045533 369228280 246038984 628563023 50070750 444143634 429828542 674520708 241375435 306788085 924970770 450454273 540324348 952013328 160500087 109790762 341727908 935550556 915309935 936578336 331919783 271600805 433209353 63667786 216284471 379473986 969271996 165905216 182981557 758070462 579458526 360231896 649311801 541182190 554403616 7027240 352229783 35434040 756978906 255777386 581578003 91403105 259753062 211123047 191563394 603574769 356069377 381227415 487299758 863147579 471645770 415191858 967504851 847591987 136924495 341106209 713757387 217379907 62768751 815844015 943821735 517140215 870222378 148822457 503781083 367151521 516273091 112660720 694308489 832814069 192551449 740002949 871202820 549486541 189204580 760732842 774183586 441781853 990513533 998498921 618233969 246782629 59581780 411549337 467544885 273658302 126375809 400409666 600987782 916150858 941896771 940596352 684954844 490925913 231175458 260959377 329040868 574888016 673671109 96034012 606434455 601327633 863306638 418583651 998092902 445793490 276611309 865724936 869601101 614649706 572726548 992232388 999360469 46057161 197072178 101314672 877844315 70590431 912232936 901172068 671053795 819844388 356302679 326739072 468288771 335663948 230026622 136739508 46364570 602501172 753308333 738186356 819253925 794281080 482442103 585419456 447730158 206196810 635066452 709585017 380154707 829474113 21073681 354114555 265995655 428326648 780812843 739534229 616914372 883602768 339239502 50130088 678706327 107267255 722003711 762052380 844398416 899594960 747805244 423238813 137199800 275239887 464018743 512680203 497355770 74697257 59487441 644745676 950300109 189101374 123433671 809524038 414387943 923333319 903937458 314680190 81435465 151970877 374848725 548955095 435314156 273789124 984548257 266093735 287587042 877982110 127126004 711640477 106221969 775063057 172750088 107265738 969620504 356656646 409334635 825913752 150582660 332501642 103812203 746470447 39932834 525336846 8237321 15119555 794556282 155929710 883939345 332614506 283192003 167514516 633103207 235287436 533129020 77058528 487668998 474958490 901308377 89815343 484261616 661267258 672613675 701069119 293988676 517818661 90882946 51899543 690596742 334429471 16460932 852774085 173394355 150488335 784309730 286779396 963476033 612629177 388722475 510574806 449659472 702221846 646692577 350170952 692090414 193865904 389231946 374565014 204872978 161167252 966509504 657494586 969815419 830578582 291012804 432996057 41570588 840716439 639495388 79636241 749071044 136714038 123579471 298072733 543605056 607823883 72644458 922284784 315482188 425659652 336671862 314517192 358777705 182113479 291800762 359812583 681670955 15428131 4627122 989882563 311166334 99212815 987242746 699808775 650880880 119487258 957215945 940097133 931054392 428040643 527303316 986464638 1986020 412249698 859711305 357794598 328328432 738160288 69073737 916148363 848786999 897572759 483984138 126974105 452991383 630160080 214407150 61466433 47155782 969164098 426976178 325490502 656602777 721638860 716190049 743831058 81975788 921532164 891193754 701195516 380878988 237351738 612470693 262757189 618223964 904405685 327547904 631267497 535779322 185560975 517152704 143605928 185544948 703540478 418027337 714125028 977792705 672081286 880279459 678111058 556075261 297536251 794361009 11422567 553897216 306493081 527225664 878914762 887475658 919045548 559268788 209160443 527412964 933883329 402374612 473262501 61502099 83279622 788284973 595205953 771156801 79003144 151565525 692928211 271763023 163344586 85538108 379158969 14536754 506989083 174358506 360340012 134391901 826185622 761589044 901240208 391860189 399882479 453325796 55800775 270612909 753498470 936065241 448014795 42580556 613890896 591618321 942018916 667140741 18874245 381011675 557571711 842757362 563698966 464949087 837651707 904721613 290178849 823318809 283366737 251384012 849205689 458219046 1430628 557739247 41248685 25146482 982214635 274023234 237412645 709042725 352654600 210864311 854977736 219573181 188915719 416281644 167291779 659029117 358478076 936123803 762590821 450518531 939807667 797313101 921445698 579701138 142196474 486517499 311665657 511254416 452504416 708150154 541118131 692591886 183528131 947082242 306357067 36306271 75575920 895742137 439060938 256678059 722956637 228909524 234786042 528313584 335861606 880311058 277693566 748434107 391797373 685680161 23431642 909898893 601959120 634238691 405137411 92002791 169765459 950700894 76071333 766884738 136512893 677666823 70607696 134320335 534739569 508487048 984932224 425637659 104702352 180979778 978217891 181388214 899718087 125028776 753339760 550315578 16940305 18494558 127169681 629867507 124771010 888189979 606438077 685433813 377350033 755826244 406592400 326951306 955133359 944476385 167955509 506346099 720141758 576555027 817060780 298255017 991931988 994533368 432829557 713619381 40176473 667797797 690501629 584927541 31550363 684011492 304411783 438635384 196483967 94731380 563208417 514808817 946444546 302873167 879492330 57684287 481786648 573280595 481635313 204798439 645906785 96803273 905678510 138375408 70713449 362697515 892227303 688558883 104989565 788753834 200168562 569825782 226894008 311820106 63200695 714140191 228835884 54668406 9047551 163591853 467313579 484550213 487847379 941975031 29278456 224718470 767149831 784383930 425415494 478082881 717078366 637323160 675873527 41079750 861305059 755368047 366601072 149593123 814052857 574539440 268465670 23630292 102720458 465216233 192936468 769931274 384606662 852666000 221564724 77664054 879530255 550273460 948981426 195710514 946712326 851214069 671057178 507802218 901253244 73123429 510901645 817176634 744656953 245766513 186794517 595611939 922991418 401187506 703421166 378964031 171224513 73239542 715467556 977073793 389191511 992659492 57861815 461144369 710946537 576847252 493999994 334484953 97647545 289997396 55112137 352373630 755853967 653999400 920072502 695443394 81545318 500871863 662606730 668755774 833691322 782262505 674142259 577226383 780190526 745654593 578400086 874033568 878257492 718343530 633198066 679451668 606382521 883688085 247059746 163832975 59171926 293113138 972117289 52050223 718409508 320472849 149665614 658722885 484015495 758139463 788258953 702410219 352453016 943791662 695716724 251428792 586278434 550582585 274120562 266270172 863203707 206128533 954644490 919368088 463256697 373143514 484401906 581664643 489037315 989571514 403568509 56966981 180304240 953384680 651004581 367517725 611079788 645819712 771791262 293535890 747207771 197167687 173024532 895341200 138965443 101293484 984892358 669693031 726704418 386576912 170800184 205435899 299414013 642810075 333986596 712489304 647041961 500123276 287960187 95553880 466183384 234806859 309416097 261051192 296470411 549457654 621746267 799713543 282076489 830817046 434903926 744495532 264265378 443425472 879623717 954302286 234091126 363983218 628359681 542437280 312072847 990640767 522762725 727000073 268080664 643170450 778211404 84803857 566270155 623195752 799822875 271994395 92640519 52731729 859398567 724450278 280149397 666215028 139063845 864559081 457795328 961209037 413886745 159565391 567517406 459012283 145440793 191509925 895380317 612361023 471123287 609140596 253979359 410218833 388930942 349533119 213790695 39358316 231439043 852462250 104851805 379198076 965790363 315668249 611365615 796108539 802006696 492908378 906203329 38083186 708719299 29536769 495510525 365085535 349008492 593246368 249885265 787820585 310740456 399859955 529832384 52117031 316404320 174463502 690020725 866573629 771676707 955694746 583073128 607694105 914650519 189744418 293657926 246372663 20740179 320551374 946606497 84305085 189107617 713317309 868147401 560157676 782461131 616125854 703099069 171092469 148969328 451572754 624601345 127591083 803104970 366188619 950058570 883830582 955924031 689377790 1467823 173115525 683860551 811748574 31972082 195067350 967350806 641495260 142693161 67932653 253226532 159146441 880351736 350224819 326228527 955673509 835294463 22892363 264073527 35780412 606031819 638848106 568169079 327365529 514198237 513870583 317809416 178068253 863857067 237375470 856385733 963286556 223322855 42106195 363114884 939504862 227106847 432600960 722695745 846258094 225720519 598131182 966398122 14327093 655669782 856317381 886306931 438570948 199927521 404744986 156493516 188965641 96976764 777721341 658436990 205949544 830658284 902419578 223188201 823207252 111163447 663505592 54499868 614128153 910610142 238794018 899343620 860103121 50178894 406274283 687768383 901534567 495309921 884263896 753297322 626205892 467945271 454987470 427490311 574767429 285835295 645280383 645866500 193948991 32145660 62108990 553634270 786928862 521692315 479298971 229627509 708385582 754916798 847698714 583141052 131729829 2173864 505910773 583277059 320337045 533575036 983357455 622553145 897993793 771226083 282249843 101256325 746016877 889948997 686151962 287065975 374055855 736064306 424673056 803434040 33310285 399380658 710017726 884859025 210763079 860695367 651796382 954715828 945001157 378853923 412895432 737022298 291218587 87333172 255222433 328775185 480513214 468494069 750763630 852787605 590854917 519967800 745451668 866532637 403529055 270304293 503456860 589062795 677367800 944886190 429807895 992234595 894150784 841560574 825051343 121985374 735310253 105824095 872066793 139087703 379128063 370982710 214952827 383426850 471842052 661611834 596022763 141919680 223138675 938115734 505031911 899918661 860349348 342644338 737018894 31941372 71285655 445233455 298070676 347585122 339284108 924355752 11424726 662395912 359965378 761055315 776374170 38391758 741457667 239750008 890282961 786572648 584644769 30727183 78791917 289493652 293470367 741285561 885735528 485317146 56890370 991823341 125977089 254530217 73184226 549453141 794328334 596037481 937971597 453518652 522188667 340717275 437232529 912299566 523629922 211641461 146240642 908479405 332681238 84467929 120884888 128833758 907409225 777512066 913969588 767302464 583419072 594308927 276859201 113982227 232695862 366761465 881921040 863912980 509985773 120954121 407766683 166544261 246260651 123122155 592055215 532303492 283229934 977766819 331276005 230837328 846393382 889344439 311140034 140942612 148884393 389784865 55686072 15270565 287557867 633075211 72392267 338606704 632743725 216060905 386133448 373850982 282807947 384095682 855763572 978579940 936850265 202620377 261408395 313129446 201548666 405651404 922037409 639682632 496907803 356287978 519365653 101762204 450108181 122727485 289364370 907091281 57716009 672290314 81106099 959467899 972926492 548142616 640323646 524424578 177161750 908045149 189618756 285708133 873145674 738312298 393063790 564238720 588328765 957126806 329505090 203295490 964007679 760130021 40206330 5256879 8233765 121662044 530916240 938268072 419663497 382389592 571626224 568553205 152904390 6582198 232549314 515328681 52890235 664413727 455199340 611338247 706889402 880484060 407397733 827119686 740705829 13184512 817481561 944294057 218191689 325739062 359894059 518869064 519578091 820207301 126112950 794928172 217500299 835529279 66466176 760416737 638027038 39263016 489221113 581367385 366306137 548308956 495192075 276154079 697670651 661120373 664657103 326974264 575173998 421774344 346954629 405941738 559599514 913632273 679752722 98816858 837377897 584147179 457650485 607811169 519815604 17684419 364237756 478985391 646802183 288079287 358952702 21054576 586728457 580964727 791157933 578802356 770778127 345386762 750804531 175281537 51061317 985552110 969551063 275724388 25899154 132434475 821019338 226035938 645057078 192779980 427585531 24796324 445800258 263141947 486483369 920613339 786230262 25241925 790203732 598653748 678633697 193100589 473493041 688773360 43362332 192801461 888491190 319933298 497787737 870470944 769095554 784951397 235151466 804835108 406022816 525940658 769164842 390703027 695596541 867069229 423779414 125936981 881622728 507295281 108078171 17478586 637481617 779220010 894106770 631858540 439657730 247301285 765405186 218830400 260050584 259512085 821333076 402093984 543928906 206523058 997697344 532232856 446736107 115544540 577840222 927042540 788383873 162960365 564890006 399632025 910534606 833500246 674276122 337773789 233275820 149611872 206177591 307843911 171683080 479360935 555704590 27856312 355948477 312111051 115638241 69299853 861887059 590060530 217128048 545424659 298254805 175916363 487575103 289133958 207856573 558736052 868956199 18239278 760074206 753097461 491831845 532718064 196013371 185108657 508181020 172064652 722680821 843719983 509412119 524004203 575987539 961172620 495052563 329467206 314536713 858106794 698077272 45470780 961888234 703058901 152164283 64871397 861621042 925332773 72744692 262621930 211194049 625603090 401298669 106760428 186698760 650259634 639492782 342485720 555536656 500609983 53904587 275670618 871543690 213962642 876722193 776058988 240533587 256168749 529592559 197003372 793116604 497366235 467977897 449678988 817189030 171796377 976197574 894397226 976953744 350570795 445186987 181991688 581649474 379737097 18397720 427596510 935406364 833124592 394329604 580152038 311056599 868603235 954754237 277081411 668381108 98702919 639192424 816142825 629024359 547029835 900641227 203041233 799213683 613528268 654306131 216250454 659535181 493999016 879038848 777923624 646018057 801206942 96188465 376479180 637169815 682250384 471632478 127083677 994766364 5522529 692650937 990218361 710505278 948214905 485188429 485386103 388095099 167135122 747173540 271345547 568594864 183626201 859479989 777378914 122747394 468868478 497338087 237170798 855885623 596044048 816852369 739740087 909965490 393702707 880495096 584926306 778324708 131597531 937837071 281824689 142294979 302679900 599854646 44782 259774948 347602617 105753482 962472068 918218914 284031347 393189811 891179381 598219601 145109421 646957137 891278149 776576238 696334581 719177117 139772768 381321709 405894636 366552858 568937778 514377641 174115531 767447128 518386754 749450416 574118779 814988053 52230715 682127905 184677666 824134151 661942177 601493290 273401023 437775157 365610264 683512113 314222990 355643740 571279308 171030577 716215530 44484903 752206767 160150386 239665256 174472519 298297374 549790456 205480362 60855839 361786179 728259919 157300543 535934441 463826308 875917946 214952113 126565909 946855155 508345114 709600960 236108276 226042365 988095542 24594556 495872733 410395384 811812702 21846537 297425390 711794638 327695248 45134595 233647952 732707840 793782789 815605260 102788717 976776358 838951745 134115246 752078385 7612115 603876931 113798510 608080250 384533280 779830395 702882885 70067251 210093849 879034154 721124097 933358246 265244651 147751134 984415467 156288511 459007782 82976684 971898475 748186753 749103339 410320378 822762688 848172385 99989506 744136922 22884058 176476616 600158672 138043442 687663935 861120022 119201188 907023618 77220441 759522198 142907357 434178458 728263651 225660548 410818150 80821332 750510809 243988659 844194152 630498186 465670727 428961928 940458558 280955356 180346705 362228043 652858394 40396314 487213102 265884520 65864534 243880130 960799530 364425781 543290241 245965371 86799352 903602934 137541992 944923987 386960866 428496929 428012012 206984472 483419912 401811414 115039947 630518062 651624300 647587642 118862304 524898762 852421574 339887570 375001809 843832571 287316632 880372992 241669349 52903280 996656239 250338664 37103720 155317560 733791119 351929865 121382312 13358232 626987246 922270870 515843340 200088787 151798592 847259868 575334360 639056523 639969510 766580515 20337568 688114460 949661801 795505103 28265771 528704029 591787703 260294885 826755752 801609225 870248031 928459980 295030806 206522654 521361376 920499485 684059794 397396797 378700244 404941886 991689162 515056679 873677252 62819247 193523842 339693834 677579400 270254256 436889940 178546119 263426719 583008202 305735023 700754541 349842500 766388851 687099612 329366061 155960318 489489663 634104068 180263902 863769189 687716817 933934969 774068717 27859882 411460998 84750862 227539187 869638126 288230000 444774899 674471367 763409796 756865995 69114198 910410443 611202346 674355000 181012002 751032139 968129971 48543420 228559359 838853561 760170624 16976261 120055477 838037703 431036151 743217078 836007756 224573863 455182573 128494645 260511435 618055936 434066250 462173501 466177957 918845328 330712101 731532836 828344245 912237208 946483621 625822227 717641180 342076347 763411553 390714340 880212543 47304336 498663757 825522601 918873401 455304456 559869391 935102917 470923204 374241333 981853276 990296864 494707578 647244201 771523397 198493940 82002323 124578417 124919362 111895841 278734029 681572181 746169609 293977119 190706356 768149347 830209809 139003150 583002546 631032219 497155417 159849911 887275515 861740742 576153452 730459858 481935020 670788971 62661015 940660669 442533070 60538408 228319226 294087768 89677283 380411340 902689446 215644859 491026490 764419035 681784560 581113510 501473007 455175552 577028242 902630474 437562827 269631236 516597748 397537546 945365047 990216460 558574889 324028071 575345283 411257758 279591924 777616071 34222126 703161608 667007720 811740187 851943126 682521722 632262341 506371677 257612014 596704740 876005619 443359599 163813563 28000628 38952437 971649043 863399488 308665789 797749711 175736447 32414075 22480668 371272349 220903402 770153121 151903645 439522680 534660938 550405644 974837470 930181521 499689977 473992298 917467295 425547149 468263302 336597844 278138829 288164219 246058209 836354842 689975812 114681120 31838387 497028851 302670419 795162381 660839189 995680588 563642883 854562594 169686081 779896526 687266701 835248842 417839789 54954825 350735275 891554865 467217865 262542271 161790372 296221339 745309471 436916626 963822287 840262994 911745823 200844109 337511311 551352994 181738988 378225231 671319659 828048106 712246040 861422132 249295051 130526698 424051165 777148363 581205724 514157183 977435687 503159668 845340398 841061658 386602816 589827244 351374500 768203931 716153388 23645752 290557990 507941551 826186851 344477044 929174820 664026347 73462108 657233948 934805037 508196092 858258287 385846108 746432632 328189731 854525584 924124427 212174613 495464049 773807688 786539193 248879678 298015623 860298563 762698040 831984809 924022206 833875088 756823658 177689044 952533696 606178737 196532590 644813083 707514339 487525455 626251862 694979457 262123610 178967774 361668495 258858711 142575143 148058013 786073955 861499569 967301562 823550286 388017494 950876253 871035646 417271313 98806091 483676745 926740148 338303581 858987777 522577629 157226633 911417064 997253458 908978116 317162439 935939315 336611135 929375193 116340882 252475964 766628127 411218065 350640711 969787023 965289681 42484933 948083826 159025014 50945390 291773068 552573320 319473833 694100177 571984014 271187225 641671873 424804231 446783135 274205428 81971323 894954850 823060418 388879204 454371645 729719019 72199834 992314187 865629141 463005013 215834791 217148854 307025152 778597334 65718046 200740146 67156843 712443181 775095684 795360843 731173373 884765038 908268191 232975150 505067860 492025142 186538000 521135523 889737020 635502327 463356810 220104080 770553550 371949641 879079675 124617583 394440306 204705423 989868367 464094364 751363833 134021051 420075849 470688423 491297024 240155374 267196469 902542529 972441038 187205773 94615039 50530870 52496140 737398681 441021810 223732368 347343790 586860986 234411403 171606316 89933033 849054643 601782631 50963355 558841096 659364011 664226251 323725718 884836968 424100535 25697558 254049319 392385523 861833761 851653192 828067802 631350472 228350305 72901114 682297756 856755711 417442058 618596524 245187293 547110013 180359509 49274606 111244908 960534503 29138928 87489093 579235736 154856039 158471761 822439077 27954769 677768574 868297161 625850940 488286974 319679969 788530259 610611416 401999023 215340551 16181118 764168970 461162182 735957055 623540220 653527372 466921366 722859217 669115709 12012841 404812766 613786949 85983598 179730778 948911712 57514947 334915534 266333786 220503952 202596671 857537011 576034607 897993071 416461507 583445294 704185378 597628212 34447927 334722720 58295916 848280938 265688899 203825692 949651437 192129484 692312369 272186069 821727278 310310639 544442128 845402859 297024608 745953447 253347764 67397395 202646508 520970002 257959533 38984760 595972061 22651845 448428030 722762158 537193138 40405666 807741243 869847128 907043815 155374863 585811885 443154593 554201075 547124689 412809413 971285749 423424102 593672098 364247794 413688298 627207252 303610823 589532339 72144630 707065132 785037077 722586372 400492965 109901327 186501198 132065600 159589898 945623989 972930672 70878514 336182274 683410410 803175056 199331712 991126390 219577934 92942152 636980818 242879560 564961782 433875092 222534385 971270650 379596178 935111808 812048718 956295280 262325535 860515372 546336890 734968250 194449348 97839219 690326966 593793728 830017526 108080474 6950738 42187932 5198430 708902070 938185671 506093833 671125058 785537620 810164277 461155541 533523205 125729980 941125278 503397865 183155463 333633739 874884129 884919412 634977241 43563507 897947750 547441303 561868298 916432937 214568972 870016979 25090791 106546810 972942124 97325747 805408838 62312173 793326826 258697763 376166417 46161549 227067722 715458835 947090490 479201767 885832031 917258173 190192683 286313976 282699804 518531102 782477846 956241627 814351689 240573551 573441335 846187021 996866327 171979935 427890979 560637950 977623555 490091201 338476569 903029536 396463928 981703886 408634924 624354162 102304668 624406865 37899462 13400015 612259024 821851276 739255685 514362410 727849944 554432738 816270189 733548968 208209799 68719914 832935855 941561604 375357942 990415012 681902172 515342430 355981317 726701728 820556074 534872254 651435867 105388877 504861611 735824761 389286353 461965356 407325247 545743944 794542792 676469690 876007890 245240326 537956664 789371504 722712718 744538612 268957279 603451878 203672584 825671881 589725059 871675057 202957615 183305619 127989466 398815987 597405037 692060648 861890400 532893129 806086055 125677065 159141142 317583204 818797804 945928889 477082159 585600764 635411526 644150372 421750896 952634393 876299691 384295083 556836977 189066131 577418887 743612920 738467513 935923189 817852526 548780098 434298579 779023229 650668934 631238264 787214102 992135825 566297657 570878679 339906722 879195379 87278064 994345450 870617783 814093652 486325116 888035408 673956992 405752213 401348357 454700437 324195589 957623345 888134418 738148661 327719098 137426223 784530626 920235715 111172790 385595782 951447998 885810501 22721811 60326960 864743210 266496581 542345492 939137193 265072083 209622892 640267690 346308874 800007297 28011393 770862608 548928021 468736176 718745046 412256307 498645280 112344788 617076387 917295516 859834559 350712668 829317942 145140612 561152391 268198800 223975344 674351720 700034588 279156978 422949518 279151043 372588066 425182413 670989555 564775166 526134478 176543825 624144249 105550941 457212721 600172472 653714829 812059288 746624201 319420085 894317287 657129967 60186257 549448093 947425065 50336674 395366929 39237800 180799187 71753408 834613786 629237014 628795781 481267213 744713770 760894960 225630985 252093670 649420700 666393431 789155887 683278751 875244904 761947963 849310603 403268921 453308156 948857142 604888568 104926011 539244498 591052448 21613116 438310077 201332481 855702725 701265802 630104484 331966582 996244167 791952184 151448615 803282949 838479921 899356758 64444528 261912995 665053307 541296329 817097405 332421029 772893588 621389862 871124159 296429216 448585214 449050037 558104514 770102864 619468477 92020290 247305673 319929556 912512404 560269812 797824805 897441031 65739042 529095226 612925587 514346619 906118430 139293543 567682684 258600540 523954369 120578 683527348 201686097 600542430 51039620 458553270 380377489 69931006 908341576 400513686 509408045 646829221 846377884 437418422 918719787 172751466 349743954 617980243 680397620 674126818 306737475 454679877 698822052 503266265 483744130 333151602 262083131 227936051 24805868 156575380 560371050 501888008 893713540 51705557 162084883 228751239 473777256 806275958 285078426 444960282 166121716 104483726 168736542 665039354 545076429 683001856 156811556 966168448 362062798 935827259 133534529 229562577 334539594 904750693 990942763 59621443 435328674 410025831 535531067 845358160 391946503 726443329 784371047 19795389 825056493 900579179 710556273 275815025 128394021 412176424 884672931 501076564 857101641 419316656 205469592 193848128 418795851 519694126 377993737 25300654 728145410 574790544 534292785 539931492 718522912 670235370 551848212 845128267 793072912 950500465 609366868 608920910 615101701 429606755 385334948 57124294 736364126 707700240 246984049 122037856 21909718 250930335 372124005 956688288 223554005 850098584 384879621 59842074 678216526 303968156 216344399 904036674 848940954 681261593 933608553 246732277 201269372 824988478 885377832 66165784 735706411 646876576 616779664 426433902 671051947 162180029 721676571 405536528 797198459 155774314 302495698 23964393 843429277 57925714 718832504 326054535 764527171 720487096 194732748 884381594 680660643 798886577 225909775 394532277 194778792 166453492 770079758 354778781 730909480 584931264 194352434 755998487 694658817 263144929 775325189 792055795 508056013 208680744 337111096 477363755 373154168 915036968 229534018 383910745 630430349 800250882 97189826 432129333 300687326 659065125 996850016 283726998 252473985 521744826 264374301 721028167 815921878 710947882 13479220 872563535 222751787 558585767 286378887 957314282 990419197 680224164 195576616 713241713 19184367 66092792 824521722 823240063 387686722 493453400 958475462 543211920 865881400 424855428 231900359 51359823 239712730 936387924 224141283 604370507 569924751 497507799 19235596 298447179 319632700 734227530 526347299 380264745 779857874 198700690 430372154 371071646 112847896 443558194 525493529 975564436 80129754 764485055 479113588 949277175 991665805 776624687 193290500 883683315 889221262 818972093 990430549 667731201 571350017 160840736 959515631 675195932 313499362 298017643 901710990 174308837 178254090 116097456 364712882 352235102 547862261 849062967 105672202 503105971 559415083 81991239 787613961 23184538 509166109 541148799 531243988 287212926 497272426 672250155 776911125 734134448 324542446 963517332 836805344 684700666 951085027 18969256 188797642 873009369 111234758 640445348 77619991 679706940 187842351 448204289 339971912 156672347 437882253 557688324 259334704 434080861 249728044 188791757 18663858 718555705 768501648 146642242 890598482 147494545 947022615 76850286 732932129 310612493 514247112 667595936 38874647 870911230 440312937 461927094 765769722 532530211 163510693 777180879 385486435 324558168 42101547 735081875 283375755 105382006 54341659 235289256 72524722 519979302 360280379 684455478 135526428 853713104 583761094 240036185 629987523 4608558 97653027 243939429 929271655 413311408 455509239 205468221 672126326 908088474 578114773 695209349 889484180 584528212 800835704 714108269 951900323 864970973 560370686 382902178 7694528 627452774 946686341 948087666 190900887 336822443 456944282 614403666 344355956 894728245 150202881 911597962 560024345 257350459 399234242 441903096 426004386 205365748 232491436 44266895 125120216 254760730 432696021 325537556 847255049 988050902 361198759 514684015 63476188 326946922 638087867 353313252 491910724 982172927 231943073 409107476 870168399 302782870 467507734 713981928 662331281 314692546 4756547 219006453 141193259 784599375 355961216 776284466 572762102 710786276 648216011 387581400 824752437 792271576 446536640 75858623 808407253 987723301 719749481 445372528 748808421 4465541 628865347 602046217 442550114 835886269 749925229 309146942 329921018 253924745 92424129 152596195 749096709 342046198 266049141 794860673 716343709 886761471 865710248 683637589 599035224 475976116 24429560 752582552 111272155 635773129 675882154 361300132 699942394 54298570 242622049 307682780 557122525 540765450 748945701 272191455 609300571 592121260 926579539 352458849 863514762 86314894 172622077 413598957 218748921 82962884 577370856 248529661 990754180 680183810 810114740 442105467 848610222 476664553 681140985 124797675 848750001 963447691 648314972 941291044 566076649 979289369 713261379 263515072 280721489 143414657 782961584 903375969 315779913 778363137 476131179 771984722 159208973 223450162 512278814 995193339 779698985 326985049 518227503 944248371 862032238 439749842 343884756 186086633 450429451 165823578 93298254 712871394 734499228 705123287 762469635 56450150 171523520 963764122 294775230 602968185 804228387 56991282 239415318 895114057 258507342 213809647 256243464 245013233 135824320 714681427 57787854 691399405 800787264 46883580 977167106 883338983 282801848 119211920 729232018 467098963 354873214 377328578 943546615 555624261 367212488 245343936 694809471 55360130 128210129 225885000 985610753 854260198 360438009 901148514 752256404 699977792 231682698 400267237 749435356 802991622 129800759 659623035 327207028 637612101 343824402 877487722 371287451 42014564 755513384 844898916 14441854 228323944 623593029 343446114 983631264 159864590 153743220 322744831 15504456 456367218 688198400 670070386 178985639 919699952 88720844 405287764 492260262 812353315 469776470 976277275 468255360 705762821 158613639 938574016 62386984 931219916 768960575 962576390 314724001 276873179 130371719 756580200 665994014 988371283 396966915 370827885 805709042 254099161 929454188 23519461 177730251 995458601 199075514 96768115 987439981 316102028 850643517 195661289 686452485 363099224 833343236 18988490 793933542 382322267 897751899 529998979 194951562 684371733 859419775 118817812 542269716 954913758 511247882 56684604 103914660 37857001 129053151 741562594 590350118 420158356 516361327 929906605 202267754 671269834 64212250 325733783 867739213 327910851 760360011 577180926 986505087 986802261 82824318 311755854 171084025 985494200 645039031 871554740 691907495 769591379 749218322 103229895 574319992 512024912 626181390 726959296 636282110 327406929 568617290 751313016 565501031 91864241 74171423 49188843 741800767 102977896 650040936 456789536 7435204 856287410 618972597 731534597 388119217 801905841 474636932 80964941 423363486 935753632 209560361 811857161 191212810 882066736 267376112 610260149 619499543 91666275 580370553 988511798 899474575 821287950 842438573 893538676 228249290 169734165 416761296 574527370 121672180 877241075 114878884 182603550 223238613 640827962 841672678 588203934 166925505 13262061 48052162 627352276 621887735 971395120 988374520 782398723 165098227 163789607 567000433 660120863 967530620 615290233 837974264 95438657 427859704 614639092 986471689 218098134 505570196 454838352 203275893 205886854 503228286 834514598 700747698 455073498 2549041 674501442 248356987 878875822 636290293 891851766 114790991 874544999 182120370 167168836 668230034 664173417 869815916 234204990 858008394 331246162 855623410 455980544 185952140 247226226 482628748 60050800 708587529 39897654 308813267 525723438 387127625 38350114 29832579 44498003 749771653 495570344 776838361 178634816 628221280 780051573 162252823 24831139 295105512 923836014 780593107 393304267 709856299 708113113 707224739 479812562 144098678 345117411 274284678 754501782 15495883 407823373 722405590 876474660 548082267 203359286 624684435 762776509 265990589 135982065 971517023 951193376 890409634 246479499 274344482 60343650 835509752 643312512 977129935 255336436 426734837 851061335 376482044 731505485 561886564 739387472 334583593 288699775 362613228 464245557 322179461 547489632 722202799 561481858 151128278 182252730 199531852 979885432 643137241 689860920 17127286 781967560 151785526 455219082 396945971 171591592 743154629 672977171 245272652 407857609 242822684 926932152 803123537 115480830 747399808 872919600 986465917 684865984 796914858 832186910 697499369 563416255 385690856 809015599 82835269 728239810 581113566 5293485 87103965 924998570 354509360 969462883 26911316 35298972 626430051 660680014 575119114 20580503 305001056 318537722 549858604 749967522 946617998 541283029 614165533 876483554 297058800 597785166 335611322 586264907 588082163 928518571 765611942 188927582 470030776 301131280 618783037 153191213 562455384 812367180 422019256 220818883 903322373 469504805 471503297 80164623 470295554 807609541 884605423 940801561 907669596 289175863 9517055 153182981 489278365 127387541 449308472 458512805 750950183 594672559 233038658 540370900 718980633 21636676 626889746 337408215 144798045 187825870 962351639 696610337 842108071 943153487 76772358 471736224 349020269 88796464 580881573 984186399 749591019 360795192 398108910 781117795 454147030 464558374 333814300 251388597 110063496 265323674 660463658 323173493 521714906 655494086 49771826 149547957 904098497 539541131 948223135 417175978 140006028 16978057 588933383 442805966 172342678 807060529 918348254 744100197 560579522 457585980 611809095 648880887 861322432 892580982 640455843 493236745 138520296 271609896 493360626 190487362 489217053 714051526 264146625 168985701 808701851 695420243 958871313 735384951 376456522 334518598 449054859 418969868 455746863 518393682 59205453 375149210 170851002 257418713 119566794 284849742 791606752 580611737 271144960 627848765 245024014 711682810 700357534 540143222 263681605 827563768 122358794 455414814 876772292 677379752 63685561 304557699 850354774 19417661 456435528 793368761 342494331 894888612 266753275 391797563 552104816 836163153 37942166 167980810 637491507 891854691 511012493 236964879 825204504 867377888 566841162 70374285 571866727 371282234 603674279 998207576 581009593 628242407 300021601 180471903 930026456 15172033 663746561 212989885 840156609 322678482 722345051 915442513 310930219 314934471 900649292 735751174 138269411 837083439 931640094 618244296 670197290 442864812 962060477 236067199 540982009 278431295 307633474 375517558 998409679 868595377 276635636 832258779 40620620 162685675 54428452 308682301 837551257 132453131 97330576 205906373 990346107 904507200 17737250 335556089 988440670 523670658 278961300 114253818 994219052 655760207 465419482 422428200 528613389 328900106 876785698 846149991 663842588 734310463 549691279 315893941 297805564 3035152 152946736 634006961 192910520 161196893 239984639 581802604 731762206 245385543 947497177 293996362 663772706 522935934 732518833 753404203 119618033 576064412 658189805 20783477 791292681 11899256 183495932 268004146 391335594 367919031 844628437 236418590 949984291 235734772 469317362 427897316 169488197 328752181 545001208 263297915 586651972 646728941 464870472 847762266 63407422 118688591 575984276 454465599 555941319 432073201 808052089 350150059 313094313 445603169 174137755 629509079 638996693 882326290 40409267 487870963 61353987 348863784 998232456 634889083 919902012 556751099 522115552 971111540 20373779 929680948 422242006 423873571 815013578 297012424 487053320 135160494 91478239 73272901 763477738 529956161 456458707 244956531 794001698 821108356 785458999 742842806 477375076 873872455 561707507 569792752 889319702 45025042 100548145 33007581 625064 268411671 522987587 117840858 448722944 705382795 862452510 924498938 407807044 417671111 905849229 103057060 334748010 494617961 557206402 420867348 577233651 922975882 984206663 853811650 946476211 489446262 579578743 417684441 361732053 541738625 360290236 258301785 214182629 277541495 261799225 557959662 471251061 526166797 13468927 471019684 775572506 936035520 884338761 398685739 369839361 646643246 342841268 781931419 495318129 747353011 419098221 749024011 62042174 663765961 505410462 566132467 773650604 393832201 655452483 746711003 855807966 396512899 905399392 371176464 505031036 154976237 992844198 483881649 674181045 361648931 261153091 132099824 768276021 830958839 970876784 665027307 617694321 614333511 814522159 425479724 915196294 269292409 501621199 495466380 231213710 129575317 877639243 352920534 227831963 35871147 409799324 249999949 238906311 613550456 510956716 380470673 993137712 774648619 77735581 513544498 485398006 514343185 530698770 524440916 571404497 755956235 962711943 623017955 987567780 56504034 834662419 896556178 551239410 825440420 375209700 182864558 867267503 475330401 774428172 992928751 503200248 856954851 337042362 786547337 80414226 92171068 375275101 725676775 518327678 806729806 321066008 867319858 735278550 823238973 193270209 90152868 463710039 631071230 474809688 896232819 131810408 120302511 232782908 617610205 855612084 325420316 724968410 766846465 720369843 855348539 1105354 266128719 1039471 462735663 569687090 45860468 223295191 552338122 397250588 371654252 338016746 37601480 690188964 377131184 453581809 265042343 943952706 120781220 276249746 999913243 814143337 50644927 491843137 246923336 271750661 758791850 589550864 645640122 535150007 815607237 773193643 281985520 775436792 77886859 737182375 968449778 94519289 76276454 275226853 857785808 823187112 860427505 40926825 233890456 969035141 335059519 889270978 690399962 695312982 838942843 934358692 770486060 681730251 659277226 53338416 348716671 707679067 284930496 22793287 78070064 902753721 492384139 558017240 916552457 569211664 982713073 76952621 703336805 54575497 715314822 342051157 280247236 408725024 463993208 733368559 31404832 263261240 908597357 65290005 565335856 117923567 593649149 308498085 379631513 389191429 124155648 617291858 60758626 469011781 157610211 291521879 972409953 465708770 156016120 195223132 423678955 417097038 379312583 281755430 254999440 41523056 543162311 778336703 422806242 866054366 822916836 986778055 639884065 986139112 671823261 522632301 72248577 250768563 312995283 449725555 823619853 346726896 276635607 264208848 104781791 427761837 199613438 690151656 916848988 656385500 773200557 918413567 218484794 529604153 540379835 801379387 881261105 794165764 181739975 290449262 538084259 587458088 20813562 744228608 413373516 280307071 867424619 609930285 50395369 811921304 650013578 363445858 467699973 291545058 482486667 490790998 406266401 997363666 470173547 211372094 969975087 924151964 935089159 717464106 637436184 637550853 436654766 908419512 488459453 846578106 411520911 412400996 518861399 823048768 226045589 577919958 298497476 350157813 338235578 496076486 518574454 758691744 701005960 693027680 697885012 616458929 207239123 515959204 563934947 588154852 519197220 957264600 940909483 142811138 201975198 749699204 373685364 847915329 474543134 878325501 159590261 970171027 963582846 843328971 105230576 822197194 4740834 426767723 989651934 436858278 738899433 575844268 619438853 977957528 376290441 384015325 866095815 409897498 209602985 62213325 291265689 414680450 618083921 562781931 455977792 717751700 866429059 680803984 174218621 15390527 43466865 199902375 100794696 630212853 722395151 567881473 534698122 215418157 595352074 929138124 378711304 157907693 188637786 86278611 498458478 785417192 180173934 645907238 489903568 130739288 100046310 854921365 85919366 949776820 730055059 988244761 146016102 840480692 532970370 445772777 126289155 367208781 245725657 85515057 984804848 347742932 411885605 259095620 510299858 650599076 177591944 337663081 804521714 565568283 459858352 91905730 624575700 573334960 79600928 403222589 145061129 443823720 755916529 560428841 588535145 705955774 929605488 950882722 321038944 652959367 453748603 94835433 966593046 298619107 721279925 498116240 180321350 131225975 806955044 396169903 900964681 428372533 50930395 873970622 796045700 442718695 621168131 621286582 90768460 698479059 359009892 705986379 32395352 494800636 641740970 725920798 556675454 228034468 793281886 931464942 493144452 674909322 121814624 972258848 424868812 408605157 596008101 656419962 31626133 209780794 652662189 418814564 909722247 118548222 950042384 492964617 880210636 822246583 640895642 11530348 515782415 115837068 773745634 567159221 952979456 731043921 83680503 238764993 582113770 956851328 507770448 319795595 888250692 305902569 355499415 460141971 148225129 189130687 352439187 280287207 441294697 848156886 253284465 920486186 650041411 104370 40912297 831683587 557173240 685641896 711650377 212926865 491005351 735567223 311626784 128258256 741246839 940741669 979296617 757718896 795000444 360627839 555580885 260654281 861379591 11489478 405449778 829620426 861971257 661382341 198262238 866592404 154198998 769028306 377302249 191211655 204730732 76402271 244839498 787964915 358990938 216345158 163361042 68530516 368074588 317928397 335032633 940641871 954022835 848981437 861209447 357627723 785819841 4803571 679197094 696268847 879619383 327997242 978757647 796771148 857066318 664880622 531926673 50501179 516890885 146385641 77842724 971162674 437707674 975362515 86689813 254359434 606820368 339326334 251663312 122459817 273489473 220491736 709814871 302870558 600862160 719794212 172458835 762612655 79710699 558335714 232222893 210510180 494904044 650632591 865084562 122237769 137691859 687682717 107843882 236806563 930768284 84828060 882034336 759334540 605468041 447342783 20691017 825449170 532911721 805939351 412963917 235221365 481972113 989540884 875246592 880784321 694293651 631203281 61623581 776234651 589734420 782673542 290914740 751594849 812967838 918999806 321115494 676964792 606968867 834530870 603421959 557044470 232715303 783958056 815068721 25713291 655876449 849276149 105657907 781695475 293574119 916081047 754055992 399644078 209770266 699807775 190648261 242385650 841129760 353812097 285536003 637422050 881991925 573771110 534887122 193978776 649358862 548913160 126606137 929559947 982695481 974900574 691056814 906720728 851011891 821053781 226137651 196206553 227645713 701412928 156279415 283704470 11266383 529177767 704735022 191681233 546941124 718506013 55911713 428781555 495602537 454219270 281926674 897617534 600238267 471146239 883555512 715535193 94146637 149468049 755156788 657511533 422547795 313260097 389160761 495236324 307195865 743055755 584676289 585291230 422711004 229157253 780270226 127387040 639137605 581118718 333374554 771107148 476301239 501120852 987212890 27818127 399534711 349232165 53363438 462652814 429027464 373275727 383898257 43428141 564893872 592189275 313375619 901296869 719424569 630647557 541614806 931794532 652556185 893873956 775912239 72941379 246126337 592170651 939666502 988039594 76986077 978951501 733759019 923303633 9581262 306086198 540863758 856253077 661945232 243600997 313719076 47461251 15232485 608464116 244897860 741108067 82996497 630889889 357833049 158209101 77494920 374435207 928178348 505665340 417058604 264441570 56471119 15446131 629644809 927005277 89493165 267573812 114435566 276423266 258079542 889231102 585362362 191605195 715578240 695709233 869168393 522093369 967647949 411029730 562787617 20115811 193054824 455380410 692159337 248347363 799050489 351268385 892077237 777123271 260956324 516266629 386670207 337136907 495090637 860275935 197249704 760375827 878129068 256460647 464244805 561552104 622343786 999799051 174591453 537994456 678494544 867496432 194146458 146736635 625322674 760496401 815930205 732733237 209566710 11012957 113042362 680291107 856846587 291088146 565611604 252789703 196520909 164756343 648902180 651050842 371612533 490035320 981271956 925271116 524742888 381647215 323039064 895997914 540297355 107199838 310328644 458365057 543909369 395393961 91276353 65096976 104590909 999862899 72330555 923171089 620242465 211515831 32391634 133862967 279331767 770125246 379997178 542078574 294019156 628103183 645559402 500913947 404871169 868779743 241234306 994648719 689116224 204709997 259992714 515702648 345035947 453419010 63337417 623382300 297152995 632501108 226295895 467999124 242217593 565034510 651012497 788391467 77318988 549859317 164207388 643138307 167775787 288611679 969007390 245196079 52701750 450919485 941643304 850010456 913065534 231131560 468222466 625079714 568686728 814865036 339939352 575429838 269061115 334056059 48082800 337205065 600514215 831733471 544224734 756309210 503660159 369145284 256751697 853937318 454984349 349120983 635518853 858274251 894438946 131478629 718230340 305135339 211292550 321854430 835716963 873562881 789465827 378631842 766628006 438019622 486004037 429622528 362684417 916540385 564193617 809658647 537740676 146044455 507539500 921269935 466249017 762853844 303653831 190135543 551896508 283803509 687509125 135596988 798490410 385574504 590928172 767943070 901321967 910198078 459299259 155206993 190466451 835774009 692458391 383339869 214284218 731679360 718652069 135632492 283561103 696854132 645640165 262905839 392189110 381938430 60151275 73343542 781999720 671112569 396977381 348633244 823985998 761946250 904279732 21816153 53740106 206401235 501845123 564794300 968890496 899017360 148443962 869929 136898443 658782418 728812975 958022122 681122130 533671490 390630605 930020647 667141623 663743018 891585515 528860249 64877359 50092648 27523988 359691035 254748025 312424997 295339364 360481272 407245828 957822333 608668511 18463243 410577501 168009625 687432419 897146338 215133702 518577743 81898659 74563868 387137873 786855423 45831743 978156625 677096497 733680430 50425269 109381158 105082876 194841397 72509084 503409703 511393571 890559650 609108362 360724393 874105033 556769021 532701879 162424489 101076266 187185238 495560003 538758422 642139124 899183923 675870199 808266867 297016832 819506933 276764157 482917029 505061835 337402360 68971624 882451948 907421641 795906050 620354483 757717622 232238152 76823602 323477114 943364263 469783429 832836844 950131704 178980529 231229879 409973950 375504477 679526249 753631360 603887042 585037523 922846001 926468746 49833661 570714136 105368519 197698574 744282363 764650890 396048174 761428717 838232329 66138491 534519148 265778301 240897956 291164048 346116730 490858561 39345762 11431792 713382849 221525869 539681589 170055029 810475381 832473264 474732717 722158547 70089893 195880137 421998687 882808369 559609613 767450482 488545125 689933621 530740222 556868160 322444412 470152242 187775729 610861008 173321175 379215720 777213095 145848681 493372017 724060416 967044026 718377185 666319627 161508640 184139379 614006414 359737784 490165993 798383358 311658157 159244113 198516655 106616054 32649411 635686958 761885004 522987784 262644213 971199119 383616365 467727705 19087175 274520911 594925364 625533340 782101036 819264438 512300101 653108361 726671640 763522452 930754440 580938386 763124907 390045757 950032411 197065535 159440033 602849962 829527956 80024905 905305640 761289743 372686562 193857263 728664521 728379797 485009858 381043472 697094696 556094519 261244233 691071705 280041751 315778223 843841523 420684497 374744471 178901598 104082836 414164447 718495370 977595427 53543654 526901694 788991521 339930894 245357777 416230010 942464819 585444808 451981667 323540790 357462363 417812336 110705777 57070094 839661741 802019798 510731976 324352904 95321679 526751328 872974888 954793028 877360278 724872761 6485074 876244622 2836277 37890196 639821073 694572074 130124829 132378299 183929937 564577581 435882680 89179155 661224839 727818482 429258629 618002047 736706505 952453947 470561638 873629054 913681045 329558416 752993205 557143639 450822498 747944634 219536551 98345269 154199039 137836730 588968498 952868280 137942875 848801547 700416318 266839422 167590656 979731363 915625564 871999169 205693449 787840847 12434432 290097034 512132332 453911008 628530761 380305092 331065009 643433526 997015222 346205708 768637478 153655157 691299324 456739454 562579670 693784160 941779420 431443005 371743439 232747110 224052556 624514514 332037603 426073686 194350547 438619776 711541517 550870523 834351016 980231474 832909047 709790969 941198417 575218994 36552981 44818943 807486404 895042221 180218609 699755896 144561840 444949369 34522514 179121593 266089361 812590967 310730630 938756488 802603901 219921999 502652165 639208538 429016477 726925660 26597080 123472350 530084285 338301841 491223321 227676906 281678748 796439705 134150929 972472284 279056542 547791624 731604160 747778184 258146297 325580682 543889666 582497052 844974687 499020927 325508298 990512528 524549610 661390649 613112384 670032379 553743916 766965726 459184274 42874111 369816827 877858416 215448117 926403607 590320329 78356463 109939035 271199859 881810978 864585963 135305343 277588829 146739827 868974534 149754194 145909885 927952362 297039409 18509699 770177867 628151198 882137903 14590905 705557820 501706432 234712021 962498000 221992987 335417838 78202846 961597158 898705188 391897388 306653233 961039607 975459892 187440330 990588599 802379466 462567745 436366666 206696188 842922699 217437094 985043811 435111075 974920082 211144466 559825153 539459213 141799936 269428167 636341613 295767100 862862507 992321540 824919106 120373034 404726175 198490919 125155887 617258939 963690064 74638063 413935426 735814884 222143623 985001113 851161583 92989301 994543434 605643201 456982562 692455902 162967494 20948457 628278213 825864451 907096721 256186294 618838288 234544347 766733012 626529809 744351249 485630617 641185839 872107435 825724272 486259141 137549564 481516853 106155221 264297155 152884865 408334060 675987207 614507602 846735921 890969032 119205035 830383669 646227667 723190803 45944994 682186620 134603322 793685674 224730125 829354980 407484802 767966987 643745041 199677825 868674499 343809424 271260569 870762455 201333865 589940421 771639586 178751965 444678652 776431546 638254135 749851413 278642541 467814658 664631189 314358824 473825854 471482532 178211620 783699753 691268440 40551103 950657790 150575210 866044138 61719509 159352548 540759894 753117276 500667926 454324307 319000391 562923863 67780095 826058476 406583796 992532774 127953727 943431304 927309524 420761230 840752209 55842910 229097630 581104001 971113853 993615223 308230538 752817989 179708916 99268820 909936801 743089536 23032054 273257553 68974495 163283925 312023656 871983931 855125273 245175740 486522862 327859230 860318388 924654569 305883217 721499882 852848866 583186356 430505602 691790131 748547739 517703167 67001127 81255584 382303724 208254141 417133914 39463468 310854666 714420827 824942204 288494854 693783701 860122206 719832085 524284732 287921418 935059250 332176607 775475587 368648013 418939412 455123127 295440800 74652757 472428229 108228970 392858342 768466544 914784006 347457412 968935924 549385975 973717859 876061112 626333507 83484705 966326957 614376981 467863224 173830063 300865172 305420428 624315354 827088869 962506496 255494341 580410482 658427289 983216142 466734514 284413007 562810491 381825052 841982271 895410930 628096569 987962922 355700516 573936886 560215834 261408234 326989463 249465678 334994455 942606072 606915831 497712553 71163658 878816709 167289564 409796550 211694947 436192385 584824833 413901827 398031210 10989007 170459594 271588526 874588536 47313167 945869732 947232524 939035977 998427181 798930335 333413858 510391931 158918329 976692761 70244228 38461196 750870740 522430821 311272981 413949471 366231493 281182394 91730433 796877678 308808535 840074791 549285653 624754580 588606870 716594986 535990879 226039990 211877338 437988357 778118684 588294214 530002162 254751213 650594472 28628511 370909172 760249213 253068970 179033997 428990048 537406483 560379 393275531 106682761 540113103 844037525 975843458 737081684 646486684 862054265 490171551 742288585 302337740 78011696 899599197 805173446 60389900 758254865 716512605 73325534 927448148 626625996 323090721 960152214 342011078 271383951 59219820 616599745 394239977 885410856 790375958 277708940 707675531 655971082 973788732 816297562 212609599 808229039 736513734 788288508 540205495 60588807 313798153 800096204 757589194 739911690 556266136 214665370 736574029 581575054 104242553 42170065 334197909 424186671 423431820 214645409 760178083 280409156 183304886 920856267 590346146 813811433 742211924 299529623 563162345 426417234 810832075 241128527 333438487 563768494 529758376 522731733 873610932 997994423 614834772 795171527 230482815 103809916 873273302 570837202 953921734 446577903 665936816 531741120 125058981 865116139 99157264 202553721 226606786 153907490 145235729 104562403 313682356 16164083 368615173 798755253 698914998 451935993 309507017 45737288 23235437 227414882 532686653 113477798 188611669 943929534 899021776 936529401 611818638 629309400 484527814 268293656 398813561 621865143 211714278 173722165 983139681 9807821 4761879 305745817 279589357 441509483 45044834 706331905 816708929 225152301 281460077 112806963 207813809 959205834 165852561 525166178 442747650 771720461 254290772 426075172 724770320 704411065 854465787 962975160 712226089 970773156 393472871 312818764 470400231 19073143 673309614 977722435 794003803 630795022 401259169 585178530 123598943 747503696 356399115 455526327 509497402 379962148 226178189 899508300 548083525 696756804 402460905 959139574 929991264 583726124 296644064 815404178 833349311 920577714 228402861 308023274 541489243 201733873 631414404 674807739 10477538 486663413 585740967 233761885 984080704 754389635 907311121 382194477 105660405 720914931 659325199 251424288 884408567 145768442 782425452 901845182 25194269 447815492 482956948 594501478 899102847 415083238 580565491 108314487 656593043 997104944 789086987 559888374 275040617 64422883 548588400 658290982 523149373 786340808 360782810 10045733 156295708 905298489 330036808 112832375 625148004 899286143 16150590 363168589 323256127 848029965 902769066 446829041 767485002 334558756 874244741 538980147 600089532 59895053 840472954 210810553 876585464 91693396 994090902 464767131 962412820 959478825 442356105 670122472 711335582 667020899 583339948 545059053 617800747 595617647 9216935 19267522 859011220 600481955 118535159 498350463 719250078 924906397 489951589 82857877 286754776 383435969 362776914 887487026 266299643 681987771 200910072 717877856 216827142 2887140 787413114 586468751 242853381 574293839 721780979 263214971 392687611 382772602 497979353 78002587 78805111 66302353 341256235 587347098 209623015 15466156 756289124 602628401 181973447 878950169 257273923 472073989 956886017 802059482 885982429 184675315 670010930 290365999 353798579 880104430 554701013 284224097 360679435 970922645 981306793 316808063 499655464 553863565 725652709 567243556 842355857 510091682 600461311 707752921 493026002 983164444 818861364 918930089 93328283 428430967 148948527 222303236 474050624 107889520 172686999 864119635 894994897 216768318 679718351 263537230 251113839 980621740 569202274 955863082 177667067 101352585 251442061 68098878 150920151 404917532 61346289 386957620 792424846 537846351 138173851 732700444 589273472 665776765 509602306 929788298 705610796 96077342 980874385 816319121 109438902 230212881 560459509 386638886 271221560 586668814 185295251 688846989 842531265 894857445 685782893 774839057 184691777 152895667 465249581 562235530 594958149 179526539 597233111 670661265 208950945 902249705 577958010 893245021 225902512 885192801 636230204 269908569 997537282 458215174 285932585 18784902 569893515 254312110 784000915 602151350 443577043 739339287 310014232 780641950 492582769 545544652 767734034 195938284 574036687 550707728 978264273 503447790 535286604 345168843 861880632 72506669 607830822 171043931 300275746 904348750 969153487 677601373 866848769 181024766 99308511 895207764 149022485 678499975 478163983 346652889 771790147 382483884 991646559 849241925 786005834 670356500 241744577 291572348 991116266 776768524 671743608 637890991 79064942 955353355 737217830 918606237 153982764 910106206 87812666 943158020 340695958 390923069 155394837 907212024 636904095 263322498 89218435 809775234 42838080 672683735 630261647 344734837 298345661 177550270 892267555 964756930 92294309 997910085 170417480 731368407 463143409 248796763 21560188 866029883 266001998 136521306 467895237 187286817 793399973 297138290 416726947 891738361 492575948 425949250 819955694 271337012 338848732 412355219 672395519 187553752 535191821 950389382 728506552 420199310 947276876 713750225 653376583 417354122 702929718 568375331 504810638 899436948 821616823 615075509 548487433 15633960 76619534 954110604 854148675 509075147 496572989 721890426 709120056 888233054 616959206 119069376 267194909 974965561 744042039 680427959 438458194 2450109 371483723 278864607 765879090 880469623 329303666 441168690 704130492 500605886 605135187 909150400 144900851 137569138 681333141 148982631 41368869 646598207 207311393 472689637 101044777 301486727 850031454 402629837 442029734 181825338 620904739 141689620 425781569 413282285 37579654 920903542 897959658 533027575 402928688 259982764 994735980 469042032 62444221 756428914 969889930 160721108 256531937 759053492 873676730 624802753 293458658 872254430 84354657 321965920 373779325 961619902 542109742 486230777 87536418 710950798 660759626 962695964 428645078 824981067 927763759 533485378 830723575 743232725 607859484 128947626 829952751 284843399 985491030 283383371 687620479 133843242 647566986 962588511 451046600 966294647 887937174 177521244 692970224 369977106 420335726 885347132 83137680 860967032 426214090 345591274 188888086 922005480 647447374 26712336 731230168 476737570 525185672 411926708 853016007 250652177 212272623 70920663 997141211 358506950 113910878 136574424 114255144 360227535 501241993 633863963 483699065 973862928 16058504 112196506 526120020 617948827 862245171 945121840 197216007 993329824 734964398 140945618 185136590 118967281 942304051 541851095 551770292 229538472 723577529 589781981 16506007 831040819 698792608 145554262 968263420 15324707 909262196 696040487 576304445 372346916 277919094 812843950 570996501 663696635 360437970 868827630 17406156 411443758 332868807 845249317 926974813 394348128 363174919 486087928 508847612 80902416 329951697 225298454 598670524 345284857 195094726 601140338 756762543 693304833 163058732 692865119 890618936 51467659 653732709 886674165 943314054 472599998 631538146 726623067 954876477 620117362 825071010 967611043 496617670 904817374 648586973 557562249 719843963 60138174 204061076 198454050 193154830 269214198 964548400 891389448 731602940 328818265 636877917 537467158 653094112 497267528 472066427 904748014 714682712 699689011 421942704 318662051 708245225 233178423 4070480 642769995 818540459 967474950 993373479 538011755 900754400 416916667 293440553 209945990 416310951 487579078 253102162 225896684 259085877 700334637 451296916 183944285 264964445 214995929 341651899 29032290 345637240 942736364 538851296 24236640 984835226 917194020 82972838 602596849 608145380 673496868 998434266 35064489 385789043 406660130 340123253 747632815 61102019 966371307 343855748 494647946 532394099 882770375 446135320 857145824 266559260 651681957 904158574 810434270 424404682 677327180 344812430 369944811 690122894 918583604 860127734 712662413 744569161 683561492 784264343 354525983 147408812 413949084 426032224 365387396 990668897 879608602 563591840 178734685 371044527 626790061 930941162 219409147 393354534 429822727 916457957 164339704 915305488 978100580 220208381 474093247 137919978 202148468 387369274 607161013 106838939 855409075 259675653 348129606 940879225 131797067 261218761 843657099 411985499 27896979 541508268 360773669 435816604 798556850 43682829 21976505 151854828 444522497 937024063 708658146 120340694 673856328 34366387 34598059 920256406 827846477 520420631 20231925 782378714 964788938 109540830 10102860 586567651 180039406 444697081 353723238 28282664 777590020 401230239 45194717 609785466 990854383 354819816 724377330 105567103 916625661 418381871 874284214 624163298 675318290 836990583 527852546 767918590 137097687 105128563 611083996 357810184 751675617 977065681 399381127 371301904 855259557 856965434 735927991 989980799 100719626 255336655 170376314 332588413 679027162 924712751 811005280 824341178 585349536 907280648 291449617 726188736 761281216 723550997 417955169 588173008 866612735 469639821 10639712 194694957 948832512 933936204 893896581 939259681 689197890 206104466 150223483 639497568 926856069 453427571 896553167 604515080 596167100 372571538 567880780 235265629 786299142 260488202 220472174 956041231 222264303 313422486 604241004 99630547 172377354 752653861 727821321 740590513 127441599 343167689 343158773 725121261 990163191 539776455 31506177 798379339 816497920 274771857 319641216 77582083 289866024 860094793 122786357 830174120 44671673 483319954 891086058 51196279 609125164 588225660 254819469 832870676 740896022 716860724 765449596 577140826 237296650 359089348 402055344 113675154 331209818 558766346 451191362 32472987 595724378 480812360 184668162 944969672 273414613 387598538 65721582 146719360 72036652 618015850 125166890 190369521 410712294 12169994 13272142 136054700 723490820 467410899 369160074 248376408 344851111 680237239 323559248 71980016 257993606 197165396 588966638 879920469 985790356 767631477 173200966 709994097 227458620 807184191 439624449 845722581 84657107 254880961 100339147 738691405 633690335 788606760 933521523 452657295 83736790 891813871 910850233 231517151 970340396 457716722 494307420 483032924 955799572 488391340 598258876 707435349 298093125 121640404 622998443 812763838 218627233 678702307 346318117 778923721 982616678 549715083 567566622 297375135 336246637 745424700 566950498 305841744 736120133 241756036 278363381 656562985 115355951 952364970 404418641 316865240 822193811 506897225 992366053 89465175 961423521 165502708 7089055 199194806 28304964 728563496 54839872 255890180 964136577 791806264 529225388 54343941 75931119 425606615 638561450 987971018 450103877 653201023 705041433 493963265 83548396 872710937 403238912 683179589 493563635 162688157 798659422 437967728 845925261 669194895 487017232 99875310 476317127 2848258 923174741 297498849 943390905 162957251 626782568 530151091 230781920 952224588 90708814 95200812 778602006 647098929 450489644 313758930 395932696 790136750 878722688 255246470 902502681 565479669 591800195 157110619 97474601 449530075 839258469 229301320 861294899 421145421 107789434 535471976 576404556 361159301 863882868 193008249 510726060 170594880 787964409 151510054 553670427 336897508 498115641 210511466 938087897 221292462 853694091 314027810 801467706 647501361 301232247 121752379 698480135 872372088 359792768 321680269 506457977 867014042 594879162 727302336 826301138 609217338 525473036 8288274 101467252 961962922 899970527 377162956 829624891 960681868 489567465 941602601 528708561 785522918 82380355 271708893 125961512 268249072 951294641 189031217 355685863 928060875 656807173 598304501 205130356 334353765 398132493 961421280 105789580 121722172 438633558 918433288 239376989 413886401 725231876 792105081 890851062 119970103 19073860 890485174 850940297 583015663 375230908 753128838 53955949 169256284 350649041 517380971 996687049 521609944 857786013 954948012 578364970 796096628 176136 410047782 904127475 870530147 737113233 968157489 923957934 737011736 657854865 993348479 894925011 473528437 866180966 347137013 804921033 187720362 346967257 136451136 904743612 241194574 75934576 912144871 215207758 168514690 34257360 487175471 478309255 792025445 529870084 518303999 792714832 444795810 855386553 259007222 862984921 633293279 291022028 246062248 365943176 941031425 854208737 121182400 16826219 893260152 186966453 288780453 628106852 120588112 823308829 559685396 478207532 623017138 163277780 941099380 612459990 724665004 928487141 608381115 991367234 537907284 139403274 993585457 614357441 243675818 965674893 217499405 895510623 640634565 693629768 677539710 171330807 660283655 354911886 931798665 785908870 68946745 810994969 941664441 798454892 369853798 107240602 861193632 537828000 405719558 330154507 275600229 265425245 321024034 352682762 310075469 739565680 332250704 736650749 880851289 969859324 32906744 310710834 149366250 337187310 12206454 732843641 92031770 704651548 430511638 506997290 894629384 440801094 994592858 809519952 311315251 98951492 180612628 262183358 671818431 491684926 551308942 822597840 265151606 691703241 69289440 670287705 729601974 313416127 620719314 922055618 825342469 190666310 266521024 888240940 665914510 710334047 108979436 815974821 912247738 767953691 154203691 529527584 285124925 782412081 441170510 596887091 668131145 434539843 810164812 684887583 96748450 916911360 578027775 761079778 608143031 589256544 590776246 347660594 897695296 861079618 289868677 394095690 562351780 701281711 13471841 310969972 496144132 590252089 459966507 880556968 792852616 964624150 277847738 194425957 762364876 866219445 267454606 187771926 936986489 20595482 779240048 516411532 797352311 154986383 734852740 64126668 506206738 540022300 805480667 587623207 918880346 125835684 862050715 473963076 541850076 430100648 841065078 269963938 703722444 71334705 118813059 350813592 322444917 423012878 738970430 405064073 437075688 958907246 561441303 303370488 886072097 722248084 559952300 407885166 854828648 976626066 890361864 439766361 743440699 264311749 287095526 613582214 848918446 280933482 715567376 639773024 97789833 390462317 103877876 771692394 732013331 980809522 261915944 92481748 902856323 323005003 761015300 975535010 697797986 956197247 883550152 730818999 795348628 379265850 482564215 452659767 72785222 594227333 551531208 177875949 855179493 46370081 878001060 518956415 336210697 91288895 79100013 975188209 803276166 162390447 381496486 869332867 773412291 10276724 572413294 155313729 818907263 682113229 449912258 736948398 110342708 937115153 555234992 603738656 621674206 954160536 984235271 175390289 810686423 466419676 224610683 935410658 174256767 977793857 198897619 227799483 66889079 922374922 773674145 623143871 340608909 763951000 434376310 613489384 18273834 643288383 114946312 863027174 498742352 64813340 814421709 922643164 45146777 107901358 947657369 350702800 240369857 49307056 926276141 28215825 158220314 492056786 218066246 902392352 826496943 615597164 695743074 100717903 567527005 401766066 364189647 509573785 511898634 434394906 214247799 199365630 498056077 115837266 944242021 394124530 309663265 509522815 785846719 457428342 971239021 170193361 74628825 458645944 942056499 905512028 233648632 70181857 89892882 458030497 427478673 697962800 183617018 271091180 794288989 259016261 935362720 322420157 227796304 818367374 200819258 324535433 201094276 347841003 719596683 566235893 622140589 350308847 827790030 399851961 831658385 110019525 262048997 568776031 697973931 485832075 520520404 710000554 930960922 470165076 480578323 736417278 362150336 307908265 797699445 939990449 905260201 189356472 806997401 959634400 798372281 46020979 300806602 871103128 848247591 437401425 935373101 750893311 876412707 458227473 228980372 79595068 4879139 336375114 962987988 682352771 524097086 113407580 679914294 278575429 430467400 87673111 934767535 953588033 193394296 688107119 71938608 764506649 404153526 3689938 522871185 16655004 245698946 877309702 276881680 823334635 189893267 855046208 507777479 404515093 484820887 890423036 296684432 433456875 734298471 246184264 817154935 807862611 695097710 328379440 632743123 137469958 896202774 484247093 268692613 568889688 741977675 556140979 133856596 387020707 248962678 140923507 626598836 833835274 67859553 62157088 498371613 617829309 163718795 98597938 700596147 578366363 272264644 438630617 167562852 748570653 106998484 788366347 823960305 401738653 115172371 929313747 957374914 260444612 327045275 362865268 682549934 398187860 503291701 951841898 278242976 86981731 503439819 829198645 933547124 745131052 817027457 995808706 948629415 207790683 231323428 812568641 865180202 252119172 530810515 431311248 163086330 973580977 658967405 764842122 915505245 214614804 913532356 935532507 382717297 53311234 272825985 692830779 826002348 434429705 437845641 391657029 601829810 958831356 267065558 635821424 469066171 591502409 355000828 937059694 170758353 860986605 499750503 775426868 823137804 420919172 36954783 635491279 890121725 116614764 628974863 391618712 737643057 245169679 242931494 938064932 610897543 363590873 702549526 867288916 36649988 808033747 812635766 478414356 393769063 353587116 129729713 102653819 917461517 428825708 132863540 164146277 886599467 201927145 506880004 422974241 328711851 773340425 125481495 135700384 809713327 230200501 799205665 132441899 833026927 404875025 15066915 379676225 237999273 640073612 319784724 899143210 57900583 276513579 350500059 375134874 360791817 857872404 358563835 344763750 683756866 803054644 849044289 744895762 927445630 175583351 659482720 941048275 201801088 752640642 56471001 198662300 802300761 523083589 214114727 257448128 535244248 563888373 811636442 259864327 817711080 628256792 76585096 898047470 956740604 367268293 696883644 961015947 10885772 734854195 206431310 593340462 748549464 648477608 839430903 405414974 293591104 46701692 980411348 918629718 804659364 191273304 736831235 249654982 513062186 94140817 16939679 198794176 830605757 667297644 387815588 643328253 783621562 504919506 999605740 276312980 779226282 104395811 786026454 855982392 980403629 690636503 610152212 188189110 162092428 967001015 724845427 545724976 186180816 476064801 115380698 248523095 229249611 479036601 28247076 302020442 543288015 138155860 157087730 969286624 30295192 928507049 914470498 551394997 119393059 443706952 158555354 599027582 678270073 837087616 930608862 858816232 482877564 968018713 744599179 13862570 987298054 74728957 375411342 58899428 243989852 780276444 574251394 517318549 310121652 499020211 902522308 205803199 484897865 739455615 343427841 690154805 992722101 883461933 925584278 831781112 417873762 694482064 322910673 415461885 858517814 315357053 619195705 300149836 268083901 436022974 459266243 485913718 516857784 928972338 356221999 796900234 281066523 834885910 53552195 987140813 459284079 225461349 597841533 505011132 1339824 590136434 18930271 920245579 872024195 594346212 147374078 950819691 85780034 876498028 551432635 261399315 783332142 161917765 119634952 583383043 80174513 443089818 457736789 917689357 377425806 835211946 828418986 678620888 501368966 11400707 967953494 893005117 551965445 307361616 135421363 156260707 253350546 316568323 403361583 973010199 560535992 392461402 903775479 552264170 635606260 778463548 747524053 469457006 607569916 601781491 374860624 928701960 943573603 135106241 911371465 821014109 636421584 38899406 16660822 936871471 949887438 7316038 245759382 56440340 895107226 212616740 712092088 13938635 208377455 835720096 444439018 132537946 114880792 61659133 376488082 12815379 338585425 619567262 510393853 537880779 377804367 557352945 416235155 73999461 744289125 654763283 531452771 88849116 212934903 386387682 224634721 103126855 87506616 517751349 857582119 91968653 523703939 464465112 63675524 358694117 155031089 512388249 576809939 525627846 389366613 950948091 242513939 413962950 778003649 249315992 578842330 845891942 263532356 128390518 680965318 204659482 993373851 293111975 179405054 187467925 644265105 411567148 815238500 768448842 574154934 65605464 992025840 572587379 692752200 494303828 573375873 144208070 189750060 582337773 237838931 99003544 3202634 403132452 855235528 936475474 502660007 503005137 572232359 760483928 976579726 424760045 408512453 450497633 623065376 832341698 736451272 863402931 565050418 344835562 845370587 787816453 374654106 578274807 367554098 427725245 30034897 161863810 753829019 704725545 263676346 372482625 837213033 963288908 184860531 461095380 178053534 269676248 604832287 664117992 907030199 910809834 128453285 606845338 766009305 273143699 25560647 688503740 524361462 527418835 135133618 777636134 953506502 163161149 848616898 841347451 54153411 842113682 641574016 272716064 842956788 690705793 559690725 595058598 753205832 211911168 251291261 225659864 878850438 968770361 718821706 721434661 602824194 744414552 697361191 661217668 17478248 806864320 549098973 13342159 401452911 155238988 126159362 934908828 422098185 14390449 6645722 398175538 687218886 318486613 16383914 907673267 593329376 200519333 804052120 942738402 799566103 287032522 830092803 51374989 301531259 216988288 839266072 602386910 885070467 783916539 276436897 51525818 276150901 404208147 779480818 199124847 371918299 295446865 307765461 532707975 557856531 482243826 923363091 606567471 888320067 312681918 792152778 673953315 934391780 956466038 117250160 881213603 827609666 155378511 100946984 761430405 426492282 35938565 219055212 116496590 946954606 441437391 894351172 836275096 473748121 254368700 988184568 140957025 609592156 31402913 950738835 296494691 847079900 970724739 740206548 42696975 854920998 155832737 419374213 634328546 372260267 719209343 902937168 968548986 444982274 881142137 804937989 252984895 821144886 360053571 956206508 298444879 991174577 859276080 215087602 114109399 219815831 78566607 405108748 963488075 438468715 640014660 89090250 938483774 949215233 420803502 21017995 156162351 443737446 866543284 281597026 542088005 876985738 46770201 455081391 662210209 275612771 507645077 177501608 602664041 295879605 11391186 290330055 600020965 314335777 912522056 805936710 998975385 165217731 792546498 261360582 154958068 457404727 918248500 379744583 434012037 27295569 833783712 705510429 178038953 150026194 831164428 988941215 957625464 530255848 664398111 890808644 655715560 866174886 408109396 70618177 919083362 957475666 48339177 868591742 927893397 934546700 90564735 556003034 283916139 579463777 328640917 944186132 9781049 173853807 769179456 885222658 370336028 91934434 6990565 279732304 640291111 352782134 628498300 489819314 968637612 61702203 368498177 390606934 29457579 855831619 417233320 3971417 264635384 430046273 122217447 985731507 174676432 403835688 567820451 700313722 46050808 867359875 789545996 338053000 946769691 127094473 3823641 546163898 409666158 945507523 801226200 786976044 882893625 831492282 572891612 440874914 370213562 525306123 539503894 128425680 418724200 705060326 268342013 391924917 720620986 608686281 314002772 595535524 883633529 836951294 636843153 895702409 518490876 254284741 469035427 690329516 281855864 989265359 950311003 347030982 569719489 999535325 522236602 942018217 141242620 802926095 129452214 176677269 263846626 643515152 496628064 523282967 265525813 545837281 295541500 126352904 800222802 706539756 176518501 861601613 621599053 150672757 423382115 552015915 755849949 49488210 348580042 521401481 625948626 978072564 219339903 255136923 557357937 88118712 661138655 563421263 241183107 943430737 55970048 712089055 890772499 311435734 223198391 177346584 833275327 371402306 814384804 964599653 41900146 981107949 729260457 840835234 890787904 366913807 751773389 396576448 158851388 10283697 613740527 764545658 914580776 255947306 999935744 171845325 353813334 164619703 459090026 772785853 105731245 765362651 885575483 898731288 148829574 305677117 589888693 407543517 706326747 779293276 833749540 64660138 22023719 463967458 331269873 392822250 344443804 385560049 480604497 493852014 982385496 858109816 31487218 596107437 788548319 963868976 128848599 670681905 350551135 957081697 182118352 215852117 690076940 915663770 717762651 569350043 422971701 329838394 651463950 437018514 540548942 154300331 355745539 210423662 667519077 434362262 867397644 509706448 837380510 238510907 846155332 741228809 471392996 290631342 334713615 202250987 377377874 719308810 497076798 197736384 210959749 691055317 310225551 233695033 860787758 468282653 411604266 25980708 881131698 697265271 395413670 769893024 275370977 619712561 980492989 810733215 40163340 756597332 335395923 316129659 898881626 251510324 308745353 818313222 705355869 939523774 180885248 705802815 432219300 953110853 37744015 31323281 652964122 940676550 11206032 390716517 311531407 205286829 426704221 151196364 286827026 185373414 39269222 401330997 437102 224919783 768793164 75637164 723929340 37889861 572480924 578217696 838383055 895242804 572435657 49734590 99331036 970264219 308227247 461650668 417062464 491348064 570743306 966592430 752265250 652121038 853033144 847847117 120174194 59981283 709729227 574039991 285289869 938413905 651115093 802255968 655136347 543457854 39551368 501447502 440576555 526711182 230092034 180049715 441830263 687097043 898030930 284614016 294662967 469697995 501265498 151902236 755804354 776613477 984833726 382113655 207383313 249377574 619767704 605274855 453526127 668656872 273070953 817172739 46938104 584129197 498624888 952926653 174452549 438455531 483768023 539275322 672710087 669679436 254817867 725746259 782065484 408624092 306304296 484209844 11451555 906721444 437551044 950548924 618505742 542730425 861221264 954128106 554752349 378574573 489368048 138221867 133100127 524470656 598639901 670596650 681586463 386578775 788032450 37908606 609863665 690906161 738101176 194018004 493215704 914315618 216948169 17993879 138291336 72202916 880343122 127299582 58651013 513005081 983787522 58008055 929361504 599573076 304803878 428696782 190572572 623024063 162969843 697982083 348645759 592312223 407671224 505742057 199219119 251250541 391313329 254784651 460850629 948376441 660549455 423089779 603912066 41303163 962027529 362873282 481702129 532017175 409256482 229950387 808981099 166951886 63715697 565797473 469722646 910988149 939689317 100834038 701786837 274587837 490725433 702362116 188934373 765082503 296839984 724833535 816598481 831154070 500438896 282502321 105368684 137051344 6982353 391516556 800533200 176864125 1802699 343148743 457153343 690468745 415190265 864196400 101019934 212955797 667861023 103569959 55883074 67521649 490537205 266531731 296532283 84055509 618339326 567620107 819699114 19866565 269710763 608411525 62561625 747887340 934559129 951764051 957780926 597866016 703076464 692262845 968972851 245382682 873475350 561971367 288755720 969930905 278179196 888728743 223492200 13214282 858009915 730542251 895994541 835881847 889874809 622187521 253992234 518667374 889886966 585533228 493216989 669231626 19015044 194041232 449727634 330623415 159468675 421795544 609740006 438311118 501890879 514449736 728332572 703506908 754468314 815222673 157044830 369589143 975825202 777330916 672680395 482319489 791346345 259816699 615421325 913396958 482746971 245311734 66638723 103466911 357080588 266555568 635781625 470082874 47584023 756026793 380491591 635010929 330546757 97813557 794211442 810962983 27050018 839074250 798163422 925892325 799743229 905429174 797094813 336956260 445768777 841193408 578105054 127918073 583910404 400499738 188429096 792430447 61397535 251042206 658740453 470366579 660886975 716596719 611706266 412105799 332861472 849035167 50462513 169926355 402214665 448323165 662039091 629310894 597134825 486083648 195370299 442448305 554203695 158579251 606854898 158819762 804777791 824496322 789092729 603617912 950710847 802571383 642081086 445158027 766281697 137450227 392265251 553968028 878513364 524822401 738848183 977836317 848520940 17725858 761091359 383602122 610369726 146103915 118534049 225286817 532521155 269143276 660999202 113470124 22876702 500411191 239845027 307423352 204035583 681835335 354883722 198460014 456920171 578270849 52590923 911081489 260631774 643498956 841443335 243662202 616756149 37926861 594826640 938430046 11046389 863774546 850970852 395349488 516652430 654138858 644371918 91146260 957811953 984952268 86132990 848288972 246749911 149342894 731723209 429103784 701120863 335623909 224911938 263705513 765133675 712116704 932792771 725989522 614198963 374148216 200312362 837912697 817413919 622021972 5434195 439535150 877634437 42428865 767957413 56276878 521664072 983297962 514526990 35611731 775195869 587480832 363309118 117856019 307827429 915870341 370398913 390474230 13043544 496810571 238463122 903046045 351615441 439769290 749648370 486610262 586812894 931439964 194889799 785761225 984734771 7321526 914652560 745002206 776161317 864988448 354030698 730546067 263619148 670998805 27374988 331938529 675113897 561998255 797791234 246255399 236466876 138055820 946822342 695790515 332965616 841730010 715113545 28352010 854553553 948333613 828713898 9323861 318995382 232559533 609735233 636071280 996632676 118821137 641330004 554816842 124442442 138970375 679761439 450861189 390832894 484035092 836641576 497270510 461095541 356692810 57625046 718054902 356702348 375496973 677412258 506156140 589210797 133658830 754497989 276183489 802952162 361789386 571482981 29077284 600073691 696565532 569426464 111351986 161366252 378975077 439098090 183977325 666950827 384638391 41743081 802220763 433510666 891260930 459784247 527151211 766939760 131543198 447993082 511398606 647814876 454796539 5302687 913077341 860410086 931603477 876076234 213708139 427304611 680721550 340338312 621038691 992276096 656679859 627532472 824662258 694370275 236428246 622619264 535501971 756531757 989593141 248845222 875621845 205466053 260071319 317182345 195350682 165471859 9298526 595015252 70988168 459854991 25124196 138153047 655728284 379418893 953423790 984471851 688807120 492725322 32547750 77248944 410943236 547010427 442664401 658944600 38218616 935836915 837628377 531154072 600616181 498194250 766384429 159930680 934646396 357942240 790180101 872920049 950484395 262110896 836855356 971326061 310280139 381308751 258663900 995250412 562533887 623001043 654290045 945251420 484776267 627736221 978689486 78620761 473411356 116059356 989034962 696548781 614390378 767000716 12372706 732044622 570619937 685281307 334582495 221011485 327522396 401404641 819153716 886286857 797343357 398231937 862695425 977943472 169777952 402499439 440238826 391233670 31543264 979659116 739793215 387642933 894299397 930578013 104733736 434826692 676516461 654199748 514082394 757291971 425290916 391922923 231575285 932108452 465333152 447322555 395205955 191439950 712592155 369120558 681849836 463113354 648091356 19917852 262046579 73657890 111396667 86698686 780630583 786629024 958536259 903030736 150395145 719800240 31165811 983864567 730576507 112537040 732876936 421391194 9687881 973797910 723893307 583995037 736521232 780867958 473691134 6472102 917000829 840368100 518956841 210445245 442116179 95594466 751538270 606996841 336246307 237620016 403722128 676839408 55482348 118446874 750158668 872360504 12929552 184438663 406103245 313331474 376854195 184252176 937291475 778616632 755367125 536133155 324241999 417553596 31960858 779056127 196635776 708452245 663787812 95358760 84577144 716880972 83159705 589098203 404627912 842846772 824843193 83375573 916278459 774665257 43753555 473261600 644291530 327906914 908693379 609913982 608328849 882726667 733141409 654893135 988883950 203152110 413719978 86758888 817716256 454910889 658276088 39187263 240970996 889380405 608446913 881901858 405162356 327831492 502420476 993465557 901800400 515188237 527878745 842193555 973578680 251754227 542046602 168245083 73371714 933854761 181199677 82902650 438561678 26533157 170518755 471007081 407408589 80559324 514997618 274120830 228788616 107684159 166685197 662845362 728957188 639629671 994099323 297297515 524810987 516225394 105468803 187057040 103846869 729231383 445024146 892032053 618188468 597945403 427500140 434222163 647060242 44322688 112564326 545813945 840763760 62378521 791138727 985141662 628907186 368858232 322101950 909526368 439468917 197765136 919923830 697660148 645678757 570403542 861494842 837498451 913806774 704757567 570884286 770623942 951713960 136778295 825572903 284664874 925588749 689029344 535562250 984710640 740915851 727671720 236963587 323629611 956180765 975057394 677266443 160840046 781957636 545592096 762017096 403971772 159773696 483823382 219400956 758191176 610142813 617059383 26732272 47066950 555323117 459860469 568257542 909135934 208698543 10809134 687942443 935932581 26430264 84733745 859615866 216742127 611412847 510655071 715674792 589727234 215358079 144155703 743459334 972355663 475550667 955068417 153468164 341237047 770018135 165685258 116426191 665080609 142088812 370967591 976880208 674967194 987338133 690581843 915065088 667150408 870919444 853867024 742082324 99372458 614614435 241775224 38624337 107929279 839899056 296568395 461892547 617806388 986521918 325316407 885276682 27216582 945659690 322892676 953969140 49257653 136178221 305488578 688141549 233511267 3237555 65338336 579771245 571432800 766348006 178459580 214498656 641126033 519895729 592398903 369897948 214775902 997750376 331094654 477183372 402302336 965670664 192156885 145165844 715945493 376295820 65369882 616729363 540152366 234403109 712528244 636977615 897703336 244748360 224182807 90662140 624643032 889989055 458437174 539214902 336506205 214255713 586663871 580406834 569255155 194246167 48876485 833438162 589702317 218314171 535474607 29772563 780637124 319116568 589219297 557557942 561010217 623245041 159152314 321814242 468907509 479108190 867271430 321988520 798761718 944237572 342820166 261135142 126448862 791929677 819857032 72608348 41736470 40313400 10902227 159346738 923137731 608113188 114094975 190140398 265482529 391098123 387369207 956523852 685769551 596587960 582814682 249792298 564852322 401061618 159251973 47900692 733992367 423088873 31159945 837573969 507710938 927525434 456747590 965770489 615236792 219248266 966205433 843469126 530291981 27869606 585487536 38487753 668373684 985213919 457769610 68086483 114747858 94398833 798043727 661048756 922893838 765094107 138784048 120420888 312393408 872662657 554918117 789589774 274065777 181201841 342602924 861251105 536833382 719193446 617700693 356516392 48637700 820027469 419641915 617394715 634771796 504631699 450300022 460660988 853104791 274235816 717710400 59464883 314554375 138498752 484007790 413398707 856694491 501001342 572181520 326543017 235783966 122692075 402811405 860669841 277502792 371372985 119153836 188207613 407929792 909813162 565879657 98053986 957482345 514323873 30161235 603511301 657168145 391570371 971203213 759230332 440927686 944746803 710382130 319189842 580747236 366086935 433872102 23862013 322886297 304482264 135441308 966989045 895337499 937941253 189915672 555200296 614751079 847589941 604919706 822115945 196164204 548019789 617971355 632033649 247261700 760736196 320817842 734067562 22166265 904750968 377403586 569850208 951165561 678181628 836563776 386827186 301093287 929073388 402873675 844413985 251939368 571511100 999728961 186972369 361796219 920749621 17075923 180133505 876060368 779613945 838143370 732242974 277236147 311789289 648859946 973518909 90783908 841117266 9276305 592994066 837549685 965094929 393103200 404295975 954619026 763225220 287234972 386803760 403996528 196101723 631337908 246623830 795826521 479104329 566372188 304906297 575014617 840748642 712820502 713979893 264659573 919483742 910701823 619849495 638529462 705653549 145371353 628330508 866886804 509836876 151671991 562026840 23005868 989028204 379487965 883338267 299684411 659213567 515105572 374887314 546837535 801379609 27441402 386402760 84571921 593916996 474169830 76993397 309951025 336483080 801416816 451269421 78610702 662355611 777337437 100829272 870628547 374488983 414938228 32751990 494609871 641384885 471875839 43153312 418560896 28659741 123898681 942510728 573362301 298753594 352045797 161773447 982549129 236673887 950957742 414841374 799195432 172236548 44565265 925574217 298742918 38870352 176685466 818597845 877465310 220350053 486783608 958854530 97763165 879809918 388889902 280874954 82463254 925806967 597736350 296533341 440007942 990722744 435038379 900465386 742567447 255591156 327878465 748319593 216344201 960283365 430410360 992135763 45934603 157803404 976686981 834692502 202817452 734489181 651091707 11882939 857422299 335863415 650331309 276737752 584334617 675603451 507848958 116470259 99974134 260294064 270276490 670856551 779257196 725970953 571497245 189890055 319157348 219412500 800409934 85164412 251672171 574604081 206924614 289854113 434144919 86807 950065285 2569686 431281790 601071412 831585103 761193766 890461960 572490240 859559640 647178748 27876029 303264487 359016117 935019398 389094912 119398709 129319670 711840877 852308889 939252362 122881785 821331569 585000520 390780565 502650321 251647959 715265232 192177779 73126738 262529053 388536368 457874946 254235540 955440630 362066130 213630452 185989766 933243403 511202946 49648449 822562950 806644689 334137843 558880943 411639334 106744182 829932567 476154965 765772535 15917268 414574195 505334984 428728310 675962936 138208824 863442040 439869445 394389957 94076471 445492807 164091748 423710739 536521354 107712081 1846729 90155148 336416012 786472573 922675355 930263932 842045439 265656597 786812921 674827358 669220932 931122328 982098801 291383756 512696440 821111903 57069997 184184613 145795157 85946717 42697456 20876398 642542003 519682962 509845969 483049932 947475047 112693651 820976654 428083185 42674236 713608441 754517 26377875 1813193 845727336 922532405 743380069 183286438 661329315 113786935 834315091 107477602 114592511 689244441 571774460 209613548 997349821 138064639 4418990 541204806 342818136 138685112 851642375 77656593 392513729 272707039 820307648 448524506 936258318 371449039 306844223 734499683 578971620 858975940 576466407 201943951 850964005 125309113 923838499 350610103 921038658 406532343 335404511 779335008 856565219 436886470 431086923 291418724 790062568 238716016 827415063 292634419 711100656 847741084 170412910 830447950 495055483 995536207 91146578 367152812 829854810 925070363 598577219 923910658 534545414 878567185 577910245 285404591 593650967 384562336 905565353 203141591 917740975 531373276 238798357 28755250 628772024 385839113 510837875 22883140 705388807 554717661 794408694 194654554 612491420 424723635 578134579 141834388 566654782 937875918 721522500 914985611 829043718 649520925 205021211 305481957 574761969 153462719 506438017 880186130 105788719 538649134 610619617 393835888 850022595 950450610 582225878 561676933 431406174 347981401 941593599 736625879 414246390 593442966 950380985 980380975 688020063 952736966 353157095 772744898 671005725 699705344 848518908 425608503 214872779 498300860 348554327 36811205 900032066 585879842 329929488 373780117 705090865 896418719 581862551 904099661 52881554 265807482 881135148 886136863 652805793 639364945 120267052 483745854 213228069 957216001 922599994 582259971 21103738 83896979 47234849 593627515 597717206 302518334 515312502 912045912 281436965 798489433 600337780 866015859 970068059 141077809 861756755 329829019 54517022 9058816 715260684 519972520 416029361 827324481 405436924 936504636 807741290 437307748 779008542 227963273 201139394 443001235 735238061 232879428 472530850 282799429 772367528 167652737 647744847 401003443 646905775 675924000 35037900 983088043 883049004 478244685 155522076 250880716 763776559 534227974 742763438 175309341 653486140 633500972 548363292 844972479 885671900 141834275 504592980 628674837 621227559 184474384 9743729 524392089 306921537 87990355 234116139 392594751 21167445 250600083 330059501 189859582 580153489 99335907 22058397 61356580 284701023 424677009 101848132 514878555 900109386 418751088 181378284 251707708 496432440 41986285 985437619 397437367 5023389 733312376 251341134 960600839 309944892 685099479 669322711 853592299 182253718 105288610 51744359 637450589 944320789 940365854 866178921 646774427 619871881 23721043 185350689 4541869 108255549 498691462 868050394 301687044 298302716 846847313 96472831 27162864 165132886 210001772 284684801 886201783 136561453 654987518 791592975 133220490 749311052 490741932 42830741 805978056 287182382 615171913 742566381 89048891 857602976 464314659 230777100 236004039 700164673 21937372 368844763 651977971 603838890 105228763 187490159 735080648 84477343 774447924 987336241 529817918 726825076 509734599 209731915 688481808 938552077 150371406 439024083 583498364 70300789 449691525 677678362 237725192 974123134 841918645 397391618 62766851 780262083 32731718 825209318 354445868 733858464 166527629 411324293 13153809 782509210 763865417 354201788 751535256 623370321 209005890 180355361 127057094 811369163 223195178 815527552 586174157 853566894 312413082 823120337 661687441 574670354 139289456 489134151 986141870 38723875 145029065 270658861 683408966 548378060 641372046 767134794 284596507 179932532 415964343 784774198 597172981 517807963 109619425 810787435 480437874 545514452 255451075 720828710 404151232 136181086 912451395 333961437 375975024 640818612 198870256 900434230 208578688 16852115 675046246 485032576 370932735 532770374 597440137 878689870 530804407 683352708 645580582 324671952 897646865 520543589 374084223 778094946 195459500 241493345 754472911 298754425 46633257 51394376 941097135 719638599 999082497 486773331 655660455 646815244 865706591 894014135 695798617 693427959 905486997 908155893 877730466 484047049 891818959 187884031 937396095 59303157 175156679 90224535 590011198 502316719 641211677 182634230 50448558 602476197 60473190 121295731 968125796 867654768 855298257 373064225 701866811 110466050 365925422 726465368 409081003 332127760 964372781 911328733 459248025 484805058 618181693 648986935 483141742 162207732 81626248 389988506 220498154 178632195 685095245 225762563 25269002 773397992 239124712 795180864 22202154 513205913 887767857 813594803 223875201 995136077 725847567 578740232 411476498 198438988 245625277 761462759 820999574 852691291 404629818 215166020 21912849 836613351 232868140 542962805 813868988 313446931 779287200 361117752 121719915 605220166 646170934 654575680 697270532 739654048 235366827 378952457 387346310 401915508 259261162 414065176 207764419 892785296 595765034 304331573 530401780 577156701 463172553 613574980 533486832 237384900 569495919 814314612 637754753 380094741 442173995 719091373 456531489 375650310 719598286 700359642 499429625 489283683 364584656 766318850 275904678 728055140 894807964 248017571 782848461 67713658 927544334 132992435 432207513 87623706 320303546 232779007 651559568 47346122 872754657 89805117 164038584 936766234 643718919 608068270 169802225 547832145 84977891 510094018 240001291 184161151 279746874 114523676 465699964 332381108 711924998 540917073 741549089 173556659 819205088 226310749 333690280 134578587 874722838 531993182 143586757 616367120 919596850 806070782 833677933 185134741 306585631 398046004 697377985 229344131 592480785 986412261 678870219 958854957 779691787 604334232 355355346 953467540 810583764 858339587 763741206 918153021 468045926 907488269 599879472 9329475 89695139 953657880 454312688 532767336 864104754 385497727 744718528 162907766 888681969 205306060 930708863 758878712 866318197 840261037 441882010 766575455 338213850 652258118 699791279 915844691 540954375 439416023 485815808 310472930 314484433 502119228 819270942 885783824 397611256 520165430 86969543 309722887 728757825 354622664 900744965 478393149 715884444 738105917 973860019 243564200 182583866 195249523 835702309 223590198 786829705 193271973 647701839 219360156 181851495 723265104 47302138 247714532 764679310 917780426 855902449 883640766 102326205 598941175 275436369 1036808 897280832 232773605 829755320 237294519 778659477 670891976 515583926 576758172 788718432 20500159 358487421 759948790 566505958 120827219 436409751 678526228 749307149 647578166 449460674 167215599 630933901 613975843 208220956 361863338 570978242 448500447 250832114 617334613 363073348 790045895 241279232 363176069 594567366 718672987 250688536 177706790 887901254 868005150 303280905 314119004 310473591 779492602 497048353 359545386 331641745 289258511 646853980 909326305 783856087 856266259 333048036 37070232 46442774 72292209 217092873 375898475 56668549 178763571 444233245 682676552 142059295 657599149 766660689 352865160 966084275 133232475 604868551 780248911 167449151 571730189 862097287 49561014 463338825 558204594 308849052 433371841 369876996 233990084 925893449 391450564 385579491 578322075 420896576 759272220 76706257 772965768 663279937 579487890 894223708 366168177 117755409 692991141 255335073 312508609 999973987 306211355 118611367 225021137 447863035 737567538 243656520 568998502 953683247 73870490 426636140 133154196 906428531 923918712 175585520 578961921 921461600 893578877 996378881 76243824 768671999 686681878 55632896 584308328 210901812 745207519 827855655 518206161 244920841 722954332 49714012 74467376 256539603 696277355 201941327 980063440 299179183 290589063 802375559 931712062 949656548 90717871 824129340 264679590 128779284 792213249 83801557 916956344 499062245 423507536 254913215 777569884 19816622 366782165 641542429 345486500 980553682 170720747 911935205 307480447 743945675 388013867 815073308 432149672 68053588 4518770 332181129 425424127 39397754 906607328 749678712 794080875 907478946 361908864 434614239 310421503 791588991 162301111 176050858 564756176 205053809 537526517 39364110 445900959 472551323 612435562 486142014 551669949 931565870 605736076 683136455 933397920 556784429 173302831 218849201 931560804 620911970 938429845 200481195 148385722 199296398 867106671 817206255 170850958 201898696 518677525 207424606 298168884 247588222 396112902 245793622 498562893 891780839 503836098 359504124 562937591 598215299 128589139 102697384 387598404 156224112 815240959 348631191 197457367 957988426 105231640 762584701 524955513 526444869 357655303 298089747 380984412 773996485 787779780 589772393 128621723 924031209 907971287 359463598 74004658 917767472 7388324 742101695 168881990 193994844 433467808 359655530 717114321 349070506 128532033 711952520 72764412 563687193 25021815 340660995 973785499 856719564 866586095 514760608 242492662 71823564 284191533 886223811 293437676 783338424 317206227 488144892 844762499 764365643 394198578 423166892 51789378 56375046 323263421 642639941 634112546 716756511 487111666 994731464 296286911 874696741 710726840 108831681 724002587 791422454 885944344 540779522 673693305 261333717 392855173 471696984 789310077 259278943 90886408 712797578 670059645 879439841 840880552 609231691 984738999 854506995 934796982 762844817 577736315 53469655 471505386 683820500 17125504 708898389 81959869 654959297 547580694 796236114 711752418 205210702 597208485 531274361 698653343 27751429 653863118 699747078 645106947 905659200 527639684 597200711 936982503 677513103 967528784 362547531 860335514 740746409 289443923 328511439 562743916 660801758 147847553 713473588 292500748 753255449 203513526 35698089 648514210 283493264 507001965 167921078 311169993 92310013 160423582 874971993 650571180 93113750 124596941 697725727 660574493 926745641 711161364 603049641 118864192 929066747 24622759 315500891 134289282 328641199 324057031 298110926 857247934 271837487 534450443 287287902 113445716 2983187 790147655 988950089 792273091 883964707 818224288 955409996 529944944 450618695 348338731 774118966 430211646 26564007 511513669 283226744 731053645 407034672 235234049 356142014 394340416 913490198 499918931 496536952 940017913 290075337 878954624 605238302 97770540 780140237 389313606 924426001 615384891 570228991 649585252 212704938 42925866 787126305 676348615 916100534 427181988 449032972 427135760 206009951 5883699 614392928 638234924 203139899 462560019 636597503 401380093 67939125 816783698 951641783 459520387 806171675 574942855 288450277 986041892 995672707 780460706 941000736 988168260 232878961 183439370 786245718 459133650 696968418 665343222 981321619 574090940 531616648 320403704 365051829 627124648 507554704 970238207 668809430 961614659 19414608 260332536 967259822 175442224 848189414 603287427 322645457 99927492 831402471 268982994 665328588 287831207 941033184 499098668 808828515 333173281 561365776 709766918 191626353 611134505 380588435 913621327 373025603 785355932 883628754 134237403 47117211 523881030 387041423 619794281 352685987 941510754 34795910 509521489 286491089 163465437 438804494 153947569 690021872 730072844 814670405 644974118 964659698 526229838 535182146 703163639 328920171 466666343 142191256 418391313 664282272 776912268 361970893 671381331 786473156 318624100 694471372 219259433 368711357 225983619 182030617 845463606 178566565 608290364 938160681 27883304 309608183 942090673 692127129 650262064 276946719 729706203 141339643 60529427 69653715 669634308 730871234 805691535 891182080 366452354 321611134 517238113 37723525 255373695 836058351 305330515 558926981 829992936 156059448 229840423 847078761 194445351 422847909 687107359 913945143 325564631 594479900 390532880 137437866 68747248 170119811 290914325 828467848 343288581 88765673 654224918 32677504 537459668 798773684 227978795 31231652 200053294 719254700 535951297 402710332 435962531 557014239 331613448 599243730 797992513 476649348 3443922 257583603 571689967 534276576 767264043 722054356 974459335 86799578 676034186 439199801 134016875 197751494 477650389 445692748 620426361 298775195 685806248 595218516 776149785 903525415 390723931 303637119 368791465 123480025 793369836 70089568 407821941 958666875 85415182 378985737 623421953 8717137 664086515 921807240 93926820 908117785 258288828 917174335 218820364 731187455 426218745 195220461 366732210 525706093 996052370 999499548 459293464 401503801 290801138 413112259 737666990 605329442 222755182 790180305 358723004 611271990 19258733 851246087 40581373 426192573 443454104 148754926 39391999 880459381 726041473 355598024 245191273 186470641 842546988 667493205 468234683 992407203 186954391 324965745 326918674 291191331 429946205 81618094 96014173 181611107 528756040 794702831 838691181 222014239 429049263 687511361 881020870 336117225 953478111 375722702 92999040 330529785 103506311 562835444 538238466 521948786 460553047 780201693 404627673 771222209 970038195 366332580 687596461 946696897 866896475 337666808 913408518 315360813 246439574 495680103 184265824 389536559 148420065 567484462 360617810 175939706 506491756 866939424 350524147 611912540 346849877 535597212 646573523 321854665 401691103 698963761 338841940 733543671 128887279 326274727 553299886 707927581 575140491 312798825 677562782 999849493 146971215 282744448 187172051 362564625 727305267 86338468 651881487 26976506 371435529 582509295 602940552 451082037 113746315 693236444 428724015 756707121 454614092 236133974 163207694 826407425 802395595 627191705 569967042 644672147 654365539 168714482 157616536 730691429 284495049 23713092 505117537 247593093 521183533 723350601 401096074 673392581 73384930 863583782 561860874 154279762 292836068 652473614 115929198 52368574 937734184 944300792 187866014 713611013 227708650 328113853 239438618 275358552 773699080 699819634 915472083 383219414 836180800 334174136 30997353 713596175 813227721 420886925 654864783 771806460 685627307 510646269 181492712 281574333 844235155 787632946 588698705 840652429 641317896 782365050 874909265 348753129 944936522 410417092 282350878 190562479 562926839 601579914 740096644 882654288 174976431 289732317 13027677 520139282 918256921 844244918 91143137 61589313 131913289 36074468 750780183 799212963 907287559 750648816 630962335 178183383 605943800 822151255 372175328 823188478 607531466 83639977 566459196 572302810 320461922 895928978 684509204 969370634 226224547 763979654 152014981 701128429 177634187 102835068 779002734 700763607 843251430 739089415 334017656 547907350 926751082 500126866 475864799 37093712 276810505 747739730 303404416 548215489 903793554 622304538 874349309 145596670 89247352 692748736 438260454 556947148 539792688 406378876 418507668 120360076 193751480 677451126 324288853 325638418 363004025 40299666 307078939 810828099 610058647 166520884 580783180 195342461 573764258 631314808 548255240 632350467 578146027 459486861 840998900 672126739 176574964 951746870 769546597 71159243 542525841 774063118 152758046 215003515 864579454 865829462 450511863 147908671 338366498 931547825 144836621 173900625 612259968 241790925 14778309 964162466 685777116 918094837 82113517 169645344 74952124 737277842 458129471 454427100 937033821 580938484 457647545 475398215 249113111 65127685 152672504 780445596 841231970 138583299 606941423 583805305 665387635 685680202 199356738 989830658 284554289 948993860 73959244 586081512 337053043 917293447 87593045 761521425 608507508 896560156 758190297 393705252 477102169 618780430 267812093 350822585 816770111 854668095 707640714 261645552 699097956 917226184 112771526 393041083 803261293 11027046 303166423 12479794 860852757 876799470 816211582 25103400 144144202 956677078 587695058 605045865 86366650 500952407 583606502 836922507 478428248 408488160 501132792 379372322 306371283 567443221 161192949 560631286 44812198 685947163 158412410 680104020 753950211 635628390 252204907 114047264 229172909 645347761 37657391 926360174 92484676 622294268 86775622 948108715 425483722 493411566 729739030 650669175 322483751 866733675 88250325 916186344 465267713 666856151 221482963 12891740 633743893 699198937 545410715 544257008 37481112 541052179 381380165 292132460 591580553 729907557 297213576 284747442 142667121 260949470 207380327 503428671 517450520 489994979 812812572 455199382 535027359 938698421 931450814 641287815 948287347 54150294 358429297 628730684 721373675 173558373 163890356 235156931 604391046 659148887 701185876 985277870 431518363 937919533 409944039 852006331 840632749 388694773 281341692 87539939 188006185 153964110 586153570 110973088 448811570 288235563 989235793 629504668 556277869 295183302 677933582 531819407 108107983 146929341 188116823 242792265 416716049 492662198 223171194 820627505 303401764 418115056 47270350 756591821 183284971 777098238 265876718 584233581 578542691 670896383 430844449 932658446 116415301 886598952 704286235 293887447 320340210 691825911 256895344 846486786 560626724 213514334 53837080 622627875 693524612 397312191 258874523 380531954 246407273 148244228 958742901 944758359 381828254 729743156 171743452 830726050 249198440 152354205 30996704 268345308 848475577 768093713 222787943 861576667 229988122 89448610 586650275 505686042 759585265 228278294 821806502 136182242 237157346 999621160 948131763 654170397 40998941 408183392 988790870 520092116 656235912 911315193 875969364 60579998 353748012 21592013 559092507 158912820 603380888 656013401 101291028 339147721 839888071 286928471 189593578 842034262 467125902 618890605 648975240 264505496 997891914 486286268 195698558 776061357 588146774 161043948 857227130 690483385 589196780 739513450 457278389 388587120 129849773 129306270 392 600947970 152277103 517386960 871230621 229416496 79335315 474117111 731055156 439542233 304720437 243396699 437049920 353317792 745648014 810510996 574510612 948239123 590584931 337138815 728934019 303813822 878220624 830788266 265003906 98646485 85887583 26294657 915203845 942074646 524035507 114012707 139492655 622935077 229590662 496578877 373699913 737453864 190863280 350105297 351993320 301498501 106459102 111412185 123113634 985130812 631454194 87380543 699741184 853128017 804524994 486037691 924738333 689832330 551025937 338636179 74812697 287038223 214165264 496884575 559933494 101990719 751959002 673011174 958338909 827133595 504771133 763131993 503055485 694623029 893424369 855852326 994866252 798884474 222811223 976915549 504322693 345920075 240038706 332713445 50021157 256919742 789081968 837269689 63244952 406915981 577369949 587675096 129561720 434868880 26300419 154425994 956837135 207245665 16189646 133500227 665459976 17254307 873674993 761895418 280352383 210921347 910161582 719884624 654488276 794365695 210634643 333345090 830317878 800144384 335817527 60179862 425765862 930267369 220104236 895735955 674241344 269321094 549666168 682571657 174068362 817140254 281936436 980069081 926249657 161929595 505292555 401928271 124334989 738187445 370175587 41191057 138317126 926194898 755130588 42507472 70752977 649390741 19263728 628673696 309862278 697876667 135676590 206437106 917586226 136339204 365316208 444360400 641363722 827121482 590366141 176605597 817214308 11003354 618571159 227792485 84264785 411397574 708947005 538301318 891920603 629141630 597989401 229723495 903559933 434389100 834277463 185892007 451018005 122159428 670438329 435115233 30880990 876439755 420146586 977271146 964980689 149051492 592414137 293311294 697143330 556647416 40224440 791996462 468265425 822440839 572852912 588483896 981411880 563806141 777521749 732417370 443287789 122294584 742668817 75484444 853198309 602013657 844206534 129904763 573332962 820540829 174673104 148522300 17382527 8648039 349229207 774611768 312620033 200008384 16793630 488277101 310540671 470565948 313846909 287659493 45176772 767975786 572145105 403863063 561048246 984635726 332514536 621047902 997282244 879355192 82166698 969651425 442335031 533773159 500542498 251848298 426659146 831906998 824549084 212573436 595715911 997165121 454752615 957439477 628925223 812470044 471537353 933428491 170740579 574887500 68836607 433791185 430380937 173391375 552845086 282123760 711374966 786777690 370408115 741238451 351207131 346049941 364986783 552982019 453244610 398517477 447104852 953716786 670672039 800835282 947160333 372233872 416397737 653172634 433256809 455036770 573606754 688039599 166569436 784408511 67351768 16581836 189808186 919786319 20577194 344495582 187632234 738126662 474877981 31207755 159920224 977143627 925936205 460443241 4403588 710811434 222853235 631117485 726024098 912016297 257589355 654226675 214879781 306231176 781658908 890369588 15849225 455789522 867705911 953023614 540761922 43194209 894739138 864463173 68781849 738698620 965847733 762506706 51368201 804675084 208704361 360592510 493620924 333207332 686060874 459194218 500726331 372100928 809312138 99560694 88524232 194244383 11911160 629779321 993318343 269128365 593861484 788979883 37579234 462309691 501157916 809925888 929805723 472088871 29781693 951871814 868727362 155170432 906310901 102855535 805127340 724751821 318777202 616758517 800042552 893740532 48893964 378850673 831969698 574886921 251979450 443848519 800077610 252540039 633172982 848187104 326162211 863659518 575519535 629834922 928322510 7177202 529897491 18876659 545191200 85410744 112533249 97533199 663901042 10632008 235105873 456152833 555250314 636841193 211782457 819567075 305054161 511921757 995803842 908388891 214004714 186329429 423556586 776569972 919938527 83494896 916174534 607369669 479655952 801933920 202266970 742675454 971050172 499076311 85607862 317176962 877511503 841185527 974795166 796402899 936315113 792219514 185432472 543206318 185011140 397822315 751062487 817920563 123394693 568151135 939353198 381305182 623203916 345456987 762119361 86659447 650955567 891884461 620369380 689224155 223431725 714412904 536455146 424825128 64536129 81957869 462381521 271856532 738515464 213806419 291950530 394582986 933128509 273039597 705030400 107172934 909322369 677982884 208307774 704879728 584147627 109938894 627545768 447175970 369939654 221003833 871105705 778448526 771232963 481853577 529213446 359198476 168834608 924791624 601234699 592699785 906064619 812481038 498686709 260973978 294646463 583166158 182465868 554463807 941875887 607512155 948659806 814548427 932379382 494378251 960703550 220446364 485675963 777887078 728706862 796109833 37294643 712439149 644838068 402873949 321789101 963236121 446137694 788597368 770213573 578179004 760499734 79879613 370062289 983993070 220482202 840423274 203320701 692716335 701565888 259803957 163383871 906076773 262077027 223826194 883748860 305048671 707680876 533931236 833908302 909950734 365689502 997938022 150959143 168059283 571914408 617687985 303757620 785064973 483473051 935307332 658991679 872187136 412428428 548941405 100317725 857859031 544829649 994366248 720947116 349996649 769802474 218808735 797652758 190329283 752577560 341677251 835635410 135539538 895066501 785494723 33582301 623738021 75303261 487665498 305704484 204523170 906620724 170389964 969851698 275837487 515831824 371081094 261703423 889018886 342499763 445909167 5028588 700588336 427032207 322353756 996428845 594686291 472194785 864760369 858378606 277922252 111678565 276753726 171359601 456606914 971819927 784134413 111202821 930069278 640699415 103115415 479052156 615415398 791731548 974483345 588207992 9715586 94736879 672968629 559684809 902973823 361284023 13417992 504922735 99769435 813090440 739894673 201566307 64839171 664930366 899631413 793343567 902807848 243674940 572301545 51542346 814602126 468733453 922039263 650179792 962401143 285085855 630362366 203201975 635396694 291133128 757853868 836190653 575862081 517109854 44267854 270158822 369268075 83882247 110350374 727827914 718301099 263460076 5431067 777609777 914209912 719400634 265404793 426493716 708370028 829141150 837359899 460424468 145511979 686520636 112748992 645733351 416136050 159560185 617578364 555445594 119422613 333375520 195360007 563891297 14485318 607054489 181207752 268949853 391580230 943004506 694149529 374427791 184327610 231808690 252862082 291513842 717736038 625045061 939548524 521429631 730554880 538380466 330823281 946695171 719151524 856546711 8434060 791174271 866496684 39500465 979481455 188707997 409962549 789385730 96156367 559102637 531538048 924048980 997943944 842432459 241883622 124106006 718053901 203457176 493756543 837892018 950828726 362273093 101736398 634173588 330907251 823468402 435528201 730067857 906609952 295865235 91531390 204796324 299855038 177408733 623968708 900092694 302336540 183913121 346711240 172222278 351273635 469426274 854007129 313117475 305298950 113099247 431943644 278338364 6546543 155597944 90360594 367260196 873787663 517068836 18108196 852640086 255905807 682632661 827534466 253946818 537203973 372793567 173500235 388447626 882124861 818475136 764130597 859495943 167432290 714072587 607797757 358251777 748472419 907646619 724799114 263952068 237219334 233427663 29744803 615147444 404908145 720131431 541417345 313817338 76627870 205199293 725105801 909699758 175172073 41242231 424631666 461896909 107005095 197597971 491864932 945662905 699692400 520173718 429491127 544859579 117215595 159535307 866712599 634013615 911132077 926777958 136408829 213397630 656793396 388241436 104647278 585959272 867370746 618428118 161888585 931261264 797075574 702453547 833323505 546892872 660164514 889559210 311190108 417696719 780085355 44553416 769778200 779801414 621706115 483301001 304506608 2144765 968005864 43117129 680728655 722583938 492020470 786846987 1733020 281578793 335102725 617728333 794835918 781268703 900999558 573353891 720049009 524417825 605407307 79813370 529195900 487503542 429210147 159432003 623701134 336687238 493337763 871201431 981198297 85455994 114089982 685533236 544717532 819670758 393615678 851631809 186951305 832503526 862559827 272341890 794273926 580166808 685654017 985690263 107514290 889432156 52742327 165669069 72320555 121712827 108666000 361209324 983956992 838407420 86807576 215076613 491203636 92137488 363412180 392152168 717537002 619412511 190311853 652392677 381349451 151926836 611879106 796974857 795656625 809431931 105066368 186105496 790881823 281230017 750178460 172486813 847035119 170774894 397020343 540986150 446689576 971029732 272572030 77200111 676619571 729708455 228038722 466322401 318254837 271990962 410278401 23014541 758251773 936114983 181226078 278853410 571276732 514020414 142951526 452633218 958641915 404826629 868686538 769667557 601257132 390402415 191397540 676874921 144312103 87825556 227626172 754434364 534769580 334791199 911176799 774635234 765445947 329574841 984908897 503707870 335703516 35219528 614394884 531086005 899263652 967870125 430314382 773422471 584976793 513117685 824201401 656774264 104166427 290755431 596211915 351639262 386057990 229589738 668261907 19600536 631291952 247978579 502771632 704308613 842247155 159279461 96145181 921056918 697803669 99317784 669464557 604843310 1734304 798023809 702914225 287635029 800985492 688651470 932403690 176379685 308649413 766045264 695984834 736436144 857901530 919616144 801113894 875626609 927406266 572800508 366936114 422614666 416785972 292716098 354387306 771031268 928191254 372026756 955112847 578850280 435259712 714520427 210776314 177725647 62536861 322531747 874127202 166066946 188601796 750473262 486154956 260096609 182853619 828652250 563798719 879602068 846589922 504248518 947913609 772901916 146009823 233225535 876038007 637253608 928263783 407941626 773366744 551993525 270043037 743461133 608264723 186947142 700397840 985651606 468641046 646546465 126048371 13434528 542192675 431997251 243029722 145132520 828568961 380349094 838520956 940602501 216863200 973861796 908471342 127381353 930716772 418073006 805040392 7236935 913497953 814769979 15841950 830623295 32415329 351925486 918182689 338906548 993767861 283822658 666656481 188623035 589420020 717980694 990866119 91603804 685573907 795522185 525723046 628986724 440152497 260271691 23106081 521641736 391401652 899132242 990053335 739896260 84724786 915376636 477697227 629973716 664850957 630610682 778959890 373352756 105426055 955338916 716889424 706261114 824151754 601019740 268495107 784469400 861593073 424057378 553264891 394022352 979448527 939128344 282439776 850903684 87647593 817912073 489838041 648984712 665196036 345625141 254213527 334398413 850316436 768432523 126448836 426909079 266298098 845616245 399960049 932398534 929506922 347844441 782173063 650549244 860052731 302503744 270038201 967218839 814119626 45624194 117474261 68743721 151779490 243366737 328304696 437624545 949324931 833474112 318949277 891507900 66069556 561503695 723637628 463854824 355691447 51356099 706353502 906041239 572719135 179740428 285947131 656942623 70011260 221049938 41949933 808540234 515752992 970494370 218236532 77756776 25510135 663105668 851775677 809195568 548517625 825618102 480952505 881445506 623407774 419043205 735823565 734604993 432619354 34896400 935607832 480357762 410002439 703700254 118563732 139718605 760646181 581602706 766931066 226318877 750631823 46412690 774192500 578727545 962687332 65410241 525510480 634184831 86318856 756682387 142878790 40293678 6420887 774962152 418630022 617690775 334443679 46881494 635652412 960822259 702222006 280790560 360745234 469159515 823178414 35494442 785795084 304273593 60467898 274307176 292619740 634721024 207252877 738927314 9222652 679637657 383865894 75237192 341196375 787756137 46274746 599578198 388885274 205748213 497630186 691415055 54855444 262480418 754070196 359484347 155384666 455241992 370756762 52512637 508601710 148727531 325142039 290312111 462307260 492631125 985393630 326602946 398652351 250601804 214171818 787540778 337240490 94119008 622440670 501188051 213372350 404651803 148087394 105808025 44095068 716747410 899419476 39616069 241094510 478994206 2680185 483968978 365206104 244006782 552474164 758401170 862451310 857020942 84914971 465548750 136550938 931600274 502168028 872494319 410838411 170712695 437683310 114103423 964132237 901731786 252532404 550689379 439861420 915044911 181431041 770918840 351330966 413498775 433675356 293791164 767747779 597397960 634857500 936805250 540558718 213184440 429158471 582634917 949449279 328372195 987485058 644670524 635867271 955235330 106772085 61120806 735334254 167266018 904552426 767950499 322358246 389097683 563437034 210469347 18854188 879125028 738112958 672155855 249537710 27693986 646172725 626999571 395970061 843241627 910326366 943731980 111176062 278253701 945804844 945695235 333999904 155251920 765743264 676787700 553873578 841511140 52155129 423068438 301761540 295040135 361062876 638080544 889638736 430931118 101967830 906717480 951387463 364959496 745672581 494157521 787810863 804340003 86541785 558688411 296067446 299283916 177452191 237684717 495355161 200369883 167496704 534806016 951865572 747716521 533904304 410730968 522312993 571176260 591794764 480203499 206605657 819640976 813624998 890341891 755944055 694879357 143571089 402498185 14450703 445590288 340414553 305803395 286709058 662525617 940059131 765698789 200554404 561657343 163637318 958040832 820335765 849033943 607872381 276783130 961675817 34063361 518802257 60049828 201935633 152440990 779013938 648595244 540831074 41763845 493439840 837349610 213018244 985606872 368206905 937595734 30587856 7642018 98835696 462538126 294270191 534405429 895091611 50377357 458324672 842463006 191140338 959523929 629729932 369003365 230231838 920187380 914182431 309296648 637983947 411735006 504175517 280975915 721151903 299124557 597413785 32399430 639019419 206944663 130885427 762688862 145597090 335234194 71310752 480089708 305263525 91539228 269072724 37169398 772943785 473772318 961847374 8488641 27740840 171058665 497331996 158985631 801617479 979240727 53652429 874295581 740062143 381300116 589232894 176464297 612021029 83442867 576494057 688321130 16174352 25836192 394349145 98722130 986989908 541640803 541875373 561319377 893042109 633389900 424865561 365264279 168609240 560729617 811694408 17020485 979267935 357370933 153802022 827092988 694723614 432367308 286214777 343965779 769336778 125673017 805874018 96942180 199299354 298866473 801395488 660074108 251017107 311856465 17544986 920335394 295785664 174565321 35523284 529465793 37361201 526855955 62786173 94911917 659206811 154941285 463329163 519885127 812790182 128170446 183083448 48496087 760171372 817196959 778587725 181097794 807905861 886796353 361989382 234117404 513979033 101806059 597206572 123502223 607355150 116604083 500861153 981317697 127368160 417897086 125165728 632780090 669383095 509180031 922351092 806630835 269274124 211979435 699595177 263073671 719375139 114046387 354637882 37397204 581705278 446458167 614044732 957568898 316108172 224296682 6452327 367033589 429267076 925849870 755164304 429310029 320235974 609738264 190948722 929708672 187048817 801303402 67454550 541759312 515136353 131925658 988621669 345126195 419948022 385571018 252598898 424318441 457748428 806908710 650622714 420084517 884974801 220494861 46493251 317299738 222062032 901780734 337727120 707973594 857322749 596787189 17055267 198619182 689712601 226787498 217410204 921690547 325111322 593428079 557988829 259189159 396035577 308957896 79351711 205348173 733337126 292074545 781427148 837187266 263406707 248073794 398492811 877137200 445482334 48047863 355307702 209193831 542191867 497175982 286564176 300677608 551592793 803740426 569412899 996555110 434609092 716632627 553914383 150507701 553660204 190604551 292416657 484870356 952938865 500691288 961727427 837934414 449842337 509059563 898022562 452757357 839539163 225423102 809505245 998805867 992411935 542183250 923837654 513660652 701421989 203212241 816917942 944255106 324257694 39403298 452534281 730958375 991669963 77908515 972650916 465947097 697547629 107867322 341993931 490164300 88742539 600464153 979667452 680268920 966078673 693640857 905793310 846207246 851704999 733862990 129955458 669502598 524279123 916170605 689464340 500316941 84261183 11855653 555230269 210545613 616931610 55655547 576572019 587487076 649025561 172448711 858933680 629506697 114100223 127877454 140805087 14916880 736020162 455849162 9362005 170215473 626990795 525683245 849909413 732463287 821767439 420933730 810761100 192957828 859065775 918714166 197570711 847614420 791844033 140923501 684878270 358084080 119312447 271236743 735234315 458447550 502948162 618821002 271538768 192702660 728584116 98087688 850766082 410147226 236990646 50428123 523539322 229858865 553128743 505261423 13902538 154103122 838743860 207336289 486811505 477791532 548634023 324250831 146304236 123813491 841472841 409175346 354284200 656581743 76694286 988291060 673648194 954516017 125874659 265788931 262429560 434740621 972194839 89568395 654382042 368045029 318165189 173965296 518836078 559206749 105492047 110244551 702262718 485490926 863720479 372655904 248817215 730775569 56737590 820186793 82399159 731641330 436027678 198054600 758848334 271868638 485819044 90031880 175263870 892747818 209142104 607337867 579800985 201292923 465257586 93880770 629332803 504394013 559035458 353880907 633137276 997902550 791869931 507228852 248232335 400490036 839273473 347421272 219759156 197802795 570895602 470472542 937973024 602908805 498941265 369473692 152796961 398984365 54512469 766937136 880983262 465604269 460834436 489881408 198755107 560655052 503445504 78321524 65986406 146813214 430766797 917981664 515684902 993374680 755897757 295465398 392131801 200771304 627959619 309681991 618971689 480785170 222299996 829452696 49277423 716229727 288411625 119691547 473108617 370269001 746994301 16460667 321450295 233387439 29221088 595398475 151757663 985728201 384065934 378423782 942705696 833228352 803053988 69131071 842013574 666671774 86288996 497842307 658062434 621365473 38042187 225842550 159964449 899411316 945701120 661770234 699176174 344539157 878527605 453578067 749595526 822585940 682467979 251307512 364178669 384525145 761023136 873127066 369202494 88883341 135317134 215965629 115609802 162775268 672592409 618703290 830631857 208786023 565141676 111866620 627413951 919199760 844916145 303674886 881245550 180697720 430080611 295854304 563671834 117632495 139981750 841817377 624093393 487845051 341165442 36830741 735404638 519198642 915884608 632598123 584699384 570498220 643592162 619360343 933816054 258601090 87823565 8671344 59666067 182521765 361885930 138244988 871067717 340509051 187455341 291809002 376465992 182767586 578062517 583367141 571596907 831359819 778488924 474190239 339791907 648142688 525078069 585855037 567884761 805660000 138684839 360765848 585669686 52468415 234626348 75105504 958462783 931655736 91480729 832732314 182663251 628871695 364413407 694172517 974366135 869907947 473819356 807577855 691814591 555869053 635299564 696601351 366816882 240617061 43296371 666795601 135618339 741913745 827439413 316185145 229472676 69211913 201458722 803342368 80802122 312611461 856340500 55026361 631443781 319176609 523270248 341491255 23646210 18265721 893904431 344014448 272320453 632087268 577683321 840323634 528086688 95768249 288612390 810001719 425250333 399530248 511454992 944667672 844926811 745839742 26946191 610489004 851050084 314628949 623089166 301436933 670117511 733017187 387827016 510671906 358278384 822274073 999733313 828569625 386816952 895150181 427841137 124057908 918224441 854108586 537624044 974523091 734074049 79604514 843524871 711123857 146455190 376240099 830380789 616051352 421621661 137079115 482227103 743070237 775042281 609148272 461451261 47450539 165258921 530264957 66095524 601877341 951197453 225971014 486494136 784095006 308348021 243919946 566368383 195474564 491452957 665279165 959219740 978632241 184760617 220824573 671856570 822911830 456487869 200778416 865439172 750068698 772622442 807650852 442821635 499922384 351672791 287577731 821585538 7302645 398768511 699799661 588704742 203316543 468121565 608868453 432688022 40783556 658205003 153456466 303240940 97510977 888242481 358051025 20511791 598498820 330342576 588291633 118825407 836466894 444269288 613356962 853303775 224076436 66011923 593814679 564722155 432674537 584647081 260000708 408945016 38197092 798609841 218396673 763450864 656105491 201427084 853438460 787065521 123371164 715659598 653284930 382920290 263079228 555962271 370344314 165859685 743012076 126504042 313204607 309984418 269523896 612893420 448561692 942071674 418991881 308544836 960153594 750409533 739325663 401648858 704091542 373472037 180294919 431620278 677829843 535162021 855610520 810310351 958352919 222463445 16976096 449359708 928662090 918124781 916981649 230672189 324419149 832752113 40364351 38230347 416559075 387290685 409792407 795896332 836001519 700791859 777171717 250864005 743056675 545449814 754324220 338271759 56267456 6757085 611305953 502603793 680123134 83528601 159222953 415235199 891041303 375503024 764141067 806596391 354713246 529501815 90646282 903434503 386641035 409919982 656151393 21752833 848360565 234347713 480394298 847891418 390367299 764891180 983647372 341907531 247763599 940688768 718434367 428611697 42107495 624934492 906674567 107705519 968315542 671634921 722128634 895247453 281813885 489426454 621008594 820457689 356851751 181990137 106400921 803239678 365195562 775835560 959095811 268042663 816636898 11130488 257557892 52747525 632489105 367290748 865327820 552529784 124051560 262313590 706364684 749849524 496242759 425965658 759107251 362643695 608665646 299372262 705291373 779935186 731102671 69005079 539019129 568750156 49720735 172868926 451540011 54852757 951367654 249577131 931152880 135808087 955860880 442963053 270599002 825655368 903861270 825801267 23784169 294087537 621416464 721167068 762272798 811831661 515367576 996506830 400328512 915046342 280257855 991666952 666086355 533409272 950615798 132469665 980391350 721507554 484526583 197743030 458582860 373749131 9282356 674860822 285752481 382552209 176592375 393505473 394251079 154594984 160125455 257412500 247540368 735249516 414467290 118053423 422256165 325427632 873746540 52505579 163351159 977239843 683433852 101653367 558444798 588617380 488353068 210591187 186889586 231262919 38296630 603777815 33936955 644408909 65040648 96498227 355611294 895223700 836364514 356486033 590899973 756835749 657293540 40381225 92413309 779936596 802054399 458879041 666916146 511554277 493850956 682783739 790695786 556843273 951895533 812673982 563080406 993170277 704716704 766574913 463794096 642261900 725614471 951115116 260511492 391682052 468216542 862859036 925511332 540315938 394724083 648667871 448152735 529118493 107997952 877118393 460329387 818868005 665407167 518063034 184417820 259245859 419568236 527902129 554600528 112603056 518055006 106636105 232686773 771690163 558375351 514686569 317314645 523390739 637032635 657358772 638475610 89262621 439183552 181886721 252274841 714076506 84419530 245491576 856316493 337532151 710257253 434115312 557423156 420632841 691312067 396498278 673060196 403092455 176880673 19576337 520254839 692629431 81317770 357572423 455714828 562998904 498268726 516418532 326886913 733548190 893900196 879238362 593689655 186522644 319733811 266889754 842535690 451641523 718840483 267848573 826770374 810505664 456200092 296376479 725231523 135305333 823119877 68329419 605457645 729717805 922749428 990988540 764485130 772285524 721824039 467408669 642126745 626398938 588724409 455566746 106901120 696332070 937814658 361467340 38645245 423548306 309779075 248648557 556403970 282011831 209410904 195578073 163146437 796143397 839353638 847184126 256504401 679814234 506173460 746705531 62577144 254766682 622291975 543580065 805317411 121487181 414229789 406579311 873209765 532541424 686556223 539250364 683526553 736511069 40996488 289190349 716026050 881254388 49053407 609324178 391161199 92300585 811889753 906704177 752854307 97809648 314940897 891746878 771929725 378084951 871236769 769158248 521816912 225600273 340128650 389037804 121276061 52460456 617065831 822947653 687564472 307482592 759064351 314523128 26811908 548186154 828159452 976161439 28297443 780737156 658501321 73633420 307354676 411009730 991503343 610378535 206123976 59273023 288256239 561640070 656587288 443300822 909097708 853993600 638166902 763413221 373162913 716448092 566737911 451371768 2445635 14559237 448932387 71535507 733087257 173634448 906371989 221445812 391100664 615480146 195969460 609896223 570905976 81041329 871627547 479879356 589905523 382680148 227851044 458620890 811431868 501758083 716286870 178093570 821885530 671210259 862991597 502735617 54989174 247595121 71468931 43221411 159730781 74120075 228305903 768433571 182264475 862017574 622291837 371106291 385109739 530190515 539696745 424528559 933199386 528811609 476894259 88259865 688009566 535933114 713667176 439535231 119226664 950761933 969858360 587306208 984537136 8709112 567132945 86571224 928942651 791091300 52876616 686778463 788496172 709098372 977487185 418382175 92071809 165033377 388966953 658824324 68453701 245549263 429607225 53866838 225363612 542158969 738905381 53088303 650915325 414807700 907553637 439949961 420096525 934654798 267573805 842091516 389367288 202750636 759594883 633297446 591219010 334050583 509690766 282736330 34293740 634558137 19300825 929926540 598680907 369488829 68523577 11042500 257373074 940459069 960050224 548778355 41774933 891673117 917057005 178031830 969788464 489168438 769614160 357656902 199800437 312892778 547440697 770182988 381520261 599057319 976565973 72411193 723819588 742146059 87879892 66517109 464643135 512921175 582390244 844895674 224197182 578813826 457029140 668343325 625691768 767589983 388721676 246782147 829428149 227599323 281592338 190778861 466694469 281135051 599629879 295013693 883914399 119934446 679933684 181419615 528980080 291708084 9941868 950077070 189905810 583737639 78297589 689664608 645509604 180336220 352529574 435746186 435152790 102148398 310720977 480556799 719801764 853479540 143397339 855986294 470992668 305559233 790601574 285434209 834608559 765082691 757750398 383504963 984699161 952117991 452471964 465888735 15154152 6132933 330003606 571857950 677566362 884667741 905229243 245114772 650206402 389695296 814646798 344891264 179866765 989875605 181681251 376437009 436950286 128826762 427678935 650426821 331478489 917167778 115555421 471162730 777849467 245483974 855145558 259146197 764841604 719630700 403287259 129380008 675686028 736870568 456034996 894340818 352566440 635838240 472975920 631938829 68102576 689241991 572289225 649454481 517378642 560759980 570610371 857606813 419330303 721813455 889298460 73319667 765099405 979723294 654652299 406068141 951852626 910592479 578708412 566110806 236327328 344275695 836145757 515154004 468595999 310385659 641757865 318969397 255388720 597723534 66694446 80253731 472157622 783961574 292761228 226965942 14430930 205091420 50122758 852383038 188016113 916717455 551955754 587702605 731261734 681516176 45802481 165196521 307408366 913244819 830060589 39638204 86927045 151005508 549939307 808373021 55984390 57781763 759604731 107592846 111947364 165921138 164665933 890667468 283332502 147145637 619829065 885931226 635180091 462235850 268663807 778876137 500968773 700166949 665219769 710935469 669538283 197330543 612258160 295677482 220207191 221694218 87588485 191667831 838064746 863086837 343099752 492389048 589364481 902424856 256178167 428847786 489314130 185983704 273030587 353908052 931287605 495080097 815330207 267844012 121734616 137189861 20479897 326650350 523751124 141986923 800926560 644606466 750654217 582641234 435469094 373661637 972155802 767986081 951849617 953394756 882381569 401430240 612012795 277417583 68441860 200046396 25621193 954143128 512492480 44496181 745942868 304544862 566488748 910649410 99080348 7173569 221657404 484003910 900608995 271517376 708725047 153788033 466292312 328066821 223334277 470232259 255583309 684372373 56911054 710198851 54411480 775907459 954618811 549399247 543049850 870242898 367263231 189636863 133486361 561251762 850445928 123458768 320418682 487813953 634560818 614943601 624269910 537933280 643711761 399356784 673963286 937387858 281510697 492017300 858120103 296763198 232594165 721501221 57622782 22051973 913046662 880857856 969551895 986118700 567339329 820005497 718974539 367016562 349812007 415722599 132095142 840371279 185973107 430100290 446118819 189310227 832118034 156242273 2549804 526242803 432531689 873210579 68400185 89490573 181548767 398164309 909990953 18338087 80040775 194262694 925863849 454305938 983768371 563230074 840610898 874371945 121676532 251030678 188858104 356370224 19590827 929749154 2325610 649034783 628041377 15188563 456133470 492553620 647531479 444645822 674067928 702456614 221229212 801397012 719778345 390109154 892593749 650300289 787581746 949110990 390530042 840732177 243668209 26524938 423643085 978407192 27085519 542658656 984229198 106764176 401324911 409410271 446092582 158417749 865491349 374917648 321322470 464858842 904319388 63219896 793219890 460053842 624115870 63206666 375583944 466522413 934198000 872288483 886325263 711894652 140868102 900088474 457872585 570355314 256806589 711491352 888322025 979360462 784834904 616112437 51343469 779719983 895640036 420526320 908379609 367334341 908016272 776926051 148535874 301563244 727786227 499118753 888288997 6725181 845666170 384899719 811310274 326899261 976874676 529277114 69591539 572529847 429401224 981344226 823668366 267161503 407872988 444669174 663310199 580854256 282673705 153868935 600926441 798669254 298563833 880369691 592723162 165959164 597627883 871557260 868516913 7107460 762912703 896807384 622146285 314111249 132089245 847578831 214802624 245757096 261935083 737814068 84960397 94170532 14637833 581479241 529354276 45971331 361458924 772468776 341418070 722950964 617063885 683296905 619577800 70020574 585674700 314082146 129602974 872677048 806017354 60415282 501581704 129267044 267410515 118801132 467258319 90531875 716123007 723464830 776098425 117396153 537763353 382390643 401459637 155901448 687303518 421487451 597133748 950992672 354942752 207580075 864365308 956463062 336793145 216228503 857340 41128534 317200300 542452691 549253212 633902331 775254670 317362370 460255265 317173206 444178861 232877005 51405286 65262980 849457272 801123039 889069665 705857677 922287036 117166533 745193072 762059487 823209064 238858853 61224874 247165340 412043257 970814167 455641983 913434215 330944022 791412792 781663001 783366257 432315922 368112264 978298619 712894651 63094413 531362712 422728436 864892367 429658842 993110393 362612457 64402219 64642465 969866550 15244840 844078018 240258340 124566215 734580140 323898834 260661783 219876001 750444056 684930648 5337559 61592144 542509981 759831148 319148531 347911036 407482234 283216388 23052279 567691833 960092556 980749920 441455022 103981040 395925173 924181642 710327008 344657560 987748093 238388026 672889740 643079859 713227476 262146242 600860580 740671470 615376331 71096782 183208908 807817042 198566645 276202921 840638178 898879504 884405104 973962236 618457981 746095831 763492073 132725499 340961719 918602280 201924097 158211798 492679127 353059158 568862779 469811612 662427351 883527080 952326560 964738392 334905342 352746780 674175349 599644745 50990050 971337877 524755175 84714574 682929369 334995545 898672889 754627072 109724680 230848882 196166445 350521353 742274748 639315249 112711344 814819640 345472796 799749420 891868919 595866597 532636766 10648154 673072596 290306633 712238085 203367593 4242983 478902758 695163472 419579818 826802999 804854368 915058001 84933612 230513339 224114592 86168303 111972561 389952993 38974209 606566801 65467728 798954238 995157725 310473098 141095044 143990720 568492748 585166003 564560121 250583635 59372201 44143225 576049264 103153317 617174386 281030572 33226526 708200932 642863999 144179317 970514608 529421348 651495785 541494073 718958051 715895406 522809450 673223518 42262024 992817212 602029237 739016103 51842226 290768237 547683263 652930737 549645419 96425566 84817276 277527139 375867182 857068569 944904526 591411508 150395151 998897382 467368289 508210672 713246489 980151010 89253723 490233749 749914154 799481623 891898697 510137592 414395846 920930883 109802937 39145342 744749571 629402690 447207156 999769152 674460487 90246269 592412597 265371403 438193642 905516814 225308012 460079538 851256218 385619674 507266849 784144854 633843777 339128085 424096335 316225704 779995567 785041608 654760062 612814546 36493458 178117729 829960058 651951834 37610571 500037584 478446662 784375089 549033905 769312720 473508014 202228783 911190788 373773729 180457875 961842579 977766308 128179315 976063470 102082476 907618059 905212435 677647435 410297468 638110874 513407007 716500076 618349548 797890945 329981080 664148581 728463306 460445252 960685711 581131561 130176353 91005341 861200 665348192 146728142 162906873 484302606 521700816 675319366 481901608 198772000 594527420 262010270 570097898 995142549 534818549 563201287 784840174 200476420 825627273 369875883 245421379 708221675 117800030 342714751 115839074 348766804 670385848 496130054 248777541 69095567 486987286 618376504 66925814 454693383 357293807 762948076 642811719 749082794 231893114 792993173 763244267 524927597 74874152 249651766 795898080 331191744 740749130 443588259 672482124 921577890 376302256 163677130 957258073 696285191 567305109 518458763 408884524 955582800 52461209 756847636 231226773 298114073 423362422 948222084 373157509 891268423 847426315 294068574 452346463 585205425 924408424 244533211 412135699 845078728 364348076 760115856 134400232 515393223 663315311 47963312 102302943 307671506 702280059 39617135 844938338 27054979 774847205 246886534 662481907 917253015 273017084 833233299 798755620 515894743 816668079 747433166 71514540 983770133 480395659 254889291 264359054 221551407 261156425 737391274 546485477 95478179 226932378 516573394 494490635 327429013 615964994 873374879 97967866 332433430 416285598 148269293 669529974 386505385 496189295 390938978 727553746 961995576 545439742 678709109 452205276 684215 894552565 131430148 29282055 132303879 95136711 323061668 222356331 145020641 970539445 879380064 681056767 288753069 482067787 72536293 601781843 91651230 976262348 967960095 189446250 787670190 763989194 285906578 9173446 96223814 245028651 122975768 774009319 710394555 542563422 706159136 823015967 860157465 468909832 214935035 722087368 513708637 890586947 156242474 86889820 910430387 501355637 82758987 391082630 377731599 146899397 219891087 135025435 126396961 582234182 851447841 952827062 357312650 695557454 532050498 276501310 592312404 607600798 647730006 102519793 377689395 846980438 575797314 132125874 225463436 100118874 706170002 108681128 839427815 600596498 845740549 426304625 181128709 640484479 945585917 969532830 559842312 382982041 879150334 733402864 726646527 867761259 384049604 224835324 40874681 166597794 806262990 912627701 738499434 292681659 38327242 919649419 416041959 134225952 280510929 98406084 556783769 298548014 9306673 847178807 160498042 990140136 922170351 522290797 946279315 198013712 658425572 592217209 775970308 151342837 997425516 786986268 635777413 811351821 179641042 517708116 249963753 149791796 946687652 428098076 779172992 545478694 93372599 122002325 806238014 965240342 180390307 696902291 750412258 839848757 252951965 349511266 401839025 804831761 275452178 853270974 755454375 22693381 191087946 456846235 192921836 336522407 668793887 850666628 66231442 829954771 183443324 913022022 44854999 371422225 266205881 75203000 349051115 672842755 310409116 967183732 771880589 765667152 422494806 379598083 735148390 215721449 905935485 379937405 354786366 142240236 207373261 807889679 673182706 673284387 308262589 599529148 163309749 793002232 782826971 275159204 628349688 743315504 229518727 629264041 518371486 240588488 897459827 749600173 794525427 892352420 60460742 813455898 57180184 749336199 407870827 63969465 168518612 632043091 782114362 452746766 343204794 787635002 790089346 404641540 702993373 669349758 682849060 595392358 101590939 402560035 838783010 284419074 171081865 734175872 281673181 189718498 514393100 288285719 132493327 348517362 437191020 50548625 405406345 810656413 197906468 153655556 223363151 420341291 140311729 907775376 689063236 401662267 297021503 188331413 806229126 726393448 569708459 260865133 88483457 486233039 220924212 249760342 418122851 326264223 645356046 857212110 91958489 760034187 58383743 32403619 928791654 458196543 989439485 480392675 766674114 331582504 765443449 441408553 887439748 180065630 317151877 483272019 425894347 552681955 824830787 398022631 840296624 624273402 96708113 491573352 55031476 204649904 62523371 797692978 442931049 68248794 750664233 793559301 921854188 253502496 420173763 864032989 765091933 440287959 87752254 270790312 27895826 440401536 957592754 727419361 765257635 293464596 30635811 311327464 438956738 26846473 813005951 799257594 681155984 5343592 675461670 193252709 694207527 299632436 901165724 385208830 104525118 290770407 193878570 244315212 902290663 599301247 463134070 136093274 416796859 274982851 790840401 736036555 701164947 787621985 112592305 31168289 503700416 125336256 949870944 341783705 858243706 246046509 965534072 373979158 780671105 247054825 459110162 385929667 102556095 390114592 711640566 485045146 313201174 269649379 814895989 965699008 114278920 882529722 741970696 843296228 527928802 972194091 426346852 732212986 770929414 957151843 227586454 164573654 333578332 518353658 721700662 147025398 536189710 562890797 626535587 886775557 835342796 379648782 672863630 454460896 710073354 326531972 881896106 213053423 204824651 447255779 289362675 643203057 852204753 896041769 125158191 406671525 952233175 11208537 126996671 503274714 42338963 735721431 403486004 673299273 722851567 7576599 990075997 510846683 248762588 274778333 237084057 378315020 153699012 128659330 291312321 499564493 186011896 527063008 683639284 694034109 431895785 938587498 675787953 381992413 58017882 621853485 217974269 673412243 32947913 400231877 729588875 488568938 330741489 612584196 429244987 110606392 892391253 797818594 857113421 479940213 162837247 602299355 86158886 847111954 920353960 1871216 347355853 711523810 235563583 441531916 761028932 144044072 397043053 602714424 826735570 533015276 416810423 202995349 262221770 542422049 330021583 552133037 590830020 833913505 616017940 564344351 363796274 420406429 382825782 737386495 472738075 835833224 121333605 585797184 634682129 12646157 250884509 285207846 506177966 419105287 8280357 254550945 631224241 152958219 813089391 234419355 880537081 643594332 275008970 714977814 462057453 244379298 59859899 93499808 50181490 486271639 414850110 558449074 803596829 148326334 360343533 638189770 382887720 529232189 171849539 247930140 319815109 790658051 727223961 274467527 570353120 660789646 953859398 273747745 548054652 947681020 823169566 111366698 219736631 385073492 771634603 907680315 597482021 364351777 528054148 969797746 532366944 19781077 80222630 505971669 19201398 682172980 824894177 349166698 921627486 539546797 130380835 656842118 470442647 65045738 358757310 666369274 669570481 399791228 907740450 412452949 453819206 274323867 18494860 981104554 732690045 745507956 927111133 619303270 434638509 549029179 239274131 645687013 576192614 376459479 174766171 4039982 665058356 841185521 983299528 72078632 557361408 333558691 46392403 863288823 114611683 320683394 82309062 895348048 128472968 535917220 113314338 933337659 884354146 53757279 725870608 304497110 637458498 809361209 906550913 82404160 553135008 71608729 451456268 590529880 47275367 22759362 613563054 35118866 135702058 874563605 820060132 806038720 114692819 383811174 691651421 285786735 705461207 216382010 998427142 82923113 482466891 777789623 180334576 506602753 639253428 51982185 955112915 499910115 459207085 677623087 546456214 453472624 871593937 336494181 427962876 922760659 824314574 426562801 727234846 397500995 492906339 978709826 587436303 415350943 377061819 397003157 495632372 955435814 943358801 321159472 992798136 842117480 484091544 184130593 848477095 898989558 829391195 862667870 398246662 376933698 900785115 560811096 439174820 874175478 477940673 646492801 377464912 352094770 596368349 232821836 627372012 609947721 538838727 542817 76825114 118755792 800117323 301242348 249591804 348940498 971645588 949574068 427177449 185098723 201436421 241105070 419554855 810944942 826952230 556116063 797087608 773626250 711647463 935754087 169857876 811274672 755685519 414278180 555917080 577506032 130085227 649620446 305449554 216434331 968333935 340989695 264069454 973693612 59314181 183088725 924961300 362513741 846539118 279062169 353719 344961668 35437559 491059050 868954787 457209658 554685705 341569110 18658248 950455963 86516726 26894129 175732368 530200346 708076234 680658410 99307009 894157822 893164836 917823088 615211245 478477937 601981574 536816929 765719693 611338106 388015424 45090612 199915637 492951712 497085955 336603615 309738266 633524551 318787057 556815724 761783229 376025793 673251073 188327092 959796549 816440667 976460831 176854540 600414626 834466948 528372982 802743573 807858632 2755654 645842326 502170672 245571986 244641726 495707191 571172423 791998302 108319624 395383894 804019691 811326561 76883816 724817656 520677032 74888181 53674194 698376868 874877439 864675903 68278462 239632511 707141898 689475191 756487879 237573679 796687280 84138995 572449309 36129624 667756830 646349171 61705010 606002782 554350942 532397370 976289121 287621503 966120432 897020294 561428682 543778011 328145197 987717924 746074035 801024891 479592324 360302917 46545466 17335162 987788747 18212899 267222624 91073250 717358677 519162686 909468215 50960874 1729207 762543761 655006053 441966741 306739678 870133678 22152597 217623953 112326847 29544588 267443327 255719991 294867966 987356177 771153995 244465905 582412818 358816564 690344448 762718213 479455463 78094777 890350988 523185202 918269768 833089710 578733981 489241184 405401297 538078111 517341417 428363905 672302544 756233175 346376644 921397755 541994861 930132207 897857080 601573385 162371267 739028342 754144302 141550233 838722788 217048410 58478928 550160474 558888672 849383929 858110373 455102938 903785744 686209593 271203313 687148904 718616847 579841631 40454561 148233551 39291221 32042388 192726613 592988000 613213909 110422194 634415212 289090974 433138112 40264952 846479960 797782439 719417461 497047100 756128014 398073419 605061459 714172066 160344902 544884179 725134285 487663639 546651928 829948252 662510497 140901876 37295179 814732966 354005872 337637308 520801744 187050760 821691982 410306804 485482408 594261328 691227310 901764705 108507657 849871308 641336893 255756988 423654101 269581559 625543157 4644626 560949879 381055742 804233649 15160340 578267021 120663473 561747252 431686866 615117600 160343853 619392224 755572681 156122162 232314936 503036319 907441111 355968662 91124897 926081096 636002430 699998939 425602530 850053836 689870169 152026214 950612376 382784287 437849037 635497729 935858699 185296147 132529949 334598829 668354130 566271864 114400184 881619693 295749684 654881712 784249929 817927177 368206488 890785696 841190682 634559640 265965003 815787949 539568338 764584523 840852088 903523662 848321309 256070348 605209097 480827546 708208137 693841364 66471865 755731415 680789650 115129908 146893566 274298637 726048603 875315030 402308322 217551127 290589 313567387 773046430 313932026 752827884 163158125 105144646 411375532 505154141 740031281 621174564 427390436 533437415 98876644 16258376 728580291 345309439 504123260 947331831 852024852 5557879 56929560 813208406 861557426 455785774 282639746 71844170 646115033 585880898 552739337 200230246 92847416 107492195 111498445 309330224 609867005 526397234 247611939 504994204 989929364 943197471 746058325 783362133 600640244 68618418 848996848 227065591 566157408 792057311 993465863 103834142 68535504 284481523 177396081 230235491 610161642 212586899 404318763 599554294 800267228 339298017 835867585 499390283 720845105 824165004 655259120 198828518 687376830 718052499 973556515 179839460 911490609 667921961 62150205 837357577 785174440 148728379 295289632 930115920 834305464 5040487 88740804 903646116 427780913 993754468 950240169 347042151 123273465 432352096 341988721 286122907 316088858 317644935 174647151 990697670 42541158 501975575 807577210 201543952 471506400 378093121 76510329 932552028 129870793 926312093 978995617 678403877 578162062 502042765 477911819 536349213 278212580 235250293 443269970 380664864 244660123 854612369 647416307 443566299 82827252 259683490 627522315 599002825 149953344 344288066 279099947 654023896 851151553 506423029 371872914 592049411 25110073 209871099 375323990 859706428 928714563 607426162 794774673 748531955 691594203 237760115 623763519 230802235 50541830 736582879 754390437 701753212 786692430 94729002 13007707 513000125 470884580 286367035 747225188 665451682 581372563 664823210 99780903 582336433 820806426 233007409 692731575 470213530 733550372 584640486 60104289 675905378 550528466 789379887 198519621 806187722 836442806 555125880 428016230 675223828 551001796 291915293 148122803 856984615 350958409 415680829 276969421 326999034 195490547 803314963 969073673 426854145 132241874 530974372 641380301 862054980 620996288 503766311 348516595 278898189 6533373 602045379 123142813 654242947 34179717 838481000 58432824 852405486 89668136 310445811 734866034 106630478 623051889 24815615 286324173 467603329 740770 100513451 455543952 404044314 829467452 701314040 517402326 824708870 757292011 17396462 870369412 857745970 698150407 414196153 469821191 529758647 418141281 271657593 554820401 774242846 519183660 123897178 692657694 344034975 687684515 709030201 638463187 852020016 537611148 231840871 964130687 736074247 678872639 405359666 889783164 802265249 15805709 49496099 379742199 281826613 103768085 989448017 19219607 109456629 52269287 831096860 960057357 730792523 17168605 559310373 874463340 110424816 605885841 945488021 477766694 899273899 776293003 206400671 16947116 917310228 986672845 842842642 867971015 539986872 724721858 181894904 953685936 712867849 119627889 56560928 734382728 864486294 978975185 104258590 783556773 599618484 222943512 554618425 824223075 365997067 721176365 799615044 952487349 159927171 896542641 525430723 703248447 428028180 889492867 652384864 450827188 86017162 726606986 210400550 344341198 628313116 838984381 221476397 20255273 354554808 407153209 348562385 555156866 341652873 220291372 52777280 901141732 51529854 24450447 309211974 156784883 299526228 537119788 235826742 484451305 867941376 855646517 119425861 786329452 508675850 320327091 654914684 13508989 730415790 760035881 730306694 318581508 348330629 738743534 48981901 372674637 133969799 499144949 161236254 379323475 823050817 977883286 448871130 239025018 720825327 71765385 887544069 467870897 349408505 40113546 853802331 986082287 407525883 547078758 608596225 643580563 922248158 358575177 156394866 552684369 320877360 483002276 490954768 438902765 818647983 417543278 808253245 219658809 293400879 485182498 791921196 556822898 652441188 78015546 211078850 133536199 65279216 978587503 270430657 351765317 911103086 945432083 975105027 498308919 296014576 341916069 916254411 278823708 275882416 512341702 344281989 528092146 714103936 502174403 139734311 17921128 17328870 530446103 738752451 981099659 322568900 744296282 287294593 141836804 445020546 671838585 632127325 145583409 268087651 352293130 159427784 443638792 159184559 894430613 610235136 776375354 67541152 894321815 610663384 115138194 920744830 462880188 891578494 677122728 133032817 256337819 583681079 863974293 839845529 795018106 909652084 136948785 859768988 917600069 833354534 751892977 355427002 581533007 21816214 297344692 724334646 239661844 342815610 578884998 803622861 669813847 292573570 415812287 188754120 442221465 572837796 541821487 705112413 139529087 290528590 164552092 634224729 2334648 466627358 176457875 24918351 308472152 975753414 443237384 995830620 264410205 879361271 141841536 173294424 221867191 289772870 793453825 741906027 602319671 56430745 20119754 969077880 669351554 780333099 689834223 131448560 91939754 332103931 576306310 375774647 907311098 336462818 822082885 207769853 207912913 266640864 68962436 120497561 438158938 488345247 825681302 601794205 179744798 685459980 700134248 139547975 758303785 297179841 9843503 851129980 376534284 422255689 964135056 444829605 643042145 979192433 418888128 907071682 684494861 890046191 53157213 689817348 416197470 254542744 247231949 192600461 259229358 760684175 884844658 628177667 574664094 721102991 559938428 787891818 625239720 971513669 633193767 76391958 769075132 419293205 833789535 843404113 809557474 558855190 821666159 797493592 671991968 52107507 346131555 253296995 573454570 164926297 970653122 104690458 358127334 527496390 857751710 537440264 949253089 933744923 863114684 169869229 486353272 486315463 593481617 546915413 996952053 251649283 728320924 824612711 250816880 5921414 650893522 7099784 560090369 906833344 214931079 603941451 536634900 293061084 120273312 216862712 68003692 326207813 495464749 391500550 307709088 972459372 753372819 507467724 150484928 495938175 200517982 181370905 879296211 528954204 38381708 150863034 787998887 331262178 433728413 744338051 892794511 101496344 534063705 74035966 825055517 778585661 640719005 812627613 194730072 261646660 234929442 64358875 92429035 549367454 10212683 940880782 441077810 43593754 800611192 399560214 459187156 910537442 369940579 559722680 114088809 387083512 505203304 175898638 873710384 220892332 240241077 800575368 63851750 905616784 293847151 127351881 113947605 886943280 468973201 233182592 438400579 119487415 948120809 886040545 965816021 853747189 373464236 989642516 208069461 129527480 418263268 967133662 740848955 11702853 570964930 534495402 972327425 442354181 835470566 506304866 640111066 6401508 325799262 67630777 491004053 767597913 346241492 687271224 852873691 719325155 422396344 427353838 271447328 377257549 103341745 536856451 659503289 819256982 266014214 756122731 336619983 879125606 339748424 877860895 214245073 364606560 31580125 455487521 719781084 662033453 951475310 140913895 746037995 149257270 957262287 191022620 362561633 868151861 736538848 332211948 297943632 197157878 276849215 612799878 995042046 610575628 775901867 715287461 448669546 125841593 957555996 808745633 684471585 562468014 569302998 188639221 912408081 785640489 448421493 101982507 138204419 95514687 274732662 905951959 907897317 573786615 673751040 293332322 701618100 207342969 839501415 444270196 357792720 683858003 729321951 642566617 333055652 985746837 586424209 408116432 950037231 283668383 91528880 209012957 180184810 436492044 549611047 844206718 25044336 143410917 288417297 975765675 975843743 209448475 575407221 384464115 794749008 645168967 517181444 626797924 689996326 880412819 379772867 347178430 253326020 516278223 702402989 305984977 198424380 494080933 895445761 427248409 903870565 358510482 336111736 259303244 671761827 909765293 524268483 840636031 286561692 961518561 779555820 736673132 247470429 160529514 603225790 560152845 523020458 249671688 723473653 668054726 823228098 716523908 315748185 836049220 295162823 163728490 141247219 183359695 897577950 271071428 989626406 925099168 451866114 34261970 960948689 965246145 190837912 335992194 951711444 523010812 253101300 560290907 662671702 463241123 113092411 581988735 355478633 681798747 424663830 326185786 338067299 90976133 912157669 643656285 143783585 953118248 193093665 765976762 731717815 655807476 180014767 396578336 150023287 630479513 694570751 764509317 329044467 645713496 375009556 571183453 456332358 78467641 529570475 588835655 158416584 829983765 573571286 452401634 451197974 246223596 85857383 605200634 566975193 128659819 174625864 244491671 340138131 197859486 896918379 293212404 49925643 596168214 352237273 50522995 845841199 138011861 778003736 596852027 26124706 570507001 365851183 131467618 54377423 164606502 98974456 617075482 458756909 133671695 317637344 739126150 545002601 470121902 448030133 555765214 785583824 843739226 719017769 615422603 26306985 904535374 932200672 610306528 925923506 906365701 287985751 245761254 666633678 379716279 422608737 695436114 148920982 371470089 900691821 166567345 456229971 269802882 390212723 636819418 392657923 350857727 583962560 679701968 593323014 36345571 295889273 197818736 299853544 17692528 73204090 245674146 287447591 377096698 580125864 553423102 686487990 81028335 590724776 322123798 568021941 123220313 672764055 893580452 904964733 44341743 860117056 464665392 884979427 904772373 333534650 57958249 618630189 17246989 898366743 823709166 383081687 999962286 209431238 952309069 44607686 246340055 446962207 35698482 893013137 617261008 797778886 620069133 917168006 194852157 226108610 119711619 98162325 516047813 561254670 266302747 870765920 711894596 746123078 717729374 634416549 860789093 253591517 69869867 106898488 125333866 947521291 829792893 150889441 918500144 497471520 714677458 475324696 343004298 280247794 758204759 871553530 415450868 988640328 658594413 830077740 791809695 944480156 382308314 293958727 147812419 898725061 223427179 182586940 792009097 661801077 648233018 918561153 945532411 438230990 310605015 208561722 157313458 688334880 99436462 831844443 424310351 238337021 358620176 81486271 527996490 185477312 409965448 170983052 444813897 393859397 933501859 877585406 618108162 554221582 26682343 283308849 653889808 592647125 6509756 91513286 822736488 977370417 82840116 318990846 379210853 784282644 962540293 275062749 861209299 980081570 683394285 968812901 269432690 191194407 953861164 508606740 401573399 601498344 88300952 40873583 563472205 409276536 359088500 575930121 538159607 557304998 972643516 348193290 216109927 308576717 237695707 93747848 810970032 866741108 777697661 921798773 782462817 614334407 898940164 736812624 301518922 587117882 906321484 474762568 651048545 993594645 703507118 201008229 863759016 721551685 46536981 743562864 616658163 630337074 595939481 790138771 970900678 461072861 870884251 186336262 408606380 687369466 701727265 618792547 415504536 600963925 649961200 726480678 275269995 567859985 804668848 44386522 955761840 751651008 721692091 792627567 672003807 278194998 719867169 199978458 703334369 960874338 837852860 701710927 331574514 26054809 690889641 596315353 391666150 607930916 779047453 106241725 87334881 532254707 884075831 752007112 711103711 211189615 102297326 728009078 159367766 235410237 909750099 957300749 674719228 513955284 256749236 795968392 580732654 616472272 133633047 765585622 577226964 899966065 655532605 869202682 400491273 11678013 886868789 408580034 538807649 638880879 935407476 786728723 968458729 35326203 565570251 127296472 583877884 995664939 487888304 925547854 669629507 630925373 741652637 589157223 75282133 940523963 832548048 69164749 89704389 600521174 747774503 938621990 190612779 770894054 824146972 597271761 219414447 710485509 316314819 942977127 450034991 143431148 483363854 407930553 712154748 575907625 685462360 370481428 990891098 201888734 729262536 230259294 773636432 334749039 593139295 73398944 415695003 917723631 53183736 638673037 789298037 253324277 950742092 514904369 822652838 527631028 810149539 408877317 61810633 45089742 858794748 67907942 27420760 68507584 875939303 596293364 839167735 686971635 68658740 28848176 136223443 580175313 654597529 415509484 655735134 857832711 270829268 531110699 986364079 969932573 904342976 328997068 953595620 345933919 825738164 524028575 398762018 819053659 311158217 48711086 924788934 140246636 652883361 40727243 43388400 453630877 683874890 294283630 678953659 99714508 924641120 497973858 542195948 458134052 994816870 48500019 697907886 973951524 551707468 841851494 670502042 93504610 703462566 249562011 429118320 40085893 435456456 44899687 582742122 941782105 288957646 864384625 542585279 499391056 701386166 558748033 159372919 67339094 125821088 102148388 908739713 757007376 997737129 549905269 271803081 729258802 918704400 861605218 80713047 712699856 997150130 588375393 37324747 901719190 460992308 689978958 302024057 64054254 603036319 645998103 89679894 676782810 559181999 858632684 547422022 254643214 319334702 549365925 582012607 344067365 179518828 538392486 230701243 128163894 699049641 52036041 872998768 648315297 574489024 826950406 881920638 220588394 925399856 621851003 74683129 263604072 700671622 148324357 191845617 439437774 160867836 660215881 67561784 358841426 677390626 719232214 602917038 402886392 171923017 829137475 99970121 60534460 256745068 430946332 359871883 760712466 394296559 536897034 900492394 247230271 488495373 417634325 241854674 80607922 347829687 841844420 523621393 112338615 239202246 773895155 308253257 949646640 243389913 637834934 869556898 72512835 281691491 137593723 783162581 70026629 304044723 469267082 972079857 746547185 457371112 787516982 254903311 144632406 571381898 801573979 119482797 127477516 806582981 172762906 632966178 681038205 446185772 605712586 910243147 445910516 140038722 232567683 141952618 579084154 200139836 707160611 394173502 485986284 181367679 984138008 383647760 248426372 823507706 5262272 28443237 395456545 419475519 447351678 463600156 524935881 618097078 213562025 430629189 91083798 394969439 208151210 911006947 694567383 278004020 170168288 165311802 779061933 499381703 212275386 28565351 634972611 10353344 927686396 559528336 512877158 558061024 610323273 853075968 358722 953673242 194009639 513560639 733294309 467874210 283963893 948861893 486333303 152174630 351060429 371909078 371350227 6008963 937008154 653659598 529821201 666785232 205843132 49425616 410041193 519224632 845718406 742438829 783743736 47482235 163224347 368821429 132507194 169581368 700129052 912019575 66392220 42048882 260193778 217457822 544386371 623171413 953449933 524155729 551425424 448215496 620366605 34073837 634827003 206109988 169135479 337432834 911206290 107546622 554257448 86915187 564377044 680729943 705927645 505115349 455380523 709448063 722931820 769858122 261107958 985718216 91558893 230840822 422932978 152253670 942824447 937274745 635318652 615026564 838661676 486700761 388250685 200130097 270182922 474080858 330259845 115085431 78791484 397430505 776303370 758361054 410589866 724338621 528046692 588677866 70831779 484279318 181508423 753666096 337152665 930149531 953441810 632723367 921946270 789349500 140405140 440712150 315596214 585917104 569608119 505951446 675794031 481033321 492118736 108586191 596023357 100105756 302468234 231075301 621610324 470783433 827178094 985461095 425944815 731618718 757191407 781036314 111132217 640928929 802687761 707585109 203374220 50224864 161233091 502017789 913214548 711126215 829769402 456620772 430423355 361386627 835694248 59855040 759872810 948565434 414706125 683862331 240604975 737251004 354617126 345137443 249515956 678411583 888034364 983433760 838030885 119665086 54626970 798920805 891626095 122115344 634828027 786048423 630289695 906019089 595875590 753341603 983961752 397624880 395555900 258609610 817157955 774399928 402053000 466347950 440938168 76478003 745353645 264615189 719033793 275065385 29095998 980127956 437786299 722229421 14023021 60242062 189983605 555772272 391348035 176546 23378141 704327216 684385744 256525540 571525430 142953552 163147615 668478305 1599151 345227611 3552570 420035838 507229266 503038411 897409386 304550483 478234117 250327229 755598786 634815696 429485442 769498804 690657411 885214472 893764927 490328425 524628874 344431702 697323279 886737420 215696768 512659873 350826153 813508818 599600630 687839404 984504064 581239245 486501651 620886351 979878065 440696214 294097897 482344497 319640108 766467653 420752542 558521247 672892453 783399170 800728189 204838562 646678621 671553119 270043630 9474441 298063218 346707167 606058598 88259034 797330068 665559243 631494724 210468414 522640073 205804383 759741913 800046035 882801871 533742625 844028793 363817831 101068464 962667921 345563292 773496552 45763980 353027866 978733546 217892292 319024341 207766604 775497168 994539999 718348777 732205457 786279486 536834190 919171429 823864935 92195518 664836440 44754163 568368740 217454837 123762803 44142507 911644566 546900551 149272234 464751706 413235850 250736161 12850829 999243063 784341284 959864613 301582066 918130667 484459788 840837533 103936340 421430899 145134957 421833035 206663242 35242191 450260780 68823872 252204408 88653312 392229455 481650835 854298706 400671660 301520362 612377325 500797472 906083437 533312526 846904713 228935319 80174655 892976024 156993603 152744930 995017744 459276894 625590930 221459069 884440526 603123371 601475565 895755842 560116561 466197973 49202827 966112381 491744302 321035086 171020024 934067157 830394725 382775228 836685409 216903981 502345297 285920269 485373862 180487335 646322108 589566987 893655885 504772902 832295702 797901607 60751622 590414076 153054556 962813987 923879975 988819185 152647597 857094891 530852620 580261580 217527941 597730063 60352792 536838595 86195714 516822503 147014631 690584015 727402570 959459762 112285208 829212169 550675045 66444596 207002102 501921364 340290415 281317367 65248116 165399797 603805113 261657506 879323217 110849894 975951310 968932563 425895724 994672055 722445958 8468413 431046525 732183390 329390550 774816035 200418174 286648729 479756250 248542931 533055240 360467135 239778049 688157551 704465780 292027379 964928518 931444870 199976233 419273941 341215239 469509980 982811453 502287440 280096753 592180277 707439276 449295194 394592117 963040016 141920137 714131073 613526801 293810594 292901113 91844680 155015226 640246656 481125676 53801667 262807187 911285911 304098028 971525162 44092129 871986232 852310247 67381444 572777446 705682684 507391724 800034845 874986790 714003503 56923309 72176613 325324468 218657160 315452317 92606253 518507827 484754843 738130336 759097440 94587633 124740876 833769523 489710822 246101507 831065424 580338783 883348320 347025897 188654896 22295087 169252041 19849649 267639927 242358643 126448055 292570536 555282536 962910358 258684913 2546283 397417660 304483000 335767965 303847054 909162351 717432530 736178890 388956138 692536317 666337221 641085859 802849845 788711079 519295879 428494195 356907809 183343952 613225171 538780966 359914984 138710571 291661261 350303376 352407185 97297932 185206555 875892784 583426933 74611209 695337063 141155571 647246947 975992393 189224369 689756929 606652405 911402798 501880892 696212123 751375527 94219217 410983667 355001179 483469580 198311381 89581711 667264852 630920046 531036481 703399725 211043461 129161448 546742132 95566722 207869925 511967816 496407700 185302022 906330083 859999889 439969957 354554159 216384654 270138091 638767917 630794494 385912710 650224205 93417567 171721655 899587784 444895087 276558550 547378149 129643153 728746556 681591669 995033247 549722958 174882337 176809006 493661434 342120606 543938517 895218016 698105191 844526858 776154583 173968853 115980318 534569328 241556708 473752402 217056638 423866155 155528991 322840135 721813826 874605022 803785039 417581064 889860383 921509272 496508536 807507040 872419497 97934454 328549316 179284901 597078641 836309500 194774601 159213248 972780250 63590077 691097355 550787901 280897084 516146842 645905560 461542211 660497760 899739107 513005425 353432347 967813798 788474497 836029593 407395520 58417788 36042136 158668450 805692839 946340809 684830382 79600575 696510829 441685670 842776101 719053909 780767580 897586395 265539107 817532102 883744397 133203527 646122103 702571504 818456185 79195687 173826710 215076182 399689401 867927942 284342169 590250089 995965723 62342579 683236105 743941806 324557444 124121228 264574084 803435951 474523032 592567475 731051462 716631061 723930627 785252330 214354697 845814109 5953415 977992582 341303424 511646128 237044188 750207907 977214909 108006010 469165536 846132170 643854021 172636178 621535770 691304952 394055332 359404442 266285810 348329723 466647764 385213114 845702265 450595211 237231381 4840032 73061671 950688651 451583548 453629353 117924853 568895326 311794149 726819610 403952722 865791321 34133116 763104726 711726316 882130517 748404713 915965033 994634131 469479772 197341731 325524972 418036569 752276882 653257 574075910 500467059 871543261 538837104 404174915 699916610 875008549 691331084 749035362 570798144 203359285 47043128 828723078 826023245 356128165 976423882 289902979 878257389 744128990 436790062 322552 673161970 665274558 667656374 690606275 342701334 402662893 128592241 143985881 930981217 770961570 361362562 240286774 261141453 302169385 537721801 122198541 413984526 881425462 699828266 551311175 812022712 936205770 883272444 851778360 175515328 203129155 631676147 822277187 918506964 308428240 619364167 903345217 649083786 308285600 790160327 208244307 26018819 763142646 237589780 254811426 582767775 603226582 216286782 802257576 857147950 868515236 422714560 269993294 591576143 204599012 101726299 30035061 900655046 814729882 676305135 510856540 85322704 561001437 129749703 397737666 593605040 368757086 371775514 239158050 120521328 233436336 540253946 168695598 215521521 313061267 814729508 780261045 861180278 512265200 586868361 50283820 680235252 329609543 859649785 92460767 448552819 467319736 156698576 564187541 189875527 899955516 762989411 62913213 321642366 920628023 546374106 125482653 156299279 261750960 657980609 493661499 830928418 150667210 15477088 728889260 426871543 5522376 727729094 680412742 918052960 766654959 522287677 328421429 125737238 284667536 347880416 169947040 291145245 151507558 14048310 820248718 533440972 418041318 927497449 419604640 448356867 121022662 504687116 120830580 826342571 524824024 250584719 326779543 412834407 430077690 981171230 581709552 447678933 246814854 342414925 657767668 32485996 8791009 940984415 804422364 46959599 209828451 266905453 826230696 713115742 968413879 292774873 867161787 907771738 418777870 652791001 561801746 112194871 131691883 490582201 927856380 93698306 293912879 997670737 891150147 29652245 412915072 771370724 283716522 569008119 815603903 639675842 471135187 245197330 389680511 956459142 44355430 269797609 522738345 845883239 822951807 699663430 660189052 463662873 391075154 732343711 265335936 970907897 679719147 357006247 775887049 159420610 837619084 638642423 914175259 43460171 825093128 312074822 888309900 388938393 516461584 481054476 114585670 629502215 207553024 223571228 785190258 800436010 307124415 250037004 375168417 163619793 542221317 218585033 454186080 300249780 313659991 412408061 266226648 761698427 650214707 800713075 252615823 597777323 129788649 562514025 318803805 986310527 842872414 882218653 102017026 566792682 247714399 355756656 587307977 438940388 350972069 759741244 831110791 405557287 855012928 372077294 436088784 913488999 215651138 305768519 487121966 715596254 413456445 752453298 730845786 608731904 28230814 505293150 305553570 49869314 760289578 910251227 662302776 601446432 690781211 379917122 410034730 423979998 825001757 120875349 256278373 993100107 62521052 390486366 958030884 67107242 371563232 276819013 597280718 688227733 215802062 24052623 216162314 864456681 592456586 794148654 275643402 598540972 328564776 166847513 114122217 368764650 236758197 75950671 77338391 534325154 589764679 647752290 261656865 163091632 536403982 385410621 567728297 786439237 433725965 551861199 10027113 660138739 372286009 913814902 208388054 420717487 727873405 15665925 336749961 734840171 658466152 761399486 635252322 671205603 494021350 470762016 925375631 67327028 908832938 2211446 854360049 583097188 256614047 934680034 275653260 831135035 868061208 360481270 393048417 732484395 455148261 938924148 346070106 90868954 396411264 107492016 870406566 153350974 908538694 727065145 621376280 947901860 605351986 323301539 965171197 206466661 915749245 614439649 245333052 52941597 595831941 577993009 235002875 635939677 382563552 170385547 807741362 818117151 421429851 295455595 571669894 685891571 498667377 712622754 329468015 201801309 474078450 395529486 820845788 633417700 671138649 430663610 419334109 240429550 80819016 76732713 493983169 122425160 745326196 676750050 949188382 20385680 315986673 154232104 865182292 923291421 856732381 87213039 740878857 804172101 920589895 703607789 614948534 561849579 971276472 777226763 811715270 817899981 460152264 994377334 282421809 55546211 328840097 845505973 842691109 10317241 894887711 5023439 988522390 720555017 686603841 207494942 967491382 736697696 815418281 423056468 329987555 936192965 616940295 837206395 124755521 840022002 363084987 223169289 253854564 776111062 82745829 345353724 372228310 476028085 648507097 205636213 9813376 215876430 381427492 470615110 429979837 579514038 129127433 193605826 135886439 658375739 572201883 707342989 881388308 916772487 783005139 884502885 349738990 229479306 735796580 610752570 670751559 545845645 297499772 810822078 778215094 824376364 635450467 974579929 924851907 486063845 318288269 676440191 926651427 91699504 589641850 238151763 682277721 93877766 49190936 544150620 90902344 786662577 875016876 607632694 608950183 187460644 458571067 399369431 30136258 121514804 136130200 781473875 661211948 889270186 259786756 297413033 250236692 265926116 202892851 85588657 636869605 309134567 800925910 952813382 371273599 533073263 254682059 332574788 664390725 918501894 638134513 972051779 84640481 977924676 880168699 21691821 605990606 126040003 6347698 69901130 311118083 626916582 611121003 84440664 617999974 847015961 116892093 312167936 2895060 995145129 858250104 157255478 108607694 188753863 78020671 575299245 334963118 567668300 830695343 607891537 25068538 529718538 15339571 260692101 542327121 268005962 143189741 935898954 56226059 618246968 544662933 393414147 590981772 19570587 256548077 847099422 627115544 627672050 936045534 180172984 326452799 394371789 859624223 917566807 255215983 517330831 24112223 686832185 506695417 930886437 961784131 437380815 841207784 638647608 334728473 958615058 186610943 137387952 892345574 876373216 639361196 55910436 912191675 32217313 345359572 339166330 746029402 189662683 248897062 832110201 728025576 318019375 880702157 63505705 475789162 301090996 322350523 1696091 341497478 839026770 181448195 658074199 986004248 832670900 393017246 467571062 61441188 285772449 943382762 713109207 809995747 770265739 890848063 518578203 264272092 796224444 149071924 259792407 584746249 549474260 929502325 261914005 361649016 691154601 401309616 73987306 441048875 466609591 895148340 515416630 608650666 529646440 675690155 790487428 339940802 579477043 980266027 5207972 594719563 974752383 794065603 112847048 775167701 823461077 538861921 432478899 401638737 575975296 22006544 284505581 630823724 276302455 312382080 666281634 728553146 769578338 14907903 16903110 577833869 819756312 502331859 563079864 167203889 442210631 506997258 549140939 307905189 245843665 976242527 430812568 885012614 628703920 113485129 879286502 943526761 419413252 598021323 810605906 858081212 773924229 196994331 514393104 239786919 92988558 152803121 366341152 495461246 53034861 246025101 574338603 383533904 807852989 484487578 119008341 225068778 86394841 290255213 934332811 422608940 894012544 720590972 751895821 949607437 200642846 313906283 357236247 26361935 638955112 507219011 95998256 165796728 799534884 139041837 84295595 506261848 337464375 837360259 827633202 827372091 673444690 467112647 61246596 832933468 899194506 509285287 568359133 387761550 374506749 886844410 145375297 191466719 620115160 71565816 42916194 4810984 436978441 657433230 272065655 979674206 860334208 669917707 623897605 760357115 755927610 686029130 586144397 517782283 41696263 568953700 758968674 6263863 655635383 404113192 713850496 481050514 964558841 442869631 181505107 971746166 954683334 316664791 103396364 811169001 476945084 998445384 464830700 694332688 222029317 533990831 981826273 625212526 176784376 979120343 812003988 98106410 272234017 262975282 38480609 446302472 764680875 653311371 180405308 424923153 519052108 599685549 524192633 725449637 879281019 195037791 603273008 990847846 311232268 977025872 419020317 943530743 928109877 684635789 960303242 713406545 70633087 306029950 628711503 16141139 146699747 16583876 566971298 746536712 748750389 508448155 217549027 336298967 500826072 131425840 853737439 432089833 161681004 206118127 905241620 617753063 651332767 898067935 344768769 955679651 60905750 740904683 919366722 207590226 130063791 365707344 549507554 923699795 933829613 341315390 104295793 39969416 461462981 365760388 274933267 125010648 40064424 713011108 180834211 930576283 351980020 826280356 433421500 709110245 757388476 358184388 915583510 899486738 27002296 955181256 268647356 364354590 398192752 807237797 208686177 244477526 89052656 355781998 792776961 476144378 277118077 117882617 51645750 124376331 146454502 33579456 143211826 624760788 125668583 746278762 583326254 985151561 958514482 956820598 17837981 126753597 355982539 409926855 22342399 770560505 956057676 626663039 257034423 931350788 202608949 220479047 555183404 986918626 668557515 401718022 403469817 383048138 181276798 122143454 322872143 746005063 72422313 303818714 722277200 396437195 450862086 335567027 783003942 91928805 946694560 689494919 609165041 584702393 905430231 572889733 231629443 303999740 20570490 611599879 699402791 822042470 434353888 626776162 634306651 258816367 12595431 97252164 961481487 252617943 902595493 423717235 283270098 383502523 371621867 459364864 443245349 871024016 942907080 37486091 152637467 580856484 398399335 25790699 667118323 439593979 12084024 425497747 610162951 641684281 735107124 848219142 213716370 239685830 76874796 30403637 649302962 696019846 779161141 449000407 304928687 60027861 913846967 2868239 445891587 548147969 229596044 542683277 924574909 749775018 802603430 118200915 539855543 531893009 452678351 583162772 411652458 462964326 981998146 89800246 802392857 9785169 249002279 117314718 755153697 311896075 757673225 114144784 832911788 556050630 27024055 769668741 273345554 870172444 734921358 883470834 46076135 465307177 654106886 279788460 27758767 401597408 660914811 281668168 45009012 589918625 306806653 90598787 775600135 162242569 776699012 232742010 562551854 470769580 630565641 165135694 40525805 730359823 698351970 124811270 331940303 636965173 86660945 562023985 81170528 592355211 406273559 809226148 486777480 714422389 543436248 13522645 334563397 527320500 847661281 942276205 530238476 716926300 917128890 956266976 150387723 142484021 968804060 77141206 271618946 996226004 811511038 771083732 316229168 739733325 955590422 680819174 426437886 214567090 466740290 575654565 326498291 778422916 54532102 923082032 23825927 709208616 277873281 149768495 261927440 781158025 677450392 63133141 675408584 242405723 113764647 204802639 665701336 449023848 73611705 605023421 724376146 6657542 962385938 370987966 470863637 27529473 795280689 913356927 891209387 810495623 261462227 185452714 668079812 533503200 365420808 523449523 855987905 665951562 763218318 58198939 782251250 814433457 449826700 673452239 191483711 910826531 427183819 611996188 882804852 32865610 633345625 51315743 700913404 170633849 535852874 865639779 21187591 897289467 399796530 454246564 298301955 491143863 703205693 52707989 364941122 10645113 766233087 658952548 633406433 609982116 317180315 319883264 939192221 118356223 779971229 822845115 821145836 771182148 200604766 632703970 333917745 619496505 109100752 209146502 808421375 908926661 298706348 621629387 445590213 757930859 635811553 231317988 398850532 790461255 316985638 103638197 684749588 364175293 109003033 174753433 76603397 773212248 600772705 67225937 913503642 251763157 694142311 973223468 988960640 111958861 335753476 898885499 248659106 746793313 610450719 850119097 806751326 556709485 642038633 50730964 466462834 586017440 328275294 610265596 789209379 812588928 208293641 863858123 273635180 219780079 467371028 611526536 914558118 536174885 880741567 440444689 995162207 391501300 22324529 134945498 672275807 902467477 334363786 739280273 637725114 874095736 23561059 298845085 946841979 320579305 345999950 292269955 272433345 998446413 438136812 67550622 803185976 585749136 431062622 364445680 260383685 480548364 677198186 133721088 577104008 218344402 786030215 223480834 561616054 158352470 819354573 328523691 427894522 24552620 740589148 551138882 672018153 692560312 853925552 728403400 806671800 521685724 343889457 400909660 490468913 210168954 76194994 880083977 979410876 371195165 623551477 528053527 721214546 659637774 374561776 181117481 377743991 670779127 229627805 257368205 836523518 359584292 683814474 278794621 355220082 264177588 697900757 112127469 845615545 302323382 612502723 9210526 269018812 133245410 11715679 615037261 91542460 255948883 931449849 139710335 803739312 217042914 680518126 628733687 979544067 312359088 182483414 882654335 524727526 143910291 882505457 959036329 990278313 84573970 365093202 575924182 114193040 280422622 339608635 798903021 731600326 195311435 263680388 95085853 999220704 673706587 363064176 371761192 88440719 737438345 594056956 702304734 256723315 706359788 395460230 610060696 874643951 282197612 921572182 565930266 357041263 848111795 662923888 63305790 185028232 510663211 443877247 724830048 631833868 101751443 783154192 696752107 453627154 138858169 835426555 274958846 227199205 983998198 443788480 358833591 426557936 302736789 43657535 863215379 567980783 107433627 162055010 423265652 85445060 275006617 415434531 155305065 759687477 181806572 475511857 872458238 808284427 976540649 238909894 630357446 194939158 846160307 78836093 468866845 818548720 8853966 49473642 28507473 468664339 603416571 455818050 931814842 894158761 828011096 123709460 793258415 413880477 681204664 918681913 158626499 850712727 703621731 644026497 466344014 821737428 859975663 483898727 386382701 190927095 857259557 407091685 618312796 18265106 289475229 799454915 308845383 583457555 116704606 119763106 960337332 696930368 480093328 834339202 524880247 652145251 635693148 240772912 485955942 845154146 566147013 434761044 638302696 139324097 500295095 335891022 698263001 416383677 882934612 738829664 572085213 375385682 427470862 65877694 337482394 128514508 182141541 22026166 220403662 711654355 839683028 28174249 942304436 86837261 681582166 262173932 810023951 586487004 974701049 858965637 57002325 800048577 472053324 174180242 101291206 483734906 264169872 986066094 94472224 647001723 798304518 945086645 718560948 636700487 202386879 816943580 589395381 184769063 816149240 77718133 491013149 737393886 96166643 682265685 27763959 744203755 96345099 280510637 828779006 737897415 780841405 719826287 15152173 294628649 829243061 933843397 11737186 438473885 169499291 618163802 554238608 826573047 267633596 451922652 925986956 842448115 803847432 133250483 778820163 782399899 453220010 187323903 962749747 973455280 682052172 826063243 962182014 73697666 463588706 445716853 121857797 913820126 492071565 676302355 786385314 227436106 105002564 557173261 115566985 877865538 80924800 116948223 468145826 156250857 516223533 419658418 669102769 983153112 74766048 954881823 81742551 580516793 813350732 430955592 96827293 157169636 684215672 302343820 512479017 739048246 562613538 382906856 868314211 122829658 584390069 732123478 579518220 817662047 683683601 749783594 936135760 899029441 502161025 929685602 66630861 595101741 5398305 820198239 20440150 337181560 290613834 324265249 455043503 463862278 586160022 467027322 620834336 438613921 403099784 371171827 629509811 624010714 437962378 165534800 813419526 854799869 755576695 657059865 792902085 874225837 532655648 205876287 464846714 694447474 821770857 862197207 900024378 229768571 197524706 893601858 338663955 496028722 404402578 901619220 481231649 331011005 439523831 231526717 670543120 593634761 895732663 600170439 86897725 254241244 714770923 622764727 849312738 32892238 948013243 272895129 923133015 943882583 883224741 460374474 283176118 862098780 164266443 676415873 737502426 818635078 684796579 555326207 159810668 86102710 322694613 440652710 481025645 906666609 717366075 725722526 273060751 906621671 986416417 797788585 814274685 140168266 696957094 327140854 230679741 472909535 321615442 917316586 578798042 873588878 193871704 486795223 54455961 385590226 608878627 410212533 853526289 604906716 319891041 519477070 818617298 430520926 439320685 258279903 975621023 844898053 735569557 628367132 528026060 90683133 531566803 62190624 622935180 434770855 694503077 102763699 883724033 419267977 668522314 242698811 737306039 807389075 253224807 256478167 766986441 246283178 965248876 414385876 496453982 228830384 77205785 954715411 482865549 622956399 394724445 834312275 554490177 762943777 327396806 752078327 150930218 899968802 597659022 976194955 493630844 21840632 529067975 280780334 632415992 326194595 83751154 376138677 65173453 124015639 913788246 651577932 76144948 765229998 605955250 808405894 429845824 267863363 999891330 892867726 608416455 662427852 718970854 345933603 338768526 918159105 477393599 522654483 403590762 66238099 832164316 530826140 477091500 100371926 227742772 601185186 131977832 466095151 579749637 551098736 892555317 616179592 770511591 518408437 85473729 45609117 483267667 651200107 89680702 320428816 29489070 958293308 522711700 797220997 791533112 95830522 509894666 175698713 521257363 969999208 61031209 687129997 967601141 792745696 91649317 171909554 711519118 555922490 975311627 760151509 9065413 869319631 616529576 634965179 268328038 132142630 422509983 903670251 451921069 97526581 387528894 768601052 687421445 769370409 112143477 777861952 451188789 2163384 403507949 57551469 138932625 10938532 356590827 771762354 721876702 180988156 619670861 588660945 640287299 596972860 626549382 496995724 214460632 104318845 993082393 584101664 991163076 971698772 541223825 886873765 203198241 572702676 431535910 256125855 305027818 375316642 368859633 966760745 969625392 409522255 43806748 956134124 673087495 559512808 517500879 326370667 192951206 875145807 174626769 981604645 621563818 702834096 846847034 937019045 670001572 111809982 230950339 511827506 637223372 358876766 442744521 304015163 740758310 499647974 634847266 819366726 642931058 103875974 257424322 110701701 140959477 173099990 64993137 221120622 532119692 740820390 68690420 328401019 523100145 427783460 139602045 792136433 912827806 590658882 940348871 78747030 741429455 239285439 943382107 407562883 330301671 406267841 805034745 855181512 189469047 760365301 699415684 483701432 792229781 611661983 744495576 171665108 951697759 254108985 779909311 650746094 562424430 753971816 502999637 136526698 938265823 152501665 175292805 149130591 663633317 423958065 935288574 75226460 393757095 887881815 687445176 244959430 975892639 396110839 565137703 948277205 202423535 497821681 97946758 406452823 394219635 144062694 618848490 530804666 503197929 231328972 944654780 989109978 885094651 699547033 29620910 941125548 775453785 298047917 385621628 327709042 706300478 759698565 308637342 165155032 735890819 25293708 466033517 856753360 367325919 33153132 768949437 858963739 896156015 109107210 232338628 409313923 866210052 562964700 164480916 928872491 579549765 754356437 86226680 772548007 383998888 267600577 209131239 514166068 326288322 286361823 424661310 551826415 248279281 707037040 844392806 784184642 436055858 635976733 790889309 322766475 586403805 417710145 570695909 160159733 989958563 869061274 272624554 196994785 850854661 148871432 867645150 7802145 327724932 638740449 366212460 540651298 94457891 265263357 793291700 790321691 874806356 794522224 902175664 275574664 330365761 913796101 415838320 637050255 396233096 737537529 979460687 632030143 238319442 969440665 205491410 111573184 2429289 64927493 291412292 971233838 664078422 343905684 340593433 916215498 11512111 159253503 725652747 603726464 814774282 797440963 750489797 688047439 559632733 942640683 902961542 6129108 761361079 299916916 342190105 838202481 898572918 360637526 391353281 937306527 931627851 690151019 418245142 767774880 943189843 449797783 396443492 554020230 825115388 811587067 430830573 135100177 282254593 450998133 121738569 721470261 667487307 365976024 726563885 476057263 120820677 719312656 816759007 18807609 807312814 325969276 838083026 411286899 438209514 228390783 733508112 440260054 105867543 844103582 363235510 156181348 721578913 256983013 714360359 434000068 301169304 677792555 198678221 860393741 707700954 640891250 887694591 752247176 954087354 975873853 952059463 247635932 507785035 102618627 750084934 860489204 241378470 418102578 928913050 753407897 230943239 704314320 311240558 77621856 959147545 360415382 928609621 647767796 253840470 836398401 779575475 513435856 550118739 25072500 215772084 785824570 658752 142283618 377129822 262326658 511197331 451934037 69299551 515648717 174799322 604142385 63773138 325188668 307547999 403387335 500498608 450407276 932006024 212079362 787161741 587958269 97571412 91465257 798898522 373292074 565141461 838266380 508531919 640673623 917261916 635740689 99837203 301487926 506035097 257704665 592542236 62555040 807014378 628083667 5473865 598807356 205189601 583180367 912901171 317924051 52377238 771982008 419795757 438034825 455967641 968911274 947157631 258996978 131204756 858790928 70586906 375558699 67969587 898944135 43876439 818552550 761836143 230392891 828153505 668499475 987910920 681469589 966468343 132729771 437699000 290530015 574244353 438817197 490076889 743481528 570882096 749659048 894479529 99483489 142499047 946939838 110065956 457672951 201204735 887731391 447422272 281182646 855141830 501956505 982775320 872721572 85649388 249873093 829445793 786173710 414476872 384800401 376026804 22681179 555655284 157852662 694359947 464325338 249434806 140626037 929673756 87464155 104355927 389479520 922846404 47221158 716283985 678209905 254347712 879106608 379489645 596658329 474213156 770682025 201004373 704438470 991773985 791636766 449936760 154260631 779652194 225180881 916269260 607978227 655961965 802324962 190922860 387345123 22482461 379727034 3252393 1402974 789948835 894668708 860235109 738120412 592720482 679608788 152461847 282886669 223781601 249780498 656806652 370009041 612583827 187269564 482305298 188008932 150089562 269179630 788342703 664146058 768953822 114234332 370287339 879761862 300257787 455854906 441304352 203942906 506482570 951211047 451934660 750246258 253802614 99403641 383873381 219657590 619483119 175534645 603790450 755888001 625990796 476907542 669056171 8750337 913902465 626213078 226888027 435839557 27062013 321767010 466131679 857054635 251202383 113517450 83387496 972091140 976921642 508841812 403063358 403149854 208672015 109306324 125762051 63983017 10681611 669421983 974514619 833530297 38250389 327599884 801933899 399896839 975981977 502899352 706148621 49017958 202250251 342007876 862385660 885710147 216910647 200810615 392829173 101951048 408360670 463784946 236676336 175759600 22383806 589341748 492379713 623575089 494055206 99090523 424191823 407984765 798679025 285736704 92268918 805255984 780507211 683244079 135423143 112747511 183975268 860180372 894671895 634272140 935001758 470577731 362217344 551265404 814664827 692228497 753000836 645762406 750311073 91591401 315508352 175693154 793519201 242801315 931128698 725742084 418165143 263390529 483155851 31720305 166666720 20002335 56713294 336776685 378129119 344849837 28332207 506921971 942015525 178484409 926993117 654996671 949936737 873523769 412619405 366727356 958150193 760112040 424272461 745870916 286797441 466008823 334693848 270395060 538869775 229348073 380700427 151897201 860094884 462790039 996142596 405654174 876656713 443500489 571458238 767400188 594306869 63172657 602611919 719619616 438666826 44843903 32222245 632553956 339242280 68055679 528206268 293184130 277054389 457369745 736197210 855788086 330002559 386689401 93424153 763540475 896500428 496318040 932890953 224389445 126233673 620068292 415792755 239303101 914405468 883505782 297367225 229049759 619048586 236429456 893490185 494719609 239762360 111751598 113887365 809851445 198104278 5130202 21996431 397689062 533177563 399925354 462653864 212185076 989054296 943021971 3576917 49289945 920020145 708758644 341163972 531612199 346199018 892718913 642749121 872073317 762307770 282140197 916131803 325819126 925697006 669635391 487897011 476066563 884333496 124646014 82661109 599746587 851441060 5606311 261046834 890094355 235843494 106152403 276197135 114495120 720099120 517068409 456277743 422025858 358557996 729094656 983512990 340002283 58686003 391075648 982470223 588971063 963829619 512852269 115587230 320741974 945382674 179620975 766657766 248798000 877378141 404766362 266230246 79607298 390003098 196963681 121086337 233857481 512349057 49547044 411239112 619137806 981090984 494342500 536885574 590875022 199746402 361762965 283660923 898867387 691943299 806300591 715371126 381514402 222280218 258057781 492913494 729345138 892654793 577808226 988988530 386084734 90253862 443996355 572387814 582810007 954439848 169211265 609198075 603574680 541381673 627396415 245710021 173450834 881989036 661793796 270561653 847881818 513507024 941956111 180025279 393588316 332357000 234829025 339881794 655471336 263320175 225359045 235658652 456836169 660990731 423382361 950217099 3878202 370855133 161559172 900985772 676103498 290386988 431109006 76339431 850584317 871375663 783714213 317414142 127792983 776970484 293050208 908546717 29814333 401518813 634575574 124520725 281645399 479439659 939179256 667644541 728670337 509728605 775444963 689333682 245964103 14697727 479832035 576323125 621533843 482122560 501945998 316285447 451919049 207612286 579420174 3411551 376112556 916104099 420956765 689739145 771988060 558552816 303911128 901386762 425049024 561019295 943733972 607728422 996327873 935597019 587371528 586827857 494049687 760930890 762745372 711722552 940068996 653141653 32461529 504100140 494460025 959125778 261717225 440586782 391790911 538239669 315015705 771762298 200075943 684649187 608132505 493097059 227161065 380910915 885635157 947821151 479967052 700901397 19061438 598702041 698461837 511574124 387719267 554711138 349675182 568150532 734804439 281140890 534670936 798933622 79651807 109041892 555744482 922198318 787521875 781637736 528113695 661242489 172359071 425625800 567435596 265488311 402025269 547999265 502836428 703619672 7419131 750740583 722968531 784744089 203443258 346245061 629061230 735114716 209912962 216305290 561161403 815270497 804573579 389738731 512580930 459797605 272539045 8212 461197071 945770298 817820138 457598747 189679060 367332039 371016796 181729547 274095135 911551645 904530642 375372356 984037219 585612294 228374558 427265549 818725815 562320953 373627188 115390994 857792148 290411874 912151342 868769817 889574908 684397432 876134016 529634615 451234662 174028931 135941728 277414846 243216992 890999538 647543961 196365841 941453195 893547597 624417294 637385154 629447191 940396739 608296656 940364323 711403913 242351340 652869022 286507952 219281710 194831456 642722026 429955576 592413579 842330250 191676396 349232784 290393547 250057821 25407445 350309780 872464180 599712228 513325693 755257511 687538565 786490413 506237763 504640493 161973409 331150267 895582386 288786677 428398023 998700002 411898161 441528023 234107409 402854263 593474593 866395540 899829309 851985287 199377081 257107829 303232064 937012845 754202151 242865047 555834192 476433771 863471753 359557718 527001622 17564653 359874781 929082443 347299749 773695789 702409805 701137691 212360025 457725710 294024955 284277238 608608395 330378487 951552104 436477744 722594638 664097239 729477110 811899199 39681828 339349809 265479167 695313466 990956681 146613467 384538833 746073884 299012944 912973829 950948278 353219172 672233495 796001718 79297031 749767947 963271436 717480432 515974187 662999042 764849123 741454010 423346008 252034231 58793038 443409557 733162679 522401949 864462573 370983605 759712820 838430074 248457969 788916057 222645072 329888176 12924771 105576068 55035971 992104967 949281032 195955491 738331992 733435032 472675341 392027588 222909122 958073159 229148297 96739018 634386937 869049197 537191053 216616564 394246557 82401689 402419313 351427527 217778106 138941793 365360022 683838298 720241372 916688503 570550854 937282430 499745114 646164622 780105994 274560639 499669437 499082007 520189417 450060586 611350910 608445730 233593095 255497520 603117509 142422945 408560315 298015472 212620121 882030092 406575626 98944913 787992497 205676836 111617279 421226558 66873044 935839564 743032268 185805145 137959319 641409417 818979810 653557165 627450798 105798003 416287405 141726156 179068391 739403399 115285408 231893272 213928359 841231385 498478436 794921377 875516219 962822614 43119901 424964152 338537312 588700526 720384309 529058483 220498703 729484229 739457750 950461938 10264474 942616440 364205232 802663979 897298913 830369242 831054723 163262001 519722407 152371568 420902888 183639386 767675165 90069839 935377026 121232944 95929457 639661685 381839117 466394432 862060244 735043292 370628628 772510043 457003155 741735525 599884374 86747096 337451981 463884395 783148945 760222724 232849791 388126571 127094392 408236172 650430628 222410477 169851796 682889353 224120109 523743559 953009206 633159988 5069779 280894453 964317552 170380651 270771385 670331111 381881321 538459874 153299993 31323356 474336714 770907991 130571501 382965341 130816525 325485236 892120557 968771543 953476305 771200034 567418909 218086203 860956181 481576773 399027868 399713152 235811659 176370328 984247978 374229104 548761201 738382207 162578043 61698086 252665643 873410962 843720981 851885948 932959850 865907513 709385074 272967622 337201410 308832556 582843342 843974191 565912708 435898083 137538688 889555467 464297391 182733591 589442043 397899908 756277680 953683478 775234947 616976676 433747790 43852939 447426573 520460851 654546785 98241950 545623765 377721123 81267829 138583375 540055143 280735630 107185845 22028495 217238745 859276227 557799363 903375919 897542758 841615434 911727484 741679882 656909721 41991701 422439417 130233273 426404722 210805684 806354892 449728123 66068670 975795097 334650816 401761804 529567089 370263397 223777093 478810151 295232818 752654108 828003584 320647573 728348318 350406395 480438632 596412364 214821366 252196857 713860307 426841634 535932182 360888642 445491332 11949702 475302404 698823727 199139283 552179887 918721015 157977210 199949893 90665550 99289917 815019122 431952351 976927169 404574924 540638025 700388814 79949114 439965674 125910441 429455258 560896030 644815508 591692053 411308148 477083060 597568808 976280413 430687693 520403571 455754861 935120090 774824634 701147083 48601058 879983190 81766205 742428495 813293600 192724403 122710177 65244180 851302005 300911782 19578113 13936577 282026620 136961795 150271108 544100146 603962130 453378542 849139949 826645141 150659302 190006128 356907090 541035365 699455096 367186676 105406699 106412910 856939433 406673225 595268964 312350813 719533760 539961640 471298858 36983709 163644021 362373041 961785416 118259355 581550973 656644308 812230033 570102703 831187132 127883679 3261572 163773744 251698836 637598465 453605856 730582420 503410205 844795082 397843704 812136763 185613448 575729337 340948197 53107065 246149910 331503284 151140924 884742466 81265228 558157124 832591363 895546983 293559408 112863875 513078460 103342249 903380702 374941192 84608913 562585789 525931566 667040552 855328365 63077111 717542260 660873716 718893952 787520882 13876507 962176801 295882228 307858875 419811292 725712926 616978868 801803515 668613126 864554193 922089183 97189486 171907818 362720583 118116733 744550723 911777634 631203442 823100424 331310238 691311912 853963822 879221446 393916681 82032272 199020860 139867861 572121239 629021516 969374835 743140459 498423805 165957129 997994362 150013142 184594597 468599552 862582006 464209937 282316179 825658679 978769379 223371141 178938127 478871558 961815595 108615322 344606747 162881866 337808746 983571519 171365506 727581462 145555357 539240932 270982431 35966755 15240497 415869165 946612934 715671416 520342400 72500210 404417772 805750959 898637938 451144078 574638836 185668075 851862173 508090538 178385645 574928157 485963738 739664127 687971704 395497402 918156224 751308285 495145362 901468798 137698848 893492091 543804934 564044055 796220059 476295254 974528713 446585774 324315679 648900428 78493855 623186702 702037644 787167235 157174107 819415857 661796729 193315851 959642987 718582778 767707827 374622971 883915544 417992868 881345760 424734177 914942032 855284442 751912634 39534045 499412381 162624231 316462150 157529808 209728405 309171274 311396369 897966830 302905276 940066762 526573441 473811437 724855617 3263789 60089207 253151833 465984265 82162382 331678122 728668224 947950894 614879862 332344165 903035391 573121583 575312324 797867915 421465888 222511188 613509840 618909487 205233716 216471577 850978719 380078969 583193719 663772345 701539007 840527475 376624165 69005602 3306310 665194720 650917462 969200497 796673396 855248613 229015105 949658482 175470245 318620211 126183359 730128551 381499795 854874384 160143025 621385771 204983061 165366370 890930014 648945734 131391458 344485803 598426700 836136506 708062653 872869325 591886334 155631851 221096800 540218899 389647866 998349714 967760424 441002826 921379727 466908290 483443846 641467602 569263686 323955852 617402532 555291695 757832225 513848436 353803782 355870555 711663351 794884433 843028972 770596772 586479524 674522881 995733094 856758422 339708237 437460533 2089964 883335698 466368857 370041575 30628522 11668691 76576786 457026146 19506683 174124672 650705590 41288087 436540722 903184650 223546033 612782540 17295025 323859498 363542294 560574991 404014358 320281324 943800520 174205576 339943796 745565197 760725336 88594623 219600161 983184528 572896917 58625539 294288897 999848640 110653489 967927893 115849727 75350422 597997763 997296877 633956648 827853718 596427893 190584521 2801324 976330611 794587166 590475967 24677672 94126871 377687562 552695184 766649908 34043783 428862111 718306673 365360076 650828240 128216621 122440002 268284400 400884845 968190301 35374079 197242546 446620853 978899335 998635044 572749213 467639593 776100778 127914036 626730495 402195936 594496334 364063320 303806238 513309226 54624077 48221128 411498606 150819539 979093336 136153906 564171925 13280793 970730953 940422926 842440690 42792017 530973331 925949364 200902781 380531767 904491294 118072683 606139975 550418579 258101930 571149049 29745503 363054824 723498697 201028311 607928583 222764255 15290828 688254073 209507628 432180392 399343424 196967568 475263930 946532982 54151582 129441884 214707871 545609888 44478082 835338972 131768021 736371983 173320880 472632822 212799038 737704345 930554477 384321286 163982105 566254839 6352344 878812135 394235812 472800404 471151331 866561808 404753504 271898041 282009681 922086661 536469943 273032102 961771715 89920222 500691885 601425951 402206019 608766262 754350795 793406062 556739449 828879055 688300044 861131722 513733232 955282124 764439531 592542053 755644214 384106087 704198287 24828098 335919730 254618336 754721722 671606082 73478859 241541634 981205691 320387179 535953163 854214584 42086641 846969448 246265935 185206925 743749886 220378175 259937379 35061361 640488736 224259560 45628246 839393125 461193237 808477792 356769183 343520293 781383785 223354150 393504709 949782328 184380674 177225358 824283624 105232063 634801385 912882990 1754921 730662987 362487806 904517471 123197216 259321958 404251859 271603433 174967626 167258650 843049342 436281628 681284732 126667730 439103960 24295239 203221531 54351726 751547425 996225186 357733964 722656888 88893788 993246267 457259389 122744754 86303708 797934533 293257759 957431364 710983694 385183864 145629917 890498745 693695096 675652860 421281941 958801083 275581154 38384156 287927138 404151693 947184457 815139076 295718947 344788712 186611549 225518658 994644199 363385711 635589782 472550000 569302877 567006917 896386808 477322636 199165387 99287954 179899057 190173325 7986077 21661496 874677969 219924005 197375366 109405699 696410344 995785190 279524602 902322151 607050118 574663519 586194370 70586797 216304347 433675781 408453740 873315115 458694229 991744030 178478497 591807777 173562109 789719400 641184688 118815217 975362591 86231494 563933862 253251822 907028375 716592094 364521330 198262087 554515903 959762377 183287645 706800173 99751347 718883270 53257712 458620930 16015110 4218378 308464596 806434415 956686121 700803731 524936868 475140012 351323941 331841664 211028461 841987226 673176111 983731247 716115295 775481157 753069427 730153968 790160056 581392828 278024487 725196360 435993361 746763648 905982776 988167762 693170792 734288285 337092146 993074480 478714932 575523466 842630384 33183802 976900230 102251150 623181658 80241486 909446625 999633143 191408193 601984980 436905532 450510053 50262816 915058123 906736014 748786537 161912324 257809921 243966570 309442764 302871501 149768506 244787387 290056485 275390206 291450477 609207642 81185666 241392763 834536305 44555071 757164477 624665313 504745346 374269538 860867684 833897740 819358463 422476133 318153726 522888945 732462316 80200053 771567766 956800188 44784912 722760232 531270258 508989224 395039513 38771475 679338344 846417544 378351431 943173935 857415490 738720970 710809219 538351747 248461265 516782947 486895065 62166656 718113401 672718737 357383859 818800917 199061681 831224285 952868993 440997657 718667460 535783777 178810545 113949675 155657038 833509397 608426929 244579482 304349386 694049820 825108943 866677617 480475814 189789998 267543494 279463811 857246698 118129801 785437270 231586225 9160135 501792181 248631433 707733420 486357908 584438077 536053720 957159108 203835447 778997159 512956608 743571043 770731361 872511432 109989383 945192737 533333586 978401121 139441610 111146014 916187286 827795474 270213745 711514225 864174820 770669588 780551854 107303779 438866431 288155124 314883961 101741353 497042512 851438815 77885468 721498734 172727431 141902270 678267913 86023299 335950766 828942366 518467398 792274379 508305348 760873366 62602991 212636839 33126811 132482705 810463427 627817347 823490903 823223416 163841857 681104827 121799011 834056328 937473563 95161487 772311184 25976998 577792012 804002627 212405074 784967646 581691118 478979525 677791250 663833123 552275291 111948997 938137484 278626718 417562389 749559851 577152262 567356871 944708934 344221127 490750295 845192445 113559904 854756997 91267757 491821720 627926683 451949087 589249616 273887777 965878110 518785236 506957604 445317501 751174982 65114665 211970763 876428169 738894556 498665265 569381542 613547110 782207877 153682412 772747884 682226199 836141368 431026215 423615415 169335408 179988338 924275328 289972584 451197650 755208552 525130230 39295250 137835129 631968314 967094467 803012069 46672135 849355003 43141153 522245681 215736935 592096371 164313349 289063548 296283881 356627430 987457239 431894222 297548344 789385456 421338995 637023310 883957434 221170985 333415155 45027917 396431258 951006651 441258286 352484628 882342469 345571019 997406218 293316955 11493072 633480093 931081975 872122653 217117464 579164650 54558207 434313421 819164776 59256797 985228967 511882638 74362672 127737595 761371681 603056762 280847591 322844470 740450280 303578037 556433853 953920423 663435163 357055534 536409840 262080376 449228415 141379389 87267181 726314587 909017695 833045939 512076300 647691303 675966315 267343686 869283104 488516093 486392154 393185195 47198816 402986759 248056459 890953011 818811722 559900459 381250362 267108716 350259695 555772790 669833930 273961973 386057483 147169231 226814130 381673358 667601270 742873481 363749696 576185883 936777753 467742560 900843123 114321501 929809386 614486993 246892768 357109155 816246043 339913084 891217916 293839081 974813345 287199004 158035092 708405587 371609152 622627561 238913194 193167476 31636451 767780393 799654094 435012952 425183120 388181292 539737636 731303425 45781559 941729990 124295434 694845231 259763163 860689036 515116599 614864799 421630183 74904116 298883178 440285128 576475642 115220707 946087546 88789710 49634005 194011374 770210247 288263227 514543278 270831596 398014116 912632381 570572634 898287459 493053238 120105520 569618639 93971554 503857384 472445199 809966374 795344252 437237046 360381274 228422570 238708254 970107331 266350969 624565555 96153811 107613230 504173257 277980406 870251106 386286289 22563203 663464653 208520223 646414570 424170370 615881829 786490422 230822632 942362947 160373019 214004525 349620826 912796860 504501952 402163020 466933172 437729541 106099494 266976508 652919189 544798745 254234749 904193878 792219480 791790687 944930061 33500215 570568350 92826055 646767523 506999939 862433149 470898087 939463245 573901607 184103692 755161693 6639881 705487150 507437953 128559874 635228048 984979635 603024575 723968642 133367412 103575204 997509128 875511755 776010492 751604175 741131770 412156430 510982391 997888413 42684721 858800040 757547244 55829074 706521365 259362250 210060928 273713950 574545221 139007276 219264399 165084824 677181256 327916479 140535841 393509102 284538155 37297567 618675018 553342633 169346105 204455526 909558061 445568554 629864215 934366848 860893699 170197517 880283650 957064280 992910164 532670363 497569612 944464516 249948183 909113626 361554657 83207666 830257307 773077864 834300469 396101662 544110243 9915595 203696645 392823551 213965470 206739477 724341883 64350374 528098197 584173029 996281864 893675866 472781587 309804616 533473614 103068619 472328325 539129227 934411655 911823360 833192551 848432219 601539179 612056119 666120698 743936836 500631349 783581499 915334241 496882781 8993644 209576971 447523499 523863213 546934824 330612315 610516062 5811076 211251554 740135315 827973459 492038692 995119544 965697422 917401519 22931746 913558395 462160206 662016732 862322403 818363485 147251795 130939805 410976971 635241851 336069804 354027029 217959137 860455322 224366390 717885788 817017874 373346094 213481586 779666239 307416524 508464630 339239079 37951672 205768362 962433217 410652877 816222304 541608533 712508136 682042813 461478548 683577846 279769578 437627355 620016812 345486315 560594301 599429572 701648370 957550050 904167168 433492986 270344780 570792510 356928016 42475887 489763017 238482621 852424165 185095428 589506601 751300787 141950285 40420083 79168356 629489328 379252756 42215840 994486159 961350762 90153941 640681539 223381088 285175772 296662585 437347505 55528438 577247957 71034243 699394016 45914768 265515390 362269283 617695992 735735370 997994922 352210925 617679701 862487542 292466611 376736148 323720146 900903791 991475635 194105070 371529325 715744896 950520618 86169640 739746876 559110576 933669351 541169628 637353919 764370564 837542267 84356246 18581645 941736926 18741240 515030978 917858934 126970630 617582397 270984461 119871016 564725880 752910901 188492444 533771984 91108257 115583661 366625994 160752089 456901167 559504917 837322730 50431550 171754936 497375971 768155939 147049209 493968875 842260550 376834203 166917748 311772086 392098758 255394878 83661146 30220521 396225266 504596563 841129302 861645181 407667318 406181549 429565237 913958660 30156673 385001297 460347302 456996413 763466158 445595237 632643061 705526112 454821424 693805325 778837657 60473293 61958584 992901332 797954846 370797013 639267734 14176618 907035061 884016646 800051607 185234923 658951981 765159752 109422505 249279272 769804907 961878334 619501953 341718310 525568498 482019405 199731379 495527956 685890232 525731081 748463949 143004980 88148732 359438554 610306478 229792700 554877949 83358505 365185005 276707552 491032780 691448427 652620268 85328298 529954965 635510276 965085214 950810620 581426898 113227489 811701103 289942532 417761629 719720984 313645526 970989307 234749780 981406043 10920378 152675778 750440195 139875386 563054650 443333600 283112360 112273518 315092107 819766402 755395881 924753634 243276111 286944201 881981172 727773500 978595081 366842463 91453479 223754196 767619202 60200271 404121214 501808362 166709022 191021971 421241700 927267351 985081176 25330811 97596833 50167605 889359390 193067175 55674279 140754439 631652062 468269651 912922740 673184623 547923652 257940122 812099530 560620041 69470291 78346567 903982678 487807149 106971343 539466609 110985545 438588880 370518456 739680432 748379285 627780347 15140059 483830474 97026860 729901874 646616519 785783188 709093407 690567888 784887019 293151862 94372147 234343289 131845821 747462187 655495788 359243799 325856934 840737732 172641948 419665539 823561905 354660723 894411748 233030713 597573856 6300795 58419520 245090141 471625853 491446413 920827686 192723234 961835167 241632482 136770936 451277998 343405747 827605323 700107600 934521541 981394393 35397477 399030054 333263737 278559773 254794817 681251542 107140520 471721814 397525616 418764250 24088405 142437263 155231810 943982500 947689433 456452536 157505031 563386982 223606193 878384940 507611298 88719333 678347229 739639527 493362600 207711918 829402147 183534630 786875750 329219266 647690639 854350931 886185732 180139716 420192567 590610051 288748617 681245570 599287179 426896169 537241231 995510321 999272394 481688373 206222708 184995316 142324234 115735767 433335978 531119606 205330095 134335693 903119038 488502763 793338460 572167558 195362504 10543245 730407248 778924357 473839430 4529680 303648207 685163598 636603622 618816387 118034012 695250239 584564650 767178278 343912308 887975953 394723573 258669227 248171821 35191721 517309384 180378520 765761768 924904685 197962512 452954222 999715922 705312912 573502447 595478825 929648383 61587541 461002659 404951957 835583994 683486709 187422467 161152294 755729569 379063287 338526207 880574249 59905012 352617551 892247096 928794393 569498046 667742784 115079927 798674096 215212639 329897927 175569096 999644098 910711942 68169222 473492282 476999538 497974801 75982147 486224451 457333617 642310429 200696197 243088886 236198435 82588108 638265596 104761345 946308621 876043753 301960461 479385210 104182943 631285026 102063889 549191352 805508630 983234130 258572403 613808792 455101230 11283255 73351596 941512075 138064014 673996734 674098242 633410354 243067206 15553697 252699020 700406970 316383230 912116083 370694410 962262604 129237830 848810066 195486762 6648413 940302406 770549899 257604589 463463815 184425396 109556913 963528042 775622587 427800221 705251494 249709230 953415053 597463308 175406418 70249041 390781286 615987681 947188082 823471506 745228069 425044811 125786864 499142387 399789901 503512926 277563136 981507396 429489394 619835541 905938279 427854134 921029015 321941796 16238699 487439260 679331387 635062086 20437022 135687904 171668538 201027988 172113241 922077046 52400468 862899464 663119572 83001556 541074769 247911149 19641204 277144463 483979839 441400081 929270421 94848607 844067494 952769922 700519776 393736330 531600768 592816138 882571373 534545386 310889478 916396470 986458209 130084959 223917337 12972191 668666941 164890836 127705551 310988503 825999325 52083481 758911575 497594833 960392283 706148641 696785306 106001042 610269510 63525044 260264468 785367341 764546302 414370058 252762414 280970852 183235447 36654435 481497774 699639879 321688983 184156990 217230432 400855757 965409640 857049963 748665670 672933274 3738564 702787873 695030234 717493020 54701818 65469989 78696950 243817590 210860277 94440466 411580847 113442629 756419042 785486607 824332253 763063530 398382390 4208998 612340360 792319341 454229193 666486631 30316153 654978255 324160553 275438169 242851449 633093106 663769225 448352093 856669694 856411052 971408376 788484057 360475122 16852558 370893446 871601937 973694027 726043776 690820677 29788451 553346225 336694077 842422322 727708901 744332387 337914847 467717717 880616982 554725916 595205265 917385851 737500310 207838965 708039771 57423340 195573404 98200869 566255891 931997758 822329595 933175295 366317409 92928951 470430988 77117076 942946545 207244028 799031089 448871490 785913161 642895928 853251415 728269895 333005530 956310836 30078731 238175086 991925865 700307137 159129325 538289379 536067272 61000532 613617364 890680940 544841732 548771638 240927418 883628786 44119386 26240 887101380 529512067 285535486 490518630 543386508 648126419 394451720 375755430 232129400 166108046 805350727 34595331 771677868 749305169 523392414 391736762 521330682 305513209 680142312 843638549 861244900 361233765 538189877 175101088 960879604 701788432 952571473 815108601 76931654 844002838 912136068 505542178 246704924 667085497 96360348 223669418 439114537 536953208 104833461 413972472 212899728 56508595 635091122 757588320 143121865 304915221 569569893 1567758 28095769 271236958 971954593 409196689 248605096 499877010 728317259 317217225 307908323 347276365 504922398 139298660 342842988 780199718 593978797 983905276 488681905 347136969 764732529 201175411 173532650 417986496 978732702 305341273 885037030 493592641 687526837 605678134 42740461 442691532 637327988 946350024 33572252 595570708 642042512 610259378 674923424 330975038 819452652 321987971 101765840 56336403 859162864 704306786 280199367 571503809 786777751 528696263 432713217 771754108 114202294 196482628 4914956 617117255 461653668 736306485 161407627 354430100 427538260 746646354 406016001 407468476 925180812 607975483 373917067 98146625 73326664 235584862 256262591 978248943 369817317 339833263 162938464 739333624 821243498 831904542 831876925 145371102 280921359 335517219 356962566 519517484 359062420 193414720 456394125 460411930 152917406 146372774 324061021 426827698 816490057 587466721 518251919 871247255 682225559 913294468 669209958 968298597 630098444 229224938 507670568 205012903 899820838 788252034 528035864 246687223 983676296 244396482 130757239 304394196 792286003 763415867 747230556 570472071 669254630 737873961 394657569 986312649 792010696 241748115 790617284 914804938 89124644 479012020 943664638 37348244 417681417 279881915 105599517 919660232 404367507 360773144 261025383 245703126 633628678 974519222 11462448 767898212 265449190 76655369 254983864 99760520 882512518 315998387 832083450 199464059 968401582 554202625 147949542 322378126 723789305 987886622 832337886 291280943 657366351 293116156 24014401 302806564 263015355 41026663 769735316 453660828 760032054 568685020 224897948 452811505 464052926 167530315 529906180 741421002 301848364 6232909 134401819 327928936 517036981 772086288 592754570 836821991 479334642 161882389 578980661 635736 958924909 502066824 828175 662075801 815572155 272136364 634314889 987234559 265545985 383436043 36719349 35508565 26827461 913844445 765611089 416740775 525874964 932432474 385345693 667498447 706040555 43935645 164446894 992748030 554974005 626237540 904846301 251093067 146574087 762717792 291642284 23346219 369486639 203554932 564238202 331918750 363515710 687231135 887040646 197782528 848715110 538527316 453585618 5350582 569937658 43672520 925120953 994409464 191102791 864222219 361887263 370580045 233663424 583410091 246538700 395239680 897626623 208337968 753289446 184678473 180985022 115235199 535488843 761274592 383530847 679367748 447809441 938309688 98177896 913773113 274423917 719837365 75569886 880624988 443169462 540397999 389231382 213856748 591441481 41632126 790581089 212774505 374619995 615132549 312556021 141629104 101719046 303223026 524957589 408741781 755184002 702423440 285012487 354972339 293088456 513435359 282051210 805602702 175507235 937703310 341799345 771976830 547090504 179766787 855107348 528366258 481706669 703084079 252873103 638183536 859290871 403480924 526265381 193910844 748835477 984271097 429800877 860545185 176253911 850437403 824029748 658922318 418687831 915284958 449082258 793699595 694144636 829341840 215353302 145038588 767647982 963144272 961480633 137851013 294573837 271621592 946033468 454024133 151674177 395933265 165042888 270458527 875728552 306536815 732224216 974122792 996772398 835763401 186815277 423239395 702665723 970428435 49041395 823248225 224114238 235604112 612802031 982390536 172105853 852212912 43919667 862413884 82183766 12183974 610480411 520565662 608317440 397685185 235447732 596640510 971330847 233261516 681125215 438902763 731406648 590639968 812013386 538388962 61330870 673416650 836665150 745612640 763553444 339924464 784498177 396360001 509223130 85691268 860831846 874133345 626776928 40861768 714898990 787300616 648613770 385925408 414471052 889019865 749605342 645459981 736360481 828434597 346871479 911599849 194611760 428654357 32542443 67951423 308537642 982653925 634382754 679812343 82288419 380048399 549086952 693380095 540486352 742368798 733403254 217988388 494122475 132756410 269696589 13497098 614360979 700483185 377816616 725592894 570724539 944793467 123875205 544389412 800279027 710068645 682202521 374516584 628293234 839111193 388915198 700819878 787600017 101338737 736107677 87032359 290996212 787683432 38630413 921407517 373860436 381402315 720519693 555523888 858578452 615912022 485911530 645425637 291231843 187067402 413823782 824991892 161437480 814855812 718095586 808145884 605665511 621634319 239341882 888198995 316662104 992176412 651113343 287958118 785150821 17967538 779642260 411850698 418185811 898827131 697000134 954334111 307872869 348960590 344663351 773567711 884335858 614248403 435135621 221484860 643817337 10528576 163682123 675729213 166793874 524738114 271622427 551857726 141583069 580388041 833750376 349805559 778856694 330382367 506377842 708967257 421717318 650518967 141967907 958209765 674301586 211363656 125003397 172201532 474207179 558775387 101874792 869609148 958622847 375812140 377937217 521022101 310019704 194467965 743256110 422578477 497308596 632065248 693775043 116069361 489072005 511501641 504223259 845115927 941746526 834855016 506522827 357679183 490140198 510039748 770799781 600744467 599115883 80547719 932124377 117880029 136656762 836611997 126973325 892802569 111512974 177787785 961680396 893004774 870471889 608148868 36053861 528255159 278377491 848085970 899773023 152202831 65408234 553407785 45479570 279804161 969952479 532442984 21265347 908552197 559207942 741310821 876541887 396773408 667486261 354710835 880748229 274152138 613494650 747047434 924035746 261149614 491460505 21265348 47883271 172221228 53381292 67519998 94839588 828307653 561367282 973615182 506137087 989556975 737090854 273792212 724031286 141524611 365594937 647177738 726538460 169763721 725840936 83928497 135180629 970908757 138577585 946028123 421155462 908131968 619521852 140007267 122492281 628800053 126547144 230974296 21283722 196980752 400703405 96641321 156079736 985896410 915976939 573507113 590475556 20761204 689580153 468223235 709657646 431839544 840112545 895607955 601091821 819394028 185970254 828801157 348973980 115152222 629461979 214274312 596691880 698147824 468034080 121783631 556508392 35905667 580916968 153634667 148329783 727447818 432775930 414917260 775001299 160500639 243865062 549967153 18556269 422331948 724517835 175049179 299387177 818394660 797633483 161595374 658089545 29336020 828645076 386754340 376055724 462643127 579470948 345042004 493110542 185307125 978020542 71633929 522701695 134125948 118416903 442968392 617525935 404551245 52351694 383585453 292133504 383796885 801615016 830165331 356956775 832819060 9550520 116503036 933327354 164435880 983339693 301558515 590931515 382981184 133129761 475181204 367244266 580957375 163953158 641873379 81624395 160983849 130030220 493974397 344493510 269381169 723166194 233245993 508856584 53204026 812783537 380013377 252216594 118649343 648382365 676511126 214069499 171732358 862552559 666816616 936511529 462101502 411580384 82203709 320222522 975794213 970180626 441983766 17432623 270268319 573104410 189833362 752163741 489149025 980464313 103316319 48326360 785993166 944156478 265602917 52384423 475856978 620113791 886006460 698590233 874073403 706965087 735271597 363371209 223557393 741282974 285667381 71528748 779448029 713993679 501150746 506564995 639769712 944996590 163451188 180803784 196388049 51190271 414562088 502064447 442093031 51721391 683505065 405448477 569518442 193913060 549321519 447707990 633777427 749678191 427532743 729596745 283332460 666699950 480263820 373804874 325382703 863450078 53893961 982364109 630433610 512785689 629002852 663565037 321103180 655633079 189777504 309509826 172724717 396274102 201060326 696425686 682708025 453912311 115290421 369107131 255946355 473816317 401810527 316791236 595892357 155033957 707411248 24905755 402710803 166511348 24660162 502997403 988875680 59101704 767560269 290511468 424652132 655201941 293223065 271056097 942120286 514033690 660897566 525089360 736385071 220593625 119037400 972313021 281999057 642609324 576519128 761204225 415962728 643836280 723404049 20237594 318095516 389923498 51474232 303413995 35266193 237885627 417728518 942025956 660301766 303162405 237013300 890818485 319408050 253395815 178937 911167861 675578839 660283427 288857668 475897900 402881978 659013841 324907422 696982801 546165944 110489703 241790519 636190311 85078446 277499452 95391041 873773700 823775550 710285592 756220122 353715906 454088256 335810775 626393216 7376095 821117836 985213608 612094716 573365075 136950434 25282980 29923848 519754835 348289183 458026111 576666507 603447340 132059295 939903862 174979253 733854604 179729465 93860566 893130252 867120765 569435616 34254679 440808193 95006068 11339114 580489723 174719026 125800598 47971477 454526345 383268471 811075338 556976811 862340005 881197410 653655532 238766939 796486855 247353263 762993467 43451160 474521718 635284862 348280595 363410272 371763579 554817846 218055336 648589960 525244300 567915351 974530176 503647457 262028674 75586905 554498082 990082389 590584455 52935027 936074937 97642280 579313016 84810674 756762458 896157517 121331083 627330338 334189121 771168657 2876882 963436053 579309096 427437999 366365528 626339022 740385473 826089790 154301488 638932076 694635168 894649867 195698101 34318250 750441573 415761517 886682018 971825586 528087041 751291468 566592844 824967703 702478302 436060277 819822862 887495947 181836128 426628046 751033945 709957411 197975286 772345994 933864168 136574669 107966733 404193216 626414276 301126392 347725739 846178779 930335503 472913344 459221888 53318277 163775223 814680904 470952440 882796033 876677029 181864429 294368392 752462123 669505459 178515688 15652927 831831029 518857980 346441540 378777812 269217112 118583162 769972404 84921834 304555300 476497260 594149461 17829191 207881779 226798426 309806039 877379605 393862484 112909702 571139735 782107626 751760258 850116435 55829338 795504289 275942918 32416148 861809468 214974918 877920113 585796636 142901314 944452153 254226458 606754084 407122165 10713636 21044848 642538506 918581641 742629841 45793961 188234013 854616009 472514923 520096547 610903828 487088378 84331353 590710700 989364594 6513418 831207053 364949417 206370628 620442384 594958480 640804774 366337761 163956573 697620785 885630570 927510005 881966395 573405697 119495098 408501927 935043394 181551342 100777789 432281027 662833564 614366069 183892128 945670955 593433044 78695316 710569232 165072999 895705244 468485342 984577333 509603196 549735596 216084700 643247468 970183041 756712688 929829404 65181616 366080346 181008590 515112711 426706395 318403009 620661089 399320911 652555 487339486 693130995 944947583 442597583 235451576 644790744 785329955 499789175 608215984 757850879 699625776 722052231 112007610 721148673 355587201 986065211 698617535 788953446 3413098 848493515 710809915 929218637 392699211 283610591 56184250 257228181 101124811 18831329 512521107 747645859 100941371 413983803 942238022 649866743 764910190 245759751 571626783 899343369 454931999 353361728 641955283 941227783 888613986 201006506 997989024 783612226 728186786 46324049 825192822 164679334 298750455 924701131 779736080 409825699 399391930 855977735 236831876 902555266 24107574 535471768 536436861 259596993 855936253 2239048 331403952 89410184 437348303 768310202 778863909 360712066 582286029 411722360 486256506 911007629 461924393 185226526 809451489 897622544 554103882 174900445 714548038 146233771 145998620 241327851 710519859 715418757 818758263 667815403 41669827 484092373 707559542 180674851 490965077 619127819 957438355 478739362 144571473 9295780 275217139 49157809 432014520 849317993 588079381 880135587 989294441 726877176 917299700 790385138 372803307 778728560 696146901 757269841 729541539 944743952 83293590 65803976 833990737 862379187 976925688 904883413 808526196 406244904 893409581 192236821 584551256 739511019 458388780 335995704 216065308 952433468 759171155 359693317 746480959 56614641 402275479 295084334 429285772 736946677 373890688 507758449 740916259 354174564 477548718 931797176 116200150 293292563 45565130 819424865 693918108 606523700 86377288 261338118 409283507 897729232 729221981 186025258 254453462 972493679 623228822 887296433 751494657 682475876 133551312 781860247 600677514 583202917 790905185 927471313 891595314 408909038 297400860 297194379 58513934 248250270 557215553 991477493 828270176 671915563 720838519 444386769 372065854 138873370 450631114 348417636 4865999 691044630 518263582 975159262 791713096 111197212 984255142 650950768 809690806 655800658 816724707 979834019 877136545 720656414 418719342 301318509 784300649 915390480 484560927 326609754 316131952 368242964 588680266 973210634 413617963 395215745 405449414 670238608 210014550 228134968 820702641 380939759 153708928 841851605 511334009 354425697 155292770 3688159 995826399 227741998 616726120 350642064 412213062 984500871 531986500 201345889 27096645 705970378 226403534 446266533 447894081 819433784 674837146 602871372 961685879 882152579 475363144 616250937 324813633 850385159 991252641 868949871 41684017 528982518 116573053 587401979 142064405 727245386 28512859 268500157 121097135 926212376 807912936 314864056 282410588 721528427 583434072 824895479 598150186 884400281 502427849 668578364 206580880 294301601 265400740 338784453 843248691 716844731 161908105 399926653 522702313 487585644 44841790 952282804 20263528 904688439 576788011 322482224 813155110 7463191 947554532 884441898 466755395 789183398 960630367 444927780 430436567 583118987 904531350 685460455 890566591 699395861 666260707 646106665 689766967 690363866 384882980 662970932 269600155 231309606 159268613 854058341 595880964 906861585 180864435 489018969 399241082 53318143 515620854 406334589 488405164 669067563 334208275 852155112 338247436 566901981 579601613 940666255 890703585 704661776 843103415 28524453 595542341 278392711 259962581 724141415 883756395 586924498 362343773 636255553 975131360 865215269 217965159 681930726 79663605 758738186 28465173 294109920 58642036 68804255 12387136 178295541 294501702 270760589 673756521 743248977 801366447 995571239 128577236 330508990 300175797 705012431 568530566 770654589 146516369 114193377 87777019 567473335 739817703 374024026 104160007 581442960 590512910 488359985 257445310 110158767 896640127 508190963 723921881 311906379 272857271 585798804 972660461 701356907 839555501 68677630 620534301 534468146 774255544 202451237 986655604 407402148 454670647 153193777 474313463 307544911 620673524 816468517 738772913 703136815 379573585 749272963 351492074 908400857 268033282 888015254 484969461 906983547 626792284 550203616 5774017 750854712 806349725 117236856 516900819 347500241 322242240 945639044 440464914 79446996 947782249 340540820 905109577 417136874 523049697 847533070 139420004 586904628 549500397 539232055 703009752 375793834 820633681 780515163 853885197 873513521 899365382 313237069 516235538 28456657 958708070 299228023 789538644 520717882 323674393 173394542 248385803 514450634 758557514 619172406 600090050 465030826 792111648 237423872 397039001 764251227 831849979 855453665 352287699 605266333 669380411 236525981 739973525 266751 897553918 961439713 314466026 429865414 717395810 668748888 834865129 282722831 763370093 167810781 594663849 377623273 229942194 606356883 802412922 514585815 986531076 200190928 596842639 344035443 771773030 295739393 964527438 421723242 568744856 159365388 899916403 802641832 171974194 887244820 780952537 669007216 995659242 348719032 132883582 116728298 355022545 791590475 549426681 38254301 355133506 827715778 325897955 830500906 671297134 230934444 199155674 74653275 644299836 250082853 468039981 422142269 256916997 631243963 798457381 265210529 593480365 51827188 106009419 212124852 669086611 661762368 959207841 743412984 930315160 557365385 179067741 66265352 243334586 756883801 122950790 100769816 839064267 416131405 869455324 84843264 281746799 182321700 605820276 769145492 818715508 371238487 323350130 159676103 164049411 692876640 538594672 442474244 509259506 779212549 259119811 618924288 921027555 214365154 344990091 670102314 117064950 538683647 454337174 717053791 175744846 780127685 970480466 75572080 365863955 218971522 467814982 944371777 476261683 221956216 834928520 951463936 396391498 556947106 899985813 211897193 766964470 202990636 469943521 358026651 598614874 19556897 245578693 952885429 55058209 336312780 991397060 743636637 592059534 185438864 128286151 433429101 279336821 587038933 165048384 410238808 720564139 521362849 48206734 341096187 399570638 124606312 204546755 623619745 310495827 831489228 436060893 145863765 845616323 952339753 821161849 419714721 855072900 84391549 3561855 880517871 835349982 585047074 165632229 900134874 926762507 244038301 705960424 623257842 684792982 355833199 104885532 756325379 912287477 372983781 78806519 891490342 942858953 719219806 13197163 81042528 328411091 432338550 513847285 312850398 625867807 798535257 572245118 239607522 852023248 97479673 776184978 351634844 814448565 605469978 499256612 284010600 365013411 723424580 930216139 662505692 616006706 572782988 242749677 110713312 706321724 205082464 458618628 515665274 571264232 127361432 459459272 154293389 47631925 41475156 289840457 747304868 655952916 719353959 878254563 797876217 50958276 287454878 413866192 610746363 372415310 84512774 591332928 118194223 364278348 659171526 661249320 451155002 328818694 965512409 381658276 624122797 364109946 868316794 984344704 604717075 579239215 810615486 737902461 302008127 119433208 279116513 301021602 88073079 428450904 179730987 92712284 262026103 367985990 107911354 540411905 221515702 60511066 409279356 436901728 771929327 257430305 657684754 378853120 762970070 956564531 927893213 395992265 233117584 195274584 996874803 974528639 477273234 192406586 663207490 314967484 254605994 712263536 271408123 475693554 225480918 511347038 872331461 539887518 196798435 254032410 332706660 638071371 135265357 535028328 232558253 774091207 984876563 569229836 328075552 429112079 988989762 446485834 318287514 527010677 38960363 500044697 822050803 899791411 153040631 695656601 483163323 47231653 379398598 857975576 325647292 235287051 816653845 166521671 469333943 73688319 945765780 808418687 543133744 471791586 975780095 209792742 27185831 843132506 431291349 41462952 728015461 146908397 185347455 274866117 177745488 223058222 5463023 144007125 351564985 630711072 194789387 323702699 873150168 836115848 912269287 163625806 566544680 303767942 23374182 442382008 95962318 365151195 554131894 321000801 554119834 566022292 815953703 216755428 57184934 689982797 643824747 788740932 93484019 763976433 845357907 455923070 526680965 254696740 271431854 193564825 963745828 108960835 473731284 189915279 325459263 717586707 790056189 338445793 95214806 611009957 125158302 449008466 202972834 225197296 128212856 690556628 76215079 796377456 222908584 276448685 196461435 946445156 676770013 477949205 880744842 831272803 867139142 376837495 606138434 508528946 802693409 690883567 291418940 882112216 739579262 731757101 294326944 508986855 73579978 491024764 962399747 500052458 173551579 298514203 251585083 359327393 19228492 881486873 145662369 556031520 726865199 938957492 935144147 893448833 60029364 28220403 151918328 247863358 771219033 888895697 114856664 403370379 971149684 919724011 647798464 660248480 831498744 486666827 237941713 795092502 95654812 949191392 435567981 29522330 946097262 605604409 895362073 309414236 375802583 889804113 100875001 228763457 256809776 856861533 155756363 123603963 39701617 839954301 497541447 706409965 554735609 466175243 252236034 85019668 490120739 478433026 345134073 793903253 142759734 39944560 401842741 682853364 906122949 667689119 862340881 459650715 499753964 388498777 936286401 212734663 362020175 646701843 130490409 298846475 377465391 539839132 959163801 934824274 725380152 614220501 866680920 467736466 424550245 815711334 219782077 747437118 329674256 666417821 496935416 365183885 381667388 602649014 154001788 442677984 739643764 396172940 995607092 727057095 12499142 937202491 123540998 202241388 239370661 930189393 898326483 10770018 869409379 330233171 858581119 626177524 215044567 716902518 253301219 292324510 778745994 580415548 272356371 375761010 865763041 977984167 363286635 978699287 691730631 479479508 101199166 569164207 501377763 256620283 386128519 653562024 168169366 744070684 394487905 256763853 979449934 968522321 327261506 672418711 103346135 316850132 95471164 810454562 697181141 538954784 32444776 610105103 529819592 547777745 146046218 325590402 838697987 490555964 847360716 938910849 36331709 88160720 86632249 666715259 408651553 765833507 546667843 661289875 440434496 766992313 659029393 946463949 971806229 323181407 728237336 588914265 581824774 840593523 831834645 419580176 108177966 180652499 821597063 197937653 399467587 419596960 530489504 764837555 626985172 220811270 145092002 519849287 535883535 232276543 340848986 253474330 277180835 365656036 894916731 294679897 256515340 299471548 881338353 695985321 692521297 832480577 652318994 994878045 641725146 303412967 39896121 838542329 474944194 911045603 188323720 25076696 769388683 947162519 732866244 398013550 119647710 786323483 345736129 532493906 89796640 180559060 15997963 400644513 735883369 139890976 687572879 887017495 418261382 942082532 979292735 544011245 844700875 690259297 543706711 79604934 900927458 157619919 835064569 788288756 274193054 666319289 36904193 511641890 32219854 521256944 215194057 910020305 435114605 535778288 949218500 768149456 412080755 246008325 867793087 169252988 67958763 473957394 104973621 19458858 520912194 63172787 327552374 902238947 367813695 728830877 604337395 60433016 975451835 894685083 949651863 917513527 48833805 407955211 340231196 941857251 15953558 341459927 478725402 584081800 18910606 796045605 798917457 526603628 131682273 786541163 932359296 11501821 655216745 113255852 625009964 176566005 702292883 57772017 535145087 719168235 412191736 150855984 425852788 592754338 95060139 769048608 982061236 512166258 625931400 571393368 657942492 632337080 610098846 86273027 773346417 412207337 820060963 708531781 755813302 874206318 942374759 612289977 313131663 110544450 855694435 570219264 522177277 972564954 764280872 209387663 299528388 463379233 442925025 654614398 971800221 743787490 133244545 263396174 117048605 36934673 886703505 372994563 182948963 590503551 644697394 991615073 495118083 359481613 620080180 104980775 821894263 421095408 63807111 668213264 333454094 399957037 536454911 659943515 370569895 296111704 702797753 198871264 182343361 817095008 376377003 138826215 396155398 808444807 689462136 2684009 41003650 90985444 664088843 329676603 330858735 702509687 723282604 345048855 295170975 140944419 488152717 153308965 327537310 482962273 496689341 463562745 989158134 695063205 686521748 4858298 464087323 664980376 162118157 13574441 319185846 997166467 567699844 149741269 808637506 244113125 866648307 764461820 578741086 134451304 119728498 853585258 642186033 333834892 468443574 111695435 947182458 227348769 264901499 274769311 106241769 909423411 648591412 829311731 938209050 453495065 545857827 130827619 880341875 366377953 59776874 702702664 20584159 780063383 542134627 959369614 731920514 431377133 592382881 469463276 565174440 196658572 167718923 368754193 579777082 435206927 978259692 234211238 805982695 853725715 521434574 772183582 331412022 257198016 105852856 420093892 422138431 404626189 484871674 765230217 309487585 629858818 687123610 58529214 798633652 421520677 559422025 768908858 454086554 790057562 699896683 401419747 926820447 170792246 336256424 428402543 994330910 469926297 450924725 932346131 432623907 62196760 266948730 619626795 351179826 232322813 245168617 912251087 551307743 709578559 751724885 436886392 64354787 627208566 444096257 457225388 738360724 886255245 711823235 863256366 953386520 410054710 694286063 562972112 877007820 168287674 828481709 503631298 454395513 817141771 890983660 879475651 999611031 321973426 427287037 623048662 753725518 808709232 687327378 431109781 230574874 143464529 387774616 347349302 785924154 7714094 154347690 129097870 428537243 289812670 848819370 381850765 32102057 267099624 962194572 197960732 271784201 924684990 404187251 50315684 621499605 908061702 58829386 633679999 359309208 473234339 515307451 882817798 778796848 300969272 660627698 795035753 235279084 426818558 237011269 439387695 293834312 986820421 490493692 53287606 396668686 619520042 199062400 553545108 748190059 456182420 914449835 866963099 465881969 701308424 889130111 509978068 341024608 937788164 211281423 512565116 817784587 576835837 590006518 840628791 368351609 559783682 112613134 755399801 821789043 851872279 777608496 511031002 206206336 360143749 892851328 251277969 192118957 654698777 134219084 9530383 976505744 301164095 802959742 353441523 7947763 17667382 772669597 281006678 696667329 40569194 230965699 33517607 953246490 305076581 746978945 506244167 713639148 788886398 261971315 564135721 193332896 96745395 688341227 569826135 531770325 501566372 509516170 856110596 502951956 115609301 721271026 51166315 631627188 898591214 622385700 680141377 467541510 106269353 695228851 577799921 902536382 479946405 657506313 685637260 414112774 287919630 533000851 688924193 942247081 91744552 893358260 807864515 729082692 192413229 605957602 303827483 873339992 754984302 507125798 116209803 274620722 37734988 884839865 414069645 547870434 100052713 538385524 345015946 608496105 77090076 984902679 939411053 576635042 9877569 862168292 482265935 435492548 491078587 115888069 442660490 973586819 326948966 497617664 303665339 847358140 436714061 708634829 551809957 331177786 595574343 876939558 766010600 57968553 751481073 36470187 107179526 974766031 331694957 273634949 7476026 31216504 528386911 130809633 720966321 20500615 26312371 317591177 840307027 149137808 684965908 886756107 693626707 354175914 719220216 420886406 253338602 874523997 955779796 734172905 805829684 610815668 296298495 568641534 884434765 370896086 73791189 997705224 320428171 33689388 841831514 500516486 486195656 225312830 740432264 841516110 307806672 172786986 938656576 83324795 761537144 726286503 291609008 224991407 592113588 199982810 19087840 739017493 124583691 859536581 656029325 135937582 705611887 829373798 502196128 320016721 236574090 596404668 580007940 158605650 628974166 927461255 631576 723786507 505575245 258370701 183895286 699473370 269591474 766299210 869022452 996898120 103996608 798312515 781590453 429452870 310892389 728681297 718013995 998609432 383436587 400701663 491214246 628257213 282539382 906722259 511902999 161662491 108283023 791600861 406093391 893373090 866335383 924044580 244476617 506636702 768587810 707094445 904856302 231317750 906012289 363303030 342986166 507206635 712502140 675447615 988516556 10187622 623643946 645185823 924432938 763690895 500742346 219212390 621849656 507912820 608758310 309571195 527148817 954004429 206360845 386865472 686736180 297945476 283064564 607599838 741192881 449911448 728692948 352502322 244957987 433708459 881561577 36160795 37805065 482398955 877425035 171246050 813165209 595667461 443865929 339191158 847895768 359680610 889030459 469016098 165693632 505634198 694253047 91217678 633325733 717364537 534303631 251712330 142836386 782442468 759511690 352681281 338986929 725073230 594685916 609588240 688199350 909325877 996595316 941855186 844267501 18389972 104685148 534590529 624970543 297758606 903861958 853522950 152320855 113405327 196179480 571882511 134800335 556363480 817619968 682696085 84578650 170754448 371672833 362341503 197846212 698689804 736972420 699129392 541196212 528054656 989744206 41085547 371204511 330497962 384430252 413681179 280950416 691484695 951754848 877412811 109204570 494554480 805565228 702704785 585340757 284895763 390233651 925010468 390728969 289537955 146943733 798134665 793410079 867881790 728974098 307907144 349835434 368843013 802618408 775784610 719610888 795287166 261597243 181852325 663119347 563713116 823344183 63115701 864409001 377117935 866027995 427529894 582231141 339832297 366470285 702083781 494767760 708492681 904745436 819501554 966388014 584972181 294321771 3873544 227471048 428495173 82233496 258307785 577700913 205179438 965941950 878043110 825418204 205919132 708297620 737731023 100569232 67126700 324975428 361168462 164862182 341587279 390756365 610750448 187583712 907391849 646204604 782145363 529078366 70064365 697357926 601807786 147698648 813525996 732389657 288997025 427468367 129298181 177156408 665071010 5527571 629557529 147101493 871606614 166185093 158255970 694292445 172520957 881471980 560909733 162737121 650940133 403665559 416291967 264373091 279176653 860376110 364745682 115352909 690157320 532184745 807037865 945047327 365483695 880609777 91605888 765835818 298235250 79304679 367424803 546628083 109880645 251678137 492585795 211037898 891453994 425343636 74952702 478860715 812609519 766237356 298132373 802992908 950794406 683731002 15496562 464711493 489318461 509958112 219573632 539491327 399753689 891066641 704879346 878013000 676123790 154390705 777641412 107029289 222147576 307703706 191861255 543107581 216171177 543265917 902482893 890735892 869461330 206344416 92240844 428477638 918912778 960396169 16139673 732444417 997734207 919719452 615925877 199470575 523238996 391351892 409041357 674480285 509268886 845276025 694273991 145641428 836485267 512598268 784592804 510569171 914412746 795275346 591406662 773676564 404271987 976359483 24968185 558119969 73538587 355899393 290005839 795811451 993098002 900580473 184777554 953619226 775850423 816531363 621994955 420383206 371792249 847289549 297699511 276854639 193673433 974752170 524470379 444159 386693283 842972792 39484820 855461440 49755356 822255600 726868871 609958750 43476404 81612437 615714774 322109696 661094049 283558908 991698196 168638229 32428311 665599985 474823733 101386604 499003862 899303529 494201598 273182179 690007940 29970929 391702044 407426852 633297577 119823933 705382951 69846456 144898198 928453252 416737899 88971722 712174234 671729889 238033074 378398639 582529396 330102696 348482329 962756408 532047036 406293911 845205255 220026363 732062150 124219534 280304915 561148816 390295513 929078601 507479251 721152311 648258457 487606137 647875314 996484131 916246003 195543311 967161257 367558926 500883136 347490723 832262217 760653484 515850956 713313595 290300146 618149954 626154882 431418959 453577398 862868279 826101570 728787602 786137765 670427021 29763310 725267529 490924727 401599005 600649404 851225973 16117961 631999760 708262467 881450398 304690274 102901328 930802643 312565273 241242068 854377599 900188591 754352973 275228165 268066070 655563317 319851691 278004817 752350831 599607940 939660407 424947301 594062707 22198720 897383919 295955423 638477384 30192649 702443774 569378539 99968182 51604201 816481001 446048333 293099783 508587717 71483960 657113816 553893424 617936519 78100043 862582915 841004751 460802028 582960569 774373597 614814007 911006469 661375369 73898371 282131436 960450284 466901001 296826040 678078789 247130692 828212891 762768039 152167746 372955188 680566256 711432507 864316490 132753275 509924396 843372033 155380014 495040224 199292092 702984575 478398604 203992184 847822160 271632356 221563849 505480748 324204215 754627665 218840217 939274280 532152111 690013893 8171289 821697769 614185663 922516787 22080028 804318944 910863525 718048880 373909605 114538609 822057887 901323323 81241883 530386739 543542418 55066104 838065964 757780994 291221008 668593364 897418527 598858736 356559335 881118626 818188215 889648610 430100654 424266955 779246186 881938335 210757455 218529457 282773125 481177937 854844148 778234517 546681243 143336144 905733731 440263586 608833714 641726818 856710602 494814494 744551805 253278789 436404936 716687134 518770436 619401804 20201259 783060939 746423087 708111479 988244636 996790641 219367427 179908438 811162889 543599126 303399008 72292226 485275015 67467655 344319277 273507962 329873732 599971523 146718120 406331158 590000552 938637197 339599194 844696441 464959310 697388515 380826802 647686456 295454251 25198222 304044874 282897200 234915060 610515342 721406809 519190960 301119304 827725734 640533568 439081189 953065445 71045383 74273228 473604448 910355652 157922090 405336683 958377613 636933056 308341680 262925819 423613225 835437071 975102738 828202957 527147673 56841320 696079673 933374201 678122624 861118431 338997865 6416021 853179092 806639440 398609312 629727469 626713394 115658052 73193577 83338779 632022451 41395180 878079526 233978589 892299562 636117670 396322113 575408987 295726762 212149271 591980845 267042965 83876395 185724666 783010680 247831720 619058354 511421122 931616957 21284838 848734648 227289082 451144419 763131083 736529624 202314813 32516251 494667985 393193734 233239555 652358521 137477788 470000792 308941640 408604833 794971105 561582345 997651662 343682055 168756955 124402660 937794241 843914135 816357608 586191433 514408724 477100089 645999640 636017998 360594327 278270720 807719829 736492041 421361118 329523129 645005816 419723247 880094697 105077014 630621885 233469023 107406635 802916228 787871217 187922810 556689984 500776025 776298796 246225090 942515003 812244927 749381016 298897406 240844697 931510662 91684344 173644856 885048551 3989175 794575460 64266397 205182049 913321597 751023214 140515883 103072646 635260760 463914471 393492156 384300052 676852972 401985901 299000480 594863402 176318861 854681598 805322325 684612449 275504845 646753378 949472994 653907770 767568896 83671864 519932246 80792087 713688489 117127312 709580341 191739986 919749753 275078655 917161536 469840458 6981067 16508815 855164939 45729093 34355580 871815322 279856157 950346784 103989539 19650616 676494839 350587952 717737794 955265078 398867299 180773191 280408628 129838573 536004848 384063363 655756279 713751110 708376640 277109578 239160206 180347741 667845449 362358777 636639680 120437332 672337061 520722233 941973691 203862658 143971860 784492467 928111712 301156776 518266256 724632138 562967203 87791036 92750818 317536051 140065004 327470873 716854821 103994348 449664913 273271157 798727814 831988029 846953658 53451814 796414729 863616354 234478129 324628055 512530946 730882911 422577519 831367012 103178787 928939525 61946649 212940287 513270379 832448856 837889908 393851811 580950415 842611961 721692472 826090586 941889383 883619332 679607427 829703426 423161976 59174793 185260050 262054417 94759423 568241380 513193491 494889870 229411623 422423432 354244516 398744744 22659592 230614020 675292138 792873283 950487467 160761819 576439303 860696388 583044342 677303029 323879042 881944009 951396413 7403314 759847389 912262797 450817337 209389335 657465577 964602008 409052011 356523468 539048088 364674241 887555074 355755466 98911325 37089748 783123715 385067164 652423586 913481755 125782881 855999395 690150702 729835090 277981638 60943193 531513099 375530174 711057895 801385008 768511148 432037820 13755430 539373107 741269559 335844671 188531949 172425835 105650252 663825236 768295485 766538629 791278602 258036448 193700330 85329093 951017528 135558451 847206052 100843914 788995719 151235315 123055078 180708473 316396827 639971931 30520438 450082227 329453842 28440053 398928434 730092588 491487113 772447416 409783337 357714603 395338858 824267047 232329943 185451781 187966683 279980982 198633383 940816514 411610999 210573603 176846958 681971337 521313231 196862868 50727582 520521218 763265813 122575460 942486292 550256359 371469865 90624189 566015029 958697578 899716653 178537274 3108534 788723583 394462249 872268452 521108570 440516415 14065216 169341703 213381443 293836786 93676287 997333865 654664526 787202535 197455499 987764579 433303436 711610496 602280305 251889613 747665852 727953552 334918954 641873610 16068851 216384173 784397467 702476029 396767035 273633722 843120986 362215426 805847193 836697748 341059128 758456151 303563490 392369498 831429 252247267 840633423 331411517 238690016 414295841 530371619 569067003 950526067 54930445 541821367 74281539 182239715 691823845 549285890 694965340 169335884 869765376 782267618 494100710 752676675 858149024 810314441 238303435 410459045 613852958 86010345 253666239 963116012 499919884 192973807 761262742 848281919 541348269 839009923 362043080 460360358 867886928 500273592 29874651 155077335 564169073 866022743 251581589 856254957 70445220 889118571 364345355 426536738 402546720 635910016 848321054 699457523 387225855 401428162 919851945 363974514 251707669 66547968 289135314 120817676 366316403 266201768 654658627 976478261 367491336 735465575 11538303 567439953 222986363 831583213 401054240 242891516 888506664 304532622 594636149 56164807 817308056 766135901 446013004 12171146 538194086 99918969 930203686 4825649 283113560 656797494 338103314 451571058 595904040 94937550 913110110 957813367 220890604 392932385 968989979 337634528 307546319 349509430 307052046 526712563 834945047 327811460 664581384 339680217 399923639 540411885 473062970 246373017 722982958 667532308 15212264 702429554 918531175 532481385 17060543 376761828 26825609 24685471 902591343 447152408 479150876 961517515 837282146 333468260 668988967 404144762 245199919 741855863 22422397 402234017 775606803 314909936 584103831 400337379 644485611 57661702 892670072 841992915 421789815 136790170 338568927 551208672 393631697 781597088 507734129 348019458 429129403 725378450 12356958 340544206 837485641 621002160 118046327 72435291 121318559 9708694 821967276 757960477 382457363 211851996 20837588 966378390 939884330 781724354 222216407 706968075 13351097 410586963 156430700 912867254 10524072 479561494 301134690 271057836 604351786 465801907 939388298 533121274 632032733 394128364 345150198 299706133 185248767 496353971 53689523 15164014 834154980 997150018 478908112 419172780 696099319 795757239 374769495 8464622 131704215 763388922 582539728 700978557 968452270 3825198 969527437 899101172 11691940 442145053 728500150 949063645 124977682 218621280 741597244 500245861 345178204 959593004 258026741 327904255 617179594 609624105 141583856 983003747 871069037 554783312 264272413 721434646 898339695 828960811 164460916 169499966 83221085 145880928 100030210 435350787 209351966 708422670 191067619 498908044 262970563 982717733 832303932 645217244 43167220 354096877 412062137 542947082 895702106 144128006 469551584 352640918 454060005 789547212 984717827 498414680 433790617 532675476 953110171 335209073 914749537 601765408 662298726 248983887 964551694 624808518 623290692 927586713 123332099 228030040 539576250 647630281 647250864 698345726 708357866 811381443 655607933 393527417 378119232 609844343 805597165 730078892 594896484 700396474 407596607 314505929 156524037 948928643 375236975 395637922 332776193 486528597 662104154 6502965 560195036 66167219 985847386 643340161 782918578 211728919 888853145 86615436 502704714 726836988 518707729 680899481 689357904 674065745 318939781 551019804 306508837 574651849 733800868 539032164 558927941 473897355 986193455 729107476 505635089 125330446 210085519 480952529 797243428 664848602 421580239 310574153 644805952 801719490 301891587 30967469 388286091 699381116 542602291 137922647 178314650 109666950 893511941 30794792 937762222 618825687 530128190 761792677 906445291 415815147 301749324 255759546 290681085 536554066 893387347 399070150 84612289 830992640 146380296 924585833 451005038 587786568 703672917 216086757 792325911 60844741 343415590 558364775 115497101 765567349 622729216 619374063 230988814 211320096 271891873 544671688 895535367 115391228 634059573 762918083 99693765 264022765 801335676 317424058 265418364 987952355 770726514 189105480 217359164 128881804 253412084 778194767 461281656 944328841 848927740 330557199 661238901 171646127 960320087 451473064 133466586 897089765 88366538 134638768 796740388 890597414 590883740 965061550 62094357 539741373 279133442 744900660 762058704 528935889 873091304 112848593 611436392 69624101 513555026 768451759 300233465 230442895 518133229 645390211 608491003 872725975 867856120 575504529 862458956 21227669 150946379 391542680 429281611 973759305 467818740 453869411 81434774 568284894 89530519 310267916 234424979 702653989 136214349 491145884 494554647 543731404 441707759 60214524 29140285 20468649 96032270 417603199 54600025 435155221 570056959 615305646 627239981 240709417 160483300 804785107 944164652 781688529 461523670 734712082 598145381 181157243 29870774 404376130 6811058 797921636 553833486 971772457 583617393 640782307 901468945 2724581 998203895 958159549 81615792 912353868 934817883 8451849 710151572 162172126 717818789 237210465 531046056 784748167 440732979 324725194 607703805 159108711 683430391 412083195 774322335 891964642 100285365 156213501 362230763 374337288 978107765 652157860 585665599 243056004 480769073 357484012 279862840 208172600 789745492 929082791 823729593 114092518 892620761 40880837 111767413 270367368 301041909 909009087 310550099 299155879 66209469 779141492 210794641 996763092 705936239 885475490 345618064 916072150 292583768 114146434 348621066 118944850 53229217 995697245 873380160 175639625 725900752 643976332 857497826 586057438 513545176 457374811 600432259 753440645 532037952 126813398 874343506 272331985 846075222 17035226 260914227 831125128 710185481 259024063 783523688 5243100 659202315 223149658 65110743 139195992 248415257 660156979 786487230 932670995 804127705 644598954 989018365 990144917 818675854 985322936 737137513 406684947 932399680 473231622 726105535 579307396 165128288 168947339 855551208 757475140 504130827 481618351 174388590 620189843 714796070 482372055 642720439 841804413 755610670 337027933 887371210 756739754 658695201 666550407 330301074 652404996 269755827 318115453 279125501 923971082 407400905 268459127 385214971 918897795 675426465 488271502 503329657 192576526 461235416 665960486 486433137 478087668 374086183 358904603 460294643 8660117 453902855 902792725 518047471 814898261 695528596 477138887 880205034 357295178 139341391 696609935 603178787 612729656 472848297 211979148 541152008 30459725 340469850 591708053 264071485 655636227 14420385 981883167 414781963 362644921 913088205 706843579 281848622 996392651 901728488 95020022 809216599 825994343 911644352 449890844 517787527 411366872 846444601 864385319 574749419 33894694 785190683 284751946 611515049 379862498 176209630 833948913 467383685 24171092 624490553 761072722 68283875 783417832 810230294 53169828 291104757 976778115 729653301 543811935 967903059 425059792 930444746 896292113 315355755 529144805 406775993 448985988 229926313 782232285 742048983 518979228 371670360 54572423 776952775 457037813 418910796 719653086 543312154 111479175 328769783 189966216 391560196 320455009 449704642 753757670 144649201 761068491 823583866 543515239 823761816 857011278 473506888 764968272 582236981 900473873 706918485 272523092 1196107 443823640 736292257 324865578 178628251 620922227 913835978 393195810 442456843 955676160 515382627 100097630 542840592 851853909 781626874 870778506 729127227 370813764 344905625 545142926 19837094 330934988 706250887 170510239 618575280 516123059 32461300 215377545 427736057 196971867 684985288 900826119 164471405 28851754 998580451 891056695 243005940 830168313 682416310 10529573 830811510 625239192 939213948 882094756 349710723 711410277 39579966 389479703 358217504 482024014 119291176 953981545 351812849 800191132 511632332 607439895 852586434 339798197 877390923 13363144 322419136 688577874 946670929 899562385 926385567 900464145 20015234 621033133 255076574 189278358 899187215 12609359 741873058 22802837 77020274 582379467 680105132 705149203 216554454 340414267 285993900 894047056 84707600 357692421 780433079 646169899 418879099 451033596 95152300 173504599 885541052 678091917 980412949 218873990 551523355 303152338 396491289 230632930 739139980 854957494 26303124 984344277 685674694 111669987 443185414 4548744 344893754 930928519 851400124 69576206 910452208 663938171 779616584 983063337 190059342 334524157 121166562 996012622 639846273 570068071 118994110 891074466 944631464 693760306 791925831 976098505 90774284 409488566 690583271 644491430 646454693 716977048 275313286 356239958 615536092 604481139 171333712 418073750 579239210 495716588 702722728 651439329 528000034 240917304 375476921 2554200 590682786 270615829 887964981 645716035 696324440 640582468 328579720 402342125 809854832 446114823 672246299 892374129 570437126 195950779 846149883 150573893 10553593 296938458 194337923 532050179 477520743 838088196 926925465 297778853 427394653 55438953 355438494 312758533 903010832 119691876 331593403 731836798 981595072 591609184 15349122 927420499 225200686 743488100 249452885 178900901 647378130 809204825 826257829 262699992 217258950 789917669 828985644 133300636 899471060 629759399 451980467 593656400 562949455 771821664 570204546 503035277 748416174 761574371 144085459 481220939 549339839 739526716 146090253 945294860 10464548 294805507 924684704 393036320 58577375 257825267 453432185 480575083 431640325 459289016 869819437 200920996 27066428 209756034 406468501 630057480 808074461 498326913 27248938 350264864 324334270 622667784 293668751 549406574 571674669 879107577 692290252 472352640 515948177 934846825 270052182 308439771 471271195 162130201 16814050 979379084 193708847 972006711 103814141 96232844 218923611 547592390 4135360 419697536 393979933 283217674 369660527 467051978 603981733 977262331 725822439 955443495 738576966 104157180 994348635 443127660 179676210 695464380 380637376 592625766 237888471 721536681 719432315 801704397 27360677 654578824 886798659 58063259 942881909 571768908 827240029 167790490 841782057 509402020 714104166 632619090 637166754 469561749 76810974 481638773 421834747 682929817 238167252 646453234 776552568 95868322 165322374 5701316 771624040 496937661 511290411 838394000 169988209 269832925 194288341 236127806 218445774 268842167 59330414 228471893 74071541 490589128 419625306 411905169 974550278 698185766 755435547 172063149 655025553 597751816 120043836 734730499 480962842 805046410 315232518 36407104 43921473 639236263 245718156 784604781 569721211 794712894 188777874 145107141 87304784 430445816 437866246 559089691 881877776 456622413 696864151 797811850 967609310 542489571 749674792 737577548 757306434 44140472 134541993 110531454 265640671 703821416 193770737 992772596 845726420 543065529 296374487 351930437 458857577 387405578 834743372 754108202 386111389 879936149 219506234 74270057 536874926 509113033 449716056 660445032 528570377 961737530 194650946 207700252 228016051 111320502 11285076 724147045 71470495 300325872 343105645 896200985 737557398 475801785 352473411 722499828 393767644 174619346 916017437 278533398 345061737 861598871 449983512 706077791 805715212 443387899 378540800 114315234 458235901 687135777 641169100 148323843 290878868 900759526 777342284 976317141 658954744 426451281 640481850 173148793 334064724 737209542 725666154 646868817 399135142 799393114 135536474 357616970 704476068 123714900 151229401 678786498 58221068 894906653 126360085 724630889 959575204 297523830 435824538 158028425 346727010 201641773 6122464 820144717 45474602 321371632 439085570 703655408 620893803 832893372 725663788 826089752 425697993 315657216 780873944 43414737 905601613 414928266 260631877 510512324 645086402 169605773 798652055 572928272 945008 760549230 48254557 479525797 389577215 784665037 32226226 705438889 91629866 266058796 330934329 494399323 256566078 618710993 789340079 880165005 373371691 127319393 57870223 294570108 628889476 345435069 162875484 235647179 881371865 657143708 911848359 166420307 591557224 193291353 949155222 487674621 450286256 180205962 953071801 20049626 214934699 76926276 649012603 888950490 363058024 690174589 534831056 55380225 150004039 632028541 70809740 255330302 225016435 491499896 995183072 608673811 192437969 18053152 857418053 177651112 675487827 409410194 643129940 919066458 713283330 130899936 529750763 811655403 470748341 310076698 671384038 235370681 774001008 611981251 892391278 871186049 400079575 54359165 624073794 907252545 890657341 517096681 556767024 831013495 804273176 366559555 345550006 203427503 265251708 464070704 926593211 239474580 404322529 266920863 780068724 770941872 749975498 277582502 608601214 280446480 408023670 690599181 614379961 531937976 85793203 253251051 964646757 965952014 929790205 259948048 782746309 696882389 643649824 365265552 184613522 522476333 777342648 7171216 507125762 974889808 588302555 992582576 914181427 389153007 145914854 357397498 184306225 765179419 598107276 473795746 990671353 614521280 327473402 44348248 570128798 34892699 224584264 1002459 135530466 931014275 812629157 202758440 88310410 473161364 499310910 834377987 576058325 42873895 423519563 514495598 482856058 218576552 676538870 625149817 865764561 341794738 515208677 849306964 992811494 398513371 833360689 570826096 962108679 786791593 415574052 633226588 78330538 794345850 54291045 56163508 459749274 589543709 360613288 930854426 780613512 424744259 978772110 552676320 141904700 33288696 129471690 888082312 694472199 532600187 480049100 347075269 577394793 230179829 562862135 185749695 783942222 770538094 437300555 197784972 634005645 210654953 132483019 987470018 344504911 133664745 3291033 923757308 329069719 883129423 813817637 65497582 533932099 370294265 269479776 293906893 175861634 773447104 926690213 295577714 67598880 416985723 202487942 968802965 291243384 194554490 298308272 634248382 112218195 226580276 603743520 986741094 371242812 948725318 553620540 770801620 674468136 783601742 349916463 514551967 527009202 710141276 820579336 620073844 605164933 713354788 272644756 395662073 11936794 174239070 541914960 8181915 998808270 697518461 196092850 380593954 865358500 271110589 499685644 92349711 451727587 304246312 78696706 270836661 50454649 980607508 274673763 91454028 80504338 213696312 650857657 311394815 751199265 577946476 766858657 209557454 216447689 327769385 449890576 185398840 292033596 946957129 600150333 667421188 411894757 376642000 353512553 314250661 184311362 830414317 931908700 117994434 611185195 237438444 801079573 802987035 211169253 190815887 588919813 447720054 458451787 299712602 571195961 377054239 777157860 364879022 24992872 473146014 71279175 124451020 19285024 221267118 350018549 112456721 273071789 564066158 580731573 197027875 266321000 89985439 499194034 494612036 734563549 352512503 68033417 667823883 386603910 181968468 100210964 97834522 49336878 173650136 72756976 40521831 894751825 46922254 589903285 624438390 331530353 731552270 145631366 986648804 23636106 376005042 517165911 751736234 373857394 357841219 656377338 499266680 952657102 746622022 106139933 148372442 253118429 14992214 533671254 656808359 973357804 798703194 807743406 544293045 750143731 315355372 684449371 614229961 800684790 465378482 711163487 957014435 689794401 349126670 943176541 755606528 256576931 725452462 802409502 249520982 816678279 293146056 774654825 463866160 867888670 905651352 2493386 312300869 207240926 346024642 837692477 255424748 978393902 876720401 781555080 716066143 771952595 344190316 795514355 725001157 240069962 558367355 330483372 899422648 923926879 839950783 780221263 854266492 426570395 352523580 619509688 30944558 118190553 650916428 86939217 787227387 337509793 459470149 45472563 526571258 472268722 896950529 666928523 648472051 800400939 25570675 165444281 172354007 476562186 248476526 943983427 660159086 837083711 451752367 553128685 988462537 932088335 897751878 963046945 185791787 278874015 836214083 421419483 393122004 331765220 823175764 654762382 30620793 989839940 804976777 67881170 827518820 181421386 5410903 378243310 899245642 79577969 517857924 903374826 309051455 395395920 904072424 480563496 930510434 206148879 23363330 44295838 160553648 488704425 440756993 905334124 921977668 247830465 232302553 801540825 353557573 952561193 562031726 71291854 853105005 577465275 385235364 995411118 583299279 492850529 109226822 73240186 974623021 653697710 276154296 341733058 296857065 987657053 166442372 31244612 14223566 590203790 502707519 860266722 718804665 200383351 45188797 4165007 778714448 62437419 228813097 558731779 960552632 972426710 257376539 557056069 214567341 213623919 967471237 498986352 938586133 701569985 442473372 993442496 56269793 383628654 692530290 504453049 268375455 650905847 264970945 628640927 970530924 845125072 705859037 629550751 999473728 528912996 893473244 390738450 661874919 115345695 998859816 294641404 183400198 149802282 214001785 125793344 715088252 451086882 75852449 663237552 842307105 163127620 447289263 330952938 847918215 539500942 471650533 198603159 681451266 935312209 412274258 42356754 812690233 907959729 234277477 196409305 90009666 887031682 707144286 171259260 503945460 65635718 483105538 456407258 105708680 313588989 811679924 913726709 210937212 251324094 635144732 842163697 539528416 925093818 764015723 654251914 519121635 152226360 166560549 608317420 122457129 297771130 503478271 14940099 886625100 617058765 267220287 651628297 334654302 415006965 851830508 111251861 740308051 281706956 800652187 111303706 518609712 955078093 489361747 210499503 859290533 958779546 930989281 746688910 760715010 764135145 906674072 43260312 925823537 808399218 934380702 731417310 542192255 50798100 962482342 153310375 903718090 797102559 926217884 838589135 922667085 326419072 330166751 661019268 900336308 282481212 259925087 956275464 383998702 877320949 190894652 24860018 495707063 390148261 160976186 453303734 111084448 605067444 405065498 545765004 609755535 212670182 264043395 810766970 262998392 714121334 604531313 727594277 552821475 606684992 315706124 788020513 840916968 823963378 18595581 197762193 105378501 547151027 508247724 696334047 115548339 330277960 951449575 942311112 965054227 230397288 672000007 725780594 230725969 63933061 948200367 560914808 409028901 305232252 429670492 231967155 373421272 568175818 46818471 805528083 695952362 771898726 149138417 650292601 553489972 304614830 27083524 341062844 30941556 869908362 690370854 823869866 372180465 880901574 727469279 255142648 306402153 421440111 476189472 257684871 679825137 775249091 869146690 202749181 349560020 223451277 693212332 962824877 890969507 762289142 523257520 587239486 181410999 292528353 472329180 760677327 719814754 971275312 652170290 57055756 110174373 478170060 829307495 141361115 245243805 212366221 979231394 485041532 953320188 270298100 300310274 118738079 663437354 36502351 709114830 605547126 808841226 686624668 295752642 437640918 404468597 494326569 729446735 171775232 420852585 870881565 212561500 564874589 750992538 231342144 593438889 491358889 707301385 840129943 609828043 235277161 216216888 545274790 839437852 125063691 823704772 557666432 980888084 74977201 989006693 876377609 390468356 621703119 259401458 701036200 706073438 438464965 735735557 280550759 881688844 779597209 590704879 520749631 100654353 946604768 173605456 970136304 128108101 889619918 941350782 566962670 906387939 762769041 630964187 73648475 831046389 806699783 306388329 365512655 281889321 981637132 898120056 846160012 366490509 125115941 451142428 341003456 574780254 124554079 949052289 159203122 224054443 291877277 465895604 161621274 812471505 504903470 354280133 992912138 626965768 324777521 134763643 100873337 427249114 144644214 873553540 504804803 983217381 86102581 43782728 204127436 459252375 663960430 627680644 714580682 149874089 623396484 335067175 990968164 181425121 650061949 361472558 206137781 263225818 735605875 820907713 388121809 653107775 34109822 670674211 876576501 560579015 550196358 304398310 570940985 182727722 458125461 211111438 23152512 895459072 565275884 894032580 379052273 579542151 804988037 44567540 574269332 518788872 440062953 235437228 205579625 78683486 755293014 941372438 334536224 971008422 725613507 481519209 752311731 646508808 685081679 720679177 855314672 507729042 307272248 748846625 981878347 333216456 844462293 405207131 385990510 455378896 362090711 565469508 643775015 918061087 560517139 541469089 693544199 697145191 196033128 154377508 147820703 530911275 829761894 766679051 117945228 648595314 340558094 464655432 743024621 233910626 227127827 306162097 450408806 285056010 925528861 103207952 216744032 693907455 828918427 606359892 538378023 519490203 31183233 51133233 434871185 58930154 796787141 754602966 928289586 471168776 845453769 736095629 289598508 843315081 981494317 260701749 43696152 858516017 3076271 730912206 648117196 913546138 887784678 742732999 644303745 844270691 989322794 772458947 132542825 452440527 161043600 239811641 178242125 572803443 841320327 650274664 663024172 862080251 390016422 634372595 718895205 146025096 444670581 405835165 674714624 135989111 587627527 836581247 669199338 394382324 513129411 942299076 456767843 747617384 354056634 159785811 163782143 216874052 55530750 537586701 21669087 620263068 114737667 41461255 594780695 585895121 289938727 965880714 617910426 170005413 801175299 856937473 121211412 132501455 626297454 759372794 966907012 537344751 786461334 824817655 231636249 179863696 889838667 196280593 914640865 626081916 649746479 505022082 83098344 354144080 487779181 149094841 423438425 328014878 903655983 534319515 868546603 834773549 968443795 486383119 837247076 53629681 79533615 743456749 254323830 176220295 785035286 80247580 2134743 780576393 259004124 606717749 387036318 322326886 924781759 206661576 688970603 11437869 183265109 223114074 837436706 416461850 837620793 863713818 687241534 668033627 80934955 17322686 218586399 596386709 567434286 699421190 596761259 228458559 867764234 389076953 511199950 962224301 170486680 311121753 54432592 176638506 309439148 755165289 220327962 173285174 742705359 733432811 183499932 678228771 959511557 630025924 488203707 284076556 763724221 911708578 708008619 91797624 543387892 990031618 517335252 682467294 300797495 875211436 192829295 991897404 77348894 719267661 648111789 489368092 332087678 189986204 584478015 480535767 989206693 885084718 641884500 751462030 634237054 896606138 675626795 636130125 718374154 581827022 48130395 281987717 288332806 569926381 455640301 382370061 149493354 337713013 224035916 747697262 394026034 703512936 880372294 459178864 484688670 952827874 67327641 883164554 340015777 216858412 868789066 504116825 67821021 114239390 278715524 173171025 157879136 510510698 150336746 255908132 197431652 66560579 54969169 113725327 8457201 124307155 4672807 750722317 954302070 457861500 854961706 772102124 444278542 396046751 56810161 260606064 6863686 568336435 816140595 753479220 823699128 823133965 54356915 899016818 14575678 63444579 872293784 390139654 918314738 98915688 371173329 819945103 530903500 373789890 190804868 308482722 806356479 126394583 381705023 190508917 202336214 933222254 759165866 4867388 418731440 611203492 317251867 462935138 525329719 589605071 836063408 498963566 901509258 970404060 782401591 306108908 985123936 27980563 779071469 706159943 215028688 340457720 790808534 522096221 506270570 838761013 184722598 269023834 895293490 801407127 633892632 217891676 615024550 449396262 880619305 716121369 750658618 98087112 275108231 844724222 111949633 535479853 750214088 913316331 450533961 215272806 940368398 893958482 713054665 30588758 679331936 94192844 145001488 794665802 812080078 664995597 836544540 967935311 553338885 221040044 282858460 454581934 937281201 31580892 243960335 943900136 543013540 759658894 348719373 233292048 991577930 768754616 797540995 808234231 777004018 157992163 102991567 67315424 706881409 582143334 680188244 752501386 227170393 714832482 317112908 2316743 644162278 107911359 669831200 374845306 670219873 843376762 162666025 665609188 389225903 957477686 766797069 773256758 448900479 658672864 106826022 686574600 478154247 685001135 860119114 777031295 246662624 696227287 977580624 634648408 516223074 528598367 951720 465264497 554932387 881998807 800492182 598663312 838816484 133743078 592787678 119108838 977703203 821497031 348938624 13971140 330330602 22714453 797633455 396102889 329317148 679234600 367259758 999719868 809292504 199880519 702183368 161323146 622583370 896784961 282178201 925799262 189750588 890161699 630276853 848787010 748812359 577012057 22263519 259913726 542089916 851327457 956059529 890832352 645202961 820351246 927375564 880784351 30525985 247899951 428477969 562594122 314372903 138085757 265381826 517283898 238423882 178249646 75022984 270203784 232914266 615261436 144191563 297601583 406398701 562011195 990519793 676531142 976045686 484682676 594269296 830509754 371062523 452574582 866985229 669880672 58511242 678731321 117780350 405084096 308057820 201313804 928406254 45917005 288820313 726598031 296770052 559224100 130370485 38952085 599529122 958551892 916293599 298164807 253238414 121524029 574279022 588498108 900703742 826668274 455112070 906045953 398682406 35479315 468566718 407490542 614760475 678694536 942304390 908702932 806937180 646771089 493910472 429770949 914278762 588681828 926009025 653794651 606648173 443690746 232278358 199768691 125786518 565647389 698812781 722304745 450555344 992886424 724749190 391410223 64893588 441255170 348064280 160574770 85308288 957667752 678016451 798830218 467963989 705958778 679148338 35234635 703238633 405189923 738748906 527715359 693579485 193461921 550586018 984523863 887321868 606800336 510136033 970802516 740532729 726637308 550649496 629910804 87852380 733568464 43456552 142334387 498608661 172973521 747151007 71128458 607284298 458677510 106759255 941402979 471738713 946643278 898687253 170943082 7897313 567431624 576353378 840126317 540065547 608619882 951282238 141563954 94582521 740839491 312144066 365260592 535708252 203136449 42341408 259003964 436028061 686313562 484251286 489532818 523158841 942335813 935398727 106857243 232373159 112331077 286203447 877230788 447891773 32897664 319025277 21428774 506915221 495475018 545484760 999028224 169534583 1041361 5263012 938728856 849207235 344103130 752541335 970193025 321786423 318865389 782203416 997755639 398112776 309365757 21105979 526311753 852513230 222016104 650684546 845318880 627245210 107285239 599804510 127767239 936447380 734831749 116455543 111942843 514916483 729588935 401976128 214230887 98744439 740138153 829751109 395440495 496048978 434581468 505910891 796830957 841078300 30586073 146659938 199066577 73168782 725641613 6309414 793844059 287807323 741663916 290992958 234673962 550954912 675092644 958388219 329505252 559996989 696103259 635158463 21181138 33969875 49810498 29134305 941950435 243081708 445245604 34141577 130274673 136710631 98375959 173199496 125753423 143980153 609218707 649487651 81117480 302529521 864381875 180513847 855789293 561825132 999029081 286914707 972698089 267744458 680593704 571734155 568516982 589182451 660681614 399519927 626364683 143163771 556817751 125602250 815146227 637874636 932076313 224893671 88174704 725160516 231646968 179384291 877181859 131567493 202678639 951290652 853367392 718863307 403422433 144330504 745675719 575125298 118612513 561731281 631455313 958114884 590903141 386004295 505330716 40356058 993899333 968282729 976322478 904471945 614098362 158488111 254926908 832511975 710060509 393893688 113773889 409545934 676372182 509306412 73621884 29198317 630010271 259726345 554541630 488420934 28751747 705919557 327985099 435865615 204053223 524377217 362288871 123998323 369850660 13138073 834293639 301265239 394100958 67136936 815088262 486287569 994318094 803912981 774352780 372504817 402798697 759057019 506913219 92746233 166877199 60580357 815946443 462222101 780006368 374490306 319249424 2609942 74723314 440834677 526807428 434497519 901061910 818311520 428615585 328573153 502808612 280728045 776532100 412999799 767679253 456758130 638196583 311477313 595147777 363232573 63491921 829896125 958048360 760514218 393840652 506438744 972025677 18439567 438833661 650639787 494466079 161951245 772274623 415115664 331978277 898557252 708267757 841616053 862119047 19358404 672617057 332103324 344833224 212704026 654176041 343290830 959162610 226371637 411217436 823678221 634566665 239376760 640435220 671344453 411982896 458079626 585270946 230466284 660682401 825147433 993825887 569275324 197914613 777528918 654669590 68900933 383281736 986954592 350500346 163054243 25906156 475371109 358607562 589027470 525299777 834002700 617003819 307012266 99758706 164105693 736298611 915889211 288940853 47964196 589918212 268906317 449095994 204189797 714611751 952796066 804530301 279584204 654670121 813754129 351009762 498998531 327849078 440892312 706717250 71844114 225402773 779542112 318316229 144239006 25094584 737569269 288325743 800246545 365339256 596527501 675889522 878452212 252422912 875470140 970379923 783891260 284693719 35862780 268573622 274383258 74355604 810937568 381144134 728658768 699453064 759828924 494764713 830962674 157430216 186675894 356835095 379433334 260243502 364866297 952892802 819294648 377818768 430216156 926534602 215274518 420026583 897393939 437630590 485348659 214164735 346118537 660690970 904896077 94155069 767384889 643097876 183499281 578280445 386912177 872479648 582947947 591737538 702599885 669416771 38897268 345066855 102500253 722996710 654843797 738129447 479651696 368081965 654060780 729340384 298068611 814585274 836261863 93289244 945202348 867216987 417586448 536023334 772008236 60490822 669820460 191095054 606178339 244449664 691700116 975211048 516890004 129738622 957977980 422009584 661207028 800121684 357002355 181258800 548200447 731495450 62181080 960863072 166918190 652957178 572916594 571063371 358549885 345799195 949821889 581977966 961288490 736285585 567947055 325688427 818205259 306087288 352581062 556646577 706849801 178969351 903410821 72860621 736369928 430300962 194558903 396225319 583304921 48028046 579986934 202782815 786413637 98238954 742709814 3238782 140981546 153670412 140663928 856880729 998575952 73891168 470133205 196274069 782151545 925057436 118088507 637781820 543986220 808557306 902793246 609821749 944330885 391644667 644690043 596332455 117915569 14853613 338238200 776214360 123337908 777895798 883779077 27268401 685610019 396305509 187651760 209057322 191786 744613370 883393152 644840018 883938317 638660027 285979692 315307152 367508147 350068060 906918366 240433765 706666581 441330604 975996418 491066642 847868342 267768596 940950689 219210289 118978813 608331093 980138651 82416795 622040754 464926443 91810900 11792954 473032605 564008511 728109831 674231773 515030536 588905834 134784718 61687874 215423016 111084989 831526714 262597797 737663959 686498568 847511358 347012428 415400265 471714779 777500212 43935560 777125513 131012330 507470356 35581583 756397497 910618141 173209001 264175856 728428604 126356931 410549636 313654701 715170140 721787620 955095250 381154875 389246552 134140040 414724965 204024982 305082738 595351956 335923767 728720993 687465508 796704492 944739422 583266337 530607340 421007558 814263491 464219901 62065565 332104342 14853911 391758533 621673600 927596327 259882266 464760165 99534605 278951983 860542149 132352670 739637609 935127854 452767109 774490537 33451093 48136653 899332973 792615503 723804763 856013694 814269489 416845599 120328693 814170353 185565945 119249744 31649756 899887868 675348053 450459476 260014867 275885167 139620852 485476240 877293328 501225544 702221710 959648231 507564623 941040473 781208256 908947286 215318593 884370463 719172945 937295906 91051220 6567105 49810769 259011541 710698843 365496770 411934674 601174900 66576060 411484069 690142103 414679215 911994437 329140854 66944179 298800655 963966836 248896457 231007982 286175394 795573619 961317160 332596224 284491255 770261757 426702802 229034207 167541066 367711701 801308547 340147735 645804428 131149287 937921737 624255980 239311591 434231540 86814008 761802798 65901663 25251100 427846382 54755100 859398712 462978467 959663274 817191094 154666802 198106259 853417139 263482143 987922320 458923157 27566741 732987619 255763221 75715439 446005644 641343230 553174333 93408755 173088950 567536038 739086764 273575977 728156048 889460104 159668497 416900024 49156020 405861110 579044540 766336204 869946125 484915489 161488785 322601138 471653669 846749416 882321945 618398638 628576391 731452008 562970137 119180989 673152427 532847552 165394905 112538664 611002443 71287903 657466678 989296893 470780256 401798092 272470086 966289678 85357851 928867603 897504143 120832564 496763645 456601150 960694386 475837726 468822324 948158410 494190809 135898428 149277146 546363871 627145908 383839323 523283303 169642103 602140324 133697343 18577292 516599994 91591069 572555210 6422159 549807910 817067948 582042839 981063173 562860732 376624742 154642945 136872922 532473563 151446106 532966722 464811647 37661606 514387535 610976922 461881845 220268587 883131819 55713437 388091934 729994473 261888334 549850112 517346411 594004292 911342713 640355648 464551946 9957963 260382525 403313297 301329141 342237184 764565876 928214357 708521128 992503963 684893839 828142215 463081732 845881065 787954060 38144990 4438829 158347451 107479809 324030491 275223409 806843475 463110692 638904913 529024523 560695944 842820826 816758964 949359439 725012318 724276504 30549178 757788175 691434294 873739531 800379467 730689163 768313376 205616278 146247932 998238351 772139548 962565974 510220832 492972831 224336475 776912782 437148293 56479131 181069819 233344151 836968558 942961490 171857474 749150779 553912348 419348677 663322865 329933793 267279359 224494501 381563892 285011542 922902049 180541422 712011735 396352755 735731988 617478017 798513032 103300145 68056494 436572984 749310681 86971256 899649498 548518583 468949548 63048420 808582971 373806903 789857982 343749860 410095755 343420623 579235330 3607322 142891995 938763616 125203247 936709984 28193124 458560046 424184864 857846950 517252817 762426539 774298639 67673846 221875675 601061260 127027037 919406604 812370790 202796256 773088569 225263848 427082835 722725851 120236215 550279524 224406031 508756168 676774496 99599035 826413329 538334881 550218099 651906528 520404119 302651369 823857764 554472824 318075325 416127376 395766946 570269812 326334404 491635853 20611584 497348021 900497578 848225623 428909915 633777090 538507796 659026336 895612040 760490939 202739433 127742845 352302469 892969846 740142351 395201619 511960223 777815983 3624814 150560568 68131933 949143971 262441840 742957759 869808526 987734825 594659088 457392993 401087574 585449535 581656899 862398562 695605685 260942381 30331924 702711704 18993204 918755129 521875536 250574642 453955231 883318091 68763383 556453100 295706045 200948959 959906653 554495811 150893128 162357800 41208475 303991144 917625559 73318085 489459777 570325833 380250233 170416329 166363900 727036285 425316149 329185735 601192903 784678096 956355284 186717176 861655835 406033863 394507127 679667889 205874939 423098734 394115467 469018750 219822120 503230578 599468852 268584182 849012782 837873169 25255332 916114800 993776582 985857207 160935088 951289439 862581225 486944786 67836821 652954770 564673461 865505350 27817697 328498950 915581615 140170 982068651 817567157 36362422 147079210 812343906 848625120 766262324 883118291 820967345 265860543 312848673 717262940 733237418 494853171 94543265 353757493 408569495 653103892 172117352 307961066 724929905 74577478 738890041 923954449 536931033 481740170 210085079 309006239 354185301 102427343 124096338 997350109 264555629 364702194 913410377 782772467 679726297 332813250 968354529 984550679 816970318 646396202 779643712 499570395 194484273 851200812 72365989 247328264 105002807 172973175 411861758 958675665 429103825 705926750 869442734 619625110 361750406 399210653 997471012 251889415 15007069 47671527 598794388 518390545 434136420 950590425 106258582 559182050 585356422 978609241 249316902 159735598 426899693 20839697 49818000 221884018 779118444 386225637 971925677 234733905 368880493 651281398 447119449 357980415 378641249 213746976 199847324 64624026 9510325 665215910 554905326 238947417 307980774 539406216 395796365 927578734 106094406 421929246 48763028 157842552 72823236 404659259 172968226 41640218 358992649 20133316 813067185 959456687 709591327 269588747 49761883 267854752 886983665 486919263 730275769 956560896 343784224 50112923 814148807 823191974 799960180 988045366 107727479 596354111 456348241 908432885 250800853 906580074 525149751 443973467 721232369 914597898 325897353 284105610 539269910 741851808 986540513 122704512 114935675 650800655 179913945 657013819 989511392 897398763 524701592 331078829 585410039 48539842 612139075 923956336 490207173 29623513 151430110 256694793 319101220 488239872 720249165 817920193 197458452 667100401 432412963 627662415 799579796 857217368 409804439 307840268 203681710 700204069 39277050 850638606 455548967 240466944 595207136 791152558 403348735 584582973 132788576 89708625 755096993 477112277 708493002 121463406 355960463 885505521 600408754 169895281 267510802 760349988 605068305 622206375 769480085 832626425 140118845 129923291 108471804 21753260 679410094 419597763 234934832 583577441 666649077 668765356 504741388 115461572 848726782 691883030 96952754 919373417 151330000 560571773 44792199 540857439 500458037 450779114 805534427 166267506 871630753 750154033 244216330 674290508 418560589 33574315 427383207 924035474 758428253 450372549 324558364 686772242 266757436 73035195 441318394 220915562 985789869 200340656 751880053 22535584 150571866 231751690 610579433 275464968 568075782 252001330 259367796 407609653 833111334 622358176 614202741 349653557 861222934 964423895 212573726 800387051 367583598 591034440 563459384 886769723 489649962 952241150 186001128 31438367 909962865 522866159 240327639 723010351 614525726 893222660 158670708 374308100 195847007 700969421 588208390 656514357 938814979 578468512 463030255 793852690 885047984 576215313 704294674 316471083 993359582 336030104 545429095 385011972 752127786 998293978 670180115 797540203 682204247 964893110 106998218 849825200 169182319 75717514 928008538 280238565 41816479 756829091 105768778 460918306 578337714 746079506 876022977 679153845 780742817 983313316 665334261 845325042 660207563 154074925 139885913 373242058 89610189 715114531 680551579 140866493 630738791 605033077 587245518 718735582 893678920 635236263 182883560 512751690 486412964 949746294 989523470 433297624 192614494 260550328 116710387 972211751 887871933 752345536 68753917 661217909 42235524 166414089 639977778 456623354 93998137 503356114 969114927 576104158 292540187 298688078 246870403 786687953 544398217 715524546 450726429 13273650 518440543 609746850 76457755 370446276 425376059 880007792 771424468 369765403 887488305 734599758 969756978 968625192 183355293 880982851 853173550 643032339 378010531 528949202 472998318 839566130 296633190 233714757 14408498 133059791 270464647 393415100 932460612 38888086 355360259 478093976 622992086 960022321 731093956 85618638 323364239 35898 635492598 763639026 539506862 360434308 9688917 322278655 847232791 905927470 809671461 872868308 378468612 117513799 970973636 543633118 141664385 521116747 803790510 349078366 693786547 501935041 477972530 562600681 907896897 751654983 133979858 149604439 333479699 823405394 853126224 132077493 99009923 777874383 59217591 74280194 420274838 746741276 663405800 379564346 292073809 2015027 190495351 456277473 444561293 221045977 544248154 838964990 395834363 503951080 492235445 510153737 73998311 707380195 615550614 783657538 238723853 371877975 615544761 358725966 138127631 564166678 187555209 757394302 82430754 631235632 178644103 436802833 723607489 147460749 343172747 9996540 758710160 911814090 535723279 891515338 747747876 359636337 26731392 670596751 306425889 823408062 417690502 974941852 181384139 144780979 324429612 519966157 535844571 668862784 783634932 149302429 162861988 938474980 147620484 361380905 638653586 855655301 342223333 904405801 828546935 430374838 958257126 192266820 942876102 405373157 421327316 931281549 867269018 640616853 298542302 339067457 691628422 952079231 309900186 680553090 395899956 36475933 724889570 603696475 446463737 486422540 272141262 253485465 273703064 536468009 667259163 371549641 240234185 907464321 425544998 380406428 52432852 631855489 723283753 271906925 920363423 6493351 173547177 919350541 438564904 916590261 841714700 688430565 231443203 221854117 517067873 429279214 609788021 944044022 606591451 628201471 201446041 807311180 777751751 392309043 725837856 533437103 716716675 64905851 886075941 353747818 161747325 15186154 893217876 847190739 74244525 186059016 104585878 823914755 158901128 331418093 971761391 886942514 229312604 994616489 658875185 865178496 85435374 271679736 20203596 35158996 608688160 613821353 553568220 499790898 816210162 749727246 353707020 408807476 974815121 308932918 305403477 11459827 832624193 336683099 57611908 530123720 961584215 386948391 744132022 848802070 743506202 800576187 752987951 407276981 390656183 89774638 561186306 923902828 312697708 983661189 475467364 853978883 361911630 270163271 110658383 354846174 416679761 375762601 988756243 196202279 46919245 934895539 624326040 847398781 528867076 150878237 429716698 147282362 862619374 684446217 108495174 682674748 406508131 187364045 781435197 879383940 234199603 382726542 198449493 641793510 821139264 667686336 82458227 721468266 495966950 393020037 742632394 973440960 224190158 572457597 85650992 837543897 713650341 733237308 252578260 501182284 394350662 463973849 380973985 122308870 600707839 144482641 308079958 682266207 414885717 163499936 63689478 879708133 928589489 68862837 678041097 191454437 399576670 670606632 638655642 100696658 542927669 637307785 752622614 925804035 585967801 679236363 137517873 271662454 529347166 972969569 799367155 304122660 648246352 370840748 435286561 148727847 730679515 198871173 807200188 573427982 475366179 802832365 557072634 918776584 219447516 278955411 201165157 866793399 180143069 404139441 562671739 687244861 647926599 409671906 570846670 567178464 888730529 741391282 819111512 592052616 317722751 537246581 47863753 219006338 425124168 227002303 75718221 230430787 622555077 614871802 322227474 196856538 568908016 512876274 919475451 29168334 827618151 326203972 373755934 456014725 512653563 888319355 668429138 275137678 107135255 266395514 62433268 234721801 666578319 376979337 365635593 804147812 503567220 637482896 601501229 989525211 332636675 404867330 136321955 945234933 15980151 67485320 276103598 910947023 530532767 216507637 554120988 212346532 911332280 282983438 247147915 622169214 451108298 817097172 458034177 935997055 913144768 116516436 714249493 204640291 999677387 28634590 669753378 645765727 290320670 699622281 399592776 247259011 198809162 986443479 430069705 374856363 107257323 3140056 603453864 645410351 152683987 69717431 52830315 269995944 405827796 971575054 722592184 610861973 69319826 784687979 758245454 455829729 274132199 56212071 749150534 699240220 533288166 170369076 15551482 393679458 340785825 918991396 790065720 447182491 379592600 603494410 400780314 11440628 555961007 467155844 306488990 437812352 974750451 236752199 173043922 225503941 484422684 444453746 534101733 662060502 380441052 8242897 106588642 802854228 781726471 162726652 580351702 653345328 979398036 613839735 778414365 350914805 526138470 490062834 416604163 452035095 641532997 347266703 746976543 80045827 196411232 396761318 548621847 656005450 665788612 931626803 347039683 383148600 39656038 685249230 623987602 846870404 185417421 893634102 334596528 420016497 720416014 508370891 988449994 137140931 657027423 483101592 484198388 81559771 256612002 370355737 470863548 13695675 529121666 494962353 466859639 375084367 437037083 744612719 510491951 109106814 404145268 7523254 865945193 240965293 542142491 233825055 453673809 894405745 842753926 533375243 949809269 58519075 337329122 942109211 170609712 636700018 872108803 368956501 547335491 773518251 383831291 231531511 42614521 243618939 197306031 490036939 156905847 570915101 114930339 824846982 434157599 962411854 426343379 834097776 184210910 896776227 877938097 515125097 397188112 842240927 948458759 820905620 637987684 298650973 668737674 499831059 340635992 450495910 102416738 943022472 233517558 95161979 563736855 866526442 280240416 358464228 973485475 234702696 80091715 574225080 135098014 590295037 973539331 245326959 612612322 695775431 407892197 780707320 504963053 900314203 223090031 712368016 707863641 33123102 579935147 60096600 509799277 283170325 85568031 18497700 377074501 934437803 878083948 656098958 502567650 196021614 574464157 428526341 755563844 469767324 435329118 395775383 850021296 924437113 636434731 465544612 410436114 420290905 218232093 716148868 419569709 168075842 564541204 479418888 292886875 234408907 381435832 203114300 757234123 998092626 248814118 536236336 691286137 548761621 700556548 434117173 397279115 526159606 122031101 345830327 169149428 178009904 292185830 331997903 884255444 958521035 974197286 986932934 977861087 60368181 682929146 941002272 797455011 194506592 548508226 955027830 421464750 145788581 38664487 396727089 511980266 49351627 119650917 591958500 571888267 590226303 514972389 157065158 389916765 34108149 777531186 508291004 547512292 294791630 735945041 247763614 305918697 435555355 58531022 273928263 806903067 651403300 376261192 164948657 564481335 152521400 101042183 163581515 557890343 92940955 656852811 397227589 424629912 504919001 209957266 105327819 787101824 434450483 818800293 958424589 558294564 418362042 198919282 487627805 222512014 801206161 290863659 643268700 48712881 549532264 424042084 894002443 204287199 273763613 543970365 541519933 1406448 765740751 66721752 329470197 711756585 614600437 827716826 300405080 301785358 229423485 228387902 264973906 212019934 111446920 61927819 242004392 747923328 554004428 493319343 686017540 154256164 148162759 498949093 217203724 561556360 352249106 854655223 144435791 907045064 900263480 185147892 413346147 328582484 578005023 859348152 607040389 641613340 777587384 876418727 672109088 626218677 891504649 15696353 215274554 269991947 846113077 328151220 359288021 678025756 95704587 100081707 593604852 482876749 201290913 596898243 270156484 960647178 881881302 631484311 786636927 769967260 149438606 987879947 575455944 409301995 596700177 548908357 502985395 811207729 301566517 305137073 993418671 642302678 165566893 641112614 766143800 965283187 355001883 404578871 403047158 670809019 951352129 908208728 128312018 494356437 535048701 797331146 467390324 855237278 930265291 643893496 652079126 428092174 556048849 807520008 671382381 371358363 131728233 97945591 724838772 715272533 518961957 914615018 810243720 66823204 230400165 685540110 475629562 24268893 982768562 851419789 820391009 803034271 159185790 384745034 41039674 723382866 387317804 178604705 384498957 487501676 146685978 83452165 757372012 699994473 210213486 230699140 25192962 4231488 517022156 562111699 815400195 985812467 647381504 903759393 329012525 718185893 734443888 178510027 445771729 875850794 439300454 770666915 130341977 485741347 771739536 566762083 760560263 117563827 529910684 162808653 979375615 891819240 510982934 250816095 376584281 717743760 526185462 604790689 286551193 100011480 754743423 42382860 667473397 567226680 652331968 57635225 359340247 354187527 443643765 397130193 806950055 216939746 256248007 706640674 945943863 184462966 20919511 526853842 847765286 633771709 861282954 371490771 411701611 7203921 595740772 724485586 534126703 329394456 324181519 129753488 859475862 786858159 197472020 793974798 44464932 345726591 503782611 792741948 793094373 329739517 953320879 96569211 328803941 252848720 320303763 255460626 777912644 835178704 15794816 224652282 651668560 169309382 711936823 800082786 613199716 981483099 444010505 422258447 804048080 226425815 221642282 894034931 137706770 299040743 196347002 763273365 456607936 281073258 304427260 447290812 606417977 590584720 764079263 963659270 751916325 294874107 957879548 921467849 936869347 593831843 678052464 768475157 272063843 221082456 324302006 158370204 210679891 486660907 14862951 788551223 282474785 333064675 760370928 323479016 813110130 822952266 164656307 598022246 984553023 711555477 489667374 337047276 967237515 588031280 586049588 775556717 151427717 847610604 38462907 896621776 63551047 328544747 940586195 613397662 708646841 53746891 838269742 27499565 823977046 917952805 683522045 243167337 449724573 943588128 410620694 426929164 666548698 502263039 858662342 211491611 286420954 901965061 247256805 444409267 794421738 2514526 669908269 490180682 124451156 847848162 81209997 562557480 175556873 944559725 675403768 360629909 581124267 973142611 819448405 672407309 147121989 890736623 891969622 154666851 234677285 430747449 842578565 190573827 982006724 988769876 88376887 402124203 182172450 302814147 455684921 722499611 731332253 20005605 652624388 961753015 928119508 259180573 820213681 781109892 762430519 718090517 994132653 18689908 121439416 494089318 158526001 203762165 275192851 914971329 8886518 351811757 978983636 520975626 83803473 803409500 956409692 7065616 79819109 750479510 201472729 657932984 576199014 488413713 101442188 303082630 387971607 92321375 341540112 874908504 26251818 797313847 794614156 817479185 158235437 430069119 70394739 200976352 310789572 386440146 148466144 109775663 846612345 836517584 979269586 357489770 819682546 790987361 247537816 133335453 684583328 424107991 643141063 443923460 584364362 463499475 250766115 909351674 720295398 208124349 406506086 943010575 241766350 865340898 195119740 517731272 917880625 329212746 121336474 406323590 116310488 502063222 746454578 443880357 665788763 368337278 824914964 612493636 841568441 825934525 865212323 650549887 312068017 112325741 305782057 729376263 806035476 827073607 862056349 669726235 262950482 707498264 437633286 302425982 172684082 900938520 792830765 731780145 866705128 822442191 578334751 5921437 254398490 830012921 172460772 912038903 980206935 77126061 418199661 819313893 200593445 672444049 713190415 352255162 512362430 538818779 373122129 691380235 751632307 114068019 221542976 808530227 329313767 330705248 321228650 108873890 761883234 127952640 244613809 147092778 534096187 264406011 166193565 902072964 755811082 243375507 822317226 45569969 236086036 619334374 621235606 110400682 183349462 144640194 897941644 949296885 865612033 38932573 506650487 149565462 634418401 246570413 421572639 559686663 262967021 13823821 950165796 230328823 48210508 569367773 556435417 384599932 743507618 65371159 762574319 350183949 409211796 728973418 915569659 820896761 730344073 717551430 212159888 768120807 807323921 46257488 605080409 807952254 13733166 634916941 727860383 913746000 428472315 752666772 646881474 207890029 1238443 465138013 93455462 779713582 12118427 269978378 166064913 21011334 707562065 395018590 454805776 221756043 359595189 505677285 297684763 405665419 406426919 158928464 612544396 247745833 934383860 512071536 504338405 801539041 592776475 293967538 294212140 355499640 592015970 18746152 374244453 192334319 266823249 123771112 746020016 58750182 848840435 23065013 156281483 357677368 785756927 116910752 842294224 119183307 557834245 719695282 230299162 375426820 112392808 569241741 324742790 155559662 427731766 748408544 449716833 79000346 901656900 331216686 73369318 599715724 235462557 393014997 227809098 589617651 934229825 533161512 747811184 914625402 6296519 797089103 645841901 266723336 980764181 581314245 283145517 718066877 974935285 46274433 933393708 433993166 39907715 119004733 436148879 853169302 650372922 802241551 932757853 149005066 962773769 178432897 219304926 86161373 58024655 179794505 384595031 335585463 444434023 983851623 546441059 140037070 784505015 729050219 964414585 693102547 667939075 555919319 259512805 75702801 639133577 121993916 854990251 925252702 677016158 900360244 444141010 92800153 291494207 493300118 18420843 201890633 205432820 391327674 475674597 951385176 23660997 931282609 288081512 180326157 37321555 947992405 312177008 194704451 898362694 770750347 78055878 255304393 685236025 521727922 824699272 401241756 298592857 23678164 805034753 544707601 557113525 604898413 406639231 946664741 170996211 463570511 250457542 991280711 311998840 141670997 468372716 167638816 357345019 408526563 363213097 753917145 281200310 98806300 537785901 933230935 181865428 228477729 458262872 347251567 114224942 686903572 210438193 174658477 292693784 286580410 40793001 830311941 333353209 893722736 172380098 955160148 48635006 671146197 126663411 648639679 420688573 12957283 243922011 247063097 364675786 99253762 944696168 489042787 267204003 788327337 320286077 162556376 895767960 540925195 844038311 831542694 721581672 952032783 952855127 191877003 831588744 907442468 805764802 709363949 40918050 883216433 344524637 401110475 972615808 416575117 208315717 454993948 850789817 171036335 869900865 130098443 973813640 432765558 810165817 462878280 924685621 167957581 528692777 471129834 309927710 27882315 897739500 151184743 128692458 384099268 518436838 790760479 333827670 269131758 420482589 609278100 608084653 505378003 456761140 914737856 700160838 135735774 655608153 883661848 258742086 391951477 185294515 410618881 925465348 600909254 291577047 384051700 832232452 475573770 976254624 46352055 959020198 762098544 242313468 546191642 952330262 729308876 979241681 938078367 267690920 613281627 474504679 166404667 124578693 406178168 355606651 151074484 77256666 350785610 77890500 146292990 272110815 603473038 64591522 887990354 792022672 517492662 176729538 808061068 492312201 39222712 293205955 742159361 49278440 6057573 235073773 519542158 796492948 235447045 336587466 460384905 561392535 816645954 886603462 897773324 549042065 373705958 959230990 882302021 604726260 320612498 24121896 712955558 237637681 368693555 518997277 827800520 820933655 86369003 228274186 352541410 902001780 76315820 193669533 454172500 515306559 101401196 196470879 674650370 397098569 968290204 716679386 225023984 191123079 321225634 612858253 678397193 390826314 744237368 308161625 956786804 342389375 392625107 492821122 183332449 576201498 562784920 34264000 713403700 176769226 637790465 418627268 703164615 677385517 985696955 972294047 958339657 339915840 948484371 986812277 198633200 664755677 941245420 724068387 188776689 844248576 402967 852000619 344299971 672281845 161760937 993173688 381082976 946923874 862934627 436764702 798930989 983550667 747393535 143080235 877716419 442829576 407631929 656022887 567347421 831542425 686149860 382919325 242907488 785126469 60342033 981089882 965565011 709607002 133389133 350585086 262155299 906854249 738561680 441714313 150586475 234880700 548432876 491647938 12078284 43044516 134713122 342620538 650729689 597656325 548305506 617624164 572039762 494474983 349276404 519659165 197361169 909946045 194881936 275481242 319154095 502915287 396955106 660281589 223615001 21023493 633032751 602234480 446330146 21022701 253301863 531828505 190560617 401948933 959004898 929975196 99455599 339801810 847230401 923030144 482473786 473656662 709923624 684353847 235467487 640679086 879516962 200191778 80017927 943406004 925729957 99122184 196360919 784463113 490363956 928841636 176341974 782193072 101673618 333519158 114341458 605354852 840611697 907878156 817438101 240630820 432780757 431898837 359297370 373551359 502602833 58411965 397907856 291470355 97458951 492456607 266723582 291865215 64899896 213120008 874867633 363097858 387681374 507789284 850420326 583675846 200251005 159890673 100280833 227211365 161420752 966032463 203424350 634977679 377621555 564249766 495668575 157358655 560922323 696479041 859883160 195256319 84901372 613122237 725670952 858374976 425732883 293435649 239797801 960086861 172048378 936351426 385913598 937573143 727354268 700773754 696248848 363289352 577083191 615503548 569695542 476649567 826530869 996113469 618345796 942178171 382558087 326098651 598187976 103053327 427503205 769598914 450446189 374133584 469524752 125770932 754440341 643678186 482421439 940083286 619946030 271644208 724839209 601532111 330737054 702295762 350204196 838841508 286217014 805755369 303406858 680976977 310608384 75894198 833151845 393465297 183489277 290356277 566364318 620933916 907321110 800490301 430890637 97690446 993035216 825484126 58007223 892260874 453546570 457186552 366246605 370091554 467440840 248672196 229318335 111670378 428012881 971177914 912978088 531740105 952132175 120887041 296693772 441729293 458122763 408187656 641728731 521072232 268446648 629840793 369443132 640687403 393173325 670243316 709448843 394782465 799764990 381068470 901131241 577752214 753939117 80954593 239850525 831896616 677721973 136048921 334945549 784136924 132841587 240915037 291069426 821761970 682642990 871474272 442301563 432580305 985188529 553007569 119978404 365547606 743800031 883208776 218358638 927142219 974469331 724575306 71929583 769745168 946227414 393397436 518394614 949902766 618513237 709016844 196813303 223530249 811155636 191587383 798988016 48565199 260120139 949894232 218689484 953709280 421690415 98845244 539448906 953256654 739315592 556153062 391665614 442889091 789442545 387242338 471980163 215923830 852192248 142532593 574857431 603487845 887058008 20541661 903961459 614401568 736709332 855219477 103164622 693103894 535524098 490576933 741207507 132945334 234129441 600077473 16978573 857503663 192229888 879470161 133243843 287825711 980007297 366484946 8629625 238762446 70065502 548696455 594111397 780129985 534010232 634224512 574187500 495217686 721243204 44787029 132914815 113423172 484084011 807897925 823966274 622747221 771847025 82771634 343286499 455657996 119207421 491037408 494719487 234628946 615396034 687726063 80029971 305833984 541197785 437736209 508136552 584922752 52695635 458511067 345379585 805920481 588061823 773841226 763946293 687124154 870472526 13625825 561180171 875742839 997435494 337471879 959720077 996826914 960120031 96368312 86369552 793680937 775157282 680532123 479304393 731195664 524501447 930464556 771180995 432877722 553356821 609033890 428635157 45087512 721756456 409219884 246180089 736327026 141593618 905253555 701002352 687646700 543615998 806448396 523984139 911801262 155447210 443126344 66529765 304015336 445695583 987720212 757553764 482206952 352392167 362689918 990908819 775680969 957744750 602143851 224171692 750747938 423139171 71571405 997373052 650803450 893373607 776691507 531296425 901454965 355623349 863613001 812790184 510475365 574288972 437258006 476323465 804674555 455299438 912910374 14237952 531673942 272157153 348687733 661099317 339227005 296077663 396556135 142654531 700500677 96566269 393259574 291313430 936845382 52349380 422439253 730271066 87380668 382451888 51261716 67051722 42382791 534965853 236580831 149871256 661945001 116631128 578984740 884853655 9557166 717960377 940162147 374342307 580855018 537612143 742810509 260160677 297650144 817339731 370941998 52957335 508379571 966090896 937377425 773822777 988033463 268697110 925131019 899903484 521571715 116465956 817587081 833004150 814956724 469650694 962473030 575806557 287532017 733830029 899860753 24801249 537185481 736323175 607264115 464507228 544071442 577253648 299509661 811180767 687701747 580106463 922559656 220152708 969977386 564374998 713828821 405676084 177439560 839938153 254776338 682710102 808497981 727072028 976700004 425061804 847861286 973584511 482102029 741314583 163487566 942741752 633352720 828256281 244328614 389833400 817116096 607686565 798339192 660529735 242005229 682955902 967221485 849031872 21609264 338110782 319577000 531880823 84306425 443776660 982750176 732625207 157316245 184671615 490607732 334517871 339612695 949476810 695450940 146199352 362425823 616121043 114416078 147814 825911630 683854367 11958635 515655658 336517377 770487790 791318091 371948112 576374531 297533847 765145423 539600367 919414412 718537389 42703747 330167513 241222879 322536478 127506520 376900399 336436749 477402800 250473871 673765442 766621024 190994988 74264251 178439390 821667446 904966509 197267071 281673361 885047340 678376206 380872276 517323805 973321862 892239515 527520543 703031571 109360512 245135232 625714555 747976438 910605885 470519633 993867371 506025529 903396930 456421311 309587548 638737294 979929764 151759534 661392636 260782210 758336805 698754028 515424834 60650234 946577323 544051739 688172610 61576153 421089665 261078478 131199428 555713610 580155678 625550507 527665556 240351820 988155924 469686692 566954601 484132458 672351478 446319168 841335561 633329637 96723476 834925632 640664477 718172994 5822361 733166752 116571601 170593513 719148819 249475447 640019918 850565673 358058328 165585471 37869601 911923069 126477913 520842789 790438813 867048307 76845165 337994161 183610501 883613102 342192740 864870789 267068130 167970927 815899382 947153793 790737228 650046555 433668584 198779412 299773844 167299036 81596118 902227758 989395019 360675289 939413659 821200216 79099839 871385953 93423950 48427511 145873885 713590027 952108113 510815563 124756512 576580712 372228334 649249867 645663692 712986515 698403003 104875276 629811681 890548628 167318743 531051189 879227635 160203522 916815269 810638109 207294272 859681260 651049428 441746543 716200723 234071256 161706214 881446803 643839120 875742137 785906041 122783338 506314843 543659278 10067109 202394389 630656282 970312980 673813372 65952450 983523038 701306561 847929694 646856803 493834690 73329304 699014181 705469111 115809214 872505191 789349872 399194075 112664140 392569794 697820954 180244266 285311906 228425990 777461769 562965548 451154090 749129782 399765710 83803758 877569895 970220145 572380615 965425777 695934089 477832091 866945687 158840119 54260179 451996031 176386888 20387986 687754494 686325466 654825711 972856370 204439572 910543406 886624420 950845651 142397497 757344359 242616772 546564457 384394477 312838218 296882972 876321104 795842886 103188100 663317220 955511510 172051653 382305421 346377405 163017403 375855725 41235601 851320879 212670926 818168152 244368390 791221731 759995830 55048545 783909478 15199029 612602106 461453801 114715235 187606042 715308450 828980935 330355659 360970912 721016581 866659700 949470688 709130773 974837168 520814760 730712809 751106713 822510295 417467912 116962414 86037286 651205587 885936098 450187103 729738202 30570703 993483974 496297916 45684977 762933371 517355789 239902183 773901117 698829423 567244373 6022344 290062849 961587572 669913913 216518939 612722152 791500065 761781025 763687812 493156689 547167350 740032786 701124955 934364062 781863025 67132434 169924724 818146264 552337671 89904510 626883432 174713672 676215106 748394971 707144143 111951966 606967869 964953447 749005578 739552557 534971609 147292189 996440243 113456759 346066467 720048768 163514600 806508854 969642228 782083033 696552084 157924729 872502706 581705768 255081703 756659617 490959609 103916521 83238406 979512738 455569933 878775761 714861277 474227238 700365789 17870408 391233072 416049458 525660873 930461418 256816108 388892832 598525796 465422704 54221930 216638011 450597764 987947734 633378023 575174992 720910414 148708961 203291677 117735710 290104476 898990803 243782238 79159039 136582846 343212553 864961298 737588845 420409543 921641235 60290687 923354663 649361409 93514528 431917403 240118737 540287096 459253977 676162584 261750054 151627643 63207535 183907622 603122966 503421373 69018517 123395479 617022580 82031709 254471185 854103278 606295296 524715729 207126349 457070221 723931089 354462918 372718056 526512843 187507123 254187436 659060539 385785068 719193333 904838078 526235982 506509424 122775557 53976805 49253602 729028561 881234422 938981735 608039482 484325132 387880521 177757673 111998635 305696555 291267216 882883314 221802742 359816079 141307674 739895704 980272692 279568600 643373724 600601668 884059392 286089537 232928139 948294504 103990110 348670654 162697572 565982619 954757716 563085586 510747448 486023220 672429013 994442798 301890289 102092886 662723525 111986275 393195903 984512130 743060402 377756995 854512437 856921970 717826845 819547650 244309282 33116910 435344969 343906688 74141783 286756341 378389846 463501387 91577435 795453357 346473434 383061042 458724547 861235163 162959064 454294593 764433131 301703250 766110133 96857880 508212862 686208263 681083552 573124117 805701648 67042104 796639231 126747590 396023183 977697447 128888490 481912758 537141689 150962754 220071643 675230026 301644814 768650447 214075097 658378483 141628557 618472274 682521054 76897412 235060568 64167879 328157946 496691279 10544926 123132780 501966539 978246326 140248376 486896219 22511253 668939686 212612195 816138977 355393005 612678679 297417625 153939113 466305408 161976323 399955883 115631375 39896403 704423682 146031970 805792856 72289526 247224315 49861040 124715463 302370867 719422063 279525156 624626869 576439163 276580277 780710661 558743081 858114160 20070937 539782720 864828611 811172648 104520037 113004456 974186672 785060764 843462398 220358059 289149567 598948904 320075166 537679908 988305800 206794879 274859526 143276940 787447791 419153622 384838334 333493294 232980390 972596214 977196344 960100268 88818348 343966081 100230991 192239758 657217710 545913277 484760479 135547007 792484981 71872728 469367916 973333007 934666959 358033460 380483330 922868230 518691213 363646471 596204752 67458850 369208948 332008924 857659895 765639038 721547186 423152458 103021314 756021819 152015765 475489783 945071018 606035142 907420657 635168177 378136402 167881814 362205034 931191542 961440704 184109304 431726166 949128730 214614371 840441328 731257971 634510930 612338044 263564065 505081669 63944120 187494991 562348444 610120527 757098618 17108193 209624007 689584959 33746187 661791467 871033690 292351377 314771095 27970551 436642621 82083029 715367638 684876306 302619298 655095636 478531134 685559640 512933747 438866343 645476564 641766997 666617166 597237277 528084981 898784557 997083724 258335558 818848233 468009684 231995431 374168847 120973584 417316328 930843226 43651226 803205265 133888755 782948257 768060265 631001147 962551481 368541411 375092279 396125958 497446537 643742708 967490310 188448097 5541730 31716826 459798884 591873661 581371385 6932975 231094120 791451987 843867418 603281518 114341791 964629470 312937792 21166730 520668770 413422806 819303344 790831991 125352673 459062735 256842896 370807992 664451942 304966592 511132861 879020126 310135413 903112063 879510917 772072983 407372978 52737688 686996816 352911724 759983908 247670574 731692020 677833543 132932492 520507034 516656245 80504898 87029278 191511970 733720402 506384937 777664221 153074552 683479784 346211580 420128883 944639949 348739839 611347625 68119587 834472797 416789067 770542066 277312044 519111200 877881423 109542845 501485109 793099011 715628537 862190749 58008211 269807526 128483972 37043544 676292872 102135295 889333439 597616891 153856167 638232420 2337550 172911623 358343359 384426482 222360956 358913375 543554844 252440959 685908283 184470801 412904603 65391629 567196846 623442807 623264642 830826192 949629328 769273134 841984276 138703244 696654079 285048942 384348393 967803410 127858221 171201188 767241676 242076755 409044955 322718408 337219849 763177257 82634765 873560448 940553607 582067317 694345988 497356598 943363086 612253750 254102379 776393091 527293450 730609766 899512568 811699955 505060784 805371184 806550149 939896752 862802391 359732765 19216997 457979030 456132350 601923715 575317359 369530564 756559913 969511933 835926683 622868192 543782750 430987518 620525525 870229867 695795574 989096715 118853869 357563840 129456504 64720768 35104336 417055644 145640233 362567754 772924182 778890316 183394974 964956668 316744942 503319852 240702551 743014018 195253399 291488046 733439642 98955878 589057407 135641205 61907895 512792153 168680714 511262939 376752914 322303630 251931901 843658611 401886005 636877911 259736180 246775969 514364447 801642832 716897019 866011984 170256322 518116971 842243122 235605538 79651445 358985594 630674179 593402506 404188551 986488028 101595783 857941590 303666614 236472149 597725300 325839062 846459236 74754066 986804328 495826691 52227043 928187507 519966203 601624008 849768826 287403524 843561575 134153827 295926110 749283273 468822182 773193119 6466557 509823955 153741826 772851699 785434356 552903076 716941767 908634731 96789896 252494998 308588766 669562857 283341087 320000282 235868591 252940153 84672399 185496676 493431649 251157264 793886105 593574806 914842251 395326915 633747109 208904003 841843196 827321750 702542626 347497250 515913349 954324123 605605056 329955402 633006423 170716701 847873780 596906251 443698559 6483921 366407686 890268156 385219499 110925486 420374576 519271823 296951284 218869326 4769676 337403653 167555888 710624400 56980046 522209271 834695372 885809832 704596653 766793299 895136352 13955093 733234206 715683883 733535964 884005213 232601265 767597248 569364256 570750678 930143060 295541213 659803043 123983682 425847137 99660802 686699858 116547523 91421604 386843427 367099693 863511954 243109398 915383780 951975649 74097798 838721370 815324112 914097656 893692618 178916782 850318665 885462448 436244309 878438020 298003629 553505680 826964046 226672425 728410856 358564103 942876578 975032150 50999898 507311650 690043368 34934108 881993289 140778298 657570642 964131392 312828116 693115907 436518550 775615479 280516985 4020967 416213347 884599410 214569727 275163406 679303084 842795448 908579858 97133716 481617380 71520944 621011079 928137543 459644436 598771860 592736166 842161740 574156482 347844575 185844806 776730889 268179554 856445515 642201774 303896878 92786490 107675397 68381774 340405058 287140196 303795237 687448991 480727733 959159355 569656322 620556997 308984974 335282767 680257527 674458709 748802291 478933976 17336673 130603338 787405859 921484826 851865542 888520865 915973212 720805550 981162923 942046919 78249716 206750592 486017251 659990668 629246353 419947938 272792942 528738638 198101144 509499908 387933589 814738406 8881231 432268178 51159078 783096981 513836801 589246532 387185526 110643634 903246539 588912108 741759997 928078997 829179759 781970713 229786939 810724522 683901407 864855496 726527660 558970876 885821156 119396360 213039427 425042531 942639460 251527975 565456167 250336210 642149511 991912309 552352558 816384839 681870446 777795752 772096209 121028243 347035186 847066503 848830655 299639348 586213140 101096225 846050476 104257190 810620791 372184464 278561615 894444850 74539943 670168241 416405768 987655937 105436907 92178016 713384658 588200711 761676863 324995917 480342925 188743493 283419376 929596549 474481604 127955397 658576897 538444122 823407549 968802549 547776789 626427781 860435115 696163631 175824277 300450251 418401908 462042878 475018749 93202118 474344047 148664842 429183361 621825055 734076710 167997218 681671627 989677114 249223742 173120168 245380315 239683764 967009243 495933671 295684112 387295246 334401973 715057022 678405997 912162646 244317092 949841274 840958362 214989093 360862331 867554587 9855047 861283911 561701905 359382857 19462273 442018645 443779305 709294615 674204736 437628958 626663001 4226731 217675176 596652690 695730803 799914488 139836025 200021146 54679052 514696956 420961865 953124124 799416283 672642257 134654456 60484412 265165965 535073391 27533638 492745839 788843003 283420029 150724261 210858995 806101992 205338703 296306053 180189138 772913277 383562144 993072785 574884111 269020813 855342813 853675141 252654670 277115798 587139264 262874289 2797705 222831101 470811511 940804340 533883530 102603419 319262390 822649169 61560778 439456640 375463146 948652559 659933987 285822214 177065821 856171040 347587852 460851786 11942616 432461539 294201910 256424542 396113684 895636940 70331404 779705639 744817720 335617635 614388580 775924306 789539640 121014771 791504071 158062398 844743158 468516229 523036733 717252682 778559454 308172295 727883785 884222196 791491587 38336104 302466231 320107241 915845725 559128126 630002877 973836984 106219392 987049306 20193249 305501491 951276183 580631520 35256471 719404798 915634701 810633874 935686582 286178092 68530666 297359026 841261209 283314541 694806601 260121238 357019993 283888760 304766126 639847462 404976107 736866490 363513854 222507268 258810825 734459327 364632669 526419269 235302625 660611173 493957759 837913019 200097398 248825353 794760963 793043158 481835408 589740033 234241602 616276322 736484324 338026013 513487387 509314120 205312574 484066879 859692045 742348733 99188582 99976907 12274355 258516265 917448111 211811822 889757868 413035272 738541979 631398268 534985946 37827941 228279989 333788016 851732946 424510332 827406716 282230229 951716669 460358475 273199382 652335835 113323792 688364509 728423173 974245156 486090313 621609373 799044696 522063437 758309444 797556636 601790658 814222118 899054192 768871329 164138594 720068681 167442377 608636205 500259988 84687589 902719942 707452550 250619826 582066054 580904230 301545310 381251978 363571629 429591955 753736476 17515052 57250521 451723948 737128339 930349664 127998521 295539893 868623875 387528230 28056589 837436989 437417155 661499341 526135492 423267907 774468401 226060803 723735794 745968402 810787507 549277684 609973523 379848811 711844018 774051572 971921883 874488200 858268909 137064220 97170410 593723417 462073545 238235390 974699471 202458521 557955196 875069932 635546173 751611988 7188737 119465054 717079590 695547012 465095590 795405509 523479828 930802349 739700125 213327110 592955054 777619177 272464731 328541274 438585819 676184550 392871129 664027278 659786993 404878232 803162598 800603507 451891332 927797001 101923799 128714871 348892868 346471090 803845334 58950372 480309790 295420954 791470342 233478343 516113713 103175215 421064122 55745734 305376307 119920823 800730003 788142071 748747030 75988514 848534985 374412745 853143416 995712141 375811594 826619337 61355845 490527081 145649330 503526686 315198759 239029924 442467937 346158621 754947850 233759589 175434097 311223454 76070102 263818550 769997456 459751268 891620757 103073887 126676040 29085195 794444547 672484948 197340901 931174194 619654438 55284282 324670792 371902785 472273662 867112053 151371084 287258449 593541572 718502246 916997911 962693269 410009625 513203995 767662425 899439202 530622931 694701009 464420099 911589881 48126301 38676181 452689326 115850237 463507844 307521337 952753461 596941819 856949588 270266289 884476590 319957456 52078986 102457301 189094773 636656791 544667665 486986849 408928775 918144982 321962133 148826621 741651127 283368518 839929467 713560928 590000737 274478790 394863570 281445205 225139972 155653863 669733319 617346125 857268782 267424068 737643510 131431844 428684550 691786054 425754949 132019344 518926400 5445016 863175932 115954811 162202626 659571820 176398525 685888067 262830939 879293373 808625641 995721712 257482325 147607265 390580534 608635001 870625167 554358008 552753310 30488389 611413052 656958431 589833278 506157058 41535127 45340864 659839176 635222200 374382172 555626660 650642952 200894236 234738753 275295247 777332423 196464806 596678895 269984831 189172297 737159156 605412176 739056984 103495787 118823083 920221914 509030339 185282535 907749290 619948160 749936119 494844196 12087696 638627018 126681140 748299583 14401803 206052561 839582739 275247965 740499157 797413303 394937375 227650940 240727695 218100049 329540145 492089770 775731486 428397097 802682910 868654062 784571868 603066620 122710129 766028232 343747097 203316551 29982492 222001778 50372597 799711402 580917447 992804332 678371033 300747947 326090792 471959944 31101164 882199928 731187859 832809082 389671496 304283283 821349946 793331989 192097217 130234138 636852700 769590121 719561344 337029255 676032420 559292505 727583199 535460008 252704180 155666088 379290139 207042116 64954618 1261678 336900276 808823727 630295261 165560814 238580139 471969486 674980289 327240429 380995624 205814799 963019936 29764208 481030762 195216164 347305316 593101914 392727061 95803331 78178722 44538470 954991738 403828227 105843148 894737714 594939166 279315099 379193191 174099000 586347184 466959340 722990545 522055562 669931784 468835812 181672566 84918156 613580093 435936457 267545916 545952267 176071822 814089718 203753286 528373766 919637743 349945288 437144649 182056035 823589548 338977584 209986099 185700997 887235892 231352103 515551216 790917554 271459708 519092165 452602817 900005212 287912211 635241859 590538703 983789539 753996774 364522197 967328731 25576832 742385238 147061947 186594869 278537443 854975991 510708415 987810479 280339475 397823982 293357758 110128693 458628927 630388656 487381168 92753517 303981164 154108116 510913948 104009799 954033328 944740139 642337959 302303713 233929755 969155035 543259478 518038807 135929594 179993919 367743132 722336898 643674328 361865360 248010808 448069655 404241392 53944956 333620951 388193044 742001403 229242123 714718653 437046932 593630291 618760135 562507045 915601055 552658828 21310968 804106329 175421613 933047276 330489972 520545011 39160799 108224349 47658983 305733286 361080334 569272156 15573200 228854012 671457349 360905493 936396030 672299666 148380976 753392380 133845791 374906126 497250709 671743862 84063191 119779814 964352122 532353249 650859870 777494129 982307970 56137323 135239330 804152836 870006600 258054833 61997966 974242147 479197675 241916726 32318580 362075404 42764344 552963086 501045831 370010617 18713700 705998001 963692442 83534974 316384920 350338333 904897758 140758824 390906845 687141748 598198503 413964938 647073707 123594214 376986848 969879700 300972353 960638102 30134494 731909146 522275711 441694013 2561869 176812681 316820973 675883963 541211554 558152300 480687764 41031430 580194730 813564671 722958956 809530440 736463577 205491760 605167246 678795102 563466162 735372929 823063204 679627249 267765065 968096790 521548288 599921687 275667739 222142028 477246028 279301504 270949900 120059598 65983153 179330962 285570465 962929368 798794116 579408985 657311469 772850573 837176386 98018948 80079654 143610848 389062675 930923447 746767939 894843990 528340418 996953456 452876638 26392712 521839969 395789552 489171548 664754177 683531630 685721224 193047323 189272274 447375633 382264305 200417606 278663315 36628263 59574788 757375512 47925336 792939079 898426347 943061645 963266350 474130949 832471575 330600280 860819583 366860451 43701173 217380261 843920169 819166313 726790806 902188170 87549735 507264718 105545928 534041239 606234681 517052449 361539465 946280358 740792602 935844434 943581232 571856356 663698827 463955888 814755421 428286960 764018854 341925570 952409721 192372325 870586247 549766534 704663436 118019546 547480015 479605616 863842534 423033899 281747625 391207293 440755937 920525169 705014759 695106520 160023905 943214572 296474708 144676648 616234193 889986698 109139780 294940136 361973282 778953883 148302769 597352101 800754881 569351769 844374190 291119132 986672933 150413295 981408070 959046109 504772703 104737424 988074899 665514140 352493222 139468176 246122651 472109953 812123749 218557852 945185346 824359658 802655671 257649187 240339855 857577834 833944775 397365947 687579086 447507108 282083582 811814865 859550947 847496835 229237965 645033134 609705699 593298572 76878112 47143500 330194817 749480476 358481972 976861669 526643472 260973548 871886840 60680688 855886156 538016227 837721092 950749690 410458168 327195572 346812743 250009354 419744486 735171858 309357957 364954972 967023382 793989691 492312287 528041466 834967373 760832652 166891247 576537117 73337438 288390870 638328993 168213862 352748656 81334716 42694306 388162196 432910416 671973990 460057982 697752960 662224885 243704574 959774466 406209405 298429218 18767311 851987802 528811196 994992854 122873959 773863762 623316190 834142832 963139571 955368732 457561924 351502326 718588455 805815926 638818175 608240173 24839021 864672041 813573313 104215125 258248772 122141215 481746490 414788687 520944905 678617584 82437653 379103516 963395244 444835047 257380194 594392335 67599144 589690442 358228324 728706008 193870758 186916 222609303 377554842 584042631 212204885 881796801 380619199 164110738 801270854 444707943 578711059 497581696 555659776 723864958 2777940 926947643 566475601 872480563 857270001 729233488 492971960 322644535 433054223 239352898 793224057 785115148 401720984 472376705 977739123 832600479 121641423 374446028 393796032 973684782 572736217 11286144 595397553 485439312 260870267 783700785 913737310 745384265 378432673 967261861 19822464 519389237 519072974 18231827 682146053 324306920 840899817 946770339 349133602 835546279 14324011 390219220 77119152 486899489 743099962 550928839 630356015 119662195 19890650 970311586 14485952 190196894 301885923 872622134 765115576 978133865 721391077 633853611 843728500 971384252 390102861 917162083 478276186 125933367 294873220 612507706 400991979 419801349 616791593 122661816 479299581 831275313 31987775 206988260 869153887 644897639 371677110 81540705 687097021 525279316 911444859 536559247 937717776 605434272 627308243 76761608 89076616 520189731 702166789 562216526 198058394 805440825 598092863 669482778 888763600 850572358 395264686 721708068 933823450 323540714 860336995 395930182 84935031 296461475 833071020 496313500 282617772 283956164 708780222 588183677 171288585 871277605 218705136 528244033 688931061 739652624 280997092 748414997 107466963 996745361 796889671 455477290 119768783 621128435 721315506 980301957 882712996 869130371 376531087 134123249 10916169 701857698 645931088 489560653 851326910 324056030 194478310 557468498 618217665 842705191 315591871 793492917 941860135 120289417 369276806 280290755 457868928 359149805 669783421 559317062 991761686 723173056 796706590 424557334 679729647 835806210 704056722 833508770 952126855 557382060 979603703 42585819 977638088 895412535 705188118 830471023 853357007 566676554 119738377 547075207 758345759 155358221 177365658 953192962 316743428 861207423 872346219 610300161 646286608 68411054 627606795 148269240 706833635 42460103 92938357 622454054 528810697 447357237 803881303 680548216 728016932 699321415 511096558 905967072 184300406 268852438 734858978 685553304 355966217 366722358 455995691 312314141 124877167 714717535 613173936 20118556 653771205 751039025 347325894 198643988 93384413 568771419 228710594 909468765 324337635 279302901 610837297 982062477 162224291 53245498 891880979 575139929 458195713 580988708 477024046 289696501 426979991 281570707 798541639 806152668 163830206 181246105 72660675 75674277 949107570 613913803 690740209 688664167 579416505 369058155 642847093 226456251 811613711 29382341 378439605 788084029 70269514 125283180 221632215 168090758 894108586 229711441 630255812 589845996 534718978 955474673 599513961 374814305 12797497 159071948 895569082 816317141 334315416 896397356 960221050 661180958 354419313 355579535 823679038 852540293 813006738 773955305 147077643 546671561 477810501 37796623 935804572 478986621 684383007 301017313 695693674 123581055 294949447 946338655 672494656 784356834 613728470 710299123 853821795 59506060 44935477 698909508 393417762 170464054 245608902 731225912 50645756 249606397 652923423 20423191 611208492 439326328 348629196 785246771 650053773 549995294 860619966 725269200 284525486 786079597 464751813 502039283 540728521 731120871 268382660 620004312 89321425 973248694 900686348 735995158 939114084 872129613 230065550 882257543 652605033 943123396 289874209 743301663 825770540 922558048 981985309 940989726 507427778 176228189 292135226 109337291 706136408 727136645 5065350 803255226 961415227 952023680 320116464 677876385 148630457 752916929 712070595 200642595 672431875 957057742 721327281 295105595 626707830 114879446 23116030 584197762 158358796 377634273 311154134 535840195 766013953 422618343 536944978 656455410 884120176 354613939 740158374 404025588 204450068 425882830 759804935 642477955 480420041 465977160 756111947 644854348 162068278 684678722 412180856 657784086 112149619 575814610 779102891 28510188 267651 525501947 424014845 689473390 147287689 561563433 571056081 401624202 567204277 177389521 843400569 635595410 898885721 474931000 997208692 760437293 104284957 560056906 176425398 936750214 974177866 287559268 89125506 543134620 913001816 374827919 469322278 537725024 342356582 303769601 207662174 884783099 782401285 893211104 557819389 620663431 761027488 576694210 628179210 693775787 466056770 59104408 486421979 553614028 543111335 521447554 445170122 4524536 423714711 915507647 993590756 169281867 613264922 691966265 317087066 771353661 481295065 733630815 791643502 826038904 576737505 11696805 677105934 477437451 299658568 854812496 804140409 541109848 703670748 307549275 281912787 77318658 128780765 756231962 35807974 248736122 218528288 572930552 326685938 695623103 942227735 5267071 249995183 756580321 170061151 840433249 923641625 965533967 733698852 553445533 762243514 802680955 458970575 762787602 979280824 684866092 385642513 896842662 322774517 961780539 115049838 308135659 530108536 106653645 562143002 847213770 586128187 835969420 921644587 897611452 23560151 960848393 848570684 91970158 115125003 934762947 306782049 922114388 738902782 248167308 45752410 240352308 675103539 149650424 814643817 104497976 554878952 274032367 632721780 116354974 590899819 851855121 880930775 644243194 862726332 831323008 925560243 642267655 311764050 204800814 753770929 201037716 650032644 510776394 436473263 398308384 18249321 842524908 392209992 757613066 260770924 890784031 728959005 282270128 461168406 810922535 129995318 417623572 661428180 303182475 534020914 220896321 352531185 599450770 172249459 488779885 18197935 493421044 445336393 362879329 506091768 617151124 89194728 209380137 720033032 653695997 535414389 921815955 744748857 986345947 674359233 327065661 185443654 129047232 55282936 225173206 183097516 806607744 471348374 119094338 162568393 223596999 470231000 447438750 413798209 699432303 89651142 36316324 742933851 673574840 748964750 57213731 930158639 355710781 526042259 226643374 875818123 470890321 325408533 594533217 865110088 377203292 707361628 885039110 428006706 164803599 566133609 549131370 191511684 484082141 820435347 129578047 34742946 564285494 913286016 37822060 937332226 869149016 948904620 302447834 639452206 205002688 47156119 608216876 920855805 260536859 577748213 326182156 577251758 5646770 74360372 285235854 745845935 609480933 243122250 898966742 676245576 884614877 593669225 28858688 428462880 190691233 363061461 229959421 137628491 85607091 216128303 308699056 153773665 129526025 724279679 346799407 49972582 446193060 243974651 881705499 200626564 667993263 647448140 413921647 749665196 628209000 931043227 145787955 331082993 17792652 783143398 720284892 790935105 723217009 860306554 976126853 206237833 872156297 6178133 955669535 696866923 989780620 379437115 437519008 628779803 544299027 454282789 733951344 84444772 889173248 537427914 867331805 764460017 919371792 95867871 827595867 55289495 797529631 259112606 962790892 590422060 188611131 430603449 368148385 947837643 906297984 7080852 281693881 952863688 639660598 333106623 510778299 963093487 381191805 516550187 572892720 318057966 77155299 719009799 256460857 504783053 960134519 57098218 784040102 22749985 132891269 109342791 453836099 673851467 169142596 927894784 620437938 259775543 266341595 747004642 643176447 316110616 70750234 993142462 19576897 323450657 642580894 818953402 742185056 492092002 4364763 849764697 185793337 438464432 962245725 446231496 799819993 59690866 515645561 321410522 796775031 435534876 190570678 510370301 290975478 364956171 114853825 724825397 512629164 8218993 242673789 827978736 48011772 771063054 773482858 987392113 374289978 110009417 375278199 418003005 122579719 48755445 749506291 514410672 509431587 186722334 189822722 475628166 762236551 45604394 472690196 838064732 882178672 308860568 762916781 717520749 558622549 52781186 371521892 21183938 867267435 801206492 317615112 741938487 597801209 186535420 792529857 322006783 36052447 246676588 224409969 136991440 839415651 166627945 43869788 261341486 186747517 556789002 758688921 357476332 91455531 842657634 957141546 114602402 426482833 14865429 649274099 863029063 534092934 376637352 401513486 333590698 480642716 483888767 821850335 947788793 651169587 153108812 421663973 497946406 319675587 839482740 287606509 555605940 414255396 929804939 155300070 129723876 541637220 400178660 26798038 785607243 201444907 274438403 821521672 178800310 336880280 14193180 155271332 281983343 982699760 893448577 181117832 512944458 702467274 985581209 868090151 199417847 254954058 556463207 276057211 541673484 378969867 130622261 650316881 661011586 50007334 316878699 626236553 152503597 883090110 701190958 686531173 932558598 437115557 857516268 369017483 537751842 30598020 152379072 399069903 586075045 614067852 610288639 607009191 222269870 433788686 887263144 725782896 156162901 872461032 745991041 366672122 669361769 408986221 856942209 474145406 879299154 752504835 408244140 362408439 330642796 756888231 766239251 318042454 194919532 930423575 736567276 20528061 603193662 725519615 920458603 993418463 773317196 640841316 710203146 250976420 615183527 344379407 67852877 820898760 984249509 179278688 486668964 697020752 715087994 428332058 963075954 532283326 381937128 797871919 915640867 180340451 376572751 361936959 462261707 745651992 570943185 499259302 403195471 849799569 673409293 747439792 626463967 907730940 81642121 168201149 944975260 460922032 421867590 528857036 351305593 846921707 49663468 836567225 101312068 607442192 762032426 982591085 669849798 875417281 459070882 821794345 409227044 174441880 758027103 80150454 352862750 431226569 254365128 672668432 27943106 792325474 581519951 848185632 325246245 95810762 55483786 331639926 958895313 8237951 85365501 500443029 282573845 886447136 286641814 18475506 633371792 583752557 689360601 945496627 245765140 592661663 255344272 466793692 254106908 747504802 794833710 75002236 659879430 24250145 937012714 12448088 537439590 667464349 784728440 76845452 454012268 570700440 106879370 14647437 571089742 820520775 390655504 672557740 358178594 500126528 859858925 555481514 702777243 415482860 619207473 246905213 138422035 550573311 204155367 114026873 603304030 349704113 11917417 199471937 164917043 529963736 429404977 92684396 953538803 126928559 826220381 212640580 961182794 418258986 771764642 836647056 974019974 258772245 532839600 443150902 735409916 937068452 27407421 956939768 822194916 538972280 594637892 942948406 659200816 466894602 827924785 504812626 82259743 547963355 55345076 518037296 488569159 508232453 942137742 827328626 419132773 491080465 470551792 418891658 217850552 180755321 630794474 699175471 709201518 242952920 835897374 387002302 773998562 56010625 728910226 632529862 696266018 499429671 500541572 793185629 554357233 157823313 599958961 229102567 72374722 527538182 616781387 612298321 534966928 255699926 150337129 582751941 774283459 79533550 841745603 649098076 343303154 79301356 13465799 323957648 168548098 86194178 422038884 187631864 615438660 690976311 784959552 297405278 741109943 136433802 326429361 588066350 826072970 66205414 820802670 867288904 244297158 204893469 662490710 847066868 686447954 590443136 771719768 414873353 748880158 433795586 223921032 707327221 43679536 495664810 292972640 329419671 101612992 776023805 345431337 957230455 33690993 681194393 825831815 859395125 770585375 481164417 885037614 730668383 824904649 909811317 352498327 955647125 751923880 825167407 95288111 461152332 400078634 510274406 808421520 635368294 254551807 555668521 765222110 234282644 736194118 661230111 825922256 4718141 210286553 481885123 454488766 287260 716025993 963283290 978026800 681639349 906552565 653977368 86965035 752333639 756123830 737374391 228801658 25563828 952710052 807031275 424060450 467902090 459237958 914189946 489835686 154188043 336906192 670357753 707112743 236095019 647346373 284174863 573316428 867399846 179363383 872826412 57143317 61072120 45341702 157747226 279777522 422019235 131277182 243625676 246125774 590095130 281552015 844154984 6081370 491594010 310781951 931779907 627154733 557566871 969271018 631692108 753821743 202269819 6959048 71846711 794083168 391707983 63053006 726646642 800976926 886458373 807748535 838807461 524645315 898779148 657232078 359009070 741703249 351715907 105862457 562232150 440646278 952148074 180773176 302583293 170294035 716612838 468139460 88742377 643565907 417897497 545096574 440735040 167181599 61741991 303174167 538774698 378772364 124586015 117460902 767044734 881204949 590878528 459606047 574876572 503078130 228395582 140544071 896503678 8056617 289924315 250118373 210081106 10610323 306713047 648925749 363625643 609965272 330616738 156606608 81793503 261334274 411028652 298257647 598653716 262056147 981596665 35667169 66214580 811497027 367932578 943085319 14261973 57955917 62190176 713230309 708940722 405151089 319420543 813106866 654137923 796568494 202810736 901648355 458556490 957344654 382879826 27686108 325543960 756736894 723059041 837849717 577471377 982021256 584709114 356519132 271062917 810937269 382615516 461280042 848482286 484403265 474646046 108003429 462694168 384353409 564950193 114808205 869210727 728517933 860206738 242205474 667962996 274232438 935693932 672486103 97304517 580692913 668904460 944157751 191550388 330192261 775887176 263031067 895182622 682135651 796534272 475184756 336389398 445502661 703477833 712765578 903379048 301363825 89122743 950798071 835482873 751092105 446288305 342692526 35639283 99428057 486993200 521104570 427085291 822624409 51164706 467521193 118984096 370694400 895915864 211537269 276889141 268876190 728146781 932523959 981425988 137545814 821894592 147337068 352683952 591807750 905559202 351407778 479086739 333575067 282885895 469997647 316563085 820945185 985807516 165908457 392994625 447511865 509037278 525710238 375716696 769144606 172053443 881121503 177205416 580380466 534483729 725905681 328674867 407518479 282240444 691403580 599192842 223698338 961047595 805260518 548187709 728776698 566777143 546201183 777926580 745606001 594751199 282936003 805058127 405700193 891757590 528951138 551488911 101844753 112109745 637474425 178945785 24504945 799975690 393108910 423146672 248422521 759473518 331751026 447938090 114122956 371084374 39784017 960416381 214100122 731739665 984324791 85919852 179331790 329592121 785396778 728270708 441507321 716142357 953937453 488513263 580579222 146063484 766372678 322783481 181284831 383609154 853184357 94155623 676414872 502814372 75158557 340137332 597808875 828669583 930323146 442367438 929709965 4156463 32621790 103076300 427844258 79704157 990029880 186079443 862956841 228161590 624879626 936760203 915332101 361913565 400595529 38322799 65505177 856466378 225443372 272916732 948948175 609327480 101998616 742071350 93114677 908589747 505101498 110512846 654571288 303132109 663635024 298490844 740223278 819203115 558957816 149373297 290508100 763978295 679374391 39716711 849032490 631902065 624126488 419390189 637476486 169213181 453662187 792977462 4670978 707042349 204944387 153129152 477650459 351943764 490059548 519407583 18851491 571860578 416498302 439478196 257327510 709193002 846184702 388499664 258518668 993461631 223143964 787893666 645300638 950005216 196098544 335847649 37459341 389254655 930073744 557369380 547200848 359470614 616304385 635954710 767798064 349676539 68369608 628112787 829370360 266458485 529510275 551316039 825718063 745422590 795712735 158027836 627983823 950856707 598784917 111068733 694172905 597742841 174853614 919955041 148807497 652092265 786265480 715769815 745551225 239779301 953400857 315136850 692885011 660007272 962446178 145571663 640053804 200797210 153518223 553592788 581620666 337652248 296380062 860913892 978685312 274245844 645024137 594248279 764066426 547813207 456887932 335760116 529804030 706426876 721081088 103379821 900877282 430745056 597631249 816259171 855781047 812434254 314483940 443667837 197542374 926945489 152362048 659830417 402686604 645073212 750485597 357572280 444497278 101947073 582655212 371281465 488612385 812634977 253041564 553573748 273082364 822701676 541332982 210701614 642796095 501143915 10748342 802534249 696247777 110254511 676471550 382085791 735545373 242458141 629190492 401679130 674199561 723806876 315322367 434598358 19032861 911531798 162589675 545076452 698194983 896560491 224412747 178011378 157084574 676916235 516117657 320938918 909390763 642341478 866803992 955965115 182457665 632487321 579453066 83407543 607795136 412219988 636605542 876956757 743990767 345899838 909661007 483683889 412336915 342979906 678180810 767717960 124465459 523972246 947525620 308995724 404746096 331989452 412610210 793092090 704938778 972085809 592779924 214641020 18301807 417375435 318190529 931224740 801369075 66901480 392508132 789996525 230392381 458420375 55253487 126293078 726157335 570962622 657636966 499820696 320663702 99663753 132037470 903625487 980351846 724557577 109342787 119372866 228912451 727448150 987748560 970450822 945271205 794984990 82346927 221985783 517276735 361534738 868162062 384549327 396032028 373135851 544687391 12086963 587564804 699471824 191040026 306041252 662159206 733704818 885828120 148624941 225867097 475216959 752040274 341115619 893713859 5001877 464657768 683727925 391813528 73885972 153672767 575540853 606319052 317595938 407893907 212721868 276056257 694564881 253576049 799167797 173487111 592685506 862323295 196623828 561472663 218871546 535144726 952399652 410855868 657477417 359218235 543916610 149787549 226320083 457955226 425587153 812829828 85601855 574168736 727601159 306816587 499587003 177898194 905638765 723876113 850882629 986135628 323451965 145396823 127280963 528471927 649078317 169408036 260832883 5264674 825709322 771357489 817798654 52729412 99496720 455555193 592722899 152631120 915700852 243356111 485432864 592927003 538478275 521844581 479012813 415169753 963626264 799563606 779543014 845105654 990556081 202756063 713295071 317637323 297989462 550774136 303664494 782892637 921410128 978678692 677972498 127992668 780771314 714367111 868502067 870968619 281925242 325662084 662053460 253622357 486365669 170348539 10655766 731897709 857569379 148376737 319920722 324188960 620004823 110298564 470587380 199560282 753920318 11468052 213656711 847201509 261724061 138556964 184327544 663056475 962984386 476959063 982053615 363603017 451999950 239176431 938794420 999850077 854445184 156766851 887867072 478647511 13395187 666520045 877406171 641435835 214649286 52494177 384802280 966258207 742361386 814386872 703501491 622802679 898986223 782316430 333428619 391910020 542161964 882826741 133136955 505695331 458092355 15606194 621771245 251502587 429665293 248462465 558049699 965282313 730251001 770919668 201905553 368377472 664406025 596661985 301509028 915986530 556182453 219340875 122649726 90855783 369198878 685835671 196671098 495500989 223497443 139092911 689808887 372932159 143852596 52647373 919338860 392466361 40587978 36988078 806609257 968530256 632602565 213579649 906803081 713037233 896656092 877432113 795601101 217266140 309104644 705618596 851872472 90999430 581143375 864719928 554857078 865440096 470830451 283294631 231108654 208755530 211243654 539766470 647580089 390947619 259658959 973794997 19333957 144072889 770622431 865844510 31844102 889225309 780997719 858343897 121850284 193643283 448062579 206835958 659578818 198122903 9844158 120933384 919113702 464768356 313704454 332990186 194889661 436438748 875785281 301096134 163466996 853283646 814841579 858185041 411062390 218029940 509405289 464408585 402112060 520439286 297054052 321938912 608431557 289948495 703450864 452161383 433000068 155880312 241558376 305941572 711255736 479408950 99783372 589059700 312416793 709637300 831768483 421136473 226965170 309817052 75462203 994182855 33080994 401421858 443035291 113860403 236696956 363176008 508211945 640246358 803837599 883347423 770949498 529772101 611322416 968941705 934873544 608538331 462640742 822174164 905868349 27768445 600193959 984661121 704135050 159379424 271898262 971600079 801502257 870465450 148146432 504621375 575288022 390649187 764333211 442571020 944500323 436397768 665442532 263833811 955816688 507017697 846737508 91254874 957033482 210623541 494922544 34910732 939487261 606038476 5398998 155618132 18020093 67887400 499306960 901750872 198024705 476564201 693483532 489072218 70224750 487202246 978353576 380981472 97926365 226103180 694176096 415581947 276944252 478208189 559549425 613787725 81263188 882890584 192833572 861717545 66113443 769678390 593813146 692336248 125546302 375344152 761914972 412285601 319372903 567654850 197403649 142058279 736168095 635592624 984462257 468564233 108136444 669919050 243635356 396366091 29818935 972739850 47273626 881600223 414966908 156626917 647054517 275152942 922447051 137081168 995185923 37888468 3514348 242635592 973325424 198848528 490419865 575886531 471193691 412394848 85260071 435375050 382062416 454126319 644120454 608117213 678545058 249588068 755603040 631960808 318713580 986466799 928915281 294690433 222581152 792650875 830372524 340310768 882390292 437109320 771344958 215945215 304950503 438570123 542065914 975645632 127596436 344785483 423622167 69415450 783238969 614801657 76580027 76430771 131298529 537281911 541839843 834546641 291274110 256397846 363958629 411800021 447800228 68616146 704339131 114804540 247484851 574686380 379706043 439751889 698062856 939608103 260815135 440933535 542699080 197437742 5388858 748066155 303761913 797103331 469133786 203484966 194466656 947871852 22496342 265487031 712775371 924670061 847163719 598303403 54058779 512694582 629377998 818498 35794674 399366025 607340019 204312721 143826076 763128793 525282007 529539962 796414405 474342590 777293421 648389650 380642678 50801754 887427385 639541907 15698996 372020710 797170362 844058976 717124817 905554706 320801175 958313463 406880101 666562413 913432599 419098953 137884542 949630324 481794756 536242764 715066992 269011243 777024520 96990614 349724567 135645052 833056510 962457005 563298355 900186102 741507754 742915096 414786983 706306846 792251757 291078485 98619645 538799731 822369223 800755410 272120403 342787563 54126455 900044570 160058931 239004437 59594077 844749519 651603135 349617439 658558755 48270995 818975101 381519119 831046272 169339883 24191066 903436889 47277551 241458458 196315275 94119127 420823787 411301540 165087895 948683480 43025673 922611593 47968989 573190046 837598489 708562252 88578 258784281 151752684 703626562 72256885 773903552 53741030 975805152 801466106 176815332 334150300 589698611 79641200 757923199 792843795 973201227 204099740 843718661 359488111 587891297 141909673 626355164 170878367 980337457 30904478 920279491 389175508 970820442 482824516 500231162 131682245 136857887 347645526 286284188 70991387 666134719 650008069 797479804 392839547 736645734 726901562 814412677 601922439 360464657 610993897 235516828 127505853 717505334 139819802 485289467 688035472 660458979 539230722 215105148 879532208 127397841 318725771 163986513 909051334 560414838 549168640 655118031 710767126 211513104 154267777 621715941 863352272 225161751 996036826 176623214 790245356 312162275 804990428 167266428 725422354 93117887 378388256 833391505 364498007 960121401 929737290 34756955 513408184 906799652 399589554 211274356 672153557 501895783 208455540 590103893 90461397 825905414 324871760 847158310 400099949 654124939 316808418 807754236 669907698 319763017 592958989 631741525 7430549 294371384 486735254 894111684 164662 605943312 372342575 354903247 659119342 751102293 389427713 25208886 269741955 908008530 99597387 611275933 304634347 800138455 819210593 437474518 653040097 694471030 302620166 617458630 388113611 432081754 50415269 41020394 772889730 397877036 985439540 571176234 892787897 623538701 776678814 878520802 728651416 304919010 178759876 288025256 458209897 656066978 777152016 219718386 904289857 85387715 52087284 388747856 264418172 299764610 702041365 319629358 230359915 813618426 177085786 904538851 952703150 353282364 220368444 133187152 595152930 381463148 20332994 769163109 824074243 719708622 90032576 845892171 983363995 28791132 319274056 571208885 771326804 865190714 7676409 121454166 567012794 933642710 319168100 377758786 434322230 152394742 826968774 511004690 937571589 923576589 669527223 963967255 435495396 125483256 339205396 251137125 303643190 465822232 951325600 427096047 557745566 171535557 902078004 184834131 700625156 483523809 625765442 372673600 899394567 564416072 433613263 32777776 512536274 665968468 556948238 359803478 878715053 199564726 861665102 599218327 192116203 819399995 437710135 453387486 378710291 593070470 719999299 8375351 85255721 276788445 971753285 283928416 250422920 372090833 656373395 222751291 408436138 412803924 919332422 557849611 933279480 949804170 776681091 746350222 348161989 174287971 76089217 424210743 592759876 171437980 181774025 498290491 407190154 922170695 660447771 619614104 538631419 501017216 205573804 599141442 650365758 162033295 148902938 456939018 841424269 961340177 378212537 312486298 969637076 409170231 507934510 35105922 432215892 282636882 5369805 411945129 883819819 75109087 732316267 247400033 589420518 43537910 246111403 401990012 907080721 652335736 439626562 655523102 138295988 178551074 826870458 152510434 574742535 132585332 993164269 562948499 133419879 427956254 92933950 383735579 574828819 414365277 490545116 416769937 832394979 351214658 389379077 814025192 950858995 970853730 780823872 475091758 507321688 886594056 226772010 166519448 345351765 615772218 142451104 928720367 347739216 103034328 665739448 715012606 654924297 122648686 952684575 606505806 961483989 430450845 504813115 124021152 325981422 941081239 475245366 199017407 431232404 593517990 580428872 556291242 100750038 219594737 640061832 600223515 335561620 296683112 339690971 151865031 262938939 930630990 846755184 103644419 473035574 575631040 982147628 57368788 186216947 81922267 671834158 890984980 529289920 763305280 934532559 353438556 844548537 949670322 159232036 321607635 905084982 670661480 755008336 600537475 637708080 422145625 788508332 994729162 787623682 653630143 994391919 491773167 177691109 88458242 714887983 478262676 171804243 365869284 435003795 30221599 404738728 548951437 17237522 612708136 917280354 100255345 565456251 611138683 162897559 900447005 853782259 8946030 667397245 507996027 441047175 464414905 326090096 418340536 199458342 186298915 399003221 924888772 290391806 563627118 578795177 467505327 318254662 642535210 642966196 377898604 787650945 98469240 177866739 2381293 330421948 925349294 271629956 106994320 303821973 566581469 175962807 642352411 949437013 783335198 339997447 347723643 870328127 908359987 960850688 354832456 454387076 236071118 895443210 360021709 811958196 522483568 543530749 331740804 325459915 891790246 588303392 808695074 903129082 567602687 229353148 303722554 420288509 835520580 927218165 938070980 619137972 619246411 193392407 95662995 84093144 112990311 343421443 194857154 790857905 555982423 57140238 19898568 190148428 863642484 433527376 912078618 531147075 327677679 129304025 943051905 25185891 810030597 362592168 560262159 297247307 167984651 934993434 61368269 163158784 925273484 495367956 77644706 258138882 646805600 616102798 954114082 474655592 952159150 220525728 677127529 473617437 522921576 546332474 956748647 130370262 806260735 608462751 251947365 97983695 494819733 263243385 887327717 197915947 34327656 254697086 393065058 229874939 377703959 167616715 899662686 542608679 327246580 657062995 371642768 975055794 796212934 746985172 656430867 785566688 859450248 18685268 414364981 732832128 664617402 624779801 299529371 63837174 176938150 768996489 330692951 205533869 577686715 361884413 403592891 429827969 687016505 290549926 729788647 79564147 863568393 933994484 345864768 964639721 817878724 917101478 352755313 741334771 90664549 911027286 445811841 927390461 671252247 822683181 861656077 63426932 116646980 358823292 960063971 102439865 574325021 918963458 662403218 665306590 49116676 862713 555823271 722703342 403998207 140297335 542070158 423280010 262257135 544676402 337229372 200953081 677332728 447869999 394183546 609998979 593735681 702649033 519812184 671758814 133988140 875278829 371253649 928019214 394375261 895611961 79474849 312799688 465661452 174370897 480570486 981949528 200820585 835401802 583919944 154017396 146559324 451229549 85551385 18012880 216707665 714836282 140183528 801853984 98258862 226464066 915937201 401089131 386944973 572856094 174346727 494241525 465809146 619651115 874290953 839420051 838809149 40247512 512253819 202075647 364059747 611754224 100572704 514100840 498637318 940151725 184154009 233597696 524511830 665228635 724257915 908307429 540116577 793907398 194552598 416556907 723307835 313922343 447104061 741907183 113204693 739704752 853635944 591890069 537717671 889957554 11663429 720908307 177037428 778969053 396316608 472897693 820401790 159024469 657940863 792910248 285811993 743164738 178510069 986333125 327703675 327999173 354365673 332458746 871711347 667902922 790751388 186224426 883044598 401586008 181441595 898782782 335371872 27842966 436130016 76475340 972187672 266268952 251082622 321775467 832223456 175463777 926356956 341298748 974535629 919210116 432991617 714792001 924620413 58528796 940035066 184736178 836542865 86063488 349609663 35229555 228520136 148753912 38972729 798210846 521646463 474528622 791406547 895282495 903881889 411545611 74834127 520221847 577037113 278265238 605693396 361907862 702855934 32252228 589057851 440831347 99846412 110759246 284829723 546571988 688993280 728411910 543398219 25180742 510266489 804310992 225973738 764433340 419406991 223786010 708798186 17267481 64554530 480925797 158793014 944923123 53570883 822429197 442312240 141595475 497284066 882695584 729523251 324466273 411166975 52306719 711616966 211808129 358612452 236313412 727173246 83196010 146559966 558305450 641870860 537015342 681963539 638559861 200179542 835662765 853265728 100614790 397977565 792049950 303642263 243888856 426715806 236234198 488480903 403244558 502212059 132110691 746310105 351770120 960609273 75877849 899295266 613153801 72447971 289752022 792828964 538722959 816445588 60132180 523248850 313625035 211561768 560600190 128424040 821898880 925025920 383864700 8626049 865326896 321266276 197541834 327002988 7700673 924839041 819155262 448990418 804982000 24157507 397779044 288381370 918128888 627898234 418591107 586734069 349412390 867013912 894672913 415358483 29776290 265154823 258725676 234599262 905553373 478858429 920233907 44674870 323497946 322973153 969664412 601577078 124850905 609106291 897315920 421041206 294398076 223441465 901843969 230993513 18860823 747718217 920424819 912577422 980056480 854237128 338162473 411435516 124287450 760423762 58887011 841399833 925950346 618439866 741777344 577538231 340710520 378233499 450174447 407163942 353232329 300688548 174780276 943657796 129333695 704908814 979350200 468078576 60319489 772863635 306544502 900857667 641080721 267796187 11484567 179290657 854971646 235110978 375813706 126925675 765608416 744942721 486118690 911910140 844672710 598940294 722430376 625011852 769980335 272449991 779601655 464362751 173632001 556575321 7281235 46063400 918789719 783092564 999172643 618277618 576628037 553873629 318912027 497405188 222584635 226862510 898178529 442833963 916662313 27357865 291042925 993584857 137636519 543400720 603775984 966344963 422073751 20114736 603442237 772110651 508800638 82314377 820310835 506672797 967911592 317425014 1800391 761396059 475069058 115859362 881256952 385170629 200957663 219862903 557571148 126376960 5877258 803641705 646431514 300556475 770618527 312466967 861511915 934462039 374250941 602152894 346945877 536477721 442416990 591721870 557966262 198749217 273179365 158569325 786556353 675893706 989386212 216880483 875325395 730132099 243755316 576093918 489342188 334374927 948444218 387913960 911073761 452906064 217941168 502197110 400183837 575764209 787903242 66490055 131509275 750559744 903697734 757199159 192640190 726660462 650937008 122499914 427620711 694189088 600106572 376529189 139624026 750874222 126185058 39498773 509778120 485177018 8810194 187947413 648364836 855979477 824935044 412882541 604023867 225867238 862692128 290042462 859933871 41558883 910091965 145569864 45931779 250519156 57448635 131155893 168740519 890380673 72077365 348798587 872734492 640849773 975791629 330829430 246716161 31551610 732263171 754108790 257313035 790781435 538698183 359289362 757868429 392352589 692728072 363474003 708392149 1393947 665167064 562684357 246068354 849863903 132454788 549032892 598816164 78295118 200336134 245723513 654707973 821049656 374588318 627715850 886100364 401641875 825494457 937980649 651175301 581673255 887299176 945455889 698242903 685265065 139685282 125354777 296163389 206056969 685678499 726988235 783021885 341492054 986897942 456135764 82217310 186592514 951062035 983622985 12645693 346557895 432224812 772987689 391407010 834652721 785319670 380607103 545471016 145493468 119930224 556326256 418032274 119919357 160114149 368947831 108329274 468554154 121722473 549983145 758458428 134554960 34514869 71285470 715413974 417300592 880356322 815014298 954374558 552929231 738749307 655093173 979529439 680175106 448227880 986694469 990550664 789971066 196725166 505610189 831333851 781189563 561533323 59844056 680356375 125153757 81840053 588309678 41592518 585811023 703326887 940619077 724048174 171231127 330939303 228684946 297208260 813434586 664455852 674675918 727492805 928495600 64231896 319823660 183537358 791034246 155035019 123322771 951008611 889092854 636944620 278574978 740768258 910393256 828137243 620268323 370927894 99198359 274756660 4882602 56986198 979151059 658323692 310865289 663100202 5690643 936907708 897229211 611955088 877125868 918554072 233430958 987650206 553318084 517146153 592143272 372713589 495184370 37098158 435933557 982664708 439198399 601598757 40096908 322213922 727055499 705856960 579788337 666246277 416535617 750715595 519304118 267667548 514288596 419860849 852728155 243555180 784936231 16905977 981149202 7684074 888877371 458092637 217551068 255550658 341624292 736395571 285016715 95809319 587093391 964019925 11850164 544162552 145613729 527557150 301122308 632336302 876416318 988822493 963744096 151276646 147608054 425793956 417986152 904084934 405333744 193516016 418143687 849252388 261394328 102432855 278437762 585931382 7718038 956457785 581919186 960663022 861724857 920083263 223265903 904207537 913950898 361225290 960084037 576129650 413995439 960934451 921945229 419368094 485039709 644254296 472522431 185357348 547344056 32587137 388173970 918601840 326886660 721140029 481637657 312015058 716228176 464712106 180237539 518434473 347261775 81360647 767406755 205973093 453067653 183304252 707455184 755581665 125712575 180555084 748884927 568906944 602727677 424392541 103005073 456752338 933345757 199578810 20520213 878580653 513687267 397640223 154183189 677047339 591354996 827427525 597293769 845717247 11502961 293919221 339718507 127024222 520229921 129542307 730335920 877856219 758447772 887617043 445072503 897730766 295827330 932921211 566938004 684667500 561689867 217825611 68416559 587675437 529025768 575757679 558505557 593564921 724903061 695973711 779191051 281451543 715555601 489603284 713806389 28634510 999890236 788757730 530770179 358828319 206002128 404284282 163593676 293059498 345951854 664263840 326539358 134609566 151186685 236429023 756129576 384000974 780525581 772210936 597359928 18258852 986697131 161847630 576841320 664252682 132369959 129917221 133671676 69323184 465425080 278318664 393204920 464461764 579697021 451359286 702050623 601504294 674366152 689495228 713629479 202281916 387175444 425999757 43884515 824449272 205299995 321444877 418401904 768199598 774216355 277631032 848042132 998378119 501689276 768436279 910058958 376228011 467339486 889220560 934874117 437375609 367396070 537995268 151922577 899410580 726231932 307758608 877878514 231437211 20952902 391862176 200835957 315206740 399237299 767428205 684446709 138008802 779663646 448342412 499383432 657871720 613045128 450370148 413466036 550431573 124639268 744812306 987534377 547270073 875359643 306164514 212530888 535654073 83335277 758173001 689432721 985900857 516013829 180109075 260568498 923780042 684658735 443398580 227803486 547753083 607211783 671175227 775793380 24520067 764253883 673970806 870640007 431127737 536932221 30968425 971718760 409352238 921814240 945125172 445074164 994401911 563950980 286091834 643088838 133106186 380399940 13363649 893393699 285837070 379024260 901852625 489812630 991788002 332651255 907281646 955421194 184920418 874465928 773740773 339985077 987668295 556849329 951012222 359032440 896561119 800287785 360297199 980486969 406728490 990253324 689033891 143987067 39819923 209523768 313872007 736211475 3747513 878524687 688184261 479637252 963456131 681477406 534245494 67957318 635076485 425133482 931796886 362077297 268252268 250690356 293970485 759354295 70301636 835035511 614788123 760476711 491494634 361282743 531126 554158232 512664899 288274499 487861470 74684827 529976418 586508686 354662215 404021440 53394299 225542076 948797312 540667831 45115483 538319416 994449262 956197679 50319508 754698331 164631620 307289392 330599230 784780382 804841618 620013143 888730542 605699030 365843341 856658547 365325291 840660523 219530054 246014083 183331640 529403401 214235771 866649382 455037093 957522357 74417030 648507131 832141797 977774830 707204052 790845934 402925644 284372555 256285555 328485991 368884077 230264294 359566855 793614213 900552728 985276628 960106146 348207788 755754019 532417207 695356239 201059945 527440835 472015898 449645022 690156613 64696379 99998191 770924653 772059441 733251660 470663460 316802635 493134944 168914993 382902420 978915042 939704563 470481580 117144544 789237207 634608324 262925042 667855073 238123027 164233561 231376493 60243965 960942705 99163082 749801580 782026615 138941456 541053221 1026770 581013421 392993051 776739437 518539057 800136803 184758344 426253566 262130330 563329127 482821606 664297845 487558757 766988899 828357931 606209012 381031935 942527366 768916735 383532283 63961649 780028351 964404167 618888737 469317067 68098559 380550140 19156089 622521898 301922353 458429608 625179505 621352246 470866434 559420297 88189379 146667832 928274723 233383862 427708116 115713565 423188484 300550749 288826043 982537523 751318314 408316803 27213454 84734652 619386252 876612014 77467247 364928456 254400183 801955775 726074575 631800968 113325728 644129575 131316302 578290215 441119368 920848906 129510227 184070593 816964522 702337466 689284167 114186485 559947017 308569119 525981778 184853542 168564058 414653613 534658405 49064879 47019576 710478628 542103775 634287372 133575012 741284302 250414531 614713428 951777785 407170761 265346162 54412482 569301804 840595820 66835177 827583583 101298102 772750627 33998629 963176291 463694219 155029213 708264233 277940212 165535656 972721218 416358409 590649570 120748738 274909829 249375864 334709686 467974180 758202812 528558885 282232505 987418704 916464761 129745251 550153588 659199637 549533166 343541382 345190471 78801433 679569847 373210675 320452102 485567218 429294656 100033654 569899868 813449870 596447922 440581859 687975287 391193517 38401672 869064609 814659324 449947033 446223945 925334782 781384260 678700825 254009930 528866622 761277111 835748434 872321928 108052570 848138497 66804314 757687071 725014513 408921068 656790357 616346060 79209215 444022352 960349685 72679577 705169604 350678184 209549440 92832843 989250607 940137822 414574878 383728228 538476490 296279118 820775094 787215906 344890877 483068124 6859373 862033868 61788814 583440785 620555525 540665369 273983919 748872569 444759561 464675793 426671186 219346268 820692125 343522489 810176758 766192338 346797979 577796575 488979095 620288646 748127656 639750572 44913568 264451058 380590583 179271322 470922220 787341844 670663221 767307276 825672078 194775199 761405941 215225326 857703533 148106999 360419724 254981318 863272278 118446612 403873151 419233552 153866 532079127 55118698 200080960 152399447 450766052 664171342 689465355 958874240 49721071 781146855 811260421 787150402 951696372 347433365 22645156 505531647 41128149 172007833 152871115 107506310 394042621 884266625 372244632 543598594 947366084 564928511 394562270 244246374 390222575 158495334 684270294 749888282 488198553 831231200 953184171 767488559 638920582 444640173 841030797 739055834 336897243 261965098 925484434 762093008 646748418 804459655 979673032 99470983 86420172 649527677 509236421 681674355 429209818 911975559 936333407 805733627 972799111 414296862 532447923 6058985 915319288 809687068 250598599 704024416 175727019 812027922 812946203 768131492 204953578 574655286 700482742 564893527 731175676 864465334 915974954 37451092 800310918 555535947 702758738 597333351 59647544 219663639 987330736 225030079 524941909 232443077 988110384 779154348 804541840 441549908 455014437 351831217 147486942 69526088 796222932 124318371 276137180 24161204 769983794 727469408 987711678 50109699 906453163 418103423 955534863 16920272 22850563 814615729 257634733 518147909 160522064 41098702 95276922 703107669 68275728 608128414 790815055 2529815 806387123 944385150 675075033 518545361 782947432 93506620 637252093 362621842 91159276 834946185 150632443 711032797 371633625 501659002 377330356 320671583 88537491 598680826 972581117 861419764 977876532 2350627 236036178 946387587 577638461 478560135 101611220 802730445 923533731 198175644 58401395 898431611 230027063 354901050 465661195 881600346 772743852 391966170 674008729 622928682 647715727 525200155 918822959 906336045 311196652 971908437 648281232 73585809 365106992 214525180 109833542 608969990 122588088 613002652 877308449 52728285 503276038 877607277 777418258 332464041 307364421 24328478 645459497 158862039 207439407 873425464 114728611 870149070 980531530 368764848 386427389 76362688 419473838 343676223 364235857 33314117 537668707 996205592 813251165 635486425 196142259 354176928 188639592 238593289 495816314 114180145 999375892 764247898 191973804 586766270 51592796 794181719 916340811 315145874 858376990 613368861 821008744 539451054 617387001 669353966 224667423 595221415 352650969 891887806 626625505 347158412 165878361 367611682 243298275 723963175 458379826 872378649 37263051 154818943 515766173 345802337 749036556 610509939 987597474 746206260 801975000 561737242 215896006 640790025 31214256 63437331 794300821 930951397 49348343 377933530 195848925 875177027 956018503 994182334 122862395 431129305 68378041 781545671 997594056 727932494 40966323 22959814 234740234 438881248 996298486 453698087 162627801 944682900 60168143 821469272 918095601 667686144 766882227 608611952 99286028 530368944 405143262 616581927 341702192 615345982 528179836 11696441 916000065 788128053 59812354 302985177 295333821 222986311 888617423 953444094 403859524 802663589 847897051 698792548 126501574 672400698 111171698 416339744 701253585 871561833 360288781 576160388 989278039 403738442 47819838 48589026 884537724 921969996 145010577 943432970 156661561 203504625 372345121 289435107 322901719 850844407 514288563 52209799 129505644 251336809 561241149 701651903 888747458 364456352 478781319 689092992 929535683 744522745 501327067 129959942 907582588 534523440 494695340 632067385 686958345 361569178 45592606 38447374 13442816 666089600 913751873 214488376 915789148 676173037 392239409 640048272 449171964 464749748 618223454 813016820 715826860 250623914 12802388 913123321 655553593 615679451 127094704 19531069 624685681 459975582 971081220 489435230 483103413 896056792 37561926 124731679 869399685 480729223 621687562 612986872 985694850 422218328 221974860 256968956 302696558 293534497 308546524 885068875 233588162 18301478 834592924 575587732 956006288 323661004 756568544 642103003 544801943 883004329 348787023 931501642 235666366 607495384 740824186 695609369 934178299 327681862 702977251 486006558 977068927 114052369 913812778 792691043 972294971 732414381 264994222 496107492 526306462 341425531 177225477 213591777 344806352 820679348 810426075 962683462 65784383 723431029 722199499 732236149 522402569 79788961 525626485 669971383 918268131 383859394 173093693 322774233 276962121 858209580 933773603 882466243 551149250 365701393 502872668 226161141 726350585 124498498 169468975 157298693 535878841 691620017 489363513 418337183 873129516 186284522 276311503 808514383 108068092 130796230 554359685 24073068 324276930 782225359 436727034 559946650 159529191 351770388 358961685 48749166 786959320 228033765 486239054 611574857 846489988 203813982 455315893 253332439 486792924 304521384 353353597 729304976 623110743 528776370 679373718 767224303 538491462 14076856 592085056 348515915 627328479 747573080 819782235 456952156 281718284 350171542 203714694 914023622 383626707 748121200 811365801 633529403 338225815 592735770 770194502 855345075 683573957 331449642 403834441 531806423 348423480 492313636 277200316 572602461 646290459 513994078 884149410 811568046 407042972 609340636 85541464 106190910 886323389 368145215 505090691 820622720 483678654 655120252 214837480 284679830 384282479 784688868 432039352 532169242 144670680 896674538 853496009 550383221 150512456 803086689 564549771 409192802 412739709 947003244 163962580 989293511 917576041 563484391 261183800 73136632 234178022 887720746 237943674 650724487 638019126 275702110 355357780 683929602 293748403 944609772 752329724 925015484 112715481 140650341 244259866 978712159 220542359 41300825 626720103 84899130 510670778 687744861 26135425 835300874 202529584 223959784 255018624 504316212 340692105 117485685 656400260 106366053 554948622 605411671 185363013 948808369 396093665 628521969 405476835 997493072 552492934 491064904 795266512 245160540 325818832 519136850 548209491 529641638 876532657 661951998 589137072 791071009 819903494 923851111 382634145 116514273 514243024 387031432 803174382 157218474 436757589 936890335 734097985 732883449 228717863 515836736 426617118 803949516 842505862 608441451 705740967 807520641 432344628 698574553 313995817 618017985 641383146 449348732 694321907 32494993 619317279 343104303 217515797 925441299 409672843 686513608 634211994 439209620 769288657 995618046 622853527 453277592 500275660 370295325 940601412 691208015 544639762 647676045 350837491 416434380 342221739 640624903 855289911 597952600 590387045 155694300 605894603 621950161 99812916 475154016 720771717 91194587 861030092 96262837 330288505 115320884 136791006 910928765 720359932 878543932 172664110 542166306 386592650 970287980 779994857 180592993 653427930 300298733 752736624 945623342 845431911 855365524 791359279 783169952 320215599 681803547 827544210 566959290 873398502 473964828 459744543 874816177 997268955 962944646 648380147 455087478 142062932 554567350 444277300 340343173 91404379 436412084 292856536 978216066 439962249 619638989 451768374 767196340 213238521 435647657 165907396 600139953 195934925 473696417 606875857 188493203 990737308 861417506 821982208 428736234 217643941 12701011 361534190 996885742 96991228 394755622 116234592 895057059 910392338 760217279 118882576 987907639 806190113 595027917 347231872 543753889 376782544 167238158 218183470 838880116 354907843 249567457 366045195 352041088 171788963 496996797 877765942 883764335 425124983 43421651 930564246 439809739 944013717 521277908 946881891 373851725 949172134 381947113 952504322 121698367 950245469 290877026 658402051 800840669 655354136 485048628 413584187 941049814 203024305 762918159 243223723 412232642 312073865 778117950 375629556 871144999 940699536 747146608 19360921 335686821 396149021 451735407 871187238 834541945 838260211 912538391 280553217 691152610 325263607 310651343 918178715 61708323 100913043 620633216 520650975 628791187 876319968 746637088 270871768 497547992 553882728 814601344 525492616 445619315 459850774 85721674 21024914 966878675 440912308 263891939 42968576 193763083 712092539 790541326 473715638 883007428 780140353 988558613 320880699 500429258 77826510 739901147 316869633 321441138 401250191 982110941 990243591 279149736 411538614 30096230 13320583 255323100 627989404 375099359 535829316 296848168 691774562 457675940 352383699 372854042 853764257 505184210 102766090 728999972 133581418 425599348 109346154 398657269 589365892 886228021 480324990 194369947 603152267 689925486 726532420 592876130 546709908 687781307 700859130 644144822 90085098 779147266 341983852 197923292 207003138 842331326 485977723 153742280 104923696 629666406 161220084 867802790 64399750 160525475 258282391 859495590 756924037 693020742 954471087 235472782 9046933 457336559 432502615 910560404 622673823 568190925 296396633 900147258 933811248 550449108 364950800 761636388 283258316 376213345 493125288 420692466 132806304 689250995 317819297 734976218 141790098 102738899 858473038 604096790 645661024 98500584 695863762 714306001 413941524 287552162 217261420 420679393 954329704 525371885 574068538 710560258 166257951 955122396 275647984 755951254 564340463 815183736 708808534 461647238 408506941 846423707 172905421 378415637 770546698 72534951 841008820 671857917 822189093 549704842 627287999 177453814 686685019 377428948 871090462 406932284 473299142 48110509 189354343 333168971 659612401 102076667 454811251 973870292 296253060 750133073 56094581 60456055 758129423 418527987 933295897 709565472 526868446 430464576 354980026 989756209 695339560 774630705 661935473 4406081 817139869 558975167 310860534 707736302 181213640 440773886 134320715 759731857 740132506 8737176 619668323 880869314 959052513 839272185 372019329 510262213 232358518 791728162 739969626 30481120 501960128 762354729 763383590 176776371 202329553 442760309 483505603 337118825 261768840 662459272 331892811 892251153 736068767 40936040 53268632 583986665 467931485 841603836 687603844 770943317 341706069 767608185 850807316 156878624 289134314 295235116 770938250 835234394 955486262 511099145 746388988 612438966 384370651 295496203 360723699 179963164 63334547 255304463 52120804 653505332 17557256 784829872 635137088 954843480 43759851 869798301 976202921 655936878 654828997 119229853 315370611 896262005 958210466 454045499 998082470 294227567 963388528 568607224 233228907 360816011 402861666 563581146 180416642 192995218 357078343 600216708 480614443 965202266 366020534 437321325 220262711 582940172 543025275 377264457 894045647 752815100 73898658 836442325 780360190 685465464 156226662 810190186 143233681 677197834 720537855 385355658 86338900 294046920 944912468 309820756 226896943 474238751 319222082 967006707 790898921 687512865 325740734 447024533 8262663 700043508 332431848 325668132 126484871 951087105 116450344 138828154 117917116 417894793 960114394 265380547 664891414 5243994 211965854 960276768 163788993 923668565 666199514 658073239 153314916 179933792 43575068 338419952 182847512 190120619 954607027 340967188 15262732 264805050 74062453 298682023 414539875 106803658 404131919 213468781 906978610 849660501 435696735 874865746 218173624 884975257 507466572 145748281 590150940 915188746 881318275 954467031 449392176 27747199 258990100 542763147 878804936 648946431 465866070 157072074 96127551 956107283 988372480 914766185 548914183 80694688 679960815 56462103 744779851 368349760 851123488 394240481 476634442 984650767 243071923 939739106 389276922 61666778 760925580 102911216 35530697 356951717 16184129 367168764 200653453 299515273 876481421 194181328 528619815 453988151 476073023 305606924 208434904 716697991 182687347 574055039 155760512 743330641 885424956 663996431 12925917 655045653 804654421 311216259 738295347 236421594 916946473 847109218 881899031 815376479 984782631 726951300 442789247 531965888 860839920 77147819 739550074 671337602 29253978 320464281 46713228 295824195 355391700 969843784 325438914 979773219 399831553 920659734 426669226 40367917 433510902 875501540 771482811 467903686 973196568 725902338 485124276 685168149 594619136 169584133 849964463 910966081 612459740 980268186 234793352 321994853 869987357 577717170 892227647 463660778 217539359 595724224 909796258 743522276 339521104 163991909 349995238 285112024 211642467 332415494 904352805 716139889 894802390 223474044 599114956 939757875 540413968 314076586 127526567 876607815 677090477 14009523 14774324 361162938 104413494 738197215 159606952 105723325 168560093 818236511 352154083 361598976 828259972 74791806 368304342 480495195 394205089 497887972 17549119 956594290 92790038 63346355 394921150 969793413 983865214 122337718 306001600 715168526 935261773 464308619 576379079 61863942 793769411 168244236 88436665 561601430 328055258 563082761 331461131 59537949 320605152 987160298 495939569 280617444 720431832 436186275 231009977 480147335 988423381 491603218 185656716 829450138 781070347 524704982 775969066 476754828 834520189 386798559 563683339 533289894 422265675 199349547 264734634 978670071 161804631 984424913 336710625 481236099 300331809 658778506 404387846 489866219 282761949 515240954 495059371 712331911 192226499 400295225 222171230 993187119 385948530 179416749 815073116 726852365 892027329 15786257 504026681 975576011 205114759 748217760 146077334 730856506 758785958 5247518 231609742 165516847 861939485 543847576 180216097 578011084 11694931 12569567 273048767 788078128 844149674 202040186 999268089 838330389 881710659 634285591 374862003 250619110 10552857 914329462 792016227 177141440 903231092 74843484 266908188 600854297 698385638 68304014 483517818 294169165 411628191 19412966 195808225 78450493 678174806 893232065 822756166 955569094 246097451 532533927 623762819 798358177 411914272 274966037 798261536 142220361 949023905 273451397 181711198 298770513 600447619 236138145 623895355 475904128 186482787 709899943 89652759 366674559 585340065 975990315 827421259 349412692 569502304 726242009 142600676 375656005 367149975 676547723 790768718 745038754 364160943 899541214 260879056 369961022 543192705 78734526 86150680 752590600 947071755 923586130 504981585 468536661 150694725 881485785 519086248 159510217 822640885 558757028 212789176 747719278 860113451 329516713 837255861 293656753 746088046 989589491 100632536 645948170 527805092 712084123 776511265 695531653 576286192 38708763 633242889 600205281 724637456 200797731 153914158 883688839 276026648 107206110 418258534 170578204 497388692 514530768 793117685 220899761 183684008 370096583 33622654 845904657 764691907 949456455 112626662 939647575 59221273 294575423 717001732 753715557 310794540 488317193 763190285 913908274 812521655 673749914 216739393 874996366 203060499 59811280 679397921 810689300 772106607 545771743 904158746 880067026 69430486 546774453 721625448 654782337 154885563 556350850 580174881 193517152 133893861 164246840 997380030 674973796 519662650 275838114 632705823 309926653 856873847 871239095 106434604 668752264 799595238 302010404 401253245 755697405 899997497 638915117 64693951 128603325 842366957 554840720 681068463 51650429 406525200 244307531 858503003 367547896 357627463 961766871 660909492 562059353 504055020 827445393 712257326 205882415 172145273 19700170 479220196 756655794 923748284 996811327 432519203 928628664 521651622 81631030 323532068 469039333 330683343 208452515 9811843 492029201 108754778 915744636 739655069 989308748 12050326 288151529 135855722 694301114 505713136 593466571 540722777 214412747 326945464 835854643 537294245 52656560 194292700 362263238 664916074 217632221 200734043 409353349 67898481 499080775 592060412 408649412 124431562 333151047 242334585 429662452 636073377 931148022 187041689 226569192 690084158 827987307 441763093 520624067 998596573 452865272 640327466 77957167 595961450 105596305 896456706 98852322 749582277 659365691 63475050 892617939 762213723 775944057 227397226 793981087 807555565 967117014 923344622 137522571 471746671 705330437 815950838 731827419 211625988 594566320 524184526 480781120 671413648 719282127 924257333 769259198 271504823 452912262 331534079 240717120 981826391 270394312 627033800 16183347 978348781 875336171 220447109 561335568 429751903 2574434 456773171 985682728 872998316 668774602 674553144 993609659 20073182 643929635 95399104 945781846 595459606 303983019 534799764 130571393 187418621 824713116 180911795 145099921 619340465 145414124 209918558 91594940 405059776 131205872 571251318 983747643 860802737 497533150 557232090 322872166 642495879 131633060 448403571 34688357 338304505 244547374 983085192 269633731 175306359 184655428 506044007 94634938 877135962 274654881 210591964 223189493 667115460 471635271 722782379 557830661 199334947 91302440 704809430 20147140 125184835 91434264 106633100 335422518 667650700 261072724 714560532 202527423 97181666 19575506 336908703 126663210 821830456 638760500 373489666 168184381 269229479 864287347 747222723 204297193 213364865 105997018 552059124 4343771 865423136 195283033 56090045 449757864 411709950 451503863 371953433 277670033 399194317 123071760 29501577 213710648 38132029 156682281 166853926 657891816 931374420 878672171 642959625 830625783 587560597 530088159 383955156 202410835 360748666 122787487 781438273 699596136 635311014 787144775 687401723 471651513 282897348 202582273 584924645 578558252 779338912 437065974 609075908 195502038 660030456 994138231 157914914 430586861 536390018 328216419 683431799 910150973 954043398 548619562 488233372 926275084 842092404 857667880 247809018 688673252 44657261 153163441 255968038 525680512 843943250 32333657 380317025 950601006 642830650 925629752 856274307 739654006 402549607 74618487 255488758 660737199 868266070 386409736 46222998 1133679 630277360 141431491 656009872 842409335 16555702 260741323 564003321 651309044 856578519 207248156 144293063 851679640 527136183 272116663 685408170 181158606 209527471 184596977 238458842 18518214 800971685 872850391 460923362 197450254 130982116 403001766 869723011 358388984 755633658 266583073 484002539 902215365 163489309 142753038 984015169 824779529 445317864 140719940 802166782 275450306 346538862 953070518 488030918 904859901 120643096 642584633 249855816 295282638 628205584 889961750 507357372 80218641 309488119 173776141 623328796 803084244 836833088 761443678 491491640 807441135 744626632 520801288 543117607 3112516 232790841 191522753 550013736 208180696 941219638 793386150 349171904 403926669 134876851 287856622 312174920 118195505 937053353 145003218 270636966 86524172 89345701 876915183 277866927 372407877 217440454 260607485 681517362 901439513 63930001 342133023 742837123 460809502 511250528 610314502 432346616 975653696 187311662 428163446 773814528 959295751 416637667 72593366 204892716 888173153 517964507 764527932 920832461 56764126 738169672 166963513 189382194 276644977 165187877 548051739 688421571 936785811 581169019 864090631 454491789 4692507 765926007 237777713 423486954 408273995 547707771 691042407 12279231 718030219 320662305 43963748 298371724 833701980 208322256 467342064 830439162 244261297 676000479 439515873 536650922 598494005 885391822 493950231 299794356 690737296 197382482 96368595 463565668 50143557 520934477 880645413 694840180 479389060 64222438 913545769 714316251 287691734 523005275 333597413 97917899 820187652 903358949 439975579 375400204 687817768 877316918 97087471 280147786 845410286 754396372 462665186 224027820 184299756 811034193 263865948 134930520 107196185 133012540 23074938 946131036 550086079 147808656 450528833 151525740 396732287 55582432 958323987 619782032 511940130 370090137 620770179 148188570 917773622 866848003 837457341 648085956 701002244 574501880 269641783 41529631 291297821 905221659 923591072 989720653 363990703 853811911 517923546 758750478 824166586 3353392 565926281 483803531 735891072 435225840 964914367 321898059 592768924 287137469 412278369 627627890 670139834 159775916 137618567 684985948 810139687 135457701 693138599 526962525 382195057 969822559 580787988 935160502 785189474 756428177 368250283 458975975 260674646 790880855 587556471 93805695 845832292 501925052 451638130 214267090 915894297 968210456 613099975 948656581 673245729 89833720 414554652 575298804 289908001 304651844 798598886 995843065 368156657 166771956 205061770 886768283 408559010 53255192 31957020 998259458 889505 325556691 830911641 322596547 278908656 921874480 137620861 793787360 147470345 283500221 574768918 448358452 442435594 530931455 927748167 136101469 303313037 67119978 297673729 752547255 627799820 249481821 158009452 446690574 578862011 983512934 219547098 536056504 890446503 333176459 408422290 820428750 369735412 625635922 232244229 493939236 721453549 873617936 317725711 365235006 928110965 107506665 315368547 784273931 73551505 577163269 407810814 395897055 940304890 65596369 884876716 889166291 16461533 451284767 803981816 960860380 666584097 158162838 136668413 166926128 616731559 569338737 569268595 295718877 371231304 604939624 747683146 381244163 744849787 617751017 642918542 602367876 443494297 514601540 665158335 700504100 738517094 113217599 879440857 884460436 272621545 791979987 979247987 65766026 138323453 319117027 582170959 637823986 174012021 356378066 154558600 147368001 197135901 422383907 636637473 603754645 160677563 598447803 791252751 850564205 429110397 638202103 592997771 175379829 776018397 948239852 747873942 603775768 756368487 271335984 289601776 914111219 114604920 641390885 237779562 490858964 198513249 207167312 510702629 230757177 730931752 467579043 36656360 181519962 121362959 411068129 708978847 113775162 975869808 468416071 580339368 416159069 26534449 273074014 5880579 993124969 491399685 6754643 200627818 613183768 667492235 604699420 17321043 692708046 803065907 548733893 829953138 446117970 438590490 527552622 992740051 251901226 213151482 768755065 207106387 753513977 412585222 626618525 363971226 615650950 135304139 311857314 454904944 776904102 191796467 783922357 872843827 387928539 885764253 926572819 299449081 38726667 463373287 136672304 968072290 910666996 417235324 821505662 731766239 280677406 176624531 798083793 101774830 402858585 236077091 821772631 228179086 575881564 495193103 609639397 486080229 555479963 503241363 661628290 388718544 414424076 92693744 623572498 428470789 734647410 514558003 963724098 283195905 869943570 594966787 675554843 328472093 298692630 755021005 843149347 490031080 425968765 513619437 307582488 458319452 914691479 410517858 99020432 992361786 904637689 710835501 350085684 131697181 414033953 877160704 854587638 744344946 308797820 880917293 626907590 127218270 743972634 75438905 372968958 57444414 421692155 521147403 553046380 814706457 650414244 119372544 281940096 590007600 310233586 635268666 402571424 910458958 134726868 452694105 729830964 851850631 778903565 266122472 853493906 343223547 963368362 824936017 111715967 824674998 94376645 599253178 748908309 242812632 166521484 569127097 619224381 364248846 862120986 14752755 746203068 601590624 324318695 118522643 118638070 537901174 985126997 878626741 752709585 618086992 493825367 671833698 725391254 698944777 803031374 991154632 813597471 964564863 605014986 600314053 299501149 569441622 357085159 455158471 851437901 939088921 850061273 298459228 200158420 123772530 233646044 191098607 270201153 966844476 697805133 197245559 788075608 497222079 554270005 947891152 523197146 846899055 307642518 474886057 407614699 90039027 659444683 939986839 967400946 220452574 895666488 40724413 676870316 446953719 760829688 675708007 772777107 446460931 160223290 562168485 288506428 559790378 766313946 924031540 666683595 645361913 60354641 393958872 506645710 307937023 23070251 704491434 673203209 573989557 397091442 516212904 634828942 199458060 352588139 76804367 683227199 291708931 102756843 734485188 627426471 911638615 449108791 237164586 39651367 20394725 96576170 116142372 647751784 328243564 413236751 905059047 436333999 534797252 280797294 959794654 131145786 937561417 735802678 922097839 994975425 384466866 160774032 957134835 541660088 162294158 761391373 613116775 547473483 138795921 989940254 946682571 973731491 243102687 817608172 739491009 496383399 113152984 354417810 199002255 900175983 172427577 184344117 771955003 742064301 25584360 372258401 195222078 844689038 949481318 391001729 619764662 520221939 268225362 263233882 228144461 12275033 762449007 13466379 257772505 627166403 217016083 615687457 995912823 786847555 982144502 538532642 217650925 561825409 381033059 549174644 741508639 550335806 59059334 339707613 474237209 352432555 801218674 584646793 474947602 795340609 536751954 781911285 768109813 152757067 321715385 376903785 447225096 318595508 764677620 214003771 953074967 87465714 689637500 857164919 930635005 154842550 207882601 780058526 71644488 577107334 175740311 973694477 145009405 255417428 454199917 605194896 901286573 793572919 673605231 234383575 671571027 493888269 849605640 919540972 184217363 202991422 566471722 724426889 369683258 270147154 615305980 32791495 922832942 402432788 141971169 587484952 959444482 564784777 687404342 798336089 546920677 149138219 917418153 510644925 740823308 96450425 581675458 537099251 152132782 240991203 746218352 880389525 131152827 903460289 912874593 40835202 14113027 125689526 317702188 114605853 386843599 617470793 575325964 337052664 176295998 155978320 633878762 501579495 707100288 326411526 930841067 489097372 92227208 173139164 335364958 37862511 409959958 133559941 201568874 723793500 234471493 99814683 586703142 752598139 510866006 573710594 306701893 594656502 502307464 238342751 459009820 751665977 256992971 893195060 293770126 829857412 387851672 63561945 382360034 520584197 365385472 266988602 701512230 136269721 231551762 504033551 648069135 288959864 401145535 93216816 702022466 408320865 137308683 725127712 707143563 553784088 956154245 576651377 441724866 578975996 515363729 402614735 257642365 323284019 825910510 700148924 182336040 912067670 836135153 833814394 582641439 343747577 383752624 18607006 273593693 459152098 263965073 107895602 627681778 489846440 746109892 548941555 938733157 781164962 333338174 969939336 601344822 778055839 437343170 62246269 146830497 20423937 734004906 37698526 737449402 439647826 416329387 318989364 951728110 413353051 675007367 983674121 592445277 258531910 23116322 155120196 158610350 48470010 30311102 381769626 949253429 911033478 702419823 857987940 684887356 134784104 948160286 758640767 730830401 661510913 89213073 440180826 83852601 849384400 770102351 366485281 738244923 313624793 216499264 973972671 820736593 132585164 639829551 964985013 680419561 94751630 546838499 368239511 374332529 425686068 317475753 747674154 285249233 259096650 167368389 937577030 18638223 78267861 866789260 862368604 602519611 824844319 762086980 835703386 641534611 802034696 701823830 587638747 76527079 642756411 17179435 527719640 395211104 33993083 137175871 317307964 302533133 280411188 979966181 7953927 886965660 421062129 5930923 962314095 255061903 365864745 954744233 588703350 142891861 111741988 587916678 700529077 619198612 519398969 372808689 354360455 676443093 387913249 913906751 449035395 571521210 292465127 314010718 741775658 719988649 414000028 224340868 67685007 858306907 294954221 573412504 67867550 631966872 747993936 673897599 215993478 531434979 521445652 450504895 874051571 827920350 342806181 314106676 225712559 12776074 286070267 491429491 404549842 292328017 495115373 149111482 78203201 688870344 518179740 328578405 453403656 245391994 398928969 206032796 823153726 602826272 190876722 384992942 620810063 828833969 832901306 58243949 96921950 642683680 915468166 251340921 439263205 466955659 832945455 586710934 520121971 194701212 128548048 673310988 740231482 894809465 72621138 854436099 529985639 466252455 302741052 836918465 497169802 886250518 912203909 641587791 649159245 330813332 119708329 279690739 97246375 964553728 207489803 253114269 663505584 346604999 533422174 509569726 298313387 393450906 604197698 134414615 335422726 293281477 290956143 339593556 601010843 221354050 399704325 422834263 830319925 639278516 988299936 958150084 261044882 139374708 697900691 161204563 94806739 759825431 470140537 412398731 232964094 479108177 460882474 480878608 77449058 780603801 538873139 316673562 385953482 3578725 298263371 91829165 789502931 384865511 163031479 936916425 243651926 636582481 539064904 122609106 218477877 981508921 190164853 137125418 945783194 57846326 196417571 823142693 564822105 319145906 916025993 216911241 881725394 377623158 984287153 714050331 504037815 143913753 553728664 349400332 999546610 827133867 540182505 65552812 980371956 43665447 306203853 649811710 279971207 498464189 708488356 735027809 114807952 664990690 603743271 145640359 199060580 795364575 822114067 46626957 345458218 704979217 464848341 140084797 990828542 486633636 433923083 250100728 407987668 386495861 499219794 131582863 280759086 189978512 443498771 769639232 443227106 480889979 696031760 15985744 267653580 181179811 533868160 69243255 310393329 309641408 815620085 952604788 941850360 446522948 763109478 50255705 577544972 805840911 890480906 678722500 375526044 6988736 916504281 762368196 308650055 135303717 416973283 890945436 304838843 190713013 51171301 295784651 177156007 573822657 80040741 803302673 447145316 576893519 216604286 770952161 964474937 46320297 436691514 869469203 851042610 817391068 492385131 179472741 846133287 189685209 645926277 981413936 420517328 541471869 545181084 834785486 640090673 297103193 615649246 580515668 875893729 128792084 907253932 901297418 729651250 864948798 31626942 12533308 167495480 382111672 425978361 784633526 694456590 247557375 769966929 872413194 923097416 681085299 734586680 202217604 504499657 735645900 200391349 863330978 805381039 136687050 652021473 201006503 844301133 773893023 122241323 281391463 958545669 74439123 309277552 481451946 239831359 429438157 737538814 156577384 555755967 785471750 479182114 503913765 237729458 122506905 376761894 296617995 881551349 55400566 951926987 918204306 787032187 2869046 328829611 894866255 687904167 112618699 221910908 323355794 82543792 849805913 741091473 851608181 696073940 970230598 893928951 175102536 412804432 467465910 731480876 166594558 755915880 957366378 632307391 192567903 639496372 53535960 419849752 546503026 701680194 115840724 311928832 739428169 450080530 291665046 768877012 852886086 402088029 833813963 230566082 225182104 957821016 459813066 995101054 850269106 581113618 295154030 699125129 619260649 702036574 812646220 374893145 334507231 544069515 288248336 735414086 487763898 803495073 435737908 195925675 169481481 148267023 304709655 292291330 825140376 135753402 207447988 888060476 543402803 585036421 534362808 564949421 460360310 999757262 741596535 892553369 642787402 541730256 428256097 226463620 810105217 553428054 768192336 470762016 812058568 689406600 685853847 44040243 936234452 708257012 250846748 301119375 981474819 880094641 779081015 75187972 547070025 863232218 110503388 294296194 188436404 786804181 170359620 925447068 464647765 46024314 9517897 635921354 157607706 723910961 660575952 233751166 485800484 69191228 684614928 241175008 645753466 641180958 71003337 975732779 39180945 323327842 732465925 912053101 652607952 622731508 387041526 9368184 999238099 594733739 911686463 966960771 456126860 846395526 628512889 367308616 559483175 409107709 819547821 279946295 264813710 816630702 267261033 62150070 435333196 903231635 354198161 228367343 541575562 439168862 678347485 542356326 776996529 371677916 113544676 649678049 643349671 820149674 951063513 916644274 141705539 42050321 502814260 149952237 585855266 597378130 79724916 5741620 172481709 189640930 186732066 738559660 196887226 618642619 770017850 154423807 730812948 334415144 980186874 742570751 248799840 100514382 938858060 490432209 930766720 231168257 265223253 293734363 713624154 706032484 16588932 486172078 205988107 455976775 233512805 149444639 667650100 360316340 671287457 661083815 558863265 352514280 665602869 114225267 929956581 243914057 665982596 620415410 254637113 43146315 82224155 498155631 561487967 617582096 532494037 463226928 439914774 700463635 828396118 566521664 243859168 805098984 687853571 163138772 604297224 148870864 10427805 605700985 95100839 56854094 685313722 437760187 27178861 258906931 651033112 348791626 112433835 422985236 104596406 416920896 449059593 546095677 549009718 689027588 181218499 9209576 614571254 663592827 177680367 758219254 738864670 79880393 916815010 658394799 62505332 769491346 599951093 22445371 94112473 602439368 947497460 242106069 252280895 911851190 170353390 547375652 142008275 840501889 81190713 872856140 586799872 59146437 543695412 859481971 111853491 348341001 768899767 176617026 878623988 400274608 348103160 451539813 67982134 501436335 400464728 631293269 297773485 548717570 938010213 769362145 335479031 692057574 202812955 760984478 327195390 347452906 259403280 668112275 842377681 614069108 543127096 607251211 818708230 699254942 34668377 237124903 986447652 179075904 442451784 358322932 404100141 651299431 676483554 908614126 63722705 807983969 969059589 180073168 477101295 703721407 167144037 154605864 28244569 945218790 421177426 76669343 44147878 784578057 595544974 479570988 694293055 846140605 442557515 882565874 279434301 625604423 426649819 178659872 203044492 241467386 981680701 413922951 688211783 804199266 789780527 142307354 853093616 763140486 133172005 144086064 752710856 121383031 375940789 607867770 98732988 551047626 476725076 564212879 156561472 512421653 775316122 899664844 741823506 906086181 608608623 310937571 785058210 547225298 922332325 655129053 562027250 996290031 174503658 219734446 652371518 162644906 518699818 542129649 836316522 941178104 588752764 53885968 801496125 864823602 806282092 316002172 997321453 662928904 668739071 706113929 54635802 620913129 599280010 234429572 232811073 241141605 714863318 90358781 328145747 446550198 885320167 996095751 127383197 729960483 325836537 944319440 615324569 196643836 394914836 651259774 819503721 199796281 969190008 501010507 950670533 907637973 11230951 329394562 571449622 347379224 133506748 909058890 475441524 640815129 673141951 141076063 892820727 868498606 724592531 844842809 18930990 632147192 335144628 986386398 908484618 509832776 107521043 240945967 314418958 697691024 502100477 125273318 554200566 62528310 220421472 206012550 314413062 866836731 558611256 700264119 983712427 791704034 858405290 265731468 705116373 676420790 220335341 182848484 860595116 288662397 642294510 800766709 96482888 81771300 746795692 195010733 555943572 596497658 489801512 103401175 510240019 393754201 868630581 506013060 342354693 334906557 301533241 598261026 181481989 312671470 105392184 365855109 879440791 545573252 294168736 327609033 951215670 29371026 744177056 544909768 287087048 276899704 76325408 985834346 64665449 708975738 391574940 313208726 612655866 743040707 634826081 462180830 691181806 17951678 280556453 242115090 656034499 424178637 524710095 689709677 332119856 453046914 356146578 605314846 946082846 61203902 319418473 297010264 107331925 573222847 707540849 988110059 265760804 357641187 167955696 156949017 443938110 792820196 861102185 68259072 399652304 597971171 589107688 855760521 220644872 348151585 415531995 280910557 206765849 81784988 545427581 306664399 388544409 37725357 199976195 160728425 473174063 440687024 978304284 843672276 591417923 410504050 345895126 148555376 160617120 140762159 11810523 808337703 411863339 699073515 669352311 859603641 651954864 346557215 458913447 507592622 757552720 760767019 812427012 365509573 740068897 31013869 790025280 666183221 32694703 142594342 557821970 726563315 604058805 113593163 755158165 658570964 567328865 751008604 138709225 752231000 548773218 768174734 381600809 235572584 452689758 528935157 375673929 192441508 949584846 422009877 23850738 370674403 55806964 699322647 500593223 723353217 305713679 30826940 38851999 305552930 731434102 723498061 121166238 22396632 408633690 106113094 808087342 302311027 736365456 464482732 394581948 952883632 20882350 805827426 729183062 818815589 459677383 668869145 903318393 161431671 485913677 227362082 645634658 478772592 87721246 962791438 586047437 282054290 865909768 265807626 98314077 605760531 49097893 608083601 503366076 436095166 463340511 493274897 756251563 640868664 814252141 118185080 481889333 503852223 371262644 808637061 296917638 222003606 286620192 740895275 249045083 816860701 390515320 538136237 888899855 101483933 51708994 993481033 25861866 923671541 161093749 45953595 250978601 361700737 354302303 42899198 378666670 575186099 414592881 555087532 123829218 853657811 892404201 297477192 5049582 181741530 118965627 767146784 948272436 609031795 431270596 977973253 892349533 131937877 941254496 47296414 742219069 14228036 463431284 900115152 538390328 488517182 991009738 651628542 249415817 161603017 965084955 902175937 337212487 367430057 75938723 309554836 463671620 119642287 165042324 495587312 913075939 593032635 539495210 772144448 164214760 972152479 202259030 195656072 235926770 266623076 536817589 254281863 293411564 529687484 633156101 911336488 417781668 451012297 450936867 439063802 523149794 805690598 195302571 658073605 123564427 385104794 296252196 360106764 693221044 670628740 233913478 286505219 272883736 567456458 915065923 280601822 92388618 979244628 762748451 768403478 857935248 475234447 827819080 970642528 884419846 30314624 804328490 534340841 167660045 318083225 772236095 62317967 700874724 742200360 562921556 423260635 382617394 569609009 206255441 290566583 36846036 266934190 254040757 996213883 760226552 512018793 749002281 687537929 456189513 292632119 449005431 878857286 562487442 980165298 644442494 741516041 11388514 336194392 200408177 64152280 9403489 249688494 584038517 372853728 127530426 3539769 95430464 798450955 249622326 136962827 380671978 19588572 439221676 64915291 528275790 327702510 74702559 55271823 842271916 711905239 22347321 606254626 420998085 128712604 433255647 726708678 103843713 260804485 616384796 507355599 774367384 348551460 952582737 859014728 28696717 267206817 200223259 500473007 508983396 370772850 842624314 593264261 161281333 366001760 493997550 246395176 306345826 950636289 538817161 383064142 200042554 856242205 153579221 622606883 279389724 354018569 492296976 415044757 91456071 922398979 502491578 402817783 461999491 969362538 160205007 35991699 769675485 365256229 197015456 29687699 977368924 221960570 513245002 792074999 168049764 270744471 252299813 521187344 717014281 17295064 138118139 954859547 554615833 165850626 664403365 603063122 775052649 440262904 649719456 254819853 890793862 597638078 925365981 304136891 398214733 543743629 607241860 614212038 311871124 753455492 358671489 168795870 446035640 131182396 365410911 218882379 61726345 616093756 549331822 258602697 548361637 802807452 118536955 572106160 92891845 982826705 212464089 242653253 111815975 297780701 899343117 741450732 705479551 436059225 554153327 207196841 157380898 736139231 872965571 738455326 974375756 182644483 528161802 526453429 802300629 804301250 87900589 670395663 865743206 446261046 940401062 66069149 92037116 46121959 806410528 129232257 506903449 676404594 597856518 198098839 453707021 243653509 687955781 430904887 854661328 877259652 596795988 961808406 626301387 698924389 898696099 998087051 605817926 606573420 462581694 887867971 858393758 920708713 76905065 889653569 74599368 704768216 124634699 819725901 625616946 354204943 454670896 328300525 171071420 486762497 851945347 427373251 959716508 400789874 155049976 853751957 82012337 95328877 338566384 926909979 686245906 671336465 776990511 21974064 520084992 140889119 269915832 623070210 495793001 516872340 354154892 906676797 500853358 301122924 629508129 282028868 329818038 160895482 182632639 171389310 287330018 943282193 143518697 164411755 768395033 615512394 51105479 716785189 166771388 311864990 213446580 634957609 618633280 318502787 58003646 816576156 312911324 519581231 396351984 815200914 872204360 495248032 462943570 776865757 959041100 620484047 157959536 591676948 507399588 879893361 171694384 181638952 995542535 786815324 511029918 621075259 726081561 558010593 922738149 12108553 866563523 896108570 77543274 397699071 989103736 642555513 649003741 115607507 207442838 852882162 856803290 107366957 911887024 826739151 562582892 635820219 109640023 786276305 813964517 671134918 184580466 993747249 202728479 493518553 823145239 491180717 606843211 377446402 793102671 454662346 756341467 330373245 735346908 740712802 674744754 911440211 356947396 888624329 950618543 78753724 27189885 840807283 528167483 17980651 657278691 913322522 447747960 182899441 266129887 235419828 736260996 846124044 161359750 276060597 343528088 250237586 382626759 948535366 989808886 821997118 274677 320760383 115249948 744758625 583063725 124285654 798918273 217084994 126951619 907157927 159198502 237626693 418440050 764493599 972183964 476262422 684449135 286537868 157648971 137082149 8981784 41527674 351123662 143434145 266868656 432317658 315514992 780595329 972576211 452779360 733435835 252376877 484375106 248666776 218301670 974981248 209536066 592893198 559668733 987802894 465031764 863304769 2932699 625786560 782564710 892157467 282490440 847188664 432146890 462465038 338595664 872865400 192616775 610758808 774122740 547039648 609323785 843906028 269241944 379315121 433591620 674290627 536504278 92930863 616783699 491981139 683736917 932839020 615606760 549149506 703991339 268470511 751257156 632985358 275511220 400138198 994363455 601463734 118240290 828519237 982941760 811949293 706658356 574893734 665810942 300490921 789793260 253310004 782117769 94697411 710709754 677627181 247896812 630071190 378571013 157532144 572691651 159564923 293638397 334680049 149897466 365127933 59867199 541807319 179832758 232685441 405551351 268125210 210307490 603602991 153336323 999839403 542474851 542278950 655974624 559588946 79437654 241914332 259011996 725240021 829068705 791611192 190754635 163508714 687560460 68125441 894590363 512905098 868805481 141983057 97200039 317840400 870741176 917433996 383785579 586728850 219932791 370861757 272613561 234707381 429756667 140189182 397063821 944664055 390919058 530058374 586894506 415930607 272233126 966405284 9474252 524862309 381301912 923989512 247035143 447927434 992595627 686374390 967592720 237154434 961692004 566832861 377705704 817804154 631437422 824437133 1638128 646024051 994889316 589378719 785949736 422557080 477984285 119553574 691568962 868727340 922551372 646199762 818190678 845623495 687310120 465188286 650976679 538034631 502641899 210860980 617797191 323404950 70276001 251186492 717179404 412560182 478437913 695639094 327326935 498216984 311874641 103988395 944724508 422067262 442002927 407478815 105397977 766145580 673027912 523436470 839337356 304908172 96035177 258801334 481191108 408198887 847058478 714426021 806568746 961062803 488738877 874535920 158188843 306790911 529607048 108753617 120757167 442140864 574396669 978575016 975769781 851467853 932135597 622884610 689830062 97399943 783799362 51830590 360436561 9922339 683167927 992445261 127506327 780403055 370480887 341874552 916438361 421030705 133857299 565612318 801227875 46712359 841389066 708373790 171396753 935238663 7401649 674372676 178530396 653739811 617167567 899574293 771737791 273141461 768594211 752904457 239302021 260952953 568206527 216760044 265562769 211335308 629507381 940958146 309370850 803131162 997122158 502720429 31117766 781298486 147692725 708830382 158600158 14777692 864520068 876155536 705438020 780587794 954128028 331632366 403271023 134595623 356857894 439704062 455897254 846353905 451198892 137995170 216879999 52897584 539909497 475380814 847590911 617946264 277904815 137980999 624684806 608793991 193194450 670880475 899284615 952405172 383223231 295246854 822143584 766794183 502678417 974757480 291251298 714333014 813507130 427455093 197751489 212862751 620003989 162816584 441933823 517285305 753993495 214577555 782553392 477675364 658117327 86677173 464179945 341784017 464258046 897496212 717417745 229021794 240735157 236586836 612739828 272400301 990548618 312716501 593298096 244135605 806763193 483685386 714277711 751136440 1273882 282274789 860963223 2755378 144970876 523060587 652708993 590570050 224338494 251649248 758819622 494707305 919763471 560672698 298943431 981280401 810795522 428246698 814081252 78046980 602042580 805871336 757767847 796284195 324875852 190043232 561979441 888087453 644698326 553972543 594390875 425353710 685482752 889243697 150558767 423887708 574246590 598223201 700762515 68186897 967652142 72729305 572158623 471570481 274161908 957809165 748128612 146949663 305678334 164146086 876198305 567125669 263726127 573390677 776945757 76225095 518232122 132505776 283928102 585933156 320375452 597416851 790839972 674816423 213552672 646273339 766055711 81602399 793711561 973427069 858254020 264904202 635447233 503471326 864620693 638681920 60721088 812156368 70392954 407673131 517867470 117062617 979152411 393773693 498160522 994895654 946161133 586489012 452589013 289678595 631660908 933995869 948754086 482195133 618070961 289989419 7302496 669264255 879384140 883132069 166551208 85550506 864888778 562253431 933287439 992528327 473010844 253863264 251756767 36326723 439145578 627156264 42013304 40288619 923045669 882857943 947674200 80670786 752551077 705097662 518244383 505036576 423208524 475605118 977475280 667050187 409986423 749724322 852696399 562459547 721695960 822610136 184991200 897895542 971199840 147905269 274773338 637371082 396513278 174693616 87018428 89122872 426350536 724825578 79193646 432318697 978858001 815301140 422310782 117469670 324880465 451516782 646185392 435670859 514858636 95512716 272971601 695564321 864265261 454752444 692188398 891059079 202917157 59090341 91611281 748489996 917234140 866776505 331318746 997196395 130247600 677440702 293759694 980080748 643383188 944559465 605149053 753166760 49593428 108423399 762178130 682775861 693646866 485291068 836043978 435760670 642982965 98928880 378035496 271974767 202188568 25054456 203303139 980966130 626456546 669596438 849155221 305154702 914967755 635313145 262567137 767195485 878740984 712001084 144573990 576006175 16304626 537503828 23127971 701241933 106488350 921853556 243389331 404287670 812739566 151023390 927333316 464598289 86862379 685175283 811558561 541876250 17585167 979899111 937533231 622630402 925555287 392498289 705381280 90124661 538195635 366100997 119281977 888429684 620381580 702704412 293431786 567404197 596834687 524123973 789472313 775094277 289428045 123266262 6065303 832328887 461912816 634284555 349712384 122120498 200709992 454400119 376986297 832337490 4084965 387835392 456257592 98539957 198622987 400751446 84226749 521676454 780754551 107790872 627226063 825564500 960124913 857785558 85775859 873660165 13859754 286528829 176302131 695375367 668098127 590234637 539382070 263285689 189644253 656832595 371583730 409526863 370516680 366897776 26205428 205709379 54534681 662843882 195428612 93846164 47346119 881736564 933182151 283468607 842567459 425275202 883842226 44102672 657424601 381085006 629628462 815945207 253388857 530273152 615958298 903026832 193841587 524034767 777612580 321672713 77760486 582167011 343453668 576948945 618414338 42413145 550188300 349160284 13438225 129074542 260654932 29499273 977166877 782853439 232441815 342315731 263399716 479282943 910252444 570319953 518466032 273669585 452645239 58593189 322487918 826753190 418184950 714258453 632603664 414032458 79650067 363398026 362016906 523522602 573052520 32583296 645364957 742820674 285033223 615027744 379905103 886678127 135365992 55683310 204916993 773633337 226823046 867461826 266033353 379706257 432361740 103143664 334757132 970294181 723051942 706218931 303751342 186762310 450759378 334928448 930532272 471853589 956108696 902397694 326399378 626103131 996595541 72078704 70689301 963210825 401233656 560972420 534624751 276051654 266179357 109108507 338112299 598491805 673742014 232141653 714805695 433429128 809202227 248404621 577164121 452668722 372544828 328982065 490065998 672027114 806061827 391442950 146355002 936734298 537618067 873388150 874954434 606419060 326919681 209592269 326472872 990536750 428868485 459700901 535027587 504223991 710895097 34078394 524667311 837852837 973463759 133445265 287321309 620318347 379307778 978844446 473477038 902158543 834634787 822882715 346325808 2789177 298096238 429067651 660214030 699768615 26513312 30790037 221660647 441183669 266258777 826087074 37931235 559682770 891877511 968744572 655841535 81835491 832107866 794874045 187852858 666895929 847888751 661780318 956672516 802878548 277938799 296235923 319973554 233211726 50222904 650666283 788458384 705413321 639322108 573084029 600359628 187994993 57381355 492967877 448275408 810336106 844355584 378527375 931909811 10639787 446697017 507551489 164649948 71139863 379894494 74178616 58492858 754625249 265646455 892588833 66779823 693184 659515468 277119437 111493911 798677250 875298908 612363566 785556515 149159011 191411045 816632196 350602214 884068855 446593827 409565498 199770005 531364650 133344754 792303789 243528223 318528938 69958261 130385002 586083423 936647784 762081261 632713026 161284127 839096834 618496366 128705647 228131435 700471928 80312807 872135061 62369464 389122573 43691066 47408906 326459185 947480909 348678162 836854777 702823032 698656829 913688759 970326242 556083402 428218251 575454223 501447790 446799258 213620699 395732643 427928181 460660172 253178856 886096384 455689387 692360831 215299366 514614 419888847 450716352 769062549 569687148 72555793 335563838 718141325 88870930 929209014 454612253 338509537 266306298 987605370 390849132 228386762 106253154 931689260 543363078 502165915 71019999 430272982 170679964 515182902 766341205 666656474 830288130 915411464 346716543 62835882 60637025 326120221 450964114 747278213 394397504 877385346 178406996 63902835 896265256 854501833 855880471 729842965 138254609 986310668 901863767 808400796 262078284 534400153 68309613 31634260 333147372 140316131 878487067 97495776 776305571 824732277 919153633 300397939 508348681 451772511 302730716 451402735 353136725 42249828 310928791 485394020 63050774 426353360 60428042 101570671 259685439 35164195 253213252 426445439 901114498 667841398 640859547 76850733 545908108 958029695 759442349 410426229 390993958 838126773 242753006 911936235 100860406 819195785 484572365 696384983 88510827 547233487 715130719 151372562 256054981 279819719 989584658 205689373 66116485 507988582 488461247 931490719 234117863 858894847 739792960 827991091 363121747 79450051 330583546 371686765 174619607 3399873 730370007 773798634 807490002 458984009 633142203 51661550 312783090 801540769 363062658 604928512 168051059 64980424 201554119 612410404 428392464 36262938 328914829 973080886 51165998 391340015 788029211 640757168 677174036 786907194 270587855 719446608 961032992 85332718 952905277 741767508 709926078 835727616 119447701 446719234 751060912 33448849 763918284 265840729 772350281 624805323 60726029 70265615 938862293 545763560 161027743 85222990 34459142 319532242 151060496 752137565 129245833 24566246 792561680 947452298 923795366 138599673 115110476 874456511 917269050 890807090 440653785 327322742 720369567 426512358 675459693 224809403 532852954 302074450 235323085 273694503 494510806 372156618 158452773 83519918 171543106 195111444 114032156 613668188 655138959 509083969 613628212 302049827 402473635 376340421 415388878 192176175 582270104 795846557 505346514 460387645 694761845 535416930 37910558 425806138 853202933 614120956 527634252 104298637 208417909 991044988 377033217 363761345 864644110 903364285 944773580 377400645 481611114 501050646 286571002 25934955 922562089 573800813 547403703 305503899 905414283 205965902 87541055 60142997 96133864 159654446 618550248 801634576 145949675 176741538 859017676 533496953 620237311 457326301 283626475 930601026 703142755 904295642 663257355 203253134 215913008 66524255 810277845 221982756 858270493 916114940 601049429 261387273 378931203 235637185 989543408 869561410 811021233 860772583 733406370 447941350 333556800 847153710 601505994 737633514 473320286 99999926 346474436 951127677 237000757 141506283 263132718 129780335 536472372 480319476 30445618 737170121 233585236 296622425 851419480 940174841 995190696 901783200 602681203 394658695 151435693 678966562 476491623 710155328 133270269 954433068 496324550 697315065 353582132 261734806 500439213 746719525 456730609 115806708 634417275 541563707 5973848 941248736 755883458 571802650 936241302 18132374 106524961 428520363 749141692 203061532 63763026 842126050 803686511 861320020 176641548 848395575 41227911 487310574 3758422 617068464 637407892 642709507 630438666 87325377 45371085 731042229 661456496 625540531 618611360 587380262 177342439 104447847 208226818 511904448 621531499 593438523 635866317 124954358 503850628 694036354 860164193 617513999 643342539 94154175 209332858 177047835 421082678 937181996 475116793 767501742 52190673 499427628 815502680 603690720 76571911 588963856 843594064 388812775 539898133 362201914 107436534 281291152 593359956 72717514 502592294 937581888 593221578 654063467 547647227 611401255 718797332 592419990 340070107 305980172 786353702 835321436 211134512 360637855 907143312 842341211 301687175 339623660 980456603
