73655
120586232 35810629 256888675 238908689 -605889799 -649994296 -929513723 -933181688 -905418984 245985970 634608463 939480798 924867867 419662132 908181462 78875919 424445363 -198310147 -760859610 506049756 -15106186 -348270790 972256470 908541096 53530551 682523434 -289646974 -87574645 939291343 216724019 -3518280 -848363641 -271547359 -70380191 833901047 735816537 -850800405 -394567262 -858538254 205467012 -699666080 -88256861 621519513 -588730105 505880983 -440930345 -242214645 -983310927 161834829 -433142737 865214209 -473662909 54675797 -768835791 858675119 19195761 543165671 963050126 -528524805 903816283 160521185 -792620236 -366642893 834225796 400951259 -719011008 373811151 -597472308 616642253 64054515 -788183890 -729737326 625323356 -55230399 -289646659 -627639420 -876021402 257593888 228645476 364521131 -637608296 -791395488 185289604 -998144117 641284320 313054625 581890630 799483145 -801639112 534391947 844510898 526534985 -823342521 -392563245 448878610 -841862777 -332921600 134576046 582421894 -309799986 71943684 -365215664 -556051542 139490066 924505250 -550538294 -579640698 38058686 61210534 356726400 -932438848 -312334109 -187708128 217335892 615692581 -168322524 -283316747 229019662 -917125432 -914552966 -908183256 82445567 358653052 -871223798 64140588 648583888 -923538866 399517536 -348171266 -657129053 29919944 962512442 111380682 115888176 152387307 -910137347 930872494 755857732 209651437 -59600669 615721315 -224425127 -754575382 -384488039 222594538 395726566 -793534496 199866402 -871244666 -746173440 -931564039 150266988 -466387523 -212573793 -248476589 -119498735 -873120934 -331427206 835603000 556707514 954728965 -853017226 602301945 627717135 882709211 606035248 628803301 -180560544 630338577 33694268 897580520 -637640265 -23186051 -771292697 136400465 -501384564 -425392809 213202991 946841253 -841745787 541976860 36074377 41806974 -491847010 -893885729 175368636 -146553825 443818548 844672351 868522743 -484840606 905354483 -709055681 -407804086 -786527953 -845599522 360637763 -702980774 487739161 -172774052 -112669615 80963917 174834889 -332773279 29239080 -639797985 -506399072 -95104932 -286241139 -893625418 881219802 172661962 -727110598 46097634 -117269807 451834018 665945721 -26085747 -302605889 -86002164 -271820588 -94971816 -42503819 109312327 743096694 -684055252 920705629 891929445 682649875 -553034089 888574040 549525762 80333337 622596735 206585888 -954217848 -260215275 702860960 -501329789 -322417941 -271360060 517618118 213270301 217475722 263820204 460449992 422433191 430940093 920268946 -436496593 -490465866 312184755 -738228347 915597685 -215363980 82804209 -26491564 97226868 -19636461 589471553 -414140134 454147773 857668054 394037410 212276854 -154610433 708549276 -808524832 82660504 -519552171 396750106 859119111 36826940 638221183 823068538 -297349859 -306385650 914322503 -486402547 -357863174 -730886906 894523132 280359861 790764468 -275805204 464324138 269587639 409901401 -886097408 522226795 334793300 -104936519 -543895268 11069981 -237353805 -817963433 893164102 558474104 8393329 -237654720 70290513 956877216 -977571497 285979762 -122106371 507315827 741177861 461280274 813377075 -228242516 686516760 -461723725 44800500 674738218 -759628479 -985667669 881984821 -570086648 -497554124 -56994951 -435652048 639683680 -988672758 -383786236 -302240491 678317761 319321178 -155670530 -961151035 -926685597 -443644047 -568470949 -322678432 575184501 440354998 -346779658 993472187 -29216589 647096012 -378044537 -389697648 126184191 69348051 19494472 835431495 -236670712 -369369309 -881080118 574285457 -677841797 -191607992 -656598897 -788334842 -393741086 -338518667 394337528 167136488 782641698 -229575403 336944163 -941774374 623037218 -927527873 -273384033 713192955 180855700 -447136386 -467240853 943043616 -313435075 -300253571 467148651 992939245 -937373198 -94441978 -533722912 266126777 591970428 -608018394 -996827770 733960576 -956829791 -849006167 -119196306 -84180091 50246380 259428446 -321722205 356492721 -696113517 -384221318 95783700 -876395106 -98015719 779695587 -818526413 949265581 427967475 876085209 886722527 -42624069 253281818 -323598744 821132567 -4097746 -409469810 106588258 -364919506 -436212363 -751138773 -247317242 624487903 -880594323 -37800453 256549376 -876540660 702726209 449524181 319955134 854429202 -461789930 609422020 314509452 678742147 33774561 -696258728 -162895623 -958312537 529306457 497357392 871420335 -454317234 395839146 809903335 -981431074 815294533 -956509735 -654711821 319742208 505932129 -280572061 731412733 365063679 -922002769 -850847345 -769312550 639174112 202919078 -256008961 240615190 -902922192 22486682 416817057 424666944 -637383485 702008612 -283357175 -685091489 -176298424 761850400 999836249 -942578679 994348792 793472427 137774430 -960514826 375004402 610052729 140847704 -788108560 169054322 222973190 780544972 217030921 796917420 367220714 -161072977 816097450 944202262 616467773 261674785 -397045327 -526626805 -336695943 -759705267 713820178 -73037717 -846422645 -286753185 8539519 96319528 454856103 878848226 -402775574 -505848106 -483441663 572977556 315592888 742530054 103398802 155014904 207300451 534816976 -387489807 246560436 296273771 755777199 -600928697 434888118 -362889966 724622619 297016243 -432872773 264129331 -126331361 -955229181 975097069 17524995 525190167 -982139554 -76262220 442680459 4469206 -380020219 840060039 -104411655 -639606855 844501486 330501418 -634197450 -435138977 392816111 -978758212 -865033778 109244765 -879283778 -650352420 995465826 327463779 -728684185 353429835 -724947131 93085288 -564327364 -81282898 493472206 -140776812 -776085203 185613837 427019844 488368973 877622354 86093145 -677489100 142464051 -500902855 -343684049 -961415825 -306685266 -65176656 51862546 -496210880 166169862 313716428 275317496 315767985 790218203 -577495370 -643323440 309820904 123156073 229254603 -410350875 -247305902 -611734480 -800559787 -574506055 351580434 408485552 232026536 -908854690 -453118450 -546492719 -451747250 -962097161 -971720524 -27626451 -441507249 768267143 -624527741 -540505689 320329670 406729266 493262855 -50176895 799849541 -367474974 540728704 380246574 847985575 83142648 -326590556 -781238189 469476823 -734178154 -197119061 -817848727 353750871 -247824638 237709936 -128080724 2057157 672374738 641003065 544796324 -988468195 -152673505 322250535 -552136867 811149624 511300347 -435935165 500216643 -539700556 -392003255 105598624 916645346 -494981422 -871169030 -240170429 -17787369 -883148424 556607148 -10280099 -31125718 604453103 665766891 -60656407 806739462 -94926273 -253337367 94027799 759166474 86587697 -426191900 742787362 963000178 500893599 -381631776 115409197 864749510 -913573024 -688036306 841353196 734547956 633030481 878054108 818773963 -437725030 651903024 810935331 -99568473 261972796 222617475 -647936041 -627188676 -110564936 -799464626 -76697449 179687570 510635272 831988548 -346727507 48479831 -729807020 -728880543 -403062482 778098915 -261726628 -884097114 801116524 -42077568 464820797 -372520197 504957806 815058644 -433285983 142048908 -583486983 -124510656 577778611 362127060 930241475 -629046115 660480259 -845096153 -366444928 -889804692 658235027 282190774 157337341 -431487182 -283278161 -635531057 -122959070 -40803087 412380191 767763579 -436115507 -517002379 484524875 555083574 -128267741 893436802 -303385002 -900003476 658313946 -520626006 305856096 435368888 82539464 663217645 -354265176 -592470952 -701221544 -896311777 -825719449 -321714836 467773546 -456635489 86961560 875870965 377521373 -580604831 607877857 683518345 -738728498 -927644057 -949577367 -356648689 504360915 604696679 -444219232 -230710895 830967088 -917907422 -613119680 -501114132 235923125 -419753610 97030171 107570657 590660807 124494810 -15291936 81723422 -738604456 62332673 830140350 -885127694 966529940 630316606 632488481 887466912 554889620 676576612 802532489 429890746 -841618526 618234642 258956860 -837764405 -999758266 -165191905 -520226958 299201761 -419972115 290042677 -478296210 244597921 -564988528 993168645 -787677387 142099677 -997952912 735961495 601274068 -917601615 -370005099 215636569 -535394555 590197642 -236866716 -660674415 323515767 -828777490 -516040368 170116002 -428640200 940991503 -915844892 -166540629 -925686463 -402432924 -915490902 -442977051 19727252 282134745 -575588863 -889044975 -597231977 843245789 21593523 269034441 -911374042 128516828 -378026307 -517672910 146813151 448005479 394481274 425567925 710988672 426720389 -889744319 -805835687 265233684 145828535 591746432 427978366 327849536 -13415011 -508496361 -180654024 44843314 187930224 -310483071 -922309361 -167369839 -467956932 -808074372 -410096316 -625346186 25363089 -433760466 -221033082 -929421913 -255293365 17986694 503699586 -433792233 477614480 10784149 -103323957 744730050 -630420239 49025150 -299441689 858704168 -93105917 979129762 813121579 265442269 666906915 215886921 -961975523 748135877 573581570 125753926 910894119 949503722 -6055148 511581534 -914625337 -558502738 880510206 428994699 961586925 922375147 -438041066 687220467 -338663526 -989862669 791326751 282250676 -365561461 -732406325 759578133 -256931487 997618159 255678760 -174229165 941539528 413288228 786190955 224799882 620893406 126534402 -616435427 733228791 667189114 104944475 -686434133 473925555 -706620795 -634416525 -912138619 -653298900 -168771196 -700235302 865227957 -292672323 67532512 -801373673 978124814 -707413001 457896857 198196561 -512110358 792894493 978550797 -190486907 -804974653 711168830 -742354349 -48296906 -52817851 666911930 953081415 506669467 -490435716 69260885 -802497775 473174278 163645991 -63288755 -856837808 294413229 -520212253 -512141789 -882904659 -792827145 818086584 -400874280 541349711 -654356825 -609298093 -119913185 -231600532 346554156 498565719 -789345895 -547033042 -470863225 -949085851 -951103987 -112908866 996913578 -640511260 851821028 901968059 -364052257 -635449116 420508384 -93023587 337657163 -632435096 70168799 -979126777 441290157 524908797 -112580940 628953389 -628196771 -142640577 245659180 -815710680 254697037 308160213 913211641 866816238 -964253284 -794270850 519307250 -885845164 -482123872 -120176226 309902437 -406852835 -396561282 -684993032 -968473601 210792012 697839880 256915270 -993878257 -419076068 177300337 -802771846 276225334 759217167 583110100 358493604 816796190 -41709295 119882903 260564831 -233294624 909080271 419789629 -650269616 -77583614 861260062 711638389 -200470537 -541499481 200408119 534601168 792615106 779591191 493007872 -583316479 653804879 815133861 285694599 919091125 63175533 -362695310 147870881 -264011144 -33366184 381927877 548117973 -346998862 -978550375 834929474 17118017 40598036 529530022 906252584 -785020048 -501850635 189731454 -940854080 969517686 61529524 839178117 -613536203 63039812 357618267 -498906437 907628147 -870889324 -736988033 -815948255 63998997 -746324760 -416572349 -566377897 273297703 593538945 -781716258 392297459 -238178892 738805191 803240380 -739485919 -119765511 -688199673 347555668 649595555 596829851 713717616 43196151 -480634079 572088265 -449384609 617311885 -136198270 998211121 -3868173 868286571 -508983088 -619102692 686071229 -212820331 -591829860 852714026 438868885 -303636577 -361069335 705390255 -17109200 -673216074 -205860439 926762881 579065936 -686933178 -983111277 -971354923 347298723 -408823125 951591412 155343891 651287211 907885611 6358292 956156132 -61658441 -160640076 770714985 586194475 -447179722 391888251 -430161979 863975913 537998542 -228362619 -579505589 -593558882 157048194 554169852 -999125067 -383691560 463799148 -417319198 -720787895 915332888 322560999 -589053599 -46697432 425371574 -630606248 -905925064 680786951 465586288 574695469 -411374280 826245792 68151929 -262550281 505619644 -769759503 719371870 690048173 -178463476 305165169 -321722982 630534602 557728846 -967031155 -970705293 408067837 -488750490 -479341230 977771114 783279144 735698091 -455522814 624979451 -302228829 86293429 -974426781 -186892161 793984995 -721012049 979824634 -289825665 -986377552 -407873803 -648088043 -280803881 776373897 42879541 -80594123 866934176 350450630 -71726247 -248300213 -592371150 -551477621 -264818373 833108108 -522403795 203637205 420670316 -124701414 778142805 -826681797 -710082339 351105555 553877712 443461535 602966597 -115396521 -248938938 720686643 -15652319 75409137 443113364 -690234058 817218085 836295989 -923823876 -973625851 -932704045 -343064908 -435070308 791235711 778139285 -898594898 -945524732 -383128500 -671623200 129676340 -665697759 123688751 -591536015 -842474661 -670203637 -599281028 966819793 993712269 -636063204 -791582919 -73296750 167240331 -275741440 -913159873 -321982664 -305174747 470923596 233652963 583945503 -816519345 -666638525 -188352418 381164125 542651552 -303965009 238518177 274204936 -865732512 39982796 44643596 817263771 -361653956 -286242601 758496286 -493377232 874728465 411882182 -437799490 574611238 -302978691 61487167 -69048614 -184865517 -356048782 660840402 -358976726 31913607 -567540440 776069594 366484576 -383034136 80011912 708622777 401162238 693189856 267672457 -506379836 -39382924 -637310715 454952157 -128800488 -630139278 -603105408 989384820 -564282176 608422301 -256591105 375814012 -177703700 334745771 587581477 312298979 633564415 -720392894 680471276 -761708239 -202256539 921291417 -769672483 564535790 36773678 39537458 -828228873 -338399150 -901737441 -836430158 -300104455 184437350 -360397506 -466129176 358611872 -121107455 302276388 315425184 -119714481 -580106017 -422342566 251407902 -85807945 -70325434 139454329 370128591 18727221 554849937 -153529155 -757586580 -927124601 221033794 -119838294 313635475 -324964675 443099352 848469631 -280029879 -134862414 -767761519 509767115 837737203 742900307 -528117109 -660993416 -615771097 -646957657 -392382424 -935622203 133768373 -290623353 -696494873 -309398056 -920570254 790798665 657822987 -618996856 377503920 -925390223 414844168 792597625 66002454 -706657331 2021393 -839180589 910339523 -514470045 641558232 -431131594 -818309354 -429130235 393126173 364184920 -544473719 -740368670 9841173 882054424 -490038991 307914112 893160333 -905957573 -715736428 -633349191 656159261 -987358148 135168462 -744436171 964402543 200504251 566660037 447789916 283402001 -796333447 -819739794 623895605 -235567755 566126051 -51380181 390818925 885988785 421317952 -374712495 -160156356 621553673 -590264804 -257837793 183404830 448131468 657389612 222344093 423063852 -246874846 342104985 15912632 674513678 230515946 -297356536 833995525 257371645 -713300529 -556713008 386617068 -312359524 -214030263 20661763 640646547 -199627062 -583105907 -222347223 13363611 368475309 -457755067 -250924189 -622310964 604623630 426340358 -547451916 799073172 -554149728 -364359419 -286772218 654047043 -72361106 -430943413 -225812226 -313556282 -279648834 -558515753 -846621856 66122749 370394849 336894617 199427369 166800055 -188595727 788436181 219675902 665926322 616049365 -457126651 413498572 -109709471 286221771 743666776 -555853816 44040101 -185910836 -830920658 -697477391 935488159 -851921022 -793540321 -682084970 483146487 -12951737 987694835 -97709505 106433807 179704898 -349862714 -659984034 -762526645 575761235 -784627523 -406088590 980056845 -531325116 684668407 -34908387 631414493 193030497 -402137933 -720596660 335252569 -19698168 201515762 -204945124 496971080 160066609 716360507 248680403 499251583 138426683 -221639170 -736443553 23461733 -575209117 -7013921 882832580 -334294600 49748138 820531477 -735046871 -576115526 418384889 784726757 -856579010 203659705 244127576 -340260389 833716806 590866008 -514757111 756062181 -572462273 13869713 259832666 -906222536 136449671 -139118934 -916006531 512659020 -783748066 -505313266 -88263419 -325112833 5125989 201610259 -436127027 -659934781 -338428447 -224795113 877097352 -183493523 -205687836 -780751452 330125859 -1176011 -591833454 758282927 -736547456 -825292982 -44261934 -196469870 317711521 341859207 -945096406 -68137287 -604169480 -615252035 723696428 674685023 -149943177 -539572291 -664154655 -166629454 470751259 634008178 -538759245 581161872 367902664 371033212 799957311 -385832954 -425682178 -137147550 -935478232 -471881201 -722523613 893857499 -520935390 -471640563 -708659327 -363400289 -857494070 340244788 942544297 45906535 841642798 772024644 859795230 -229771010 -469398103 75455634 -151484590 -690638245 -732871575 -714542488 -879839496 667160500 -424709297 490342102 -218755701 -128841956 -792657346 44034300 128981077 996500343 -941715531 965406845 891877570 -67446873 291569918 -148314636 -735459435 -148121283 -163215041 -864820988 -30603755 265739729 -70799204 711454776 238314576 494408139 -776417828 687626801 -993656802 -777945372 -952448175 -532242488 -30994539 -903142988 -896733118 -857073193 21168072 529361190 893879598 -195361122 383153328 -409313874 -898666147 477582958 15662114 -15128570 -368196678 -460014194 580361831 -105780395 -376135647 600684978 301939157 -565976157 -360900211 -456831911 228069217 -750228099 700806988 -959216626 -504646262 -746865472 -693530651 -396006780 -703753964 547699351 -7394232 -756391315 872072981 -260401833 454845470 11914053 156800491 672549393 69916523 -224721661 984232684 482688712 -941281304 -432159491 163700577 676212711 -832551776 927407253 83552419 -755322373 -247858075 -581446205 -999077383 843839765 184445131 -15888427 -274975433 -831013292 538393924 233594439 334990383 450305905 -674178546 -56770039 -179020062 -343567558 199710386 53192289 949617101 -958588872 -731190888 168886329 448091674 -662636553 -644123203 852782050 980982747 -665144315 -664206835 -968647516 -236550371 -810104888 236980736 -420044319 775921847 63627970 700802304 188556052 -534632130 170476055 812563144 436186600 -551006868 19352257 995462495 -259196997 731136041 -175655131 -355082254 -36320850 765180548 -800471854 566578642 803557798 243477386 -44100923 494493243 -384418377 -255691714 -340410846 905952459 -109232166 294841242 -965505521 -275792962 361457561 37638325 -453103055 407630891 958796045 -982115570 -421390965 934772582 607193410 -374480761 -349547128 184318569 370272077 -736008047 -518020701 -490121136 -712370958 -862903622 -657479933 654267031 189820953 -743495497 175460132 -692488355 190162188 86852655 236813524 -319100559 -320906177 767817158 961472709 -688840706 245237231 -401834512 348128660 -5637791 -21041965 -401581643 -563788768 261528503 727228618 618593615 -371343631 -598891701 960668250 -32858913 342154475 584047735 145508109 249286623 59649343 156903335 837799258 -916156416 -752377154 -743394582 -14125151 -163408230 -491763505 -547958269 -392635614 418887786 711401822 -591379127 -983549010 -502250378 -464081397 -619842644 -163969293 783350991 548320423 973862679 814059483 545510801 -128701019 187891555 846211829 -519195236 -359919263 -130394587 -439780480 -695638791 144024227 576676524 -369811322 -806466894 394852503 -774065403 247686815 550117095 -470617975 -49790344 892811004 -827026042 -288689911 748674101 772354136 717329309 -164851804 -949747461 -542868691 -928084478 -658444003 -849862996 -755721120 -997650182 -108904880 519194315 478169969 -943396353 -446382205 423620487 248749704 -497012284 537334780 -477669983 -273364448 -637826139 755368697 678395460 201955510 -941397298 309106933 299063888 -139845893 821135338 898728072 155469563 519328442 134363543 -801785608 -147049444 971626205 -683184513 -317731280 883871122 -203451689 -256283703 -192953197 -805614534 324665471 351413849 -650597142 -991989407 -419623682 285476196 479299458 117472341 958129818 493054909 940302388 -776078268 -419116167 505911270 159351945 -218737907 -850218004 -558282459 -377947484 -91386507 -57788702 937914334 611028115 -133405186 -170517801 -674562106 -982102716 -933206387 -319535866 -925530955 -361936304 87732235 648489001 895988145 140095303 167867899 780224444 -444272197 -468616115 928037847 -340186228 -399291730 -812183335 212421808 226836410 -560817884 -410404720 665388842 222863386 10746547 -125195405 34261308 691095204 388486344 -390712899 -685436824 -717440583 386348333 -925762360 -547302736 887642423 370879367 -189024757 538368129 -304084674 -525202571 772514474 -793222185 69893828 -808899473 -180945020 -576095745 -817840404 -979411881 807803697 476472166 -486311365 42196318 -675901594 -283176568 -442788151 252206327 -344039134 -943244614 -124599127 -264083959 -956942362 578556303 538883531 408866120 -312831862 545796564 -633072016 820508070 219475485 479952886 -317649536 -771579950 -537389737 -764347190 865454059 -641607501 268593686 -972664924 799408581 936916735 -365301711 929996180 -117127315 511346489 -975376431 -690233973 -457926007 847605936 -359566143 -237714470 -370894890 231140682 898324355 378374389 819355886 -28735026 98690365 -658669863 -106639611 798786024 -546536660 292631439 -980288706 -684311688 -217685418 -39334348 273301053 569069547 271678117 -692012778 -603993123 818461443 826200796 -368502428 -141354611 901200972 757543727 546522130 -20240927 409041295 -992454641 903111281 -329268848 14162303 -564620766 112457808 -636770495 -72028417 897909583 382977992 117348782 852015946 781239503 -506144857 348489461 88815156 781753168 391820262 774319630 963971485 -698439359 983392184 359234443 -582591505 -473786450 754570752 -789876055 -598205962 -875232251 -813348482 -396448326 -971446851 -127813494 273381994 157474919 339391984 553477867 -431247893 -147667681 520922113 256626265 407906393 660306195 -135011294 531525639 8709036 -758212636 -765835527 557411804 771257874 249934113 -371604180 -420200722 -632337266 669684474 342929341 -855392134 -511104418 -474293142 -237287532 45153166 -40590243 -253079171 -857500253 98330217 -855775245 634211033 -144623116 611159525 151383944 124944400 935997513 -220249127 -299582451 614313351 111563852 915365016 -831678622 118048773 181383147 877517983 274436451 359557949 -507604175 -676576765 -463207506 482349621 250523571 485214895 135557793 -627175186 -280217372 -557450573 -549503560 857277624 -956802795 -141628807 362141961 744602536 -376201648 909777544 288666636 527906333 366669154 -660145878 -301353735 986941974 861652041 -357371721 198044355 -253663174 807676231 -687916767 -237895365 961461239 179517297 692902039 -554764567 -545208102 -388000394 661550387 -463477639 491304318 590341656 -595219767 535011270 182767884 705636459 196020289 -281164086 112492868 -426781551 563876944 -790879154 738019439 38339303 503324181 -944427288 -570328667 -578726575 -989181809 22787565 649489289 729161828 -803749441 577824570 -516358733 795004541 -354812765 -204050613 -869224413 -303570500 -457670012 398769802 -254656575 -662672130 -502432801 -362227445 -877303034 266613250 -680545480 -523735369 -281610169 932362297 -854588528 6980687 -779528097 -905053834 414408499 -437999746 -414809335 -110776933 -722325334 841345781 814992112 -14773358 -950862663 -470185060 750231557 -103925278 -990609087 890312409 -467670113 -577699572 102952099 -924356082 145144870 -875693710 276990285 356142639 -956562048 -97741851 397055530 -747758839 172564390 855732336 547050878 -254705616 94771755 -268284171 11936608 871686632 -614212898 186427937 -282533079 612376708 944758829 -425062185 -598881209 -497521406 905222319 -259636903 696303689 916069102 -527812456 842304369 -129023509 428827730 364135908 -387644546 573212756 96736378 802363495 514579327 477951238 -397260898 501189520 805764635 317547881 -575957344 -706327794 943528470 105999913 77966464 -829358378 365222674 191207347 -194325093 703965954 -188142258 -163669467 345539498 -666692362 -226377776 -364547156 -370784508 557013415 430444264 -58047285 -946646785 183214009 -989323393 -596673906 -576848059 520674664 333224080 -208451370 682219203 -915941101 246455570 115114475 -180933834 608229063 991752078 -681882961 157877891 431588846 983332619 868749854 309066061 -177638978 950197164 923967916 -801934937 -939652216 -501077976 992414639 379716773 115969599 -238260054 -234217354 852709314 -99593644 -923347553 -857679832 282284065 634667933 -496201621 -687894401 949861303 -919593300 -913014268 -825381848 -283168759 706856273 -925364976 -955394665 -188031057 -509504633 38878014 -127005358 -127797537 53995781 -69986260 -638911889 689908374 791370200 -639485511 457052717 766120314 778483504 -430316257 -394844936 153574581 723258958 -595105233 891912720 -267173167 269797398 229483225 589342837 575997978 123063186 375416410 -452438915 -614781901 593361612 -899585376 -536520437 -280976423 677034726 228774785 -121554126 -395736893 -609831876 785536794 727157229 -290634178 421720010 -948018297 -362356058 726426647 -998130926 -572112770 715242159 614342604 376453231 103066625 -540194110 -544123380 -254915080 -617336924 272252540 -265976654 -748604519 -786049756 -546215141 334343898 -402560979 -903163403 -318769593 -444744597 -576021185 737148064 -391346853 28407084 -724871107 341512463 -269719514 875621094 -95817565 174760901 -153966901 371398787 979613207 -646924129 50350070 -8366577 -726475594 -380459624 3538870 -887566812 -205702375 944873138 999855602 -101955371 -852906424 -626982105 -949557174 711524847 269474987 976294306 545069685 -683078680 458700509 482911572 666690818 -58057816 -978991148 -270359391 159964977 779935206 -643505350 821250803 -246850651 946968315 657885276 199769560 -258137670 167916466 133691828 -731385094 103416186 263169110 -951274475 -70589529 793666121 827172003 -247837620 -396009587 -946662644 -384064656 963951028 445698741 -486512693 -781621748 -652327797 -178317785 -360833572 131371651 170278256 691833570 -610556244 -448784766 179473748 384422774 -963857580 -521832789 107588343 754118615 771975753 903776004 -82424533 -581502638 -690774440 -482474041 130762665 -908063254 -818280618 541370272 -998428559 867976753 -544277875 683816669 -883811552 270535169 184671618 -462192306 529416759 284965584 -406769607 -389114532 -761310246 -33817058 433082044 772005560 -439242409 -923959741 -876950640 756899046 316714250 844000635 572807734 -406445096 915170389 45349208 -528497490 -573122847 -498365985 -399057651 239792900 609114660 -627605713 -201823127 -906123196 -893629668 15804883 948221542 627570737 139949205 908330092 -408851187 -389750568 -196296191 89842104 344532516 -317376957 620893686 -43821678 -873705666 -174417725 356328553 321868441 -457209014 -735055030 596575036 -502089248 -882489281 357784786 130114580 615126162 417083618 -234349244 808593917 166871224 -897456118 -212891323 -941308474 497385119 166385391 486646084 -311533333 226662618 420233267 -893020483 822365074 -142621797 -559615685 312790970 -946704332 797326209 -265407686 -288388116 -459404697 537953333 149778225 257373918 995484621 -221741525 8522287 -887583081 807604809 771325131 304405578 460460785 152686672 633768283 977578176 -60977042 523420074 -445042359 33556689 38992695 -849351769 317616669 733201399 -844602843 -32249800 292570723 -453005671 274346109 -341840058 144168752 -641544516 -173365530 -819480327 369156568 646342237 468492700 -639772422 -351948990 504088325 -241841216 -447907463 615730569 330298496 137863056 -41093817 437382121 -851703535 27796915 661091271 781323024 -379710001 -552566357 556487130 -432598487 534677623 694673483 174594023 -565688566 886034893 -670316385 -919770257 500063698 -147082454 465939780 -483967694 454126466 325256589 762505220 324969140 -695535284 -290692479 657658815 -621749512 669386482 42335685 45610549 894279380 -438570181 -857759214 -56745288 478908380 -908412150 902942467 622722353 215341866 -354745191 -994865888 922147142 61417927 740763521 -761306648 409202099 -98054887 813819502 323487180 -773340984 -589920349 -541258575 -27144816 410701457 -565775539 155548900 579789364 -883587386 65652190 842200110 -295615202 499840837 -747037662 415868697 886743539 -576853169 551956885 595707420 -971038773 256187523 -65207274 -478974450 383291821 135356323 -566161671 -622518692 -434582134 -51320135 172949042 809808694 552362537 -844012077 -817798807 -799100163 -537281137 -552348991 597585822 -657826282 -15949083 -68834798 -48576732 926554233 -196135511 286404123 366384770 -249975300 -907523019 116109189 32037116 -370969154 -472627301 412187261 551705417 -56573767 224210932 -94344268 531988539 336047973 276213798 670548419 991956513 -550652472 204301929 -951099908 -284642794 -900833991 946627636 -5159471 -605346329 57306510 820520048 486093672 -815087260 514104749 -767008600 23179500 529075599 395665167 974940499 232521961 679757334 -540161884 328733920 -836627290 -488915211 -104632794 -687408741 -641461297 -554813411 934776385 -211381795 -266119184 -652665237 606283318 -365167509 -76013986 669905235 -286239821 780330395 -354056123 440772314 353957968 -622060961 426061025 232635654 -765715588 979453514 -798596349 511249450 420769182 -50112904 -247627982 -354025651 766979966 -215439270 930340898 920346844 269298381 248690009 -207111405 -479961421 -215148113 793957643 108031839 -606809416 -156985115 -368850163 -450800682 590714193 -74999245 851878627 989969801 -321187039 -684326924 -938900620 623833352 403459836 997799742 -583699898 622325253 -568646169 -753780418 85935250 154661693 -127720140 -238460108 -144764145 167469497 236847741 -150963783 -664522481 -572690390 461431460 455863527 834304249 760854940 -121644457 1192248 395109252 621330594 -173791076 -846882245 763571616 -31527629 -910281551 -562326379 494777447 709781265 830858516 616263714 185547616 -605397590 26036519 -686706092 -31506887 -127383133 -670078520 -817284650 845376275 -957725609 -86106731 369085337 815010375 820839589 -804577501 -415896916 -621340502 -941251434 547717628 -235016929 611226355 -67671663 -131284841 -589854289 -555508781 222535770 -62462577 -940697080 -450066004 -770026588 437119275 53483781 879015251 363191587 248427952 51874546 -274263727 -346909518 867124437 -944396871 -402078084 -376122139 725693152 707436585 835008142 726962270 386079436 -31289081 -479109679 511948002 -532517415 733246178 625522166 -558242918 -891722238 67633324 -778084488 845097987 -416360050 473886366 878603478 24251001 724827613 -394035836 -639932684 795043811 951180667 -730506003 72030257 -910901276 249589428 479602778 -33193593 92505589 981844357 541509749 296653431 813386031 -161889030 -407005324 410861163 -580716410 63369141 444567430 145269931 145149712 35210890 783052202 814952311 -160369324 513670863 -738358173 409913359 -387450242 -472025411 567305057 -886133489 -60842686 -982682503 -787272752 -37795304 -271053919 329964516 -787945649 -13198568 551619409 9407849 -190431666 419678590 824704696 41029519 -927751429 -689703128 588622489 425750320 -160247791 -611857468 58781528 -22706596 580998731 940855895 109659111 -164026315 205148963 694637166 -259085360 949495779 614688091 708874204 222659117 -725623342 -258608989 -349775967 980644074 -22786129 938197975 -420564583 -87858308 -891332915 -397919767 568166096 956045340 186508054 -171257636 -902049389 711415393 243503900 -758756350 -960105231 -843165224 -550052384 -275979561 -106158122 19818925 -808419011 221095763 -707260193 93871397 195643397 193104779 -404213514 -406289528 -759241303 620189477 -414313371 -588244574 98566880 84834943 105840743 346478223 -281498486 -256503664 -440365182 -996711137 -599949207 -828012613 -238025367 -340945036 452408742 -812035191 -388740016 -93089807 -647585953 -814754002 -609362629 673017272 -14965247 -605058331 864098616 674512276 288253668 918233411 -751624937 -47364681 -547810130 903644233 -603425005 612908999 -763550783 673899167 -30621326 -175330800 899102207 -274541577 -287762879 -393051237 216021832 691839042 993622904 480342272 142133873 602060552 -974645273 -345499768 -85966282 -416753957 733722763 -468345326 -851360216 -888498285 -157331837 -378015687 809530050 972509472 -723411759 -222221522 146634542 -794095751 595576322 95829976 54103344 225622119 -166409685 517199140 -131630962 -122584464 51456804 849569699 273711681 -787916133 -301318841 874779212 -215844881 -809834532 447132346 952951161 298716484 -675259848 -700862399 703949251 425324582 185934617 -821482556 -804260834 -782839985 354517156 224139821 893237635 274606605 849096759 -229181288 792029239 -495350891 253754827 509715703 -13954242 641107525 -421419510 -872908629 -195083111 868366052 322947471 803867484 -863182542 -330160134 -614176173 -319321541 -537953821 13958977 -968399615 956575365 587774394 269193178 919837186 -143941025 935535506 -122979368 -204842699 -432416589 -371691302 999552584 653113731 587375191 913689015 -841157145 -4354749 -79860396 833575033 196890881 783963168 -454197673 335854118 837365456 -185830629 498076701 -652361408 164502362 -234748016 31450521 -686368047 -428262389 -380600838 -360451322 -250816753 801106479 737393916 -463812700 -367808123 -623641692 531470691 258974206 -867986318 -243420494 -908326501 409486387 143757035 823815106 479175506 -931929401 334152057 -257260736 125242870 68496603 -923503848 775832423 -67660830 -41602807 -683123610 641337901 452357818 44581817 5308404 -795535478 507845654 78427486 -48578528 500496290 -191869497 -605464127 950084247 711779408 -177780850 716339696 919249422 -544438613 30248712 877303929 -845601756 24215798 999170178 -390036059 177620311 699980433 -276858642 -57221530 -403809354 950125286 795590808 23567405 -811478554 122197860 -319780021 893212836 147299280 769938798 -465542833 -41036604 -993828743 660375062 -980912829 -210005336 -726636741 590351044 -665772743 -249894164 -949205226 -154484574 770928041 -186197011 -445307019 708114457 865290923 968698880 -421069672 624181859 -423492730 850659827 -628386183 562071120 759779076 925174224 -92084644 -76148645 464442397 362538407 775518877 -184016409 669025287 321355172 -225560013 939315301 -665112858 -827263460 -322033020 472506968 -728857791 -812556508 410366465 -478909688 661617603 -753965105 681384336 46724512 -567059881 -523660890 -711355562 -207434395 -68209489 134846132 -375720125 -131990631 562141270 -442306736 955509577 230203294 -463984770 -302064712 -318057798 639183608 -734959861 -538890819 -2343965 -848538897 301305746 975982713 89591951 224342665 -182145541 -212128888 -528308432 -290167789 -450345429 104862718 813702098 -412599622 -89767271 370121781 246343006 -943423300 -919998538 -803314491 -661894028 -860329385 938269337 -909913897 -310708236 160152475 -469578485 -38099217 -767195597 306169040 -281621370 -589843709 -524364100 -181451178 -108835411 -538545285 -314123622 -120265659 706722031 325710911 443664055 870576813 300533151 621366094 -24238094 535035432 524361372 -112663574 -144952676 248521772 -49481405 208956206 485726702 -864747802 -724721236 -846070429 653840525 820974588 -600056607 764566152 605727447 932466969 -595592130 866644524 81535436 470696758 231499197 325397949 701780333 -251910519 -468471849 -241528185 -578207691 -276647527 -112889172 814154912 -342580747 496983049 328798633 -671906864 403332854 366999002 -435444034 204894465 868442481 -181386506 943449953 816429397 600704931 -398186558 -466378174 -671839215 -754055409 801179509 -631994812 -66070585 -881904004 -544893662 -69435688 734795725 -908537703 976849880 -753200349 680474183 125014283 957800406 -617309194 763641215 318802853 931756568 48940455 -276893583 -830887423 35766601 858629424 931778557 -881534063 -553895506 -372970527 -203296069 -540781646 -760690250 384904310 315837085 274398649 -846303134 -552887198 -530839932 679690869 -983100573 -16420471 767583390 182521534 285209864 -992631605 838769280 93822345 -339517184 409509469 -14334277 508612515 -62348293 512302951 333127615 3697725 287604212 634399520 -601796948 9659034 449768546 -608499784 -978632797 572510808 373433902 52484641 902639187 -70465125 636268056 295643228 -888539895 116360448 272896276 -721072386 -248341879 123808434 562700228 912803627 -216610296 -314023489 162650886 -818897836 -177850705 -676631478 -949814067 56720775 -323869648 -302064334 821608971 681823760 -723947665 -870246761 -404724219 432787865 -746918362 289031409 -924950855 889659775 881631149 754548833 304677627 458971011 73449294 -102716777 -367186920 727944237 -451808865 -794845143 565280684 144565629 740964036 -287786571 -856454112 -989820621 797154580 913548298 -760513398 -536596886 675052877 960257911 -877502517 826564314 -827879913 949561329 32344897 -184206990 801985942 830057685 -620017592 612497193 -16036799 948499460 585724020 -303764696 -317814814 925691541 480318713 -800648487 763184643 -831220364 351120078 613895982 -479585915 -417318475 -884819386 92719600 578602628 448454679 -220518156 161005770 235424689 773588041 517337923 46885242 27592521 340479934 643401100 123477734 815646800 -910239218 -267849805 -71117102 -783602569 394389776 92353473 -902884173 616131132 853213983 -959518919 383847052 739305283 -878685375 620607292 -451493641 525011459 942991201 32974782 103274380 93538895 368012900 928699096 562026721 -111495713 734953355 -202656874 484758595 -135018013 675415569 348763788 671668597 659445907 -922481387 -929712871 -766121927 373151261 417995658 -354891363 537037847 -535202203 -452491066 -389320913 -268046791 -953591412 102729399 -370490423 -767268126 328455029 -305784880 781551009 -133938281 6798114 -520104520 899887890 -887904630 573186037 577897921 -445301963 -435089653 -527164628 715753888 367858461 -773472357 -473315995 -72803735 618584262 44086695 -667434883 413122339 521632185 963279172 315229053 791171869 126162658 -109370605 -399162955 321770540 210739549 -958695564 -563184049 721067280 543200447 -362606043 330816483 169234750 787690566 -871801505 -813391501 606492342 900806568 76789494 993215015 -421511144 407395389 -214220219 -756290023 256566161 -454562112 -96789819 -433212057 -652292090 -506510142 974074459 615719588 -881790792 142778887 964300723 382128570 -188582207 -108884506 -493757337 -687897685 681916972 977907501 -65287068 564604115 283220618 193937979 -212251263 -788414270 -931393161 733530763 -54287827 543171583 854165742 499865608 -816150005 409216549 -471913018 862151892 292568720 -285684533 -93776013 -53667946 293003777 -81587875 -361200382 560556876 123805161 -364597812 152618488 310365470 859442910 -740529017 402328347 770589893 297636031 968444208 386292908 -672863575 449821119 -317815114 522426963 -379071079 802215567 99745633 484041551 155493282 770539871 116023456 347448372 -551672996 964004589 687145323 -131921453 -310639720 522391407 -697399001 -22889540 -435141159 807378268 -332755293 -616392354 -905912782 593598524 501587208 134273750 527387434 528885535 -109542426 -399544658 304098573 104703067 595788446 -524761403 87337121 615997360 -605179249 -252283448 908099652 116556224 -803262597 -692935135 920469349 -987942347 184740039 -264375445 -892969872 -720755867 -8622306 722609099 481028640 456976378 -318093101 -969418024 -945460506 -908332222 -161062394 262420821 -451616448 255142785 607929062 -197897238 227732427 -455239057 -860984364 -452403654 -631419116 618476296 738986053 349709825 -711770905 583175038 409906114 282319879 838865725 -871521081 790739366 -78155103 607385639 -325135541 816952926 310052060 469179010 189388632 -504616664 -332030371 865903805 -507092833 890291978 712833754 -527459958 374378389 773194932 123527419 -425323911 358747722 -67078395 -298965731 241961379 -859972713 -422832887 -471555490 -136850943 -495560003 -618163412 -282227848 -872442434 -176739987 -173159874 -814650223 81215923 811014501 -900298911 -148133621 -84237964 -146562018 -447334092 603658249 10325227 -690482735 -11666658 -64435771 244375601 959149353 137645954 304219540 -349597494 -596805406 -972204108 -23092308 152235954 982616217 -636480277 556914460 -874026208 432530346 483596111 385278369 -170919454 -794664823 -262497475 -144618832 -260269078 -481361144 -934238846 -498318067 919301622 -301009337 -223884823 809556340 -121033380 -542184275 -797638361 -220168829 490786023 -593705979 416398162 -569827026 270961370 -718569537 416437801 716646795 -717676564 334404565 -148536411 -859726890 -571568982 -914565025 595913002 -166989393 179115230 527386027 949848540 -815613452 -526643855 403547921 -728183366 -131766432 -88182454 -90580753 -854870657 -777882832 -54436253 -945655412 567755793 -360253195 148156259 -557274742 -666533977 -113405711 991608773 375093892 317336551 960125302 -931359615 -995278395 377589157 -302017808 -818289380 -343708271 -90443603 -362655999 184879348 -40301751 -618018099 990185884 -296429585 -912176342 -569578226 306383002 828810141 -236490924 -660929245 -341319959 163737745 263987820 -536674276 299294295 -115301021 -947385306 -940272636 294186171 260451285 -958533661 978334712 337509870 -744255237 816209489 844914060 -168339538 415177071 -103195584 -399002403 249114150 -336640065 -517869520 -703998719 376992428 323720157 851504514 -33817742 -714177238 152380016 778067412 903220668 66236259 -149733463 -105645600 -915712528 -589702482 666675819 52268063 458233877 831021414 851282569 179620633 593799746 -518317948 -387239568 -946521322 -748912947 -605485238 -440018675 358428499 -441211414 954777462 -913546813 436472159 254749491 -232883868 432776784 -298116427 -843035885 -471815349 422058158 -405013215 21260060 720468788 713007319 179430697 -432411074 515651080 -664825948 -671087549 -928695596 -457826827 -533835538 833029438 -109540386 -681444012 -248840069 -692749790 508840322 -921345669 -23921642 -78415936 -980517144 25223666 -285933138 -143695539 144086210 -439209629 725234470 377382309 404053788 234695775 448473787 804459349 831143442 244532831 -838874696 -892820744 -294974334 -936780956 -460327892 -828228733 -551487614 705307319 433288937 932774376 -382934246 -171402386 -704541787 -746250485 605034438 732032594 197569635 910003500 462177785 -526668508 7008825 -652128511 482585740 98626991 335929687 -714031190 39700568 751739557 614885268 131817190 -206417645 -894714175 -93716255 -97129726 -272853370 621317243 -889290497 -672733954 -747006662 207053295 -295109713 -516362819 867054263 400125711 751077480 217767435 443738076 400231560 137685212 946680700 909709591 -70677557 -723944617 -972358779 -149932414 86259452 -817913426 -186588188 591794322 231181768 297611116 631417915 885717299 565143604 -180460015 -811927514 748342407 -307748588 -709934340 467765328 880137692 647736657 -180363538 -145532052 376691813 122353709 -483704361 -354220366 -947478071 -137231084 -880777875 817879112 -242879581 857175699 -7903426 754817114 68557895 79046686 107789642 -525504704 -369954455 -742905447 -890736740 -308149558 -217633361 -313001999 -145955337 -381490932 -985960736 -175502306 563805435 -423896453 -510658567 437039130 660726763 809671423 -197684485 -441543163 -263224330 -657535095 -651048725 -990144832 -617086354 -513619613 -571267669 893359340 266292931 337484787 -86773446 173763375 -909100575 886346800 580985475 780090041 963733530 869761552 932254139 -437575953 -150842516 -865714741 -574529181 857782185 936920909 458805716 261973742 840341258 -859653874 346543499 114270798 598946147 -746215401 938780413 337031821 674654453 -805612953 -340926607 274317854 373160414 -25143212 450764910 -242810737 47190992 160193489 465629563 -951853272 -847396989 -927018998 -722570327 -540787061 109248845 848482522 270881702 76645267 389351484 -233125540 -139319218 72897715 -302890721 226100540 69659824 -97735238 476742787 -61770602 165921795 -468477265 -433534884 816164763 -289339841 -983933629 469856388 -913140017 539385275 222283039 551995905 607963887 677651927 247957093 -854404630 310042267 -297409484 -886619474 -283208941 668711036 566442523 369557711 -655000652 -259279402 -209878113 783842192 -391168819 65420585 908733976 -727280305 -217647813 -160746691 419789072 -383743388 -858499777 -859663146 -607078774 -866896309 -390624580 -966645713 -713366956 -224311325 -177353050 599292836 69986849 -994218815 970909254 -256600385 -692131766 730286749 344849013 -696346777 141903139 997213663 706641183 581496245 360719304 705438780 -394853765 31705843 -532454152 -454153235 -403236856 500872640 -492582808 -696372765 -41964270 -613223962 -279675803 -942133382 -440535880 782255111 634558904 686571789 795627491 -253573270 134993240 -266434658 -95390102 -151417945 565744763 -759903159 -89771347 677190904 -62399231 362129955 523522706 -459265931 -785175989 164649456 568435695 811868242 258811881 245778068 -437914123 828197280 -50643553 717530896 -665410800 380409335 592770757 -441671316 39529485 730974826 -506797044 87345876 98801113 -930146322 530781011 -321736754 355760604 -805107505 33119871 -564942825 650117323 876410727 -202049074 295861313 -84388649 980566600 -769405070 -725336831 376013012 108944333 -546399516 283827594 -729101383 468520022 330991950 -204000223 22334009 -455764655 -938915708 332310777 326463428 -117512779 561622365 -911126021 -359011386 34481364 -334761210 -231165840 815714090 -953397011 827631926 893208317 385808588 665977623 -589790366 -285308286 522312227 781452351 683861535 468268269 -889003509 -352331402 -665607333 759168746 874477385 270492572 -269335524 519399496 67694221 797064413 -437863469 866311539 82689038 -601857256 -302443635 140608958 814580986 -342642722 573059875 -372379442 724677225 -996778618 -84997672 412769062 671501439 21765057 630527266 81166361 -834487943 -206231974 558250249 548168639 -433650916 -46712911 172871452 -522868248 -931063906 815655958 840638611 946465970 -808594847 -549124408 978594995 -976295283 185271409 -128545069 252602182 824984299 -745850978 116043516 762727491 793388554 -587553451 585647220 398251840 555676268 -474776871 -804635144 514931773 -258005784 -338508611 682070573 -820662516 615382645 199016064 -781896733 -236099419 957208099 -974923502 -759980601 388167564 170588928 446307331 -797860511 -679796173 -948093963 57961915 -563097209 -368681428 -752049680 -958929571 591357180 550257739 -600251161 389300197 -646654572 -336046622 -439816287 -387727514 230684311 -99004893 197719890 -207795458 157698283 540188942 244821713 669574227 -493294783 900138190 -241496579 270926723 160190671 -95911444 496895776 -939679098 162181465 581192922 -769008025 479904719 -830815397 721611123 -104335567 -375084240 -99138968 748694215 836006031 213408336 -752051625 -641772696 -208165398 739859736 710897511 222973759 743952329 -542697254 -460635286 -348438894 -938459292 -921069393 201547746 -115681590 51970906 -403809663 931501545 -223535807 236626855 -397908506 761767324 799934070 532330766 -15777399 -835719235 -744227534 805383803 -767122791 -409499213 213885251 99292689 -754593362 365945349 432128165 -227495258 715418237 854336120 -505860221 -829913821 -58320942 498861297 284816149 466476203 -318736483 -174353412 653515365 -379706687 -761195657 241660925 -34747918 833920782 498390627 689119000 96422504 67903725 -503504798 -465932496 -807768579 49511595 -759882112 -750433931 -967855953 -808701421 -901925914 156939965 -406767896 997586081 -712689956 -573132637 547239617 -212973089 776888543 752003582 733523198 862899850 500558831 -525429379 -231065194 -977143831 701388845 480378106 822889736 430957914 -766621332 -187211655 397308019 -944035919 89930342 -746675065 988734787 787276884 -379079706 -953873125 -408171070 27396004 -40348787 -709027794 -178579422 -163243698 995438252 844239132 579220580 183181849 632671202 190153665 706608404 267750790 216688569 23441637 -97490731 -672665793 -870965947 -948433316 -546027044 -464621641 499598718 -561322087 575224691 -702401990 -123134404 -543506795 -278496834 -994172941 -992154253 591851099 -333649082 83417830 883342704 -857600641 -264350508 -662174694 143452169 -944113377 630265446 -7796191 -350051331 131590629 176222068 -207528143 50266279 -904523401 166792296 970866723 890428932 -723707582 901271355 742592319 -869393110 -486844220 117843521 613487767 -572717776 212713100 751279242 822182555 229734845 589721234 -359929476 348778067 -958143789 981026724 -767970248 -633233306 24420832 452066767 -648397738 847582545 168202343 -519080382 -235263152 616130430 -805622882 550172948 -550794803 680034823 -807560968 356715342 830407775 692429785 509432635 917339595 481868987 749408498 -841144820 387266440 -326394005 345088889 99985434 -965571625 481419879 -628177493 -136127249 -499433383 204866563 -403188145 265091231 52437507 705007235 219065339 441043557 -676528436 -610004664 74251818 -807267856 833210748 988740218 -127115646 -148014918 -255510508 -659871266 161920216 907662295 384430772 960209930 469057690 232317093 -479838845 127303481 -396956359 734506062 -709583848 300327697 716461830 -982302644 596218546 -406495101 -169973820 -234014197 249298444 239807668 -459751951 -177327537 -602401160 979788318 383677923 189833030 55469130 -191922384 -748387035 -25025485 754383388 488518851 -136071928 -269650524 -209291734 143406983 369539626 -524621671 -104392467 835227704 53270249 -380990266 783516697 -527913023 -677496930 -328866655 -787256464 80641746 -295062434 -9425558 -88038524 -393056948 62138755 700365244 -597859138 541104724 -630487036 -47374890 -296076759 174988195 -364519159 230088389 28420483 579997953 -991797295 -929996634 -75616655 -757124343 588009977 566296261 636729448 -641331621 -307624258 -340463951 696518258 299405179 981138100 -175370966 209979353 -778806755 -995252306 -216076260 271268634 417969857 832197811 -366166476 -386626082 952422529 -233978066 218018489 -945487318 431011430 824729148 310298645 -197164321 -221045467 216389531 -813959580 124348912 -24238844 -796126927 -634660138 830164136 827469667 699763306 -256780250 689952543 -901225082 -377017404 582251606 -165578487 -656395036 -991731904 856616982 998632237 -121602759 -38523360 -264829087 -36097208 -748305035 -784134786 -832211421 686548361 -691692612 -863620227 384378546 -999710846 907256005 481969074 524198696 -206444040 718744152 -143314452 200931796 -622924553 -631681020 -846531999 -111050551 -373863618 -741121585 323861137 -330133013 766802696 -815353894 339609100 -926046536 975282159 -773890881 190354784 -166144322 -763203910 700622514 -732790162 -749351484 217207202 -460612952 -388976081 117961308 860538963 -16638903 -826358182 -941580586 -306410068 -44093441 -189402498 168488207 202305669 610860400 -896573877 774184079 126076674 468243660 -493126734 578294420 -326784313 -889743839 131163588 -250054426 912555659 -275173188 -779664973 639716011 -924854327 656192370 16461185 -911117199 714161664 241294812 203216450 -447604873 -638246672 189082883 -784379148 559317482 502067390 872165147 -630832157 829000026 -612591983 678959506 145645348 -693696465 -198518900 -740204411 -296313108 -680861038 709794939 987759182 -974170531 846044237 -267695541 388542631 -90027210 822115782 -655066991 -514823323 -492949394 411432436 195016265 581045423 837397837 177288047 610670207 -283855513 -811345414 -35638351 863904666 -877793986 58337122 -881066373 708902456 -961472167 -330096671 294034794 -208262459 635829104 -132868082 764957945 -465326676 528050013 -79593627 -709650707 -674270163 942241106 490919717 197784115 230058729 -376412706 -23471084 -986430310 -612661703 -367774351 -211711700 377524820 586965876 560344645 -792352884 892858656 -780403156 -390249944 40013455 138492464 555910457 26006775 -36524280 605329737 175494395 828007889 79518709 -216201735 569887577 -893346905 369035386 -895390637 -678069740 125301366 -716626849 106534167 -608809526 93086913 552497127 403135652 622966463 58183901 916987970 -16783501 -546407609 291965748 84032272 183328329 -360206200 328479108 201160353 423898974 -354782193 475406001 824632370 -229314531 -996094354 -313189556 247237370 -81348293 719798331 -714582344 508375173 239557234 837192168 961294096 420275738 217608521 771776706 739779797 451145984 727337845 -100042752 -599949408 -998570053 -448472583 -43708099 263447846 -924214510 -274708514 -666840901 315122154 79636028 -135410193 -507903751 49384084 -850424054 -113470177 -225202274 960306335 -321564702 -544996637 -399666567 40855221 922825952 142780433 -725728329 826795640 -984217520 510993893 -288565326 921887213 -996135722 17260496 644293562 914125818 -241313255 -702580647 242891920 -947454620 -470804311 29303372 421072272 347020274 -865510841 -699917867 564394707 370525702 -42697585 424374930 395246161 930778537 -863023916 15113708 -368283381 592308170 -623518321 321247300 156337557 748888537 -116617307 536165938 610369680 -453249798 223578730 -386166065 371381257 513956133 -286828683 45764604 727685864 39556067 -630479205 -700544786 320806216 -723452260 -122852324 334789008 610010359 -867089012 557142855 -132838912 -548661600 279367080 947732681 687179136 423836942 247489342 -428686212 900367021 -153060366 295570512 -226450091 -981937071 -786618228 -865254547 -878900402 -643876957 -690741766 -882835216 -158538277 596540742 -324964701 538632305 752786724 -97707301 -175813623 930200624 -736320386 -944932597 -440745070 447883635 218834534 -9842085 830093395 -789867763 -686398509 412779913 -92237321 -200284429 -667430007 226291476 62560340 538462963 806700084 579790126 -967723606 -18838775 -532891669 637278058 10714157 -741737659 922943794 -288773334 -656521825 706804605 207547847 -616212637 59822083 144219090 844712027 228166755 -914321936 548095465 -878073524 -488849164 -968892369 149498623 447259874 137810819 -323675241 -426190351 -377809826 -616861276 569026479 188775726 949661139 -296440417 -868905651 -660443367 -514690349 -125881047 853395157 384232521 -267268031 -502223612 959783464 -159202379 -999904728 563854454 -289597966 -214146661 -80242538 -805263435 588932741 646281739 686744726 191993729 -480826173 64306267 -14910077 732948128 -825801845 -457843467 -537373959 -872696434 561023889 -403462979 -446299922 -475214869 -852602685 847457289 940714977 629136859 485303172 -661881848 -53261896 -683304974 710978047 997287100 -140172389 -315447772 323601225 -133750916 315555376 268030426 526486306 564869904 118149532 -437754401 -83154270 974887550 103715704 911516452 -819721148 122156524 129781240 330407673 -656390138 -446633891 -183300921 627671706 175121009 -366104827 -531190017 -179889340 961288844 -296323569 63896515 -32875886 -885594360 377891881 -278895234 650280703 506340899 244894339 63352704 719398931 -532064153 577513783 -681808710 -695079700 -391445033 -159367775 470594903 807918788 -393483060 258874341 18856623 -67834222 102318515 661898183 302359495 -27968171 203482404 -107819122 -219601934 965338221 -135710565 -36232161 -817239260 -312884703 -994421971 68094049 889971633 -679943659 -660053060 -203713752 -759958328 155361435 912514254 -282863357 326217267 -576252215 -412413112 -636344382 590960772 -583796612 -678330906 -845169650 -256087005 -267378114 -950347073 462878270 -738045455 -211767450 111637111 -9388638 78452249 -491177337 835152059 -791830255 -310869401 348802474 -667805072 366712949 -250121539 -933116186 -20930542 82759503 -881103654 705300527 21465890 734910027 -684075435 729519184 704881869 -417074217 475500977 -345376229 39877616 -833786408 -555256865 713137936 -433480189 -644012354 541568238 948401830 143745894 -705790790 954209276 -210090000 233343243 398256563 -496011222 962586226 797376553 -128408167 -709724639 -417038407 635474259 485367727 -243542417 -797600199 334032158 -980767328 899798838 218435635 -163345738 -260466802 -58667800 -843892687 -802720475 -92899733 564518501 909701500 -79984356 479262833 -453093852 -657985440 -44028946 -168596865 613102956 359065514 3514038 -773387921 -884113993 197398549 -675479102 199875123 -104135926 481798595 -729546267 -427145234 -963150028 730213755 -859530368 791201526 -979406327 647962958 719860427 -522361247 -200576503 985850171 -286015909 526471777 900456656 -976687452 352615824 520961529 -346107783 -653685062 -266707179 -583383790 47387537 -75209357 647983430 714832610 311068405 459012167 -777290688 240497703 296787270 -89857517 -101540544 591615330 -612778701 -611864033 -986113319 259037851 550489115 -256151546 -496310339 -478384935 495572921 64575536 -783119515 51185639 216611749 12879241 927054601 205873503 124559973 293313104 -406646872 -847785142 289447621 -419467028 -901664622 -564860138 92899198 -627414583 -189099673 -78970972 -631888840 -702465250 62461069 2913172 967327332 587063705 -514749500 -457716453 528620647 758827225 -423936706 615268966 -543406126 190745414 -641878570 482760430 -407363424 -368402201 667177718 -945229488 -456674577 -412538794 -755208215 87736470 -406057472 296874159 795977201 -133701691 -281457839 857837205 -558109496 975257230 583019990 874455677 210907246 -447920375 -370172345 64720292 -910321651 515826690 95872265 -614542617 787445848 792783752 -112904178 -466585077 -963809032 -283704202 -94475024 -969017262 356867390 812826358 804417824 -6929813 461907905 -587862954 749263 933283318 -628906700 207492870 -815115615 -33978654 -716412393 -645483743 954042660 -460215303 -649885323 547697018 393932579 903333129 -919346675 -6702003 446523658 -253196588 -639112439 630845674 83988644 -129307713 983910747 -387585630 310227436 -481800347 -136050351 -869151533 -909928794 819672244 -734771237 -439255794 820143345 613772763 -979268984 784826870 770600606 -831570862 -435878694 -77238503 801238087 448604988 -75171584 700627196 -986441334 -633171794 -167249199 302138211 -967288736 51136082 -547213786 318176014 -317591229 147802617 -30635436 60866770 -639452757 -294332941 282159986 297506373 -568309947 -674647001 -15218143 899924382 80998212 -590429588 406122966 -348937909 119607836 595362979 496083661 514643001 919010194 315077465 787317375 -557388698 -555089170 -356154570 988900828 182147209 -482397526 -88742519 489418725 -614205368 -629753735 -277225363 -447825686 122983781 752019739 176102920 -209816792 890875130 109365598 -806081828 817408087 689014314 -841656822 593194898 -414414628 -380094054 -522746170 696076931 942581847 -708173457 -257430540 194146391 -775858394 291408059 -382311375 -23299256 92898558 -233371788 483867827 -623090360 397872235 821493368 746406460 -673076435 784491665 126533246 -653761383 899056873 560141304 -111251765 -582422218 -297466664 -761892602 60334617 -356121244 -933900772 -766563359 -261680839 810204591 -672941970 -238295519 786207168 -118708587 785313541 190346632 484187504 740954547 855141790 -314669819 747406989 661548842 706206627 230533112 -537119442 770091124 -158417121 38615352 -554421178 906660509 566972513 -492028852 -210212775 259792588 808026705 -7997280 -656474575 800390281 -186387304 -165966667 -298790167 -179989256 -757667790 439731747 -97876922 -281288895 -604640475 522986456 -616943328 -966810611 861880109 569908715 729375668 285204631 774248945 943289488 -579460624 789347776 -68224728 20139951 909184654 -336420707 416423398 263963200 -214968913 -599946801 -852018183 -711945466 -692020199 816854357 -756500823 247464223 -382275213 -506739855 -785142012 790484566 -775074968 499747098 -699523585 -841381709 -547367304 -915886963 -564807568 -985733197 -946114518 -367181683 -655189834 620014490 -168432089 -686443482 666950010 -520388124 200579314 -924700309 -176822951 767088964 820002043 25883683 -481114667 -766099374 -673950909 583225668 -523487104 -345065574 -905594033 -69815125 662264761 507628371 169971246 -724497413 715855158 97360389 -584554625 -180631280 -54264255 -101461365 -430915362 151286343 852538066 740868200 280294037 405995332 -281264499 370119837 778389618 847093001 237155005 -983356914 -705604317 198493298 192383729 174289990 778931458 223403794 246855559 -896769175 747290921 -866089746 640366533 216050471 -390290088 252192578 883352574 305799945 280740461 -999767721 296979622 448159424 -124998956 549211807 325920973 276391749 981313547 99192288 781931936 -831353004 -422394552 744430427 380796018 730351231 730542676 -993248970 -491290827 -504285642 -48214439 605041141 -246167271 -139885315 830756463 548910 950833364 -428686968 34274647 -377968949 147524093 -878013336 997533544 787808592 -84287545 -583606363 -263036988 -340813944 -751015355 646741244 909615743 -9903996 514586593 -248571343 327774949 -260049493 95815469 -783307407 -147764133 -91553552 772662058 929557222 915329046 391239488 136617283 -702629523 -663495165 859472359 -614127977 -246688542 -197462300 -361976788 -312485991 -355747261 249830442 787932129 314959730 967148624 -704665078 -194211850 -658993871 -940795212 -982295116 826562398 362265587 698910257 203556859 -399961324 678490482 500928499 330834897 590968917 394104106 844097865 -731381710 182105896 838095784 36980928 -452750863 617819344 54920561 554812774 934527856 -958750136 -118356863 65094693 849083454 18970351 469536318 -903422788 612050459 915465403 449134867 905466831 -862816760 295504398 -103403798 -480133435 33737254 248988121 -407493932 -183535151 101997276 851962659 264336562 -837047180 737774599 -680845995 27487727 -272214637 -938448379 -500053670 466423002 -642919172 -649967767 896790522 833310933 487071280 -419665972 506019383 21885991 -24682398 420623752 689235435 -612241038 124437171 68207602 -719229877 -713470208 -629416480 -668447065 -304688821 962009681 -598749853 723035595 -178531590 235943429 -186954351 -175877931 -367026376 -873095341 157884832 -316888965 279962581 -975878966 -997431627 -559132429 -840978980 -144528829 -963231489 14234377 -991269445 -981291421 665769927 -860985797 -346304945 281680882 161439684 679930416 -673908598 -361630049 -579122037 946175420 169981153 -97479897 -314593526 -930267001 -168891752 -475283464 840596344 -118882052 844284910 2505709 670316999 -778716073 685406260 946600777 -765350908 840736740 -813243309 768362086 -337169744 -856552207 230959856 -977595031 -520577439 -607085295 981396252 609584791 -455092279 -723398687 -245020019 -348941121 777139525 -124852781 613659420 397549685 580543095 671062180 611231277 -864742571 -598775463 526136323 506264314 230251155 -429753535 -732305078 -272158027 90946435 -57287999 -342156024 555028470 -944093561 135254316 -540503025 936325841 -132706482 -753091788 652424028 757919587 -8200280 775424812 446894667 -937357617 644542347 551466318 -229642319 -108724756 -209722276 159630815 -678796937 891525849 269870220 -645915206 -470461745 356961027 65194424 139717500 430066726 141784055 700483363 -300332700 881107601 809040112 -4889354 -944551286 761561481 -549793594 -14914489 -515528220 178112388 -6932206 -563486609 378297268 978272995 -947068541 981233245 -223319932 -568800005 -916069021 743488011 325322468 860833156 588088177 508824426 141902541 -329154285 362564142 -686449793 -190130066 61732323 -713168193 790412906 -629256862 371488744 -983827693 46912085 -631025016 -357296719 639375790 -449568265 818747733 655303013 962555516 879815064 598521613 -481736933 599360261 -430428418 -630208865 -104896894 359316445 40599624 -309755498 -200761739 -229816394 818764278 764721551 -533025420 912385379 4857709 -457747334 884336641 -319273801 -482869848 598321511 -16715431 23915106 626425170 -72895870 531344851 71050472 -503518392 -629000668 830836008 -803385680 -854800183 170411920 65461080 -264245381 498590177 -798247560 -34964199 -7923375 -771311417 -572581152 588114710 374014296 401144658 9485446 -393444006 -602935370 -197199665 349015474 -516673115 -93954919 750836776 -56698761 -146409970 -284544833 490443746 440114346 -285911226 -892410707 -830037387 226637915 -42839934 -372676268 -210811010 -862811964 637420324 -261093158 484528875 378969248 -584674815 910863327 645287501 661824101 -689674542 949544446 482350689 -967425789 -988655206 921058148 -887069960 4438917 496741096 885890174 956835016 -666291782 73304801 339503771 -288566879 -768083243 785156677 -185188091 727727776 523302227 460891698 -28991850 103812049 -245260766 -173617644 -773146840 -863998977 374765350 -510462944 712147978 -453268213 -740213419 -695006559 -161417619 -6650672 -50304171 136563469 799946487 354253656 -997442656 484981212 -114152324 -118705185 648105670 292158022 74932426 445660237 -634350673 -918812441 28286106 274376135 -856615651 884498852 522858952 903709194 -940300986 562193277 181111203 628433417 72784904 -824300978 426589938 590715681 -649946278 275474117 -190157931 265551020 921726367 -505627836 340894652 -339633363 534638773 599453414 168546244 -5248943 702795220 -438375264 150533505 -501410948 960773010 525989703 696527656 673898124 -310416771 -223656163 397160674 -37732973 -903891726 -603158577 -136784286 770077164 -869910822 -907182092 -478001553 230695610 -368150200 -991406461 223898366 958489544 400595701 -888391869 393765186 129723658 -992192710 850588863 -22192086 -351608369 528211975 -328802677 -477466090 23581546 -443380653 -482529416 -30635920 -103429383 -846109414 496875677 -8096863 -683943483 -745851895 422993691 908085196 -26582673 -139343427 631882647 -619742294 -570507586 -371494494 520517519 -136573802 21028865 -843784751 362787530 -943905783 548128775 -302384912 507523894 -203206882 -308115051 -122677164 312964341 -242627715 -209095395 -648159342 30984767 -22475712 -401945441 938013141 -324563948 -859502788 -875094477 -982329461 -89304936 703287395 -553679405 -240569580 -343262517 208323562 82427928 -278410352 781632636 684894956 412553409 -51767074 -70662011 -943659549 111206569 -852122330 461948889 -132813490 -429041174 402884983 -2124580 495344156 -112000532 861239229 -145336715 236989379 176130999 147340764 -405068683 827880102 999982329 -916442726 315612603 427412891 460418477 -324104391 -29583093 -421876786 865462440 -698832063 -111632204 -170334299 -82793543 -307569378 244731374 -99758434 -201692721 218962373 -857997071 -460747509 544337898 -506063745 143169406 -75747298 -729746072 -753816783 158098043 -288716697 -538267476 -10329351 -222398544 830097837 174795671 -947699245 849663354 421688179 915561367 44025149 -634085555 963631190 261220412 -513933222 703383838 656368026 915543965 87294336 654414223 -921502955 943778799 -905777253 -454704253 -949084029 -480628805 116780815 457870478 219566537 -800851446 602194437 -156094718 222257169 -465618787 -115919578 -816461728 -336340561 769779580 639895131 -860982464 459969959 -999196803 -923373640 102472955 -483331565 606330349 -370578237 -114190824 529826796 -811844279 843069596 -950882005 -6719163 -207038119 -947758688 -671920689 -572438602 -343023071 -958298 -841462315 -912482333 -699691621 495067376 -266793873 422093335 -445752168 876154043 -949821667 -802792507 -624744898 662909141 354648344 257573338 -941459872 -218186818 -330190817 544583561 811717826 -391887803 438336864 43451964 998408323 153215503 -283320654 596363389 -310404762 244384443 53551905 -932248199 78518635 -898561945 -687551320 863467959 -177138557 792881070 73766480 700865311 -134497285 952601011 976400646 -577162639 -30956556 -339897174 455362421 -622061667 -514130486 -720636396 475642839 802198159 391398246 502142444 -250645811 829859802 367299341 481096680 930947445 -496141681 994409364 745765643 -55844092 -342921160 825724599 774568023 -370645457 926356919 947569749 -552627585 -523179988 -425959679 652291861 994438296 -707818415 -599126105 717303459 -502743866 204465296 140752348 830762041 513273603 713431168 287401904 -246273769 -390810144 462222356 -836102082 232966908 -620479017 745581786 254922794 573291434 189771223 -543944536 -804495860 58529728 -23057746 -101168161 1228047 359777861 -348415461 722220113 -176009349 756614177 617258528 61989214 199765908 -575892874 -380688142 261696401 965381084 -294105069 -480282830 235393605 -233402095 -315609927 908838730 695952328 116272919 -664643695 -459717121 -266124424 916180195 -723425200 -929174761 476838868 831589323 -513396393 960843511 150150754 -270148163 -867482828 433967545 -624443189 -24835226 26282984 463644252 -97451106 -996081001 -239775643 -563065312 -121802883 -48157804 -122748012 -538566415 -716364440 -909202108 -592794798 -123067475 719905033 53596175 -516358985 -754581878 285484253 186469541 -819460257 928227080 962641333 925327740 -943941824 597410771 -261639558 431053478 -848267445 -564337809 770366723 -872699721 -762689589 525563115 230918555 -13794059 151478776 237652086 -963588628 788239773 -440977703 92988063 -521204060 -962187566 876703005 466998104 185432763 -721885852 465691172 772883815 166168976 -145004954 909127683 -377962587 166937032 -152790861 855729713 659634258 -881315906 -940797544 809565168 474754212 101793431 -501967595 -23343352 752389211 -704055534 127364800 -195674402 -978427873 440429725 -834887487 90958306 -358354376 -753147876 -191939552 955591651 919328891 714305936 -836950652 524142117 895456466 928861200 -713899006 728459865 803523594 -285338713 948927104 898221861 975759395 -153170408 524143906 798910711 989674121 -785624058 -575088734 -23258548 -496024235 -401858453 769738443 798627086 -127645386 -668020583 286336091 -106890065 718226267 633020642 -973260514 -115329294 -690878265 -298755400 -471821310 447940351 447433981 981407755 -606905678 752236138 380791029 -838933806 560102534 522689715 -317581804 -372384656 410027299 -325587449 458074074 -126732472 -90612532 650920692 871689784 -637831555 -976204716 798039527 -296188881 -166622109 -164208441 366672000 544438134 219795394 900111413 -24043571 880414625 871808786 -63141379 -690906452 622554156 -462233387 -351653190 880427710 450039873 811833765 -159825439 632225822 485204775 -104902819 634458039 -323270412 953889344 -421197736 -984116925 966469363 302620752 660576006 -925034105 571445383 109411631 -600105592 -753343675 325992983 185237212 -434407356 410640608 585453151 -395609781 894759141 -201824979 -288163552 687841304 -505615639 926562794 -173524051 -871507808 -291318237 -801985486 443006211 -40235270 -765722717 131304412 -46103724 924609082 -403903617 -660405640 -10283160 -195174032 -741530958 965494632 325757993 -960735580 -150837130 -341820852 -193298238 -975656377 141328398 -39641775 193595710 800335519 584878296 -705977759 -640867999 147366090 938856190 413536244 915850542 -351218967 -906402562 -613258830 -309045 418637984 465813028 177218584 225822292 -821370663 -297223766 571521601 -272172876 115825428 270463645 -316185171 486516784 -857540580 -259530944 362966395 -154913058 -630167134 342562182 -90644751 -852710343 -897393862 -603046691 568724451 321571785 293027718 -208407542 40476160 -743051263 733709806 816951589 -235046417 4870495 -521735611 -939439675 984284063 -962189078 195015339 767225685 380691942 -136157410 821752651 172886062 -44015800 833106337 917474983 -778976795 419710111 380681348 127248699 -872455887 792607053 86804100 -936763206 -900209051 -82228406 236621812 -771844941 -78861056 -551956983 99503634 -681265367 -426054525 77094443 279161261 904329607 204221536 -403309785 -859019735 228080666 -644181722 -456719630 966040912 377727377 637925793 64340997 -857422898 363651816 497692842 -861980795 311467414 809091295 447745362 -495614667 901639386 101144571 -833840832 -805690164 -113991431 704016633 -441679473 948888373 824351800 267588421 156935860 955979593 -38189184 -379806024 102075041 -665379562 -896159874 -456571292 -802901834 -563805207 -271836427 -958445570 31827632 645479276 -748029073 573368340 490217645 525280548 -528043167 -710939180 668619826 -992532211 -810488071 33680383 -903912306 543930000 -560553627 -160996146 -326621106 -848731259 173240975 751720321 995291044 802994078 -290440539 911539750 -927558616 442930525 907094663 -977761752 37435210 773948286 -934193820 -444787507 595625470 -599191315 -458509546 -863335654 860770276 512836491 682146700 900729879 317608141 -649345746 52500324 -407843076 -302054595 947159732 -828446051 670483115 837540222 -38592369 10383991 68296133 -449550761 -586756375 387256961 488755372 -866902889 809608431 747600840 100411492 -112519119 960601312 -26784406 -677501974 835629394 321730637 922116003 229875528 -486514811 12365655 803393413 -327695215 92255865 845002353 725663512 -190394187 -127467651 -783452225 -389118942 157783472 245783283 900617776 638329565 -975721801 43668110 648977929 956019528 397738349 -90249099 651009097 -781891753 -754083446 139062879 -207545588 -564715856 -745944051 787899880 -611614460 500623300 -346261657 347178950 -846577814 -461356179 -773334251 452204690 525544020 -564480329 -953656192 -171233710 38387922 -618513586 708430564 813867014 -912216935 707354120 -625704997 784210060 -907641511 808982831 -194308452 -763840570 -209685134 -955535254 289085614 998194527 -470146633 -906393651 -103050049 -371001485 288424993 500960383 544076817 -219028186 -128288706 -558944385 808583726 451175063 881172814 266981027 -536721020 348129541 425548425 851738414 119318723 232748705 -9394712 199556250 -396062635 225665452 -379743955 -991592647 -639179237 942769852 -698786143 638436408 136991554 -120138854 448065842 -974097065 -326948229 -280733154 704393126 601499573 1426624 -142137469 854186321 -779397521 557156813 102293715 -917415486 317512885 353872912 -834359785 648430733 191842137 -315631660 -274888819 210340680 140025047 80200128 -185831958 -720541009 -975446568 37068933 791773808 126084457 783946936 86909605 -903390206 -38009389 -741379076 579808100 31620794 672213517 -479505904 683937443 -270866060 -801312989 839237874 150561809 -508924360 603957522 -989896862 314620491 708944024 -57507864 -620967926 922777568 -793414344 229716275 541836326 -52875347 245642409 -961175369 168188771 304907948 732456589 -929511776 -164618964 973503211 -221601630 978363964 396310021 967309112 -715211154 -130769119 81219614 480279481 -334767024 266598304 -876659005 207111010 -445821142 451234193 203692900 -204006660 285372165 -630740302 -120704709 -114666729 -951658120 625196555 -950325349 -200698543 -976337033 -23684533 -922401833 -521168472 323658764 -588465525 -890765588 -334919320 708716764 955231583 -147837293 -896000222 -413339718 193519299 -667316583 -466907004 -874230128 -680573297 -905779775 359686981 89523633 -230942580 473715595 5647098 -122484245 75296309 -774312580 682915886 236211521 -842411316 119179577 798001538 762556453 -263310646 -430429095 -639721485 -689758427 -362404249 -657336573 -215250165 744936792 122859317 789854814 241850084 794298274 -866045999 384499470 -708872764 -336694422 410510557 -176562339 -350003632 712957849 758537489 635957243 -972091254 138422528 -456218391 669638525 683926313 -177816783 -981359968 -155589517 -95497175 -72926827 -636354414 711039745 432909169 712605190 -474171549 921424768 -269726825 791648003 554603986 -677483471 -655006296 -701781713 910587793 293561459 -90362161 -662521232 -712145665 -812831312 511285906 796076170 646816089 -798819701 847279580 -257634479 -695682692 -317423496 370109308 886935248 -847791420 470158621 959820626 298260135 -256637138 528498503 267489625 -932314191 -4259431 -481675875 -806206276 973827278 797753854 -115054481 -650123414 -447203604 -662655479 95120421 962562463 -574648553 -735084946 -410763915 -628053450 -153759535 646530165 -930724637 987291004 -651959187 677270079 -22125676 16703274 944327447 359611146 -460626155 328944990 65583996 577191325 212098186 -879774219 245952403 319087217 -394787619 741542878 451295296 -979102152 783350710 998242677 241967538 225197735 -192449025 186390033 696674064 521578328 489963253 393639840 123916827 432330927 -480668803 -124211898 528256428 246864904 567900203 270198163 865440339 726709394 -3126895 -391656707 744801346 -767270122 -23765298 -582700550 -183421018 835056565 -800710653 -107740658 -508460592 -112109349 12446707 854199631 -940754744 126549933 -801268486 739717754 851145124 -936626468 272953009 -620246566 -42965987 241791686 41040052 -381871857 851598814 -416538135 -92141677 -15379693 299699647 -245208233 -94132283 -784660044 -245968459 -930225427 -865674231 899827721 -292960118 -414672177 -29696874 585290439 -520166521 895945909 -986738474 -725810854 74709095 -363053940 203549313 204588208 537057233 629678710 -583520843 -374347022 -666164079 -200278034 -450854921 -991051016 -504618800 -924150785 493786497 417737197 -399359647 -18200388 745323726 -29784487 74136233 598551455 -427093912 189648350 -542324294 -691109166 -600844153 -577677587 339732208 353308376 -702024478 120298876 -683530226 -969007952 -827557200 -499930084 622302647 -791878831 -324604687 -295031971 -728166979 -510064550 -654138685 -439274484 -555177269 -40186740 843783988 -780887246 47647376 -884189693 25294193 -438570227 -567443620 -724841969 517536373 -523660105 601294723 -724713743 -874504755 316734973 785698555 -523271756 390025805 100639893 780279745 733251941 -162950639 -167781367 -365830241 392021419 -22219163 -376756800 42925295 760967677 -740312172 972834865 -968091768 461926244 643582581 -364480434 404025991 -231297851 538777769 -866650706 -100882436 -537779281 902258579 119571804 10131422 936391447 -669475625 839501219 439548788 745724296 -983958854 -776878943 -274143276 -942826793 -630085926 995207342 929821308 283560701 837038161 -671156683 -980889154 -76143807 -704026778 546047959 -170636774 -413982877 -986153394 -671550773 -322487140 500233587 918914405 80424375 -600687322 803553205 478682741 388277993 -529122373 -970791233 61501712 -667680460 872309889 294215030 -529500005 -80884250 312014342 -227241403 114974543 -265960512 356458819 -638220764 273455564 480852039 -512726974 422939465 630121001 -658135387 750587609 774738400 -468920801 820211505 -897875773 -51056878 830546426 774035183 999929271 35887821 -528047887 -647161522 835975699 -964594077 899388185 -292630572 566779729 -873982973 -393901931 30508882 226897635 428326115 325600821 739070308 -8558445 -372718580 538097034 -233752104 -437510526 -220983095 -154960722 -810212626 482916301 338650332 -678028847 -455006867 -904253747 206067887 -964339681 -565702417 -851573306 -272103803 -355014556 711885620 54555657 -637181840 -893253169 907497002 -289401920 393946651 110353916 100010515 -593759319 645834624 394511068 315895143 -48180443 40159943 -615846419 -785858153 590881545 928263989 172739048 -725770278 748464830 968103770 496451119 -444229602 -464617815 -580511379 263394049 467975317 494216480 -193088809 -262755514 629839671 -749743997 550059792 -848803422 -35778612 -646132007 -854205306 -144512788 930611282 -440313465 -425795621 745615810 -467796470 635905782 -187128674 -406698318 620566084 -760396512 859784011 134670277 -958649600 -368378001 -777292673 102559736 -207651027 811457258 -773677438 -913418441 -444310102 -827010828 -284600512 -933148559 -474117096 -945770830 383158356 -449011844 -131962650 912172568 729669324 404169038 709267267 -752884747 482691220 -208249920 -465452342 888373815 575158535 279932117 921742707 -320376644 -129830881 624345470 257600126 540176869 34055980 464284083 254110478 -181313234 676260334 12753989 225732907 -89481396 930535040 -270026547 332903574 79902347 -222496464 195298930 186033514 -137693058 -124678893 -391707175 153210035 -863476090 -989917340 -545308702 -199435404 140158208 428245732 20434808 -675891872 125222677 -907284431 -349092979 68454276 -459953763 836706794 -786591576 453733030 -326762839 872132048 -879774774 506095598 733805367 -616584067 -492310633 -944722728 131668479 -746927048 -715897641 -656806147 243237274 -64808554 573574838 -38235561 827237506 -802228348 402060064 138348111 -653189843 -414660367 760441064 739228020 433388824 -726640912 199793745 -10609303 275674065 -556653743 -536883220 270066906 -533599991 489463495 864523957 543153493 87596679 -680896039 63689158 777717133 575783164 -369784590 434265649 -535170019 962686809 -82466498 -164509889 34968476 -444320764 -905416380 411824312 -282932946 -983741283 -938500229 298850833 -259819293 679269464 -77723643 697679069 874324778 -585955988 804224263 -782024073 -140315484 -340372641 -56372862 -345166963 481113231 -769469132 -31685941 329477029 -462753865 611093214 -843855547 601059721 -635894890 600386425 58702971 647984655 -263344373 933660664 -101553647 -980446055 -871794071 -135910023 855596025 -846122093 -963020939 135851540 16567251 446830299 605140667 243640899 -810796122 -123755437 437769968 562219421 987895282 -127017412 725258614 -80996075 -704135893 878165244 886396088 884893538 101992248 -800450836 786212093 -673994097 -21596406 -916541378 -237399746 -765194587 117263255 -448088352 756385006 471793598 299287669 838045673 915035870 639149295 553811170 -208568871 358268154 333422151 -663595163 -575744128 -282598121 -305659451 459734092 848634669 -215446412 -340351107 301837203 -465779811 -88112923 -619524069 -729949203 883592813 -5725224 -451723655 -881560806 124321241 444483099 872411458 -803415172 -569774433 275807358 -880781063 937933158 522099191 -931465672 810895938 919758601 43304457 -383120711 -234742789 336955814 233644181 633293041 -565013492 700301182 -822070817 67208742 -651022414 918542134 -24459946 -721918956 -291774844 -557995324 -749161412 286078572 -815590083 -151814166 -133971673 767811453 -522827856 -182234187 42492536 -23275579 -462612803 -526351591 -20656537 577595215 414362038 -112780933 607062329 -753829569 -547384810 -988081052 -262900012 -988677194 -392173204 -379111614 425414412 390619913 -528320707 799955227 -549841469 -289157722 222225723 4060001 761574549 569978215 415197622 305297856 -204732330 705867058 378687335 -171172483 -141707720 -381378249 546545488 -58605661 261491205 167587709 -371811440 205792378 -730876159 -455217620 -701880285 -40254385 -562108558 -663697814 126591448 675888183 316751624 -453174029 -369921766 174144410 -596940015 -604221647 -185039919 872032727 798437097 820779296 662363918 -336192569 -287028313 522344873 -662147567 -788546472 -820000795 -546652903 -334913951 -785685936 -383245793 -230171268 -916794089 -870787815 -707710461 177422973 -857680032 -844677655 85286275 -885436158 -360709874 26471400 381360530 -963781476 -383171901 515682003 -753077810 2768113 748417089 -690029485 -290301327 -216810457 -135486395 -4800938 -58810765 -507581187 -784483775 561940134 479110373 134395850 36360539 -613747736 -862117592 -503119679 15405781 -401870776 -785186852 -413497765 992414785 304857128 689549469 544222293 931257446 835399398 -381889614 566081802 397041586 -841182620 -175130704 933055531 109194107 -735199290 -424690226 -132056465 -687021017 -872789302 -833492751 -384559372 11583993 -506898016 -585920728 -948314706 120033756 302484431 -726495453 361426593 489045470 673627151 299767715 -875954503 248903007 -592242463 345976722 357764043 -274651278 231948187 -970176254 142462886 -297413219 -516210082 773996561 121163336 -887465776 225638802 -691169696 -154949853 758167253 534512802 -655841919 -92668886 561871722 449248743 -221748911 801617886 861405323 569727976 349215146 -29765023 269752933 -411269804 -806465449 481865663 -299971957 794956670 731623988 105011816 -780967966 560678804 180841229 -929779461 -17689420 81519301 -888629543 -772688438 -783525000 512395637 -664513520 281640299 -175846793 177349883 -191067283 912110333 -277569633 -602019884 -545462580 805703026 -260227573 -514600684 496717241 765999275 761422866 -226552579 872955845 99267084 509526730 165719616 83396475 -153828250 827399326 -381755851 -183168597 632876454 823491611 302646340 -449424936 929514339 754954377 -665359565 401091895 427084768 -29641643 880020953 570395482 -194566101 -553681061 639393067 247658942 -966692716 529928298 942719350 64599817 -811048624 271636121 195709881 222286387 820859135 -462456592 -876529432 -960069944 -450059390 -730788478 -645778422 -740356578 -234667973 -205917020 20415135 536446808 -952822907 187427985 -369997279 -839448246 -770237029 -379265069 -400683218 919189533 514333842 -163778832 549021071 -552261137 -266937131 -702743410 164755280 -638020179 692983483 993005026 -208515616 -345063427 171014686 -236089067 103796488 -995588799 345581787 -248790805 314368795 -47436402 289161703 -805558719 522084400 -895832696 -799641330 903924980 -715171545 633410199 -943756726 818229489 -437123509 -558460839 -285365747 480368733 322966743 -523371243 -810418727 -460863054 -55847031 818855349 850216562 913179877 775296513 -778216296 326508283 909307326 -513674736 121995739 -717893789 -770170814 -218924215 -497141161 -668158797 -749045741 -354671347 405741923 -15590364 -158934466 -878669692 -41566491 134302714 -943741809 214866933 458029432 566548860 -301411066 899249870 715919665 804409913 -45200461 818955485 514729179 -522203864 421255650 -183606638 941200825 -256318425 621923015 158125069 -531570370 592702170 823082347 -113768067 371605420 -707766527 -476440971 905679666 838989229 -485311327 915108170 -906620800 -594541022 472290480 88270778 573584877 302685838 -434124 -691959066 -121469992 756059600 918444337 20532611 165561077 32966838 336268061 -890475696 132901334 335340685 -279565643 544613166 834813836 537032210 -92839814 827301171 777298345 181329066 -565461375 829968784 -246193091 -276097915 79869466 69586799 -845537068 277716264 -337590444 433529507 808748321 -16013831 -954021903 -156054024 660715051 336888089 115351816 -457291151 -21655638 -745374448 -51575628 -708271981 -121733487 -953993749 -41113135 -417391446 -301928845 113781706 273730376 877444635 980149562 398071997 -318706506 702139556 -789677162 891985161 -90306288 484285133 -757305556 -761766060 -675804666 -930648334 -7057608 -603885587 -357068623 529128926 203619737 -157943742 902246873 167531303 394807559 632054762 505851453 422761028 -530261480 826298598 -989255299 85542194 907979497 -818559449 -644329766 -606236536 891418050 47745074 -932718511 263396627 -736765916 -33468998 555108250 556651996 334939474 381906097 800839348 646635161 -575994267 -370789448 578596920 -23219731 318282346 293659472 408387075 259364089 522607957 375879771 -371829119 735464697 888230804 -120323313 -684431189 -727880285 -501922204 -924575695 -120962652 -562064190 603972815 550190692 742066111 42054057 -101014240 -177177363 540372560 -733316434 -346351926 771684101 609028196 989801872 -11369610 536764372 -686422496 -895827271 -595447603 -419562444 986276338 -58831592 734201252 -715570799 -524556118 -664004904 194779940 -422192412 57286402 566071523 35522972 -398058174 544110609 142687060 781244909 660172039 -154745514 443042851 -559357844 -539228233 -992803580 328543910 239137926 -258279899 -691816760 271316802 160516755 615252039 542982848 525812992 -587909066 591248803 738972170 823876853 851003860 -626965319 870211288 -670957154 -404886820 -861430827 -834408513 643439526 538592998 -12569316 256748809 767743462 799966502 -315850361 963570425 462248850 734825073 354871310 272831949 -947736092 608358238 658613486 -997248514 -267284433 993126490 704889065 440132679 -759588295 -605112349 -787779271 624807396 -237598294 -334105562 -339889708 -747944322 74480066 -469531342 -470485652 -345469176 696118986 -747517643 -487919563 -257389155 -110908541 -436731079 -467220248 538048062 699699372 -747841596 910275826 774305823 -568510413 527295605 127994996 280550065 731832679 547606339 -549985212 230757973 404494434 -92442674 -408084360 368530098 -597529069 -678192340 944257027 -152495471 346133520 -769159872 699137664 -449171719 -258733828 637684183 636587324 987414807 -547476313 -697332221 412024327 595266339 16779945 657038027 950156214 274703630 681510949 -844152566 -102911122 -331299816 -653249998 231202733 -404286905 -421577933 -353386426 -102041795 -317367870 10541946 -239976115 -583587438 752451574 -849252617 516942462 -212649143 -276760829 -968970718 51725903 -180735909 779273232 -243286201 -818296930 -755012858 650785013 944645962 -113116821 -957385247 322763063 -317737920 -88683368 984495756 351664934 189711589 -499543188 -696759298 212392523 -65517859 -578451244 -768536881 -336871703 -800461426 -838843808 -249730 -224500947 771399966 -302458798 -273256502 362073463 -977052768 -617956174 265485417 -829816476 465331305 323906116 -585195031 -681091657 -486614543 271195774 -350823855 -792051360 -954569677 652519539 -59321833 174324669 74427978 5246518 102200565 59121018 977466399 -249088026 177721641 519799224 524516083 402320415 -726518998 -674684079 -923223372 237134164 -497952631 243737379 -513677502 871497845 351005914 876359704 481077886 656567690 -797082512 999006532 -3831458 -956160948 496273434 -537213453 492061044 998833525 -781067085 -30478804 -692474503 894539193 -556971097 -987526898 -414058065 -613733901 918587916 -902544451 -782425837 -146062799 482767342 663564344 -814092038 -715591235 -892240139 878693922 956456425 179594638 422623696 363018500 -476569278 -919530447 773900719 -598496189 -118105425 -441792929 -360591702 -619540819 -467226182 200996448 -877333523 361385265 690830412 -605230625 232039540 662489319 615441133 441351147 -143495140 46722520 -953071276 350409959 382646832 76340719 906025373 -357725819 134427069 -649185409 -344704971 -194466275 -209765526 346977170 -487277000 -59780501 135629420 -803307941 -948899564 401473322 440705491 532030597 282790645 -653119393 -613225532 -773402466 946197440 -995710995 580088580 -85582398 -570720688 681880214 409327212 453705145 590023824 304738236 -932045989 492747798 902180932 983754115 223073802 -953954161 177253367 865675752 -131556345 -277928944 657945368 185531919 -7216878 -399967771 183269082 69661690 -200340847 -413347267 -240257395 -40644687 764729310 -842797893 720192295 -15605520 -648866637 411148279 524666648 72335842 -626473198 -332698156 -422496673 -248769812 822520656 836731615 -15862484 469977033 424676839 186920755 192360299 -178842102 -171205879 -644244596 847046820 179041262 250076689 480091254 916364164 -507345035 -330549593 788455716 140239177 -28396921 577185654 726662360 621509918 460478145 81432658 411116708 69920469 107269570 399414754 372488873 -991009276 427328272 -900150245 -463546808 -246191230 -195349278 -393751540 676688054 -378495141 256410901 111775097 250180912 -296514772 -454927978 -564655440 -859254555 -862266786 -211398020 63807260 60584114 58529242 -933375308 384345287 65695709 -194039463 -30924555 -191777925 799940266 159157834 414585480 -903747432 -715226235 596046346 159971087 439851439 613527151 -746047066 564252081 -140087043 -883429532 995735335 573288090 -357681364 37111907 -227049658 -181724467 84097468 15184825 -3694640 107560038 -496228031 954943214 680210943 -97854011 -334083001 -796646803 -510709714 806426425 -274202275 -20365583 449643229 857633513 873521689 525451297 -142261589 -950603967 -383047259 804899876 78912218 -50818275 281938337 538694723 935402398 596186188 -435647272 -90130975 -195551024 -384198121 193034485 -380745385 625614756 -509235232 779955112 205345875 682359876 895743504 -204516794 -614253988 -960418002 60867733 -977420797 518154430 861192074 587315548 -129069043 -192481206 -411605479 -37424744 -51111596 -122568371 -742333062 -551530538 144286543 -513014893 493044987 -134745169 -774921161 446641838 -350149338 724028972 -725244624 956444835 -586246680 -607225322 967073961 -99302364 385087032 251464910 -373723278 -900117273 -227691664 -212392383 -373026174 -68663425 -783061088 -636845223 217332595 -850321740 -599937205 -932652918 287153419 -683243437 -772097510 -157815363 -538472729 -137038092 -81240572 -229038666 -438711702 200181097 517929338 497833136 613905676 -135376958 99120598 -679058353 530492959 883480422 408374958 138194358 -113320275 -214334098 -353107618 841512621 19099356 104250819 -22124921 168875246 -507048942 583346254 227647259 392641122 747195107 -139987149 -49801279 -994297217 496005534 -845943245 -786168329 762696878 -606990505 897598876 272018881 791271304 868439638 -434690647 5522481 -147785102 283018363 111168731 -280705582 207578072 871424007 -250110677 383060945 -451627025 -822195115 705840363 348878776 410248264 861795822 31899863 71052294 -558468651 793404316 -194040825 157741079 114710689 -979980956 -610780448 -930968727 -166407138 904139715 -337041882 525622947 -517544680 -729854412 -733764056 46825660 697339969 545377506 -384737082 -490477559 -848806872 813423997 738604578 -514828004 47011475 837720184 -636962905 -469110084 -842889594 252082600 560172799 872949887 -559819662 578920034 -790627623 -575510586 -846467087 889324842 -532856927 -518628727 -293420629 131891021 -226420323 -338795911 599409316 920902990 699793645 385498289 -656398729 -909517657 111799406 -573026949 -555279843 398963455 -294913156 -580179079 178011765 -690633369 -197074180 -104551558 -313353506 -663320986 -72907274 -611968733 -755339174 618075665 210052328 928086797 152003599 919906445 -402739086 43570213 -451447965 -831580297 502637637 -273640128 -43377163 886747360 919326708 513081970 -601931673 -910768378 165855090 964690206 563317618 -7537083 -670392871 760317854 -434277892 -668612223 584155520 644296736 -21575102 40396926 -379707616 478180000 -7854905 510736710 -998787589 905382883 948176870 411134900 255142535 -937214064 -836356971 931803494 341317629 440837634 -476518277 -241833709 -517591976 -437921410 -392271550 493778568 -800996623 -468518235 -87190603 -504591001 -774028630 -781283285 362827523 -769640427 -265936185 -453963947 -766760168 806008606 488490263 -498808390 -783862137 119915588 390655873 262701556 116331036 501052919 705087682 195995479 -724240943 -267305508 406131737 -411223782 -368205254 -589241560 -627155478 -694710748 957518634 67581434 712165943 -974959025 -244515506 677964993 -317441447 -211723714 -432338737 449697031 718734299 356063341 640775087 -191902204 -448694110 -588686804 -537487362 -518713032 916914836 745592109 -885683351 703050762 -637496650 552944789 263266509 -368546528 -941227141 -656309098 -66804040 -774028348 470655828 886888895 -529869476 737949622 -143237043 -810068389 727744249 -770901110 205003930 83323510 -966610718 575246963 525084957 -358411097 652465500 359551814 -389241617 -302056752 -598422896 916879907 773559639 -401366210 -598687369 925620504 -849685008 -621250035 348486965 -141485285 185913272 -81799004 79757700 -331375011 42836279 358165940 -574716267 -639661492 -88986957 788338281 229191674 169614955 -770609820 877350653 549065037 -454277155 -296952866 248347832 -577927994 -661608910 79688481 -665128879 944311506 662097962 100575821 -138597738 -660775985 802011217 278173305 -667140065 -756833854 -473036185 -1040347 -17499805 -988867087 624805810 -286242124 -895937721 155527158 339510233 127727812 71213902 -697004812 15512243 788577505 -518173473 -492260486 899644511 -987034885 327603167 -901206378 232230884 877953458 -884098422 903459247 292718836 -756670890 -478778012 458545037 -9642844 -120812031 191236720 246664498 297142545 -178207273 874005151 -500428819 -81779397 728522800 893370434 -123722226 324314245 883014868 -381167301 -526807811 -802764260 -880603966 723576971 383606417 41990948 194363668 -617675979 333477991 617209297 -741006369 81139193 298183155 -962275326 924019958 285854825 -123530057 -400769989 951639319 -120650534 484235345 -828698096 -816161247 581231049 548254886 542032400 384684223 524570867 987106877 632441687 64978248 543519850 -800957180 -702162121 -891095917 -131226017 -853520082 -834836282 304655633 -887228802 -145797786 495885511 -732215013 227986938 588185801 261471088 441332405 438182443 -749542749 -963904104 -398153901 431908482 -59829226 -392321919 -24955144 881811635 820043423 764363965 -948338361 343827565 703368534 -190209893 659989212 -508196141 555914584 -513915641 684607931 -155968235 -561474037 644616132 908713387 754294487 -131172564 -479759937 699810497 955451353 588113445 151682591 -846116024 -644904136 735530968 397510013 948743844 -407157298 156683709 -755308427 860436681 -400748001 -781126530 -150558282 -397956326 959526649 -722247486 677083095 805309164 579014007 -458184562 514922261 -666858538 824496795 932259520 -174682999 -685345109 -165342488 282534221 -964480141 -828905304 250175782 -898687824 -557741138 -279830579 -180037985 -780565934 465613591 -326750539 -507627545 728777864 3162457 -446566342 -695961762 93532879 422789337 352185297 -927081295 224083050 -939784905 553024512 -936924928 375321945 622296224 446055631 -286912453 -784463397 -796821708 427106384 200724665 450567943 -29094627 557279974 -328295815 -680317305 430451376 -353547596 368322014 440150664 312960736 -140504620 -832227363 -286255947 63813896 690065012 -888205641 -51968250 713975880 400584919 -757142560 737835305 586173063 -574545447 -954118280 -766362911 339980171 -577273347 255045728 -193272356 208148789 -619235275 -760805895 -335700924 751656398 -365564201 -919050067 -611642855 -95266098 -807615658 -8998798 -95915406 -354661343 -630046360 -267129579 620459268 455660226 -822505855 -998137209 -579447433 -54306997 531252385 -202682165 583947043 -713707281 302057330 -160541059 -660741797 -914880368 -979165339 -147477887 280596506 -228198272 598160327 -157069040 511920007 485047194 626969420 573009713 -704126738 938695250 -243980938 -783213534 24775568 563250586 826589584 -150824043 522004918 -189115551 898261500 23672254 -180560514 -787707609 -573638832 -61420800 931863350 -466230766 224558770 76404002 -262122953 -483144947 598195589 359908985 408870424 412632003 -615167819 -203694750 781257510 -621632550 -900300297 -766092425 167630496 447358727 295988996 937640896 355776168 -578569220 -391802365 739499777 -43160519 -706641180 884378030 -738405812 640526713 800620063 230560199 -591677435 -80819446 -967770464 -719420153 -356692476 98275739 -44274438 -254642062 -524205272 -28803765 -460776520 642331967 634866608 338984219 -858445863 -180976976 -584753666 818438449 152662035 617317783 401755348 114759161 122316874 978722512 188837579 -434367346 -424891513 159798250 -704965690 565494816 -408365567 -906007877 936390334 -816245074 -915002050 75811816 -916899035 -660759167 -757142305 560423196 -83561420 -762697522 201465258 -410322607 -755923108 934871332 -816102568 525691585 556224863 -24619426 463267489 281091431 -97041613 994156103 760593938 998810569 865112082 -596252147 122590697 349763420 -685421224 -912845267 871251440 -764661926 -233176065 -445904656 -383457222 317089950 -833997987 -189787020 -607182600 857698306 -820186506 -618801827 -432780901 -761396102 878087434 -188866014 -578109397 -917307657 -345075626 -987059797 -984828498 975725821 382399384 -465075157 7219889 -850794260 187512200 270486393 424582020 -286091464 -198598902 -546387954 7477155 -400373623 -723596309 167161563 608408019 -169434675 -893497992 -800231787 -890200402 -384370732 930373489 -344593332 196525195 245789229 -279626892 347917020 -904893967 -537844519 -239028807 -466902697 -119105176 570420878 566292659 -413320672 -49817879 459206877 -65165312 -307054512 -507980886 -306634592 851078652 -120755422 210382163 -660118867 -328897456 278544843 -533124329 -798576969 -983910266 479911710 28877465 275537100 -400695159 -932170786 72441545 513422579 450227121 399551663 -871059512 -63987584 334075393 901297393 -20961390 958346730 348279530 -212578216 -528506370 -320790123 -847709796 770473271 726687687 143253206 -662077452 860154052 -957156868 384893405 39031730 699769534 423203996 -827818258 -440176900 208094168 995715416 -764169651 -285594718 -218790147 170240138 997850362 -600300829 -700375780 -677918008 918594480 139889042 -934170459 -630883505 -411401519 202661651 464080708 -267122241 -378459922 -214450845 -369343847 -187745692 -495270766 -554714793 -30644152 -382075149 -835666151 78524628 -809479561 -72767743 614645862 304116457 -906567115 -701548540 552988049 446598912 665256075 744355438 702491729 -911770193 -208796823 485239135 618358764 193486104 -631364845 414601995 324760441 -122712801 -184459572 -939021424 -10388943 741108823 -898059053 -189247088 -464100013 -606235218 526704091 892253923 -930992645 -4139154 298090522 -535265090 678986984 453405148 -445270329 -197715538 464991508 870476137 -272641228 568332932 -851138708 -940805839 -393971939 217556261 -83123411 -109726201 -891068532 -374751856 -547163027 -808415248 -647466387 -839452287 177941243 707594122 -269227266 432412441 -515500602 473223687 199330074 360322820 -806422401 295637662 116519104 971799841 343575656 4359233 -248426244 678193492 238501949 -454507289 336197749 -229203057 175935531 173535350 -306297936 -870787096 924396722 602958194 -701310493 520962855 -465633503 -187945455 -951007291 702923998 -333633597 307484142 -419505707 -565799181 -36534936 6993603 494782741 269261687 -85138883 -149880464 758681254 -369462257 -79991687 689372600 -515031945 260000335 -707232733 647809827 816116434 -124962921 -536694248 925263725 130933895 247583227 -993732041 -791207141 7085239 272681108 61968340 369417502 -577371931 -102177443 547194187 994093937 147506811 -131627454 155670232 -740770147 -733926139 943762268 663969488 -99053739 -561002892 -840167042 -830198091 958917556 -615618704 -646672645 -454990997 307021071 -60674462 -359288681 345860969 886454989 -255924217 585008989 527381865 752971422 122386673 697868796 181380643 -62522672 660528448 -416322190 845394114 345909795 -369207311 148714344 626326263 17624981 -158103069 -116781586 -158749939 -956650176 -9392869 900676548 671897836 852198428 -248778897 183248097 574383130 -206435915 589478679 625030657 -874286151 -45186632 391715663 -297925151 -775708610 436569431 318297700 799140300 -429673748 -156435925 877498452 -946060157 -383235143 -284148665 623009077 825369191 615895245 -190015367 565723609 -880617216 -798172011 8418502 445037998 242072922 -534705845 -353762386 -748903354 530872528 477330109 -623381986 535808237 -538174221 555097202 680261105 -413299636 602089690 -5429765 -632546282 380440152 820024402 532862533 -702973713 393764352 389329428 -871776068 264600525 525991427 10252215 -317946795 -12223620 -391821033 -701859685 842524 -171603205 -326040489 77547185 -936164917 907319975 634471665 -258511859 520165412 -4329857 268220013 257329228 524408877 438961763 -55820617 750282582 -405661465 -846946586 -681589211 843245507 -119871295 941052933 -782025492 290897673 347917095 492924669 -716611300 416981184 -755370256 -519504701 811169851 -631791768 -74082394 -553982645 -606292923 60926089 1277872 -446918029 829193698 -583036584 666535326 -849970681 -108005976 -438952244 -502279729 -880866922 -995183879 410165542 -437616013 428672446 -370729176 -202889740 -279837806 -402443768 754488367 -707247455 702179354 -253976916 -435947412 -858600659 -475015740 434425311 -147987542 670993522 -634222258 890414549 -318997055 778926812 -243002086 379602440 -625280340 396108774 172182450 -9628328 861888722 771774690 520092934 410316469 778105988 -710074819 668599546 157167969 588061586 -597074580 -933044717 -535775213 595245839 -128202123 -962746101 746218973 -409349090 -576786986 743563741 -16172325 -100603642 -91376329 -504819151 193499628 991055466 337343128 -528229324 584826023 -150834400 -875086957 966753005 -455295948 -729761523 -675075521 904973172 -442912808 867440283 182008739 543400963 265656293 442670709 772766927 107253257 745715595 -93709002 165646511 761464773 -596310296 654827616 -977181152 -686580152 -691268092 662758979 -224644596 144828144 -807067164 -848911595 749873624 -815338192 41510875 -684968385 -243119874 792866803 -369979238 -358550693 -324368339 -245159001 382195132 297162620 178503247 -342444959 741641358 6779641 574890027 274947481 -567383620 343421363 -263364495 92761195 -330671195 547390702 -260505506 647019129 -993219147 653278600 -270895609 542026697 496009508 -863896896 826391607 188020464 581164685 -999313901 496783569 -570338301 -438453747 7783197 -203184452 -345543214 310813598 277564317 329156308 -316263527 284110604 938879504 405232047 883191989 -692410939 -976827318 526353046 642218939 -646863425 -208548321 -743209413 678409924 -987777372 768927745 402955176 624908115 115112884 -241436265 95712846 -79853856 -423190680 399936896 -964785824 465908792 799161656 -345538955 -491230119 86286575 -93297802 858776187 -674120366 -464097970 -607578672 934926266 -69920727 882139811 -250696031 -406041747 908312123 15990001 -658916089 -188300261 -690911313 390077702 779503994 -450424379 926030598 -780821500 866564896 241253020 208444527 939256676 308240388 -819492652 935300958 729456075 982136874 -564145298 905620167 -580042500 740920061 -114103903 -377411039 -401507977 870775205 15377333 -14118081 -567715603 266888366 643515101 -624944088 -896930161 398650096 -806288304 -59711473 -642052056 -887591768 823481484 62462682 -726768130 394966307 850178749 -529263669 21493696 496027057 593303147 -857729774 -902146247 820209195 680462630 -32844495 -733530870 386318799 -966664607 445569739 553384376 -624537089 832406344 838121569 -203390546 218853688 161038788 443078895 357453066 655405490 -483610397 -228970810 -100864034 -237459157 -427558241 -903662697 -592668279 -903321960 627478970 2065460 553546236 692993750 -230564221 335795551 -4004844 -399460864 156596545 867997815 372822116 676190384 -731717521 -461413121 -733348906 -245584075 -773563500 -426062241 -4015616 499802145 334526722 145617044 -730231810 -504081814 -893843197 430226895 166566292 126585336 -834375491 268656100 337414469 -631691788 -768045470 272118389 -579913424 -190109747 -977891885 372043849 941090858 -260499416 532165230 940809245 406604193 -50610460 177428618 110522871 -577267680 -139617293 -104455347 -580712671 813047952 208003050 445304127 -930459561 -435422495 -110634226 -989296972 -991588607 -368230367 -692491692 358298994 187634011 166224361 660725598 -993558958 -806679675 744034795 -110222365 465793114 623129774 526115006 111519095 778256291 978323900 792504417 -278218856 -171428910 518696536 -868859643 588645907 -273440739 568459702 -721618327 246438497 185242559 259600907 -653167026 -757059224 -276364528 -364507984 572465522 -596625150 587932152 -846832184 -784583339 277515803 -697753642 176502124 -890989725 -268028816 -786889077 974820873 304316244 -698214582 -136374978 -479003373 -387280166 -161141908 -539893425 -257790921 -568515246 470902188 106030922 -164121477 -997298133 976785459 634650142 -905712231 497507927 852792228 592929906 358381133 -171474825 150694828 -252671454 -944835147 -461971650 252391177 -125831803 43368493 -783762446 -360078035 898369545 732991021 634788561 -173497657 893619425 -660413649 -386633808 47193904 707393704 286342690 -611544566 975208407 889091726 129882896 520654725 552224215 -476629 468841364 -588452299 -900440122 675309837 44498859 -3318838 608197767 441221922 -760312476 -27049536 25540814 -624317876 -586887554 510357701 277857830 -350216103 -727632867 918223014 358807694 -476462359 227238892 -446445179 503780199 432905356 419297015 -992428812 -858865096 276737543 818177407 25640398 -573018576 887775676 -724279053 878627200 -425457890 -770587194 -81860873 874774279 -104535893 -377053965 320398436 769604461 725573664 581366940 -900018163 610911189 523581661 82204298 -401835260 431029059 831069432 259109912 64023893 231116139 444720879 254019748 -501538456 687605886 -697577510 981379962 -437509752 -101664043 430707440 -955718337 853576298 896946602 666574862 551836102 347043771 97252085 -704492761 988689868 -706750115 -313804794 -425445043 289870702 690193148 -414483191 713963462 636691481 -298859785 949070235 -985563406 810641231 931825903 314353252 508076985 -637328045 465171379 761726375 -511681202 447808101 857655834 527459208 781829132 -256752103 -478244292 73529495 934739606 -371344739 39471214 -220119857 71823538 954362771 227436331 -263379854 -219288499 -87884604 327765997 85883582 -560736582 -563348899 39449681 480622762 155198256 -586559668 626682636 961859920 -387380749 124128599 -214365873 -372245890 -710225070 143958706 382725193 180169511 73210980 -917957958 -118145275 791629831 661692952 927202381 151347327 784768382 -123561972 -840888498 -60357136 602289665 -252139039 -560884007 -777243026 939983981 -60072069 -609225049 -402371799 46104010 767791432 10359220 -814518258 -790229661 285877946 -62830183 -968094411 777294980 -47070094 307414698 -177060377 -192226110 -411097081 -406262063 -522779933 -459582120 -135387184 371122620 -524899054 -532666734 -752314004 456176399 350154582 701048747 883320153 -505908039 929431483 251396294 -637864827 819766960 -102300660 289789893 -476072452 -880583144 -599409308 -653062551 -152837186 -28004954 387475119 -609440228 -960587322 -156420629 646337719 857830042 977002226 598659826 854431015 856292169 618056897 967254482 987181999 50478191 -173640742 340789029 -219975388 164584803 954919859 395558431 -276420406 -574538598 342605820 -720948108 -47418886 -882054835 -670081344 620833279 -975542403 44247061 -869391193 -717400026 -49941028 -832461797 825580096 953647638 625926579 -168091672 -440449829 730399572 203952446 259497100 164468396 314748421 830659898 -81609400 -550242939 -914553899 855177402 -507717941 -238591569 469627217 982701551 983072786 -267013756 955759447 -474279129 118214639 18408552 15757018 402440375 -683872853 -400945754 183452316 -805658921 897634376 -452957730 639707634 -446901695 -943948090 141420520 -177327685 -160163136 -149548560 760101518 -868514905 435764431 977407271 74187008 127941220 79553501 648460055 899020272 -641583038 691689998 -188226738 686779871 -989842539 -719515006 -4519823 217585906 -488102789 427753864 195555530 -58541454 -910788075 270773035 569085345 405849861 -606122081 210168600 -200865143 -580059686 250269175 -82180630 -747293756 -48029696 -929636425 457999649 -528694400 -587735440 -238492356 225093562 748068895 -772680375 -852714464 207151831 194562187 -195517344 748270411 -414083277 -111474617 796269218 995640553 -41517496 -32755096 -628032927 850952129 -719963373 -808396200 -326381501 -946247089 367837969 -367185978 469456149 -768487427 856023793 67969359 -570275348 -102352768 229967162 900747470 -885002132 -803227531 -163233171 154934309 -812646778 800395550 108907139 850318620 -402168715 -657750056 -556609703 644098306 631076525 528334383 612147003 495836388 -821268285 547460743 662539047 425169247 -221408957 -500081654 119164970 650064759 424324798 -499205291 886213135 -781139159 -135973364 149700717 712777446 -586239536 -610885471 747224781 39058698 -480290561 31031063 -166753194 -366465534 -928807743 -276931846 40336095 983804286 625736950 383494760 -263287918 157696320 179620320 294317337 -603881711 597877256 557810770 80505048 -932918086 397733977 638267935 -182406852 94344509 826952617 829546901 -259724408 51914764 -12298694 -913367345 268060226 235401009 971347834 466170541 234232043 -741874985 -125596910 -65739543 -400399602 -217574852 -386253397 -31849853 321458032 991685986 -545712962 -655243495 -43418259 471722526 947321500 -924763571 -538681366 432296638 -801575285 -505228634 -734317430 -471458914 -65732445 -261567982 227453392 -38647447 139117288 -712805671 360227196 -616491613 5947529 850997321 158322942 892496106 235938517 79779028 462010729 -741146794 -867207029 375822521 -399986320 -157572106 478626209 914338118 -442515278 -474925163 519102475 186769412 -674358854 364737082 -819015050 334595987 257084496 489397358 809591176 159641526 771927415 86781272 -861762365 -807006630 13926017 -419403485 -177489373 741648194 680472687 -201243607 -919473600 -299069584 482974977 81992035 212984929 673043162 781315465 224399889 -141347351 78569294 120641553 -903183589 -370375990 807609060 205781977 -423664191 -372165808 437652068 878120386 -855198004 189981815 915360967 326437077 -280516931 763471263 539545012 942291418 -381980108 616704702 -67123668 -735252268 -661658360 132766975 -94195087 437212327 672934361 468561164 -160062993 45752115 -323581126 -776372942 73666806 -536300245 -641825959 239914037 -476451600 -240242365 -461670870 770192841 -926220906 896608451 257837276 -748162231 -996303818 170738566 -977626170 -438191653 746859047 -106695430 915330583 -785476541 -746806422 -833904318 892250743 -479319245 290956425 -606292368 887682497 40260353 -885396974 953894104 -758294805 -145756171 373709633 -852719700 330637411 967302693 526414615 846530283 -145476350 -120401957 -919037673 879194039 -407376341 -798924539 985942944 -276463913 -666513050 211951118 -164428924 -681636598 -844956568 513749806 636021826 -127945504 400771026 -891372019 -888010032 189070640 -507324845 264414886 -353705123 485518644 -947317473 -90494054 -75219619 380969078 146987819 265743640 920711615 -668988678 -859127322 -831744253 225395492 -879840853 -688344044 -375711890 -852584231 523858719 -183844070 957812461 988041913 -210933433 -615756236 -9008949 21845506 84868661 -729492672 140716261 -134186139 -835760925 982809672 -438135312 819305812 21777003 -633443606 -195694192 701120673 -695710673 -359406281 766880901 312701487 -308441085 560803579 -669517646 -945425840 405180273 -405586350 -37919207 -576315152 115628673 991312128 38568580 3333291 234049826 872607 -626087515 919970779 462086487 -979523571 -680067620 -521857787 -384084899 334347966 -95553876 -114433356 797038607 -170249227 -76568166 -298033525 -503927155 -724021959 574909622 -366678104 -405048713 178469862 -452544166 888946959 -544644876 251253773 -120432067 -735104266 -981869521 760487720 399643067 -130915180 268246106 -506224641 -920025187 -990441763 383551272 -931072678 -997618302 319995882 741745326 372444590 -89060730 -135115711 148217326 519778785 692687567 792219035 -752456122 -336267120 291400100 473811834 74711460 -777950312 42854776 833598932 979763003 312521568 -939506936 -80424653 283585330 109410371 -744353946 -931262808 -829925010 187311184 331003884 -970830737 528188073 769329634 -879300435 600330044 -854083846 -684277106 6643140 610049860 236780879 -123531961 -624247861 -17859003 56820555 -347063971 -451626581 -414327594 -532908656 166812674 -785085706 -465272412 -519178667 948499526 -654334628 -563400236 515420986 -190640183 -197263502 887479045 778981961 80830305 267613113 218491435 -728739585 974301316 -534170185 693539630 617085971 835455507 -482411789 -799568370 -524563760 -558154019 -847671783 400788591 -652577283 -304410816 502386216 -587688730 620929120 -287934993 923549643 -611266558 659995842 -76554063 113485858 -760915283 -258482454 -466470973 -978631494 -248773863 713352209 719874259 162010276 407355839 -328977710 -235381483 75250118 -62281157 -884847166 741580738 -496281123 536577138 -689953476 775330124 -979627105 -16911757 -627783493 624155653 109800300 -140017935 282325645 -347310773 -283807295 263270614 -953600460 72891722 158709145 121519725 754800499 -657255178 -178210780 -886013169 -177697781 -655928783 -447373589 -545000817 10625389 -870964215 690735080 918471866 -143883418 49933125 -692050341 310363811 466885290 899893239 823737045 718183069 420124775 -176283276 569354070 80213106 -690991814 -693139294 -216149426 610223053 -935489841 -412739686 278316597 550175663 916052891 159830071 -485922178 61170444 701920652 -434825110 -599844383 -786758751 833811993 -96894924 730968530 -734906074 -823914102 -719352109 -664633978 316841660 667838137 -928446078 529563544 818655742 405947749 -399377515 -817172399 671718310 -449688257 676063774 -415349023 -308568857 401360820 345639722 620635661 819933706 -49575830 583973769 -585128855 304494046 10034299 127404256 -977936585 270567121 914520227 257655364 664134902 -789059957 -659712643 673551320 293969049 -867976283 -48206849 457536469 71214077 430980957 -534164628 -563682401 382847350 785802464 82653552 298536146 -227949636 -187034262 231480083 966890833 515415656 6179310 386679356 46092294 -421497511 -759441323 476428435 183222015 94773270 -628838087 857175899 -36099699 -481751924 -884880293 987038305 419074769 -244114338 -886872424 -788674767 907250228 455003182 -610676688 -211616664 479090989 -622175020 -545494373 -856231412 -306933284 608817510 306417476 -175700961 -836344087 -140578019 -404660071 370499997 -511209889 -970924653 907471276 791466809 -691835295 506892593 -734073279 -52489836 -328185374 520242499 937216088 -802872426 948913733 -848420627 442420503 393830848 -847753596 825595104 964554821 -245661359 -552177817 72551940 -198141149 807583429 -306263695 114132618 -272003470 -570253490 -236763492 737782889 297807875 -262013157 797794088 956975549 -671069433 419816228 -140452857 -449041873 985779593 909858054 -797971979 76000808 -376489956 -69140429 833470002 957040013 5234330 -965941896 783435778 357717731 142524795 -540591307 231991727 489115496 339361057 310458926 -89079748 223740932 -726504889 -10659404 578582070 -578600553 610204869 849658191 -720445553 -886217307 -151382070 978545045 219735781 500963740 844535282 -850921744 -778488678 935406489 887180034 539682915 491611447 -727948459 787428374 515742891 752501966 -953407049 900207894 874329843 237780831 547129609 -406195530 -875956629 -156523950 -916998061 -906821736 77157219 656755136 -463136983 -489606861 -913199557 968671359 600451002 -400810807 -711893038 330178621 312825572 786528763 -220691331 -714936756 968419947 402208443 566643676 -775938090 -643636410 -883836592 967232861 673087512 -377789284 863586546 277118049 -512016316 -762264595 -617771739 -319325990 625289404 -616611310 298910078 -706745245 462968349 296363827 -646979702 -75258452 414866628 341736761 714230172 858234650 -966763324 815496021 760980730 -243114865 -269494780 247654979 635586474 -215465993 155336748 -177682307 141406128 -564516116 -569225566 703015392 -427189749 -743382085 822909414 10730588 -620353169 -303449081 -359833066 493582929 270241423 454686216 262209032 -969129026 886535079 622064442 -273805533 -723139362 -127873639 -988870455 -923220490 -148168361 -952906018 -391027859 -405486095 420722560 809025503 38882426 -701913915 239635245 949075280 -288999928 -346848265 -243462733 48771506 -315132431 -103908976 842072310 -768207472 246059403 -800607196 411231734 -959638958 392496871 544511124 332842555 449510007 443797550 -580845556 -737451534 652587125 838663807 -808193909 -703504939 -990122892 -460950597 -692899337 -279558954 738247852 -586102091 -960648513 752324677 -48967036 -327996725 -470277787 322511813 814977270 -659492831 -19358520 35470459 -506407237 757631865 -970819305 -38852557 284732941 -451416501 -250807700 -352237267 -816398097 590661007 452441663 -812575556 -634195553 615837554 348451104 -136719893 515919642 -238412300 -290488201 461540085 -827955458 -277695203 -912513686 -378076310 -516695959 -543536176 64107259 44678193 -499823928 787608105 705328880 -416058662 -233426180 947728734 165165 573865325 492586025 -641796675 744004278 743967932 432839213 422850070 -694876171 -915297730 -827491401 395901178 -815364532 -192785886 -753066005 24223708 -100748385 -275968834 -430045107 -668332903 895970923 -954926404 968871774 247358548 -618998911 239139065 -473955798 235271950 -302980757 871001727 47710507 -780639146 -595338119 -184973332 806737863 289649706 234828921 815195490 -481557728 878232306 856385814 267489478 755318252 -462790505 -748661342 724987168 -170030446 -664648818 -751478529 -958110186 -380841576 -164626176 592417681 -431535308 -122323520 -29178243 -947925948 633555184 -877807832 -183238279 934247584 191008606 738753014 -390270140 5781224 603213799 167792382 -379247253 -608185396 -425356211 -436168030 -446555554 -450868628 -961085668 347938736 306627025 58711604 -926884624 346486639 -300080824 -801759687 509668167 133852320 -292452952 588506184 -604011618 162086705 -353402634 957445776 -533774832 330065497 -257244400 894679427 -100012256 -57206621 397690143 455354854 -6510227 347132966 -845214656 884873309 -744472545 -977913515 948314556 517583924 -959806906 -286790724 648611267 987362701 -196536944 987622850 290328165 -901087956 -683777723 231177741 27713399 192225389 487704371 -24205594 -79591924 -704457920 -263310068 -96922716 -158731772 350821006 520412611 101366540 26564348 75166884 289049990 566503119 -817539013 621697421 -855599848 497282125 -435870486 -386910034 -702316152 -642899076 970807785 936192690 47371007 905587265 343179768 58534868 -776758770 -10980144 251597556 -456499678 996176796 950192583 409395773 239396950 388922197 -737976478 634984400 -144079288 495271058 313472432 -859933897 734266506 -424025106 -548579651 28094479 -823095005 -920025633 -134588626 20063184 -22251626 -434462018 -435833000 -986967181 441494657 -578108425 -364362727 213932584 522593702 103508426 -991686072 415975770 937593848 356752894 -120640251 552967858 529948466 -484553943 -201200401 -571634848 -206843559 846787368 321970252 -338216868 845475357 653442611 -438360481 -110964854 57131211 -19089888 -295251838 63012031 997449635 90104455 -60339213 957618607 38911660 908832969 251622466 951561484 -182270277 -823108960 763467075 896120710 -825722207 -600123312 -289946631 672133550 906025217 -536177571 619026856 355912741 -307430805 -164040156 40777996 -708598891 238273585 -375446852 773788130 930339697 -993397779 695595708 510662224 -763634228 -600571917 -480179396 525732653 -246870085 804518721 352834825 -871711690 833241468 686689598 158786357 86464665 -802115496 -343769812 634390374 51724995 -131582579 -670632091 446185792 -330240285 315392039 -620450026 649686407 705016918 -422124686 938737883 -445346870 279458022 -760001086 543553385 248108861 532574003 155130237 475084605 -217210809 222363069 325498189 173950214 198063864 -623969968 975901371 605205888 -612542210 746829165 675551699 987807353 -218935336 -188954215 -345222189 160486352 -571774189 939894910 12941545 420986833 915349148 897678451 327717829 -808259991 -844167962 -254053851 391430851 -5620124 704213840 -134187350 717398932 -113578721 390667796 -58686315 -691612568 494482159 125371421 636760929 148320449 -90137453 989188104 -411701074 661202697 77014916 131321659 562383239 354827499 125553152 -767758036 111045611 -770627135 -647215597 870532734 447037019 -132870595 33047607 -112086944 -845053497 -124010000 -612649495 144440641 -338545906 -942179334 -894633026 666295733 -763881965 29000534 -852341504 -717993741 953189950 -534091291 5662759 311420087 453502625 421870428 -649532055 463938860 -479506854 902507388 362548894 470705774 912568659 -680408027 793357266 661132142 40876933 -675248619 957064391 -493120075 367147570 -732452911 699810405 -558791152 -993995590 -679223607 -690795141 -829760100 -853191295 -117028223 -415251688 -663877596 398003158 -504617228 -768609588 -476568832 -486425287 488388030 707358233 665677700 159427431 366264246 -950613337 -871808554 867276659 774778467 680466086 -746350369 396251124 370019799 765424171 -817465518 293324527 641487872 -797214893 976526900 -477900704 -874739774 131013886 -719066144 -23165695 270534144 399516600 720587531 502640349 -277716655 7139293 673963768 -537814633 368431071 -38529526 -950562021 -977396253 424903915 -779315460 -393014893 768585174 76345005 -110261659 196283370 -907153827 -809006650 797434999 -333748802 970071014 244713429 449307769 -774621055 -780658255 246490223 -812436125 -427118839 706078938 -664354430 -392986259 59968298 -820873722 5403592 -817207463 602273759 707863307 -196309101 -685519210 656595753 971378979 -578686197 -342303237 -647641172 -466974376 516950315 695938957 -403906171 -549671691 720576748 -90965827 470271817 753415651 542188686 348366404 -354666871 418845870 -601949370 -868753382 -638533107 323064513 379679493 129577209 -329486925 -521022259 164487287 -320885534 -795663537 73803243 331131322 -763134856 -29309084 388748349 137815913 -301986917 -452758762 -588835087 873072096 383867256 101176798 349959568 -853728903 -29827817 500796422 449960113 -166128640 402161510 714076591 -573792516 87077514 82479596 -116781680 988537059 -427958304 -300035177 383162346 -945529079 294020840 723478532 622237220 158790774 873330894 -980040566 514977508 -596972264 -300649400 1273589 162301303 441192424 522751547 415449642 568948030 440886116 -472788714 -161080914 -147787497 631476568 -245005004 -404288749 719917085 -16640999 -817264954 -886920689 -86920607 755830307 -816631753 858813633 -208902124 -926454874 514781977 439645441 -813344564 397027098 -844899813 -926209517 502214098 75697045 734958727 328502645 -376263025 -202697004 485273055 481137082 384629825 498429846 428153486 -67191296 -627462515 -10848006 769013501 -423294702 -832646394 -799806948 -177298298 292341118 725564117 -79743658 -521786377 541416603 -907086884 921787951 -924272785 -77261952 732480741 -309306743 106562891 190162242 848789284 513875129 961937064 234139548 573563995 -489789995 817879798 -127054869 375415608 877222606 990008772 630593286 371218250 543465274 -922767707 -846003426 937480751 414483746 -17872421 -347600126 736840279 -610536538 656649427 -676099715 741893897 211980717 298374774 -763773353 632043470 255300850 -559615169 911168434 611415627 79288523 956027396 -145934894 65025897 26991469 877693324 63619099 -55550165 -128749008 21148635 -32363188 -807067847 -370049050 771806977 78547628 -88194196 564501214 -435280639 846028403 -703968894 558002323 169323175 -502547825 -594531869 -169562321 -870771871 618367947 581994221 -157297570 652436068 -931656338 285027195 -26833427 420264210 638663394 -155976402 -744439708 -96866346 -702051369 -794804031 -300642650 -522663014 107959241 801251652 -245633898 756526703 614623094 -816318525 885820698 143441975 816853549 -370971964 -659422710 -959221165 -956284349 377445757 553911623 -109071663 -57700325 -123170899 437411741 -899171629 914994133 572597625 -106887690 -722154088 -862397859 -276712920 -134524560 760702295 596301830 -716748754 338244921 948630285 738471322 -275492295 -126971452 813117739 -151423007 645466758 346579554 -5925010 461361224 -468662829 430219273 -918134820 633376113 201980496 292755989 44491252 699945008 553060638 -325159036 329703732 519722064 -300457626 572756608 473399965 628243410 210594861 942374922 -464965489 -475440427 -60446258 -150545426 334925412 -169416354 144523320 272056962 255927362 852105974 672645632 876700881 386449610 -932995120 929143716 -623682278 762743261 -392654246 793522874 245166438 525904774 157675189 -428824391 -18364551 -107025124 -898970523 225153334 231264251 188450298 78729399 396438498 -762478022 -158850762 61429307 234122215 -341361022 526947516 -824365233 756027171 954084269 96738511 842100283 667268159 401374916 -754500784 824807995 666313367 -218243410 -109140345 -693174520 -81857422 -630896835 -695476237 -846768633 -281264266 -226812897 -147375466 -128479734 -185237440 -105451959 -37877375 866275912 -854992802 -431778777 -773552295 -972890066 269283749 63173985 618235013 978819240 -845718005 -22076549 396014878 165312357 813700187 8682920 60233652 583950385 951088988 -645988826 -729368633 -198912655 702101365 488530946 979172567 458365944 -260419814 -122937059 -18523311 -311072459 475433181 -902984204 452125516 -338992023 331496913 -669303503 562315255 840747511 -865836763 -632943059 -196585103 815774043 295303609 637191415 -543616496 568469353 -346896193 -182139648 396604504 -597177985 545252624 376982777 -182598121 -650015339 -955286242 561289647 266968390 506371473 779156143 134584154 -50479286 110534593 -418843838 398768786 -711102280 -454323610 -927814713 -891007384 639359048 -989828368 -256690169 -766210499 18268045 877296280 547316536 -201170841 -59137036 -460965599 585280542 -822816206 139628236 -163466044 432193340 594137737 484528871 -104118184 771877948 -333114646 146207385 678608964 -409794341 431598452 182644273 454001982 717119112 -204217553 470120209 -928703097 -279157777 845100991 701298896 -924283473 297573907 489703315 781410662 979799758 -34651010 -800872742 110376641 594774810 713978052 -785749225 396529939 -223601658 -80155198 -240963088 523561308 388642737 456078904 782687047 -298631849 -538589530 -696313173 -978290135 900412768 233671108 -361504640 -10166793 293566657 -173541942 -741918996 880943488 931932969 221081231 199452686 248871593 -533428932 -177773315 970426261 105792108 -737314783 -251383229 -813182671 -32737017 948091911 944283988 -150569158 12098695 -615125466 774278526 727020359 843250022 209850556 -630816780 408673263 699004661 -510112469 -888624627 -324420543 -238982915 609252321 -102977263 153962333 -770603183 -432656076 -518393325 -811545123 -526247073 304813316 -857731385 -875585681 -171713255 921991363 660414675 972696928 783110208 759494529 905377855 425856089 800749686 518249264 -310801683 -709746335 -968144261 415275846 573761158 -911480591 565145418 107924238 541726025 -693143846 201549503 881921298 342671925 -564736960 -329401100 994146658 -303959176 -289495091 -283813696 961859274 48341689 317666173 280021804 -356554088 -604089597 236363519 32300605 -18148000 645628539 -48126148 725686612 527162850 554617494 -385394304 508241103 -144966713 986922986 238300339 -347012619 172393446 154423163 17712438 962969713 -773085328 -565424640 18527519 -117958072 -423163549 14469943 -718958576 -831263457 561586535 -224119664 859418157 490570257 121026724 383723906 292250780 40108101 71151097 -948734623 -964439300 -131960700 -832436951 -741619091 -797243626 -100541404 -963750503 -147998957 -810211871 -923101721 573732319 460973284 -997406734 15557055 62236406 -476141502 -608194211 -807885557 984562417 -896938936 -500196607 -641348908 109514153 303600174 -111903280 -272117406 234353497 -948156489 -175139193 -923709664 -596821593 -283874704 236679124 -435483311 -814398821 548738772 701251088 693604242 559802079 -859790467 758175083 -283296578 743190400 -338593419 -126391268 -572081133 -366587871 59357198 -65549249 -789207893 -746757495 -849676353 935738423 -233909325 933080870 179977630 564467421 100932898 -126144061 -363886410 -686175047 485466088 -726202351 -679221764 -639533244 -61045023 329300328 304303329 466331925 979466146 218496420 -462526666 272624916 -776239683 -234914205 66960143 947220798 663963402 293589453 -337916948 -561179512 -637302479 -391279146 246498052 -596001202 670779003 729678748 78851967 83420226 253471629 -197525127 -712372077 -231554032 384648751 -76026338 -248432306 -833153902 -960922583 -603385772 59857607 -391865951 -112582934 8514877 166013265 -578387135 -743293583 -610881163 -449558119 -348488901 70318914 -122615783 -657305421 -551437488 477575189 675311606 -906590985 -981709950 -64069433 958666649 901195494 -596525726 352933397 58443937 -306031155 -216667629 976642658 180936570 -932896817 617186101 707458947 111882131 960017466 -830548546 44451918 -553385624 -524528130 137138764 208724795 -593264127 -659501159 -389800029 244119708 -264997297 -30304991 -277369564 -222264477 677067379 149091836 164131254 -210348450 -97890596 -344074408 408282659 235294218 -683065559 363370670 -816110418 411335298 -148670571 -958574407 -460189670 -150716466 452158916 -704864380 978615860 997427955 893929880 -707282907 853160064 -888216227 319730365 278254629 490526315 932127994 -712261099 -465392866 -347499446 766770354 -610830894 -525156356 -953778628 77592881 787562123 888851521 -940711300 196892660 -386442218 846009875 -953394062 -645578236 7914159 717382525 707737080 -761520894 108041882 -609483570 836557873 488339185 393686245 -320024853 -986233809 550536250 28984452 -136379071 -590354821 -911904105 -209360490 803150150 -74322126 -600665762 865916701 -792572221 -347935144 -138138231 970955644 825881281 881289364 -149752716 -631218847 274818560 -226251384 32050609 -976099172 -573967620 -881707873 -525799729 207727685 -421593704 515083661 249589820 256599703 613773548 337433404 114678386 -881961596 -276124412 -490669428 -429278375 461196384 876524411 949323771 -229069018 68910816 -576025268 -754296580 -743156677 543160007 -841312231 -98785172 447436710 -648626945 -450537979 859602458 -952372923 -751746512 317476450 -610352304 -106070747 569039593 -7195046 -123078873 843574368 851922182 -718775727 -787552861 -250287716 238430434 913102770 829549693 -442860628 874780102 -558708338 -478496167 -993958081 -620769461 697360718 954431569 -373856047 -571592894 -937606319 731443615 237231698 654015744 598470620 -977331752 -194626846 625938700 -652658611 317923068 -270358708 728585399 -515788227 -722050723 645608890 -178634778 965127994 -411330035 73634925 826048921 279333055 289814819 278752339 782564135 -909947464 -14513495 98322687 -641543597 -27689207 -955268009 136344410 641682082 240698656 -967095569 -136864877 69198848 -644190388 -356344033 -196103998 -478236345 -598767975 176215490 -755649835 -41800165 884440110 -809706802 284876532 -54146459 749541893 -268327896 285989894 -874263956 -972937299 -120639551 586394099 862101869 -281252033 -517642946 818258726 -1631131 764821884 791302279 -25335655 -458004825 -977888380 473409529 -961248133 376468260 154762391 576220205 -268344656 -498610190 675896553 357475512 -996107057 -796712979 -562646755 612169147 455073583 329348728 -784949462 -868159959 715783844 925763073 411727445 -328989673 -577306214 273762972 565201399 531984553 305125022 -707781956 831164849 -112952822 -857146067 -992775560 -633574373 -168854991 952388050 197369181 -283921944 -765930924 -224489854 -516854988 -374117417 -655484446 -363318194 -494072468 481258695 863149361 -342842127 -18581956 752247532 395421333 772452470 509649708 -384401028 442017723 -101100818 599354609 945979968 478665290 -630714627 254127062 -350780467 766468992 634728975 939879538 -301652163 491690480 356991402 949669687 -366512925 208511607 887391294 -217663019 76026879 -571283185 454933742 738406138 -513015772 -523879532 539068517 -790740011 993488886 -886467593 -955520050 -105072442 -530164951 -587984560 904488515 -424902192 238594094 778302825 -441373984 683771487 -735004936 -968188963 648298196 955711265 639751484 -260240429 234596464 -744575137 482244152 950190501 124095650 -189203216 900336499 866028171 -418392859 -516339954 511931900 -368864676 -752935047 -671320675 -639150692 -288344684 -864498036 -209441958 -413461370 337473067 383362311 -795413670 -695821898 -736348450 393938273 959768947 683742741 -368437737 -417788347 -400412487 -513503744 -689729107 245228696 -51249638 584688521 -167697638 900465879 988692959 150846471 464165767 77867525 -919937835 -547401940 199500552 -163108229 -380436001 976376444 731548482 -53816017 -423890917 582997901 485926655 747618456 983717245 349912811 -453037498 -775265261 -926135971 -208757336 -387731396 763580435 91021378 -835907556 118245053 -737620092 -621386054 154425105 -540820022 -528328039 592483571 619716606 -302799198 699857920 511787210 -640501432 -334876007 430406224 -572842480 -799172555 -104333152 253557290 878735595 182112228 -247325025 -431438429 -922465635 -506605638 -940839888 -451301406 167395975 412585054 -25808618 284578338 804487355 -29652407 57745760 -286471341 317798418 -298504794 345794643 -96967753 749464324 -472524018 -649432568 160137282 218957512 454623857 186369491 813611474 211892229 45699798 -316841430 -639120903 758994825 -192625907 186666238 959869095 -507132938 205830806 820349819 650268023 -20530346 -756341477 376117044 759165884 -85266741 168885327 13687202 463287914 -393957359 -976114028 -356229851 -653042773 -585231955 933237287 -292739325 232491275 394629388 351076817 86686068 969990191 218973791 -907393718 377727177 423531295 851106935 367289509 -558944527 -335692424 814262066 121780447 801869229 -837629851 20386167 -37130141 -204726352 -431103983 975486178 -756630577 -698375711 -388615504 -986966749 720195769 115959138 226991354 -717660511 371509070 -256193048 92732678 559360771 -468187232 -233832426 -828294124 -444034136 -817983103 -594450102 448538555 871515755 -152560991 -271715567 119911960 517676647 150309037 12743086 -989195221 839327045 -172185359 846713176 -519869417 -939733182 669246591 -750644761 826840686 348189809 758383207 -427085014 57714842 175192488 -541747047 867228903 216276105 757075875 -238570771 -757775965 821297212 537674328 912744940 342317730 -368349887 -741091861 900335590 259191576 -434497682 149540836 -995562440 941323755 719555149 -14685645 540131253 385325758 -490419876 -844578233 -91079728 752274763 -170769741 968657122 -378021356 -539910876 -588112828 27450322 -682173074 191135462 -697517714 204534184 -469404190 239999153 -234077663 -690361143 925357013 -749408842 -36751877 -230175763 -844936187 734998165 -355422700 -276758905 -676881359 -219234008 55953458 -411477191 -187840467 386988846 -394647703 -122905966 -147404841 638892590 467454325 -71512415 -849086833 164779912 715004695 574307723 966495012 121891561 855631276 421563215 231290372 -926082099 931134757 183294411 -688567648 789031804 -485021016 129466797 -758776211 -230122270 -474746920 -291282428 -79912629 -959198010 867110726 982051885 -302799286 471110066 -701761655 665992373 810519330 -645702112 193981023 -171384995 699350807 -570585457 -888445914 -956008031 100971515 755827636 -455882370 -249007641 55079005 -813298401 624824960 198072296 642648983 228790112 2810801 -117884608 -180847068 -222909833 -288844688 571139284 -758777291 -609702318 -460553155 -450989029 -466587192 53757623 -123045595 70836478 -753163168 -442993753 -371380490 355183164 963479220 431947785 -568544202 693327392 -827788095 421829588 -433076669 806498843 -494964770 175292634 591034539 -392715449 -76568608 438627332 27921683 -517860316 223934780 943122634 56120678 -710420373 -504898481 365924774 304730376 635935346 830059191 205382134 -269967357 -774864432 -690189626 -186109983 -357942117 -235619788 509121324 554500593 -468734944 -408221609 -519338537 780693897 -355281182 220393077 566706952 642676398 -274977662 765510600 130144754 -516604089 900310056 350210033 710500975 -998125987 695041667 -588284407 859171856 -991221628 90914087 -874173821 -456556304 -118301244 -61019429 158631904 52361164 97426184 602355885 21658307 633945534 187207885 -843125806 -925598716 -989923055 -541681594 -621480786 -304561814 -132447364 926608787 368605686 -368322411 887715600 635735405 250213290 653530753 203654418 280050954 -167236654 -326214234 -111447230 -177866737 388327631 119856076 505766517 940638605 415442182 145571425 -633900539 858063486 643261145 787652680 246913733 -701770672 -525067858 -373561569 422912785 -644726671 -142638702 -31807862 -287850493 -471607055 -206133129 -984827214 -915501989 -905749550 395004126 -850421954 30970153 753504033 -549150283 684954245 95283814 -242881651 -813080486 -511668761 453800103 -320714491 166260052 -232096819 -109411599 596594789 871971004 390344302 -479414110 -569660627 -213987434 992139722 -828141262 -846777169 -45847972 4979206 995747101 473966858 33402960 -220752495 909847371 -929072764 -906595690 -686368513 529377954 954395116 597064968 -933362950 143900483 -96375494 -519766044 -994430615 -579059214 -567856602 59809098 763926245 -267043572 -416102570 -831183459 83712225 278785720 -771124453 316868486 -138412736 564129656 -978082076 512815964 497461291 -147419933 176497573 -583427327 235012093 -242622423 497975325 -110282443 787064316 447436971 246379666 -7873758 -681503564 62289408 831491771 94068325 -100615630 -398108449 920392880 -339551623 755132957 505996359 -77039827 951834411 650687660 187327805 107165693 -782744470 -676936771 -585325236 422830740 -750516075 378187702 295384255 816125715 725606825 -565377840 -402816305 -119941412 -308545422 -207648509 -818927115 -855336991 292320299 172280443 24608206 -320485634 -43009441 -194695078 189148830 553032559 -762119787 -922216007 -206515767 227966528 -723365570 -264302183 -530633063 461316740 -336994797 -656361523 891601976 -232716171 782136501 304695635 944374759 -243131166 -805067524 -380959693 345415302 727186113 -176286054 963493632 91447740 -155559851 267170638 801225618 -505659707 60978800 -452081336 521638947 -648461542 571038146 893750641 889780266 264254779 -377153447 866614275 -812091754 326163691 452006186 -535351149 -979413723 214459421 25535178 356932144 -139429139 784320480 156036529 -453565462 -222754287 -336812057 36815362 -482232319 478931582 -894076180 -139682470 -496452853 -287907607 -353319463 -192893290 609292473 714704124 -783349172 -949601828 -149630811 303117932 -569639534 933310682 -505250387 -954250884 -467406292 902675576 -287193478 631230921 338551663 659511691 -828056382 876439556 78956700 537146569 -717757644 -569973903 380600848 697394214 740129772 389210604 -20834125 -170761769 -774586075 -464090366 -691743895 -213927184 -853938836 -964243542 -663935156 810245857 694863174 -223466217 628378761 -537784912 -106781997 -826957430 -866280669 -805558901 -112557968 191672455 736269123 -800540349 -31751839 -939697574 -411212022 654340615 353373473 -134167287 -410318403 857521233 -274341586 914678652 -177329389 -42550435 227675836 613089198 187909836 754125810 901489016 -202835252 61793192 655419114 -609059510 877257339 -383640753 -141261570 892562797 747049407 -876039646 797248420 336761425 705645298 442502400 178456264 -66864560 269907696 704759094 -190768916 539950561 441734013 -556771912 -914450360 447379904 -232927292 67398167 -969443755 69285746 -807870250 93674332 -724888870 -569576127 -989457248 976959154 -810548534 332056565 243081583 -110446360 140979335 474156825 -829808565 555403113 729775149 871794176 -171455117 962355109 -972723276 -277307502 -35148651 -751626694 877119269 -384686380 754259225 -842487516 -858816133 412994408 863994010 -974824596 -961111128 -961008562 957050403 -21370725 -149488009 -303492126 885030020 -137588849 726283722 998639105 -109591978 -368481806 -702873937 756652162 -126051825 468549609 136109205 727077021 -193143848 871083251 -269476596 -736678465 141299455 652958750 -669364948 704281574 -552982668 -388641368 -670367971 -698488554 291064508 -28085143 -959269680 -356518568 -255035497 -242375844 -451796517 -676548292 -891070851 -445742866 -729541082 702257298 -771516323 984920395 -345390805 6001595 -343725912 -216170045 694830911 -412735267 -538595282 -529636061 570538660 -212550239 821078591 -77973845 167019432 -26067276 808723910 897115574 517461105 692080419 607001865 -664299828 -98211514 620406743 682232774 -226284371 831717678 -50824940 -557939108 472062315 -960266187 182433702 -146891480 -613592148 -179062732 491602074 556887012 -722604803 128440461 -310142784 -140362765 678990841 -35163056 -554102547 574206456 141100149 134762128 326205750 -62991646 -358374903 -726173936 -794140662 341751886 -737671772 911258126 728493354 782298957 374159044 650422604 412578119 612388689 579276935 242824341 263897463 -425116615 -981327537 -776369750 601260820 833133055 221501909 142704186 -679168168 24164531 -386410537 586864996 -911936074 -526089552 -185563042 941414069 -769977320 -705979352 173586771 -11150665 681807225 223649718 -929685321 298785757 962196424 -744010753 50771599 819200514 -405931264 -539671971 -227681628 497958806 338488739 515394748 657101438 360802461 238257001 806455381 87137080 -359266915 900229389 60153712 -194100178 -707305245 -345220500 -356855242 35883935 -243930147 193145662 -913862288 -53664707 -943435790 -441440917 -869040916 -911388004 -221358998 -930602216 -836430104 -94205980 -867331996 -729105278 -132844364 -696644497 -557670768 537360420 -384041258 -191506699 -420602756 847544461 105948856 426496017 -126808872 825169322 584518182 -995763053 -396710069 -141007741 -71760984 636477569 473572295 -78769399 275578639 -67547297 -616880858 408665639 884834488 -710210907 -178888351 791717378 -702399939 987729153 -904033438 759194523 -355616501 875337170 171016421 441568606 -452013053 982557306 267641128 -314902613 -116818513 -740651476 421370780 395217596 114325707 195988256 835139861 -890660759 -398320783 -219059677 -808206123 -186443231 -642242980 682026742 968088222 575778340 209442164 -216765521 544924035 141359415 -179019757 496423469 729697932 81715374 825572262 -988734586 -350259135 771332662 899364354 216959946 349336567 793547843 -630035339 -640961451 505156945 420285008 503031398 799965051 -336183694 -511839097 -708464272 -491211140 209229407 -313123094 809326197 587285645 523666597 56551633 -797155301 506093273 629493775 434999955 333664724 755342894 303968380 659477393 -23384278 754489248 780569877 863898567 -701721321 -449225053 383690531 354138643 189982763 -372537026 -236613868 893458929 434872793 -828046957 775438139 -370918899 -540400125 470008284 16089287 669056382 286034510 102360095 -69011654 -722131347 983344053 535775515 126399110 -955793676 698634951 207008252 234868085 -262699691 -390842545 -577394426 225526999 553096001 -492135538 -102532640 -590355732 372928245 981577728 913707222 691959193 952546987 -422896035 415684 -392662682 -578280540 -619113273 296252784 -345415520 -632680676 582800734 -370903128 -52134696 462281827 -706130493 -721573860 -766376709 746420420 -519344039 -881663324 -863852955 339239348 173592456 69076952 515911725 756630623 -470535756 -467364694 -3841955 686172872 476455064 -836177810 -394552140 46234817 -405438741 -711095115 75136433 -812150005 -91948089 -469917554 32245617 -449184926 -398000328 716797462 -556949530 -257422996 229952528 394314948 582528463 -685180365 130545287 -662648071 -427377275 41929339 -14406959 -153441851 365253402 -590601427 -81104076 -654893494 970334620 111609712 402397328 830548311 248424144 -832536807 -454060757 -417346058 -402959728 -412471021 -880131975 797723423 840510057 271578277 407306297 61358716 -325893667 -357596329 769199764 -435090183 -449541280 892320041 664680802 447832279 35510990 708731172 933594709 239195755 -245361419 -548049481 -255221025 429489831 829894844 -327875562 -149069323 374878397 512481902 -142138004 349936582 515529444 155292817 567553041 1850952 592335550 395904638 -494721220 -288726298 -627949790 892104586 -316949850 250695176 774864185 -427279853 -688236671 -449746585 918978407 730512928 926066337 -88716803 -111547842 -371219694 711040395 196875911 927783599 -492010396 -995079977 670644147 -70744192 886155729 45883349 -361533829 672341373 123240153 -426934311 -375013175 -303290548 950984844 772119198 -765203207 68583567 478786160 -793651187 -572180030 157246058 -727548399 261598520 8996265 172389817 -94780676 -863083104 -976720963 -686405001 -32572609 -718684431 257055963 -294604790 -907461677 624885796 969894466 -318924170 630213881 -675296697 900907656 -621215552 -732385496 -61703557 -136224325 325601722 644342932 -12062685 121048175 773507985 -52900991 563196246 -959370784 30206352 -512281039 -425034690 -72140360 597906091 -403612493 776906510 258788025 708346939 -947370557 652970030 391097692 484633100 -187183267 -11577551 -748411488 -290564596 -630086554 -575167514 191508068 562416340 772834616 -143613801 145303048 -953164145 370392262 566494688 -560473697 -916924122 950250568 -12531603 -449636925 965832841 -962060545 -194247830 -777352961 -876766330 911333106 270731467 781424915 -156691480 -888882833 807396502 -129416609 -667095413 -850188290 246516899 -134619155 -91292046 854477691 973626829 326927532 930955497 955500674 -431922513 -451404 -969933413 -77266136 22907595 500510492 449494956 811716911 -896710296 -163535187 -949399092 871357252 719940941 574027665 -105473353 -150788273 -595354545 -171512242 -923644539 -74759602 576575907 -846306530 -388336233 350890555 -373118963 208410238 -131797650 -571791671 834622102 172296160 -494739303 953039130 -592765976 291210112 90463383 311800714 240814977 -935738292 -388078508 -976404079 928716952 -853628717 512174370 -336638149 18749890 575799530 -968685517 206761046 48822081 -799592945 -953224647 600612443 572314564 -751459481 779435097 693367222 -624383202 -25461183 -187677865 262657350 -171299493 -337672803 -476911107 11107386 -524738996 310271986 7964220 -368639695 61548277 238021192 628951568 159374321 -454141396 743933714 -70418068 619600268 -619111173 -103468860 135417669 -373729865 318901691 -15245500 -18747380 -388095372 301814293 160032722 -191654726 -774377512 -185630774 992690840 -342358157 -685299110 908381005 98130530 -284854417 -434891201 -161045716 44840619 50268858 -700992261 -736639469 -505210070 -500135033 -605166782 677160123 -41754015 -93972229 -296644672 -325001355 438986955 816166447 -44562859 -665340848 256769530 -851766935 -446443987 642694616 712803332 775885276 -917447448 628530023 -960992116 -981462767 -245468654 -82512223 431560610 -464071725 -723289372 841894427 504091897 -455014939 915751815 216261760 -635640518 775715054 730873187 -193104790 -221406719 -166853192 -742054027 -946530124 99428727 726902866 -650153968 157749352 736090348 -511044039 -486947751 879150700 28869402 320677705 946113722 -866401480 -878897636 878814838 -162142972 -496823356 360941837 11712473 116773409 -40969361 -892070914 296602389 -170648427 -92457924 660947118 -120545915 483884803 136995807 -870171319 914177135 -866596851 93459887 -729487169 177266676 -730156015 378706422 -605122899 -751758031 545644640 104014799 130187638 -736092802 -688435259 -553172609 730168346 -62726267 966221271 -895935566 -156287604 842390333 168063350 -275138102 772824741 -652652033 -662919409 51014881 514741131 -645511485 741669086 928275609 -290379677 909522223 -525362716 381837465 885157941 -570392074 -931991949 682680121 445693491 -63044063 -214982552 -615989715 -687015230 438582558 -543909311 17376158 -474763123 -62252159 -942019709 -269523241 -333478235 -636874436 -406857386 -598931386 50487013 782789570 -570168468 556671386 -338267945 34211312 18164514 880770783 90036079 -749027366 -923775548 811874661 -147681886 -976292897 -309658863 -989041148 512203363 212637522 587204847 191259009 -290065431 -510782881 330351928 -886895705 599952084 279843887 -758300542 -743403624 -725851914 475119298 850918762 656206877 294831011 -813567618 -927791112 61627186 -546915116 200203198 -52799548 523905825 -367053938 963090216 -19581685 -941034972 -262669891 403346222 531131885 -612484869 630660876 -772942530 530003336 -753207107 -882221248 -939214899 743975140 123659706 663354875 777315342 414303131 -806405766 -484352778 -89656589 462298247 -232106250 -5481394 651964372 -238664741 253187521 -752589233 -743240717 491566940 -470366715 212660738 839383688 751023675 723635831 669407208 -733626591 -583470334 -632205266 -818663400 544657168 431286992 -599287116 842715786 -377129356 -934805548 895513829 109060646 -548782999 -741700316 -102076785 630827690 -47764931 275491783 -774242553 -889655331 -72623401 -896050107 -794423449 483992665 161277369 888872589 -63555052 -752657515 109481674 -892648504 928156887 -865916574 -474966693 -731763036 890027836 803981360 782200350 -958140650 257718249 368568487 -652144838 523730836 -386756678 -964820819 948172578 540657424 617637932 -84894484 927232326 -730046167 670337599 840182393 -960949968 416927652 -789293499 739169239 534248239 -944759667 135349280 42356019 -246427762 -573268907 249749547 -934340459 -411994784 422132573 22588276 -96449124 269308420 122212440 953117060 -880276861 999554267 -376041108 -780600919 -698676455 -987112874 -936518808 71660570 -190285846 740054628 857123914 519122184 -788485942 993641525 -347187072 797917861 -385724293 830668736 -907237599 430354742 493485772 259329676 -719366265 915999511 354371917 865497401 213659917 -599739152 285816208 397712985 686309343 325128222 733549222 -395018095 605344902 -336450507 -890250881 638582202 -471472544 -667016252 947116736 759989622 720511733 916846151 -242758251 35679719 689342204 -669223798 765061529 -407488204 148971989 -203016048 933491026 342584906 216292060 377408087 735504910 -137006768 729419262 96944999 401879714 162206561 167423745 38973434 -901206297 162184894 200365705 -2591128 -129640746 646932206 854634235 -8484345 1029678 213549935 889392931 -958937027 432647232 750749455 -503230926 -980902172 234722029 480844521 -234614923 623706744 583756547 549923417 774018512 312170189 -811657407 -738705411 547034454 -741879404 -124477986 -562986369 216684477 -617160518 144465043 -32014548 -467316229 -2442734 -990960232 -976447689 -717863260 -936114584 -552071577 -220645747 -713687975 767942517 -405384515 -214069050 -634084937 -814739575 766807257 -997208357 899079137 -194479198 599869461 -31482306 516437850 -531513701 717128717 -233315636 30071895 -464648907 277447442 753872926 173899234 360533591 697843395 -206136224 605671850 856090485 -961360270 -824761256 -120773378 92804507 840572289 -638165477 -69732270 155275968 167397323 -640232448 344965114 -746089807 -380917412 -382410178 237013245 -199791643 653935767 -309934684 -366856163 949462360 -362574999 -914898524 880379585 219241830 -616122776 -283167771 -519337226 -609905426 -822382051 -779462693 614233576 999308616 928081687 135448883 759609908 547259098 264333805 -621379142 -826733151 63231352 -327877464 647016337 80797846 192988042 -120670583 422676938 209521977 362783652 -286758007 970137307 -993634468 -780005820 -16074436 -896779460 -981795825 -60641966 880789136 -482343785 -665726395 -939439832 -411557984 735587266 478990393 476337069 130492586 208415251 -96149099 -652767236 472267802 161996285 794272901 -493869037 -732268803 -719427412 -209265624 -318853610 -276009185 -390118927 891149921 675545901 -475321437 757474552 964060141 -937574353 474901010 -113818458 196896559 169012047 539118123 -727715677 845939244 -148556464 -220666743 445117673 189053716 103237447 674597262 -339657279 478727124 -698700510 -732438356 585536730 -556709916 -303532388 742211476 -775225043 538409665 312672891 637488101 539434734 60536440 306187621 917651222 504783080 137349022 -811935571 777524289 -814015494 -37490270 297947257 -45163275 951411117 861653133 -633707755 -565865402 -192994904 -161078578 -4004499 -575062828 502027133 -163608886 -38555367 -77745026 804196542 -659910916 -837043466 825550692 -418232745 -603939862 -626328016 481251769 799150987 -286573185 206975354 179261958 -9073544 -349292086 282178306 -723545221 231008047 754489604 -200053921 263299530 883042653 727529336 -420837117 -671788671 810050582 -293836660 803517168 -904076205 -590489865 -543017886 -117333224 870302902 -424310941 753276578 737486464 -810361949 -551228911 104401161 -159343858 223379932 -337950859 -222072821 777639669 303703092 -907249928 -596061992 137447073 118250440 565407285 983228728 -71603434 -856977312 -727419325 714195633 631330611 130243591 -17366998 648338216 -208855963 870445470 -314340153 -322345032 -829709352 -701902184 -271504104 965520805 672677239 -748900507 731636312 963650560 420993254 809803260 921140353 -922641702 -155882513 140612435 -42944010 -864566294 381504331 -50659308 179949246 -964220591 75970979 662752955 179067957 -515515297 119350410 524788573 498190860 -694752822 989122616 -209762827 997782549 -620926680 643088792 514269905 -97842279 65390582 -129376308 -55528078 -51700536 85681632 976116992 -776848315 238784966 -579901310 629997831 -424217725 327682270 -226888310 475541045 583233925 -802174441 -688969115 -893768887 774540257 -575008460 743854772 774575239 -534893418 -80974870 703207570 -374705912 -36899331 912691316 696790812 8501372 -220198628 -530566451 20221372 -933153762 -109495265 -619287856 257387265 -860106371 845675626 -978198879 139089479 648525846 -23470297 -369218491 897259607 -893858762 -737863876 754199363 -981346711 -136878021 770359537 982268231 43212843 -71213307 -128619028 231370574 -62922022 -17263408 43521730 198085883 366244745 62631764 138571106 -197779020 133797914 -200118750 -985605063 487030675 135441884 617845931 510642657 299388060 121812153 72563578 -778715748 381069125 282302327 996268456 -16458452 -911069799 492556554 841192730 -198869147 826529650 -865474825 -980107909 132456269 -449644706 782050948 -199039744 -56782844 -437366957 356917205 -569009560 -410839318 -997736542 -977950424 433199672 816910115 -758937328 -965091637 -870349541 -828015215 576358611 680611970 -880679659 -348939798 -449042455 921930406 -134176237 -701568911 -48459386 -145584879 33984092 -782867373 -137115513 -107265840 695503165 -174300874 -735760744 911919123 -593293317 844630301 -457234916 646842760 -675328296 189242948 285266969 707088094 -322554314 -339491105 986740758 -10697705 -957627941 778200014 -634647965 76896507 984993359 483414327 -460504066 494933401 -842115835 206529271 -827221307 -610847125 -362369749 494652191 -731036908 911248297 -832119101 -212380434 -211068462 141015616 853539414 115869951 -960499086 180697566 -337821202 893459973 583558487 724342454 18428184 207062359 827688420 950509903 303771940 15936635 361739501 -618836731 88906928 655566271 -823346828 -225260108 -674428725 -587792570 -998094807 -795632700 -518673611 -163915122 -4678904 445920490 -472913432 303967453 -781811603 383367001 -185577877 -915058987 236630474 553369310 -705906009 -415326349 297887149 488222629 375403521 410862770 412601066 -214261627 103368668 -637412034 759903086 -279274507 -332573934 -682713365 675612331 -51410469 944808171 196745173 -539822577 250139103 393999472 -183263747 -690578712 -353037750 8230166 -423626216 988165682 57643030 436570328 172500312 -852290500 699408299 102679367 322268502 -903037081 191560051 687664615 -469869519 196383000 30152126 530030001 9040746 568250295 -903090006 -994993469 -470719827 454336975 711074453 542823289 419430407 301603164 -464510580 -363747547 -959360360 -738553559 -245960324 283439723 -45992344 -518177517 437297626 14873779 -973347107 776785436 -856088516 -888798972 -16079383 368253878 -670340937 -292424084 175029678 450281298 99800864 -778711257 527592405 -185387403 230238172 -789681346 -979115860 -747431382 -310090479 -133484096 -711430969 -479996828 57955385 74472339 -279761152 464359987 822140254 -694588701 944383052 382460691 -501289217 100934572 681268956 -743338431 544069162 979379748 -407730330 -151123059 493772132 119943244 -406042468 -434971701 -573707384 369170877 660875843 554538324 -384818384 -808893090 -774285505 416404125 562418271 -633714942 50040392 985419463 -856379761 779855128 -543084352 -158238527 767404507 -698994113 -261279788 -88628996 38677887 511058132 -291666112 510527543 103031835 765481345 -473006700 67582737 -255323104 384958489 -963769701 -102019779 -982081124 -613599287 553500429 824638602 -105212592 -407305386 945940274 -482244735 299194830 -207118563 -335079897 -366341578 365140650 964212423 563257229 89276426 660691864 906514129 -198715979 -110692092 -904481272 -288408983 626516951 200300172 465598503 917550407 718830289 948233809 917758809 -667128393 576787480 -526961394 709521926 -197375235 108669456 700232027 950567881 462553329 -494315158 701508831 -560396522 -839381200 130314222 -482718224 759692147 -721884437 -659205875 293279703 156459899 -432981842 -783871240 238116834 -908668568 -387180470 -900058458 121750104 383037487 923367028 -795621964 -114207954 528068521 967116563 -134544234 -114696494 392267451 -660941438 214910933 711857104 -828173296 406205720 -310107024 858998099 -579298457 661000345 -165759759 -762617277 943426045 895332912 -459828235 815758379 458680397 481887263 -976378036 303756322 -602585292 -340846158 376740 508151580 -251092667 559643618 301433209 -320547666 421876812 -551267699 -121616988 649881726 -911109698 391686461 -449528357 -511661211 396625077 209971095 535025172 -117557990 364998693 141302768 -353049412 -42879735 -222020526 637494460 -679358407 211814950 473856557 365120323 283328563 -112740234 651394220 833930006 -609830701 506424442 366110671 275037847 798504831 447699268 25325043 801971700 -36595221 -593403151 357591506 98473352 -527511756 811498921 -234537392 892343791 -425775980 315022667 116569967 -155369433 -672682740 727425428 119198051 654832161 -19647723 -161742026 -452952027 -166285044 -540992305 363448547 509404319 -32314626 417290168 -385531018 153294719 625419898 119867035 -559619026 -199052749 539933175 -22800729 -721499534 159378942 -36598806 -153933560 684693028 154591614 471662123 711547231 -983872051 -596324713 19781127 804045478 886076765 -365496498 -750840771 60839388 -415490329 73194965 931661598 -839776701 -178401710 752220891 -217848603 150395494 -806884295 -285351403 942738970 799691184 51393686 301911811 964633214 258903163 69405187 -499318577 678483137 38017768 693413370 993194260 869778004 655945800 935780404 -668380695 -128968273 -297910137 -41051754 186682791 897653291 -299318065 799841927 885802652 -255069561 223401746 682307738 -464688427 -752671044 349302247 -608301363 -535125662 -832482388 362497856 -33043554 -364807413 688367227 991581746 222199999 -575739254 -950593003 -116789234 -830509367 -581531386 638690235 -487882985 63021474 901706670 849391993 235951325 -156400531 584733577 -926836189 688593889 324577410 412808997 672277140 -330243437 -504666423 -689771514 -565502721 -85186590 -955652210 -677914644 433871689 291577935 212552925 537452099 140461005 997710649 -633401288 -865341377 -556647580 797644178 -782999620 32530158 -237735992 86838395 -774630716 -794269073 870272722 -443534833 -497269785 -733454134 -974430491 932553452 195710393 28377072 -516556920 663504580 595140746 -879369707 -54524560 -251796747 -256791014 929479859 317832285 978810211 773738744 36282312 393777528 474389145 415629858 78345122 -85107181 -596360438 980368515 -531268350 -355875532 -75542060 -152969554 -764626761 -825614206 17529197 367557385 226182817 454381146 615900014 879290649 -870504415 -327727136 696490630 -341305571 -162799452 441453468 214057135 -47599962 -401882572 707465424 -805655475 321006399 810543459 852236129 -349151504 -467005319 -353299876 168671234 -120826282 -987570017 410888380 180731016 -945968852 -153337755 -378513674 615806539 -48823989 -449461985 -82945622 599037899 -32885697 -975333934 -877901010 -238063491 -469366376 764875921 -38105674 344691073 233036507 142841528 -197762993 288022890 -386319144 372281942 -498211117 76197720 169692726 -262918017 -17866532 424796635 893942364 148576517 -918403135 98980255 -610185505 -993692482 -43237525 -631481777 -85368227 718516850 -397567538 -353561076 747757443 -712327268 -531817487 -330154471 470721555 -404406927 -145480879 912828172 -414760038 9775114 678821353 -819898741 -102258797 506795342 357632759 -89343660 -858388377 -649571727 699623064 -915186194 633619347 -210826389 -1118756 -405303754 980893117 414865253 628613896 204549725 -923584026 -983038065 573089335 581645592 801478405 31583239 473478653 -54794269 -177225691 -720565948 910273189 786268015 -544219790 79160975 381100892 943366125 -604561541 -995582017 -101575191 -99094839 -946047636 -731881933 886611135 795310441 215074464 965477735 -393036960 -418597838 468126420 -510692054 713413045 327955201 -446707101 -919163868 935887169 -139692069 -8820079 -392967219 -890993418 -236892483 549887833 357161351 -74253273 -780363381 -256081496 704593340 -443158630 -915843272 196076750 -812720706 23350646 -68498470 30228903 474711268 554428850 -155070657 61891348 461503126 -55186661 -962251600 -45696446 -127474086 -180497799 -782030934 152580029 -796390353 117131346 -845546010 637305966 -437274785 634303852 365418698 557930615 -121036453 -104596214 152697765 987638458 -971649276 -385621044 -281874811 -431705088 887480218 -641071870 197858412 725995929 -815347840 -319570230 911766368 585794483 -580569443 167921047 193989242 902183382 414204679 208170382 -440986608 579384809 131012146 384408524 -409916739 173082375 -801772709 319008953 -630782956 -383727404 -847841025 -73257634 -39697739 767034803 -17293482 -842709673 381566962 373270421 -463218678 -991679007 -893785519 -858356908 114475662 -534834379 -653105311 960149739 -853864080 364573813 479731528 -538079422 -828111262 376976230 822608636 -981562398 -86995225 -349463368 -475819232 898056441 -643469157 -72727821 -948293271 334035416 49360017 -651468094 431632534 910079484 -588358257 712881337 -674866432 -818279285 -105270480 103220974 510694876 -189300803 674030116 -961167981 331388697 -579922696 -426462993 492616634 856849098 -709298 759069141 800210558 -183543988 607389130 -933198572 661056127 147199349 -360369662 -616827373 782153786 751244253 -244306707 959256977 -642688416 -541901073 -978358503 -746452605 -991305347 -842672370 -859725993 151480263 238312134 -938306963 -577558221 -306571850 710453010 -678767863 397811473 48771366 549176421 786021130 -978480408 -452146607 883357079 398280022 -186898334 -542391349 236724294 267601412 203558935 -181704975 -574916361 -607010853 -949022450 640991618 747419437 -169332171 -500353096 685925991 853978587 -974234930 73044180 265476002 400396094 -120913226 774874990 521232095 -253647532 -328814776 -634853154 363953675 485733908 149477515 666389548 721296907 69279794 489992568 89813333 -94690108 873370827 988118213 -750780623 -728621877 -390222872 -910922026 -927704715 -314222282 -114514971 -349806374 -743099786 -611516690 328935773 -31246353 759574077 48448353 501822535 -613114982 659147008 770201794 -934955443 263141884 15769432 -525215734 278939318 -903186325 568381856 906863521 492291915 137026231 -768086481 -191828155 -373407162 94895641 -121522677 483983662 -530009901 533364245 -58367229 -218124560 975745868 -127894753 478662477 -937336990 996342631 347521727 -980661321 -463512201 -593451345 878076281 135305063 941466802 -264251550 564199651 769921090 88015134 496894347 -810810397 576166553 469090968 553186567 -672741287 726730826 -536975384 -630596832 695715384 214275471 338417422 -988458887 204122171 -206336054 517875573 771837938 -283853886 23857796 -43443137 40190934 -141370921 -394560583 148675750 789161766 -432728839 37352771 463369370 -816253516 -49077298 827983086 -217296908 -376696439 -516374031 -695491285 -622964803 540774596 -312602195 -733116538 297018876 -720453788 173225561 -178528112 -796254322 876365632 -258486052 -720566343 497308957 -176817672 -289467669 876302324 -255967146 765684629 74852281 659658128 621691087 953725866 -707708258 -330698001 141465465 -968380763 247001221 -600977818 -293709881 -996847901 66597326 278582046 -661104403 -713956430 -46532007 791175815 -607908131 444880535 521792043 263081103 219945914 -754568340 146926742 -446020074 -574292625 663323387 -728968736 468233060 581308672 -742462575 -661041667 676966904 2914665 -445943760 -507554116 81354435 -848866529 224241120 27099755 847583769 -475870322 -808015571 -555560642 157474357 -26954258 -984294652 -271017079 540291698 694482598 -863219679 -477275900 -431093876 373251838 -882973071 741590785 -6155388 -752203540 523480382 234684083 973016761 -155953421 406213510 -963182853 417023070 334070736 879428837 -644629129 568559296 -344789956 854523412 -990828632 950229104 -931215610 748558806 386673034 -782691066 799653884 -780977080 256411689 -765886575 294410931 -287862191 -177589776 -946842075 252181784 275527190 434778310 397754642 630447785 -948691516 546272160 690213686 336400581 -18610924 -719551567 338747254 855931362 -559735214 800941282 -811273238 -659023979 -850862395 -730578123 -259332245 -838693535 -187068696 -888138580 -474264892 -245204189 -633452518 283299438 -638561371 394495766 -865082720 -215421346 165887539 -612918457 -476414485 724886015 -69796978 384592499 996823725 -141626726 -373200590 -445765624 -576493696 -306302531 -111818835 168965037 -411721323 34491280 -19700234 688079749 674378327 -377254209 -965517060 -847474528 815571930 -677616639 705768358 -536158497 987320610 57496669 -14053756 881784945 -135055769 -399433734 255640782 498751951 -516514058 690982804 -14391517 917526624 7391852 -15996211 -210214980 -173001720 57733893 62777213 168383596 990955756 -614606965 -111020071 158925160 644043980 -143862445 316934032 -38231728 -464055439 284879694 -231063206 -743495428 886841057 -958655307 -251452801 -631746286 555230 704404756 -996645680 249348372 239700326 885338882 955194844 875494000 527320854 913052521 953991911 -638553711 -449235457 795625293 -768740734 607231637 -543517359 -458575733 399273840 381300948 -825690888 527126706 98118327 -531298358 273396300 163742201 936566405 -721738174 45473110 -57389052 427711786 420820528 695991990 -154374794 -667165449 424658800 -890735960 804898889 -827005359 -860723544 -864408712 -302243955 974720484 690287703 -257714258 -667100577 -492777252 -114537040 -677063357 869182250 -108461803 395861299 775461042 460827140 -710078320 256497270 -812847545 604262216 -315304696 351377371 673464838 -696925447 -301645610 747372932 -1587920 -468184351 -888260648 -806047467 729448921 -368952756 952305934 418658769 -946929182 500388197 943861795 -168599399 297308487 -283079511 576739824 837101093 -540799337 -10690822 58043503 -185262390 643808786 -62608750 -657519627 -404779877 -593264994 170763263 -882484206 954829526 6671784 113278061 -624896468 513640547 898240867 874118295 975289904 131530269 625615283 829420960 -283264267 -342854140 -435010628 534681113 -333233175 -6044894 -216527608 303267037 893639856 -803608786 -576997702 101767123 -199871112 114401364 -911426557 -851931204 747852970 576032647 319603841 -533188867 -970237916 280328473 506290004 -705981738 -578323537 -421255662 31580052 -522753760 -538781460 -479998763 -197404505 -370119908 -538009629 525580312 -804310038 -502987884 236895937 250846351 -563001709 543553780 -343183609 -930537304 -471128417 311869478 -295245152 63013587 807064529 803866274 -394626573 521118684 212227209 -345477444 -946289192 82064529 921681054 -480124583 849156162 -994537217 777322076 918077322 491605866 657809185 -646233569 -491301852 381554562 -355147791 -675543150 -922130143 895780020 -501862478 -182101184 765379967 396198471 -94006534 -405899335 195847349 -164034159 -405404214 -126945203 -345586525 -937376093 157506836 -723699795 946654091 -636067390 579297421 -806151900 -873834042 680740365 57829783 -88225375 -171433804 934655227 -391393911 334625149 -624514114 -295729238 690669681 -440285918 790182748 -150009898 -492380859 59411107 828080878 -343700927 600579377 -834867801 341439361 -77844315 -616214257 345346273 -571160035 -643277630 -626676326 114564815 22021245 -498110499 542031336 402695733 666293337 439374861 -779310798 -416905888 649164527 -339428744 510012183 455012942 -61094270 245992655 -304891675 -626604720 322174768 -392427189 -510255348 645278467 -822190032 -348432368 871510729 562366818 -397954766 -327063677 -646158098 -338463350 -729051414 -465212842 -659381835 -621411303 -391620397 716913125 738400208 -192852126 -893867809 -23556883 -634674640 -388415059 -113857593 383996677 545474783 324795377 218715110 -318730239 -395804723 -261968162 43107983 177881625 692047419 -575034218 -81141041 542444564 -284364743 -175777282 441161214 475969520 -498927501 -278507746 242735867 377073454 -46382468 586860466 823995532 557838111 -127178807 456769989 578152860 496499035 89161377 -535363308 486197170 707168225 -867377885 805399902 -631096090 -104757769 328827866 22728570 325195831 871493435 -949049279 185678969 856269482 -535737978 -166325553 -607953151 762753706 656774142 744792771 986976548 -61365334 -830709990 -493762295 -722081540 -637476433 -203309411 734804084 -617576736 179307869 667467805 -284209192 686881919 -136256720 224275713 -612514430 579358740 -501520575 -855286584 -643405122 -474682195 374209983 -708260724 904525 229043019 -769162869 380039158 -970479515 -114822034 -105918346 -763308345 -356009877 605084663 431679505 620769467 -362063917 -417518629 98115480 547635572 4213123 -296381210 -551542886 -404398671 -247324573 -678118388 -372520792 -675375526 -75242368 545861822 615596353 -790075965 629421859 -857066793 27415704 -738096727 -489205846 -971641156 -158191477 966285227 774682800 -327181363 43419680 114393508 883985927 290612327 -672305528 -281683705 183265295 22793555 951057227 755074540 -970599736 -327071058 -446590002 -949742448 863391662 239493081 25411284 -282018347 -129143849 898911372 -757347188 75149043 836032121 -656109625 -394257575 -623761938 900618234 -263779140 -697748217 -117445237 -756286658 17068528 -293498047 448289904 296583544 -158590963 586069513 469138473 503296668 -395644518 257120998 906501100 -525751444 -650299092 655406222 655403924 -715113552 69118310 722215322 876555050 -20485059 643898416 547653309 -892470929 -936015965 -987341890 -515477014 -407791763 -511505096 -176232273 -951271078 -399760152 -336535512 607534189 -135846733 870991196 -771600618 -122698079 215513544 276109057 907096929 40844581 -356747719 305672874 788565714 474105580 -603979904 434088758 971999458 272307701 129711742 490782201 -739202395 413232698 -656172000 -248112924 822178493 203246092 202316067 626172677 -437056403 -542059628 82746268 -628291771 906499507 763687479 -345387129 841854999 925307257 257292861 -864927489 190552870 702377607 -402168179 -71578599 -808378778 157918910 338578436 179833328 -248342726 -559296976 174755533 629658820 726209798 682770193 725179495 -911041558 -78950443 541749360 -251970675 -792471491 223723041 823403025 362134753 -169923123 792887338 441954331 -202714293 450056814 -343866136 563243684 715022869 -382100889 355298380 859287547 909368967 719869666 562748070 -539650882 849859545 -148652742 261114004 347582238 222440152 -801036653 -326752625 -394460122 -256648224 588601833 -294412137 -378342563 -221479124 -730585331 759633177 985149602 -355166022 -164820787 -642516540 388066507 -616915037 896139117 470569770 -286896013 531176365 85523902 -299172053 -954394869 55992612 808970318 772779727 874006493 -37580138 853249991 -559775991 -188857977 -36124646 -137101599 -359442488 828239138 50096616 -744593440 -987428147 -845081721 612391702 710629767 445657044 -525552864 -905272944 892891751 -504073337 -960426467 736447876 450756088 27111147 419492259 590986295 1458486 -673874028 769430125 732137938 958902026 -10855317 251010377 -129081895 306608942 -525167677 536915455 461949326 90822865 -514301006 -207751174 337057380 -609337168 564918360 232016441 917055584 -226711532 198487211 -418067143 -167923718 471515247 -816189147 840566263 -834603200 492183966 -96270417 428538121 -386036100 -893442567 -245011043 -326262554 -112634226 544335351 176720873 625996818 -235522253 584536545 497491671 665763706 929724565 -566637628 267860255 -107828271 755812784 436992813 917709702 -904309434 139428595 -179768041 -646965865 724288200 -681694338 -62253675 -514368269 -899153934 898549885 328575639 -196920962 104708556 487137971 193281740 590899535 272168157 -827829143 748990764 358161453 -718790041 -294998924 618954204 104796887 541879466 -882891976 -724910855 944531891 -227336871 194936457 -998210689 -502077605 -298519972 804231854 152802323 424514876 441556008 -738474745 21979905 -599657340 -615554264 -777630833 699544374 927461669 -81982096 -847731003 533112181 -121797028 -174853483 -993485844 -849207596 265323305 -988306042 -18837865 240317384 191672977 -300196809 410046215 -436392475 275855888 -157532342 -695585575 -248554546 -656814401 488691715 788216370 -119407327 -205521473 -290794692 260607568 -928805794 -813188960 589375208 -205044612 444803297 316409972 -63598642 -531677057 956202043 -601472709 -148678804 -873290846 914803362 -952471111 578607506 52401859 -895571976 -818618957 984602902 50707382 412721682 -979415590 555877909 845677225 -652734859 149401664 599240052 686970202 699777508 651027790 59516082 701893955 708697271 361507457 732295527 -851105067 -892132296 460468013 -847789559 -724088293 641309539 -692118038 698823564 982389140 -653655548 248824596 119334365 187669373 -110273309 473203924 40862964 -180585095 -373122609 -851094156 -546763551 187175517 -3156128 -162223792 -512099068 -133389098 -587481307 847686223 -781114680 -42737567 -823358758 -128514277 60856340 204456932 976990542 -813807154 351861082 -237819028 -799543944 -102677263 319740254 -866989203 640223796 -893680919 -887820693 729546898 463245423 848168878 -269040175 -68425456 -683774624 -220905543 164718407 979487441 -792888749 -902810937 60087685 -955539270 -30724317 234866946 -157940550 -433590974 580825744 593369659 -55484507 -783717557 -428626547 -132263246 -654969362 200769285 -720986190 567888189 146237969 765393025 -960173496 673680967 715173309 856186649 -455589603 -532048666 -577309120 -113098485 -953255892 538033431 850856328 833925193 -190596686 -290708552 -837751100 -867401132 -400288824 -860960683 110884966 293496609 -37651966 882513458 517903343 717018772 -311033077 820401247 -339142393 -81611488 249798548 643756770 677715137 -839178494 681270152 603286502 2285193 -847079560 -245521402 138401638 -262478624 879022090 821510977 -800740530 628973957 533665199 609961019 -253958949 -156482266 578271642 721635481 -152094208 -403040395 -633295952 -51840643 334434288 -597751086 462324521 706127797 -179876730 430757499 -96784843 757601712 8196408 959864936 -642869647 101774206 629429883 725530810 -475623660 93020919 -896295885 -80202599 -611076990 870885050 459340607 758582492 -709257906 479756498 152770926 241424519 -176518139 229560525 955613191 120384049 -252155238 172156453 -180350433 602279012 469134731 -822289769 -220024026 748842472 -701507865 818160181 5628050 576147982 -526548002 735585018 339663223 338375893 468033559 583907224 489955601 100117024 519735986 -241378964 410902739 -511102020 -291793389 -5404178 -541000597 -636732445 -962402164 277869857 -470860587 -513681950 866864248 -617867726 -918554208 -174348457 -796469264 975533852 216530450 415370110 596966198 -639340782 -90772026 710203181 466291403 -76956212 -327674997 -462116254 552979604 -631619233 191486039 4795805 -113702566 141113432 349163858 -798648148 132061198 -376317458 -621359319 158112815 381787619 -789253267 -142567579 -328405961 107867387 341453818 -750240008 -324988370 297069551 -205334791 -873452860 -970994827 56393237 324359086 -249292662 -74333922 90173021 103206994 302457541 -465565102 -117275580 580868883 626298289 945493315 -942660361 732631382 733828050 976405075 795055389 322699160 849194379 62461426 -236013446 -708673020 -410637472 -491883943 -170653255 779556463 -475807383 -877071531 359678833 278266549 828436389 -934709797 857254236 -508381043 -403192196 621324882 498355334 -658818468 -179492602 39710440 -734986540 141885061 -748315118 198959550 -768335461 59398399 -446546975 573831663 -249322494 -909564350 -646006081 -498349711 135179695 555896508 325334194 143853664 700907936 -389320332 591366528 817758187 -680031581 -25218285 21463584 -643734836 10611210 129469020 -888585987 -596386794 61413090 270134917 622180054 120153264 864971379 -85385591 272273606 269452921 471391931 -951396613 -713143458 421012929 -483970257 -202760966 956744855 -674602444 456073346 742659044 -392905834 845387596 104708884 -407033265 -45820961 745432190 -433670382 938925960 328889840 -125784593 -878114748 -652649618 250882842 -261836779 149601424 518517336 937746537 -207655866 -924012457 90535454 -28805626 -611295833 -63588965 -708596160 957452494 494751576 -801373786 554079752 661472851 860467537 588283697 -998118185 -735472220 77308620 921609323 -545702303 431157320 769661649 749135986 -897934702 -568956481 627101340 -714323804 -628252873 374800293 -134999475 201124598 -79391864 -208060676 -304997596 -320495968 146986166 -358686246 335402399 787239382 642447806 -598474866 -424522124 -564101413 873582697 855127062 -653388604 440043101 405845556 939696792 -901328270 159431641 -531956404 230474426 -108561588 -93768773 -119014661 -490513637 364423201 990534255 -637235334 -194422981 175542001 -190817258 219865852 790808164 113373868 964049583 -84178714 -776699015 482919086 396837293 643764417 306736650 296901108 381557062 -136264744 179354351 -140636096 -567078002 621941991 -907350261 -429011167 590194267 705040870 955816763 -71522053 -158665983 109348543 -486188077 617124791 -669565377 412495502 -393423576 -666173395 28703269 807776161 -564277408 155186761 391290081 805621189 -6545145 -102513913 -80259134 688549614 -339818422 -638745705 285431650 880537645 -325896433 -721377861 -733831187 821547908 27078357 464895513 -785181534 -618259576 598953275 -545430444 25863354 -770485573 -580269205 -747367507 389198854 -365920594 859712150 -426624892 -804405336 301405845 451999803 638808925 -135071863 -417990847 -743408242 461336917 335661469 396604152 -142607406 256886578 992928736 840870014 51200046 111685017 -460163055 -123523242 350583154 -780784752 270485163 17499938 -226756671 -265683628 -440590917 398960934 -123066569 -329047729 -313150212 426651871 -151687088 -803324610 -575516490 556428020 637836921 37244493 467444778 503075177 915682083 878815695 -688357713 -497311838 -436683539 -905836750 574144289 -714853083 -643888326 635286060 -122012936 42011148 627858177 635812151 -772971168 -628482501 -298484093 -792460587 -633590207 378861962 -140125983 397360705 -390328185 -295917638 73966979 778136199 646329714 -777809818 908859292 -257171136 365476898 -638500795 844486580 -644079044 -614836760 395998839 312350676 -749696366 762672588 -580556910 -809836093 571534278 -586467576 -857964411 -277069612 -119776117 286973966 441231118 -768179251 304507738 736450236 -871831440 305393454 -21774577 -41158969 -558823407 86177370 126516231 153137964 143632033 -227762328 -700867268 -289269357 198391106 22844413 345433177 565563436 -52135874 706248897 -260214089 411417753 -573210271 984102579 566876705 415394446 595958319 -691370599 -451504830 -594556100 -749287738 221505017 332896769 -236529174 417316044 458976053 79456323 -293543932 -798994508 331643991 -751001312 550672543 -48800822 634916593 -671895113 -309532977 -346447157 553690440 347876392 282035637 -701919711 70273004 92727603 200480768 840088632 149257675 -725958210 874824138 -813283909 -545266018 46182439 579470540 -406918180 214329867 -925774814 -443469427 554440217 529788802 -817335956 -425963356 473197868 -47783851 908877830 -135450804 529464864 181693455 172825945 -709902485 -995678723 -332198496 61336127 -49597003 -870752066 962177281 -404614088 -955540964 172104919 951942683 -114899905 -216037928 -73983933 988722708 552119682 -534674224 -810012870 -920943900 304265325 650721615 -464101003 255266745 -260838217 -843525019 832725099 217815555 295914461 599329575 780083329 -459120669 -493029582 -934902045 78152267 757527085 -882119979 273552066 445047040 752722885 -171290641 700308590 165311798 -518564823 -418864872 -245565528 -783878708 -942361704 -426161193 -691424002 -760029981 678657750 -545193594 -474707437 267464266 -842647127 -996500388 -232399157 155146875 -213612634 960782065 -514942349 -350628275 960326446 86472884 -634832712 868052767 -873053694 -230839125 227037666 606522559 499482991 604839219 39545489 644073756 -721993465 -919144277 564460941 -539003017 99869554 509898987 247855679 582097942 -231265887 -91923356 -163475452 -621948971 28884348 -885459163 -282012285 -773259343 353831385 -889565902 264213524 -270574861 -847320455 417958247 -884620393 669985344 278929287 49583644 576597731 -505835822 -984593657 440697650 -474782289 912836954 330775349 682462086 319572277 370294929 -105420197 766969144 -555158712 -74526517 67728547 694697671 536260237 -185438350 -98992694 -301182958 -344180980 439233070 885325090 -272996399 857882367 -279215323 113398737 734326846 312209908 818526187 289323192 159840087 -91129314 861055142 7388337 -528576350 85515056 -209893743 -63893121 46886120 -68393425 -311107861 -710996331 840086115 82345842 14297434 197710556 440976208 -943530167 184733737 90873116 -921672867 -74368313 -459299658 45636465 -537433222 -176755710 -149256757 991086637 445001588 -527794809 680074236 -171792314 224700957 -83980097 -782092964 -409079857 38460331 -973643760 108094747 402093658 541668211 485476647 -382717280 918460799 38089692 -211617915 742343804 -918891472 35720753 295649339 -836454215 -219415193 -771972461 -387026728 958454609 -791718542 523303062 -30567945 -374172251 749797843 -199144992 95206987 -248479759 -612624705 99337700 125368248 632691522 -525263063 -752960188 206561981 210097060 -955209637 731948178 -632460797 -112512896 178992368 180991019 113396295 -639077125 305255573 569857098 307618688 670345304 302902790 -908132502 -354897399 174222781 290932851 291228560 413983479 -294851767 -486643279 -735452262 400155586 -612610143 -312508330 785353731 209041780 -125439907 -122944992 565269650 -586124637 -787452033 -991789477 -560807870 -635578736 534496369 -595039434 -966856637 606687469 667274179 641766395 -906330246 600221860 -796353136 -436130204 956563708 983409714 -691015649 -113100101 -186034572 -143362858 618718758 765122673 -256038851 -187465536 537445924 812482248 738963606 342977807 145470824 499071872 -338690920 688889792 847243518 -746885303 -278784984 -989236292 20648672 -16419273 76796202 913996205 -631079035 226685282 414515993 458681922 613845025 -962569705 -563837805 811292895 264478155 868856161 -212511429 583231918 -893274923 634310927 329325751 421852287 -187302029 108100403 -63423826 333009925 -928635030 925424134 -857170698 46503402 204849303 -562538695 -111344939 23226917 -360728972 -502054052 671487563 977935472 -114458663 681592984 981305822 769998208 -564194550 56764511 309621403 -92479550 -330972861 969676479 -264964907 -335525177 63703981 -879483368 266971285 259361663 604753582 -458690627 -975782970 -196903191 -457383646 348134580 798827480 156731197 -596562212 942231022 -688318718 664585755 723963472 -147018544 -640523807 49488243 991302008 800627439 229054308 -714736493 -486159174 -438758322 -152521720 101901345 598793855 -264528847 -65319580 -57247054 962536272 -631878050 884967004 -793150432 413365067 -591756740 -532751960 -158603406 -770774051 997154716 -22840265 -83471335 814749817 612592288 350868489 -397182521 -910614178 -763115273 906933161 -831515628 -802561138 14520887 -487199403 664906794 103920915 617773377 317284220 -701363002 -86544908 -561541303 29813215 -702524197 694107810 -15547262 -177314735 588518882 693218080 -128178329 -939231876 -877206145 -837566320 65639762 185938081 570709839 191600108 141194588 -176214426 -25834107 822321445 -70190250 601667247 467506692 276923250 -258368515 41169613 183486989 -354945644 -552773394 952778254 78903434 -305362612 811224890 -994598589 -461024060 -120799147 886350533 -191069143 59943573 -65616103 923333890 -372442893 419718330 235421891 -168664956 991159795 639759684 939243288 -250982635 -353129395 -106294445 219095469 898524973 -994963077 -523564404 -7148038 993693398 695420412 501831743 -453241614 -813999204 -120491963 659592075 -46004586 -808357779 -150764673 -343877520 137586693 -558538141 -28029185 -442632218 -372987994 -501890858 -444454119 -510666475 62047730 -461668332 35328930 408525875 268717621 898477057 700567780 -323136541 -370390703 225762286 -757419683 -725539305 200609395 449753347 541185866 -867724487 -898604668 49375499 202885386 -151745449 797119384 954713845 297035506 768938623 630290480 328736871 763221718 880052579 494438994 -338450035 769668706 13830906 -370405921 -100898416 -20441877 487925252 -915970159 535483108 -135276220 733072081 851831798 761118674 209316602 286601763 63255042 821680684 -535663631 -432471581 -810565224 26552144 -80434039 -181571869 -946573349 -648722084 -460283354 -573999158 -438889329 88937135 691190493 934216940 785243829 -328907539 671949092 56207359 -927513476 456610092 933830570 -74985572 573706961 682349439 -976719296 -790168586 518616584 -423835249 512092496 -127162731 -565201612 -201763913 616148598 -463314158 -843860177 -199932882 -988567670 -468645861 521619244 134319977 340433105 -496494902 -649135983 433960198 363529634 807826166 779370372 148511559 -176426947 646338597 560018995 -109497555 314417215 -546023382 453482760 -643644424 -863702618 563818999 92900756 -468811092 935072936 -600962668 -486916362 649523501 215852289 -115753971 713151556 -309114183 498936897 -834566975 561343363 -227112381 -801794648 -250639778 211060396 -550896956 304731016 -122005205 889791575 23329699 -658643854 -160179075 -553998925 17152372 -699432428 -771613346 742799156 -772207871 409174239 -688868894 745124555 -320959964 -155802037 -630188635 227740336 730775807 710522986 178501000 98650542 30346616 -597549658 552597456 -551732825 363564958 476798494 518869400 882281779 -883999488 -326020958 319025851 540606926 488366677 551973723 292833939 31799479 -681109576 135181273 -932815636 693061066 879709565 -873377653 225956258 766833614 -315467868 789127005 405770737 46433939 547987409 -866932651 -754591551 -222850037 711353944 591921230 5448086 -869550500 -228696156 881746360 -343586228 510316331 139313128 -346181560 -698179371 167976023 -261865668 -42740205 512585530 713596025 427479217 525977156 511224894 466775556 177825813 980072455 553515323 -418212127 304758785 720188634 412754130 340202207 113311266 -237472468 703745847 -275921232 899138836 -955281737 57388199 -695516097 316066920 532051710 877992800 -539473745 41802978 -981504346 -978551923 459381242 -551268253 785622723 -164538641 596519839 -184659110 724243051 385689601 -907297609 256582239 180944871 -155612838 -57442609 334260926 952019277 879515480 -868990883 -678053144 -83082855 453606541 350506547 -725968436 -627953106 -116864659 -278190226 -461304593 259070765 493998308 131817775 18361446 170172542 -165209745 332194515 -149665988 364352766 -194879956 -27791867 962054491 972950454 191430392 -944684294 1074994 -64994471 -693070057 564347656 -605221405 -966386485 305159383 -266912210 -239649572 -17228327 575137532 780173443 -695654771 876802209 742480281 85835887 659705563 -401932332 135578754 -161227510 -993959953 -361272169 -362166966 -314786468 571428063 -122535785 -985442679 -924812662 835200517 652769208 931619759 716465723 -110489565 -695871198 871059715 144597755 15832250 -268531458 -366193177 -334388477 282285866 -700395352 810931366 485236922 -944712621 406481857 734431192 40650521 -516928665 -86663593 460519612 975663844 -689054345 677124220 39539462 666828945 -414937413 208700538 504548164 -915310210 230800237 889064081 -371849295 -311401081 -29046778 -243432202 877831577 8235449 -407795491 -379585278 -213494408 18437115 163376335 455934885 -643210642 -179468070 -307386903 48443340 -807635121 -562786936 -720990392 -542771347 -583996052 -835653265 -279612033 -309623518 -693660984 421178937 -808800715 733256996 689948893 -466148483 421224569 -83658972 189417462 -181283440 904161432 -606195427 655458712 -762525019 -511004386 795832965 -525066467 356099642 799765661 -842193520 897558503 63491938 390456364 518591278 -85500137 -89204017 313972644 -364868328 -335101192 -846555104 383295534 873894378 -449357109 -356673932 184044995 -833857614 457226876 -149086694 873231425 -701616991 557434809 501638492 172690916 993989061 403401644 -594275984 767577830 -788722043 266256929 397824833 -139872759 -555448877 -205249102 981274023 -637424646 161161895 303412429 -27070878 868557538 -311780005 -926446335 623242125 -358723834 97813908 -448373523 -192639482 -495560373 893669468 -989867046 -774011149 890428730 315132627 -373664675 -921254558 787589408 168216327 125058654 -24751810 -179452672 -683342102 572022453 180558864 143334265 -572751285 318943575 -971164287 -526658664 836074539 90126280 476244680 -524448365 323364351 489767663 -394924393 87371536 -786665997 -15031084 -767383118 -134903187 513536118 953914168 -595474832 -916390756 -688072641 -761993623 800984866 62035960 -99884441 -663485819 -202409644 128957227 -867253760 602990682 406931215 -881290349 307954624 -716505305 -188161370 344967989 -173641649 573275617 247052655 926134717 -782015092 -737851313 -392371978 917396369 327342013 -897608360 -114317028 -859468963 -401930982 208107921 -13043993 -614444520 -625206991 -513426591 811614912 -55831616 277540341 110836328 -832161810 -604116994 -77402549 -831209750 -690932460 -558362177 180726687 -105685543 167390526 468603920 443487991 -866418141 343285104 -221080436 502635861 -300804510 454905542 239371197 982325042 -445841852 -151192326 748915081 -541333205 -318042122 430116356 406612386 -163465690 -334395309 488928903 93815640 -236846186 443903127 624388248 65009045 636153627 -314261481 3155529 842070588 -679870392 -163121584 -480255561 -866618442 -870243562 -723428610 -456380463 231735301 -14318693 -24425305 438607156 753771154 -521187107 538948016 587359064 620930903 -968774128 156573978 -442655802 681571104 74801693 -527989490 -163718572 -335984285 84329813 -983669406 -900043740 -263140030 826242544 -778584592 -943132924 908237521 -374322843 -573873101 892261573 -728152455 -692624241 -321935528 205515723 -190989295 -733388200 573265713 -898072373 -282396244 -667774569 413405771 856764759 -264956468 526293443 427320876 227658087 -868669764 802776866 -344337269 584269172 -459352541 305690063 -305105611 -367296922 173410332 -835785004 -698719807 326542570 473830827 206606313 153564604 292239182 292679672 -797643164 -440615133 76181512 688301735 -966136753 643579537 -951688720 -673848954 -851173626 930136582 -871612626 783520399 -20730384 -358653612 -482991645 928276316 -518318983 -102789698 449707672 -490840568 -354516781 422345951 -548030789 698629219 79347911 120391287 -942734295 -676109283 240828379 954704829 938971613 376696315 -759589579 804591843 73245484 593948690 44261912 -987206892 -330872708 828417431 175140939 294367384 356520229 253915021 -626253748 -841018286 -665519046 204896320 924023113 378731066 657198233 552321960 418801961 878776641 62445722 -450412640 582740099 -317426329 -480132375 107028447 170703009 81476312 -703842768 525652807 181766380 -974286112 -116835791 536588038 718235206 -450186455 -487379567 -489092627 -145076945 -944039821 119777129 848297892 -124392533 254765994 96365786 558254901 558384419 -32030052 678497728 -725694395 683279270 -361114951 -450806148 721189709 -615452826 756553806 358525013 607703247 38360038 931445886 -288973305 -679600783 210322329 517111259 95980804 -533513045 45998496 204957422 -51231705 -968510704 569131930 681437752 826120909 -495779114 668981044 177192917 -801426485 -535965889 57826998 628554349 -863787088 554334070 -296869267 -702812664 730917932 41796879 790182033 790222211 368818834 289670044 -260456882 719963021 -415558688 -809263076 -848113749 -623407014 966324003 -448071581 871887399 -409265991 913378363 -135754697 693759617 -8267441 -427772324 -559781936 -638826992 926770296 -761033736 -144662890 -628064828 -855578328 -789323264 -792279445 -900409437 160921580 -778459010 539060959 804021179 -87679143 -146407640 -852561136 -808801064 632433523 -177228578 505469807 -48215459 -619228284 -233586719 819331487 -278372141 593020514 789303301 658085980 558422910 103116074 -94394162 996483047 898400274 283831161 441531829 -215234912 295411412 -663860253 -80987161 -502820846 352690299 -33258989 -809479905 277118122 156868998 -432044528 738281678 39333391 -367050340 -27631137 -977796940 245622238 15789846 -455592271 -994785331 962389442 670297337 711178169 867628565 -775632869 179727111 593385180 592920684 104176623 202236994 -294531268 -288678749 855520 515341917 878033487 435163266 491368106 -413865840 768634168 196796667 -861680856 583251370 509594281 570405460 214192316 872701084 367896689 705521444 396681624 -154153209 -420617330 -381881219 544586665 -225423109 822197774 639236982 989314634 277611399 262445533 -68921359 278115306 -418289496 -839368726 748223446 -740289554 103089945 -632449604 -575987557 -139675092 -217767146 -436111854 42370861 359197093 -334926442 120522674 42924831 -770244413 350584220 -54019254 -380731359 -809963075 -460105032 -343655842 991373076 199536329 505660975 -292695065 -988106439 859247895 -779944897 -346535735 -946424230 596622750 494923164 730577620 546843421 -39955578 402837051 -182841608 258825017 -10682424 -970272826 -265360229 70954635 290907420 -207911441 328916842 -582220783 -558485202 -188543385 816788895 648969911 -355146234 262346268 712071169 887022889 -652367638 127595033 -800797442 693832000 37692049 -386717553 731605061 849556860 123843236 -42269425 -203353218 -887171223 -896184254 -78289751 -872800058 -84397873 -157894125 -32339579 -189497119 -50969868 -166090434 -194477149 -972534748 -356272954 -442651316 -307325061 36511286 154341429 -332267463 -528869946 -263934652 -889776941 -853917515 988979277 205690155 417591359 -670966473 691991877 171318826 -391812434 460719509 -564493826 -716210121 701762659 705367509 -66872072 -823447736 -619036423 179553636 -902125186 -149991216 -575932892 -826945209 -746394939 336147060 638145751 -646232706 -496433743 116497850 -180181941 -778185935 383227651 -77635288 -529952589 -524972890 702036931 930309019 140135975 -157999950 -183889376 -523123692 -704436697 -90744407 -630667608 -807778584 178474053 959472312 -146818160 4692192 -779184096 -499158054 851588956 683830244 891501959 382000055 189853673 5922845 510695205 -26431977 -5202617 948244786 964685850 658277782 -816237960 328653971 257782861 -384884908 -129191964 -772254068 236583579 558846928 59095643 -237249178 530035031 371080509 -704255152 280942577 57568674 -197737638 299502329 486304400 924980393 238027842 202994250 -414480339 -462634983 -208213325 843531089 -378086659 404134254 -699014078 -861318776 -518130217 -245413197 90389341 -95435437 -286570529 -741394177 -955795466 -31819016 392430936 -308543143 232391249 165891619 -801682054 602792308 410915108 330435044 672805239 362292673 863185307 956408657 -853988284 -960709079 -730547191 -588403721 440189612 -65503733 -546464190 -623719886 787768040 78076416 -7726374 315836829 453655782 -273975169 -481364720 -775148936 -977898393 734979172 306626247 481820347 228646299 804999539 -487743360 -383320333 965446205 918408006 422794233 -406548352 -264894003 518361835 564240595 -14731915 -790431851 -673922140 -994447300 -172838015 168239246 -852682266 101477120 934063146 169530073 956549772 898996061 513962152 819094193 -464280678 -626857896 164236496 -490332220 808455401 575049698 -833835826 -151869481 215891083 894872037 783560991 -107783023 -427038824 194549937 381856900 -587498777 219339132 744068066 -71442898 28952223 896062200 -464349369 816045478 709765729 300753620 -243429954 -777223036 -123468694 -708011737 -905883765 -590254261 786271869 -235064554 649283062 179706833 -432463408 -322786113 484659135 -949794608 402533246 -714652613 -818127123 -815831813 598278284 391654373 978809755 -264701897 263310710 -670067878 698502125 310334289 955390924 257228985 378713128 286483476 -77486532 -739006411 271745663 868768506 -142295900 -499801621 535672626 -954356263 -583009870 699016046 583503569 -947404959 641908079 -960528159 497010341 495501575 731353105 643463708 -315276055 -612282460 663174469 -395084778 595883019 521302647 681619315 721830650 -596950226 105650008 -440062415 101097459 982001124 -879019664 404305970 819081148 990571186 -293031454 -729084284 452151473 -550657211 -782164757 -887687025 72335130 363808019 -187616291 -787732044 -386495685 -348853176 799439785 796802529 -928562646 67184193 -896054439 -358925822 -460705035 -132858567 -632563491 980775959 479416062 -359400580 -559604813 -222311455 491274392 -889255766 -905253528 -297387377 -273990202 315498703 217777238 -290824431 101667246 -195010899 918311210 -383882159 -998441318 949354775 -129639498 -369002370 -657998886 -699859700 -367648863 111738548 17405116 431551443 -704662956 595174371 638138413 863738435 254036041 516777640 -822231164 953720536 -36458074 90731973 500534027 -193409259 214529090 867684532 -326585719 -385015073 -110895511 212452061 -954563288 -488263871 -532592486 7932487 -111494195 -749476063 -602536382 -161782520 -952417297 -454865450 -970930857 -448941547 189504727 -840029501 122440394 -780832377 8266899 723597600 474274275 -785888585 -62773433 579045526 -734124205 -770363082 -976601109 -247915014 214624940 499809386 -196262955 190294088 -804736722 -330287183 198946702 356419543 154087710 491700202 843770503 -662494419 -744901714 14247068 541275419 -344296081 163843206 193553272 916851443 409691930 706918003 947070346 375631524 45798372 195466707 589906003 12087016 -937915838 -585482999 -5331422 929614049 343108857 -715685091 -853051857 -406685542 440299798 -363437798 701450047 -853874724 -66562590 641228169 -489469259 693739859 199484912 -334635132 -716838426 438427915 553268928 992346533 213609752 2147804 -398889924 120164722 -422906807 -291931886 -558332751 657383370 -188257199 114442581 668780794 -725164435 -332730978 -718457113 -480601428 104066444 -32736161 880523138 280394033 318449890 961333809 893200897 -830238072 -20912267 -802547599 60770790 -591912304 57559728 -791805500 163228307 744030578 -291732887 505626717 -389074883 -169365765 699031409 201803694 844583055 -968731717 326350996 925963995 -132677221 -18006101 320494390 443220348 325236191 -835169251 425313025 542811055 -28668748 -886332608 174638848 -625000881 -91984935 234561834 -261618015 737522786 966401891 738223520 -207914384 101560573 -326540672 552252038 -451031010 -45491843 199733840 -164556435 -852466292 -837556410 -968323278 845067627 722701443 -119592861 -896996231 -836153334 -365445094 750973128 36870671 -170587517 -44974661 501201751 -294971116 -543876503 603916463 -507732956 938775591 -66512428 985914754 961048104 -924936875 993598363 490020945 317966551 230398880 -206674812 -274867157 -845184611 -452956195 939332893 -662573012 -611237183 176878221 -123093835 582296493 946632833 -594209943 134399529 95573737 83428669 -266498971 -815567051 -528633794 114893685 109970798 153413963 -542462985 -372576847 -768577505 886675234 -862408900 849916615 702231795 929814002 -704644182 190494720 -941734475 225149542 -448643667 80910210 -329463212 -83257524 -52326363 855753020 -461840824 -781140840 -301864759 -444852656 -266229792 -129170021 58884426 -542915387 593711807 634817557 258872206 821727406 617899249 365032662 763563934 168270519 95747389 812350612 -81042120 -372382816 -687380196 962096101 -647053978 -224161979 -467718459 499356006 -340298667 232968990 784990232 819085968 -660160473 -173819152 110077064 921524099 38739888 716676245 -77386287 -697916644 856022168 -846359039 -356052593 -85236308 -900825297 -325464945 -569656870 -287560900 225134789 -943175262 -808554313 -126931392 -299576183 665269850 858576417 -161375195 -8809782 574322755 771155432 3250260 -146374822 683895846 520377725 517518231 -797047583 -302573250 -603725044 174075103 645606221 -192699110 282180612 199635998 207391327 862968040 829629743 -749180246 27890584 -94464896 -940349268 351345700 -417715855 -337362408 -793623138 685191049 -389347736 -258984152 -790777482 527964093 544902326 -674873011 -28244755 975929527 -266340368 672533234 -523659491 -652282990 -381824067 -120861297 -454818350 -350550839 37743587 -182438799 -488536511 -713693965 -684747885 -694950743 504634216 -975946529 615666198 -969599983 528364267 -685878904 764127416 -930972812 -222999559 -344403947 -661916818 -900985609 90111845 -815115551 433399738 -736184511 190602351 669033654 -860810039 347663709 282865297 -738539542 -841998287 -167962962 482856707 -546401332 -479358336 -275487529 -987728666 -403642043 -968207996 -158974080 951135735 -658597414 -696077055 403667773 -606493701 864772863 493616167 -27236033 -850964709 -960295021 813028931 795533878 531826054 374768469 687484847 203285538 119427291 -710473043 645548439 -400111957 749413547 -839546863 553526683 -951595606 -343290500 -671199067 925539922 -308554679 -787902430 170578987 -354390917 546118330 -252417311 -433878582 595449251 -799512038 -845842580 -344754079 14352656 414767794 212554514 899021940 617023671 816255534 285136436 -534184749 -324596518 -365259933 -292365647 242662673 606788126 -691816540 928499544 -523647191 949743978 -424727857 -337244314 960321736 -575878510 -415509116 343236063 712052675 170626797 -871851345 -233039449 -363613222 554224657 -697737052 77209705 482430605 -108166496 343598597 608594876 -744396298 -944788641 -40891228 -498084259 813248060 -640214275 -292648980 -626747121 709369965 42239006 -108135444 -310424512 -465404243 -440105715 925590965 -399316250 -769353669 310537551 -216117552 612505391 -819286436 802670684 718594763 897917516 -661456826 668511245 -784915108 -130501694 423845518 -148288519 -533306293 -725222593 687996049 -418471993 -288002916 -546517315 -605738906 719286403 835316421 -932885509 521388206 202327613 -157345249 -836312656 333627146 402781152 -171128437 443726129 -634690572 -714693275 288900934 -534011045 952445847 -70645088 381193154 517509451 -885867893 -550338607 -939750498 902362163 235273124 -734971466 -592845491 -374028123 -127670249 282459492 378201907 -566755091 198472290 895517380 -191647628 -65274152 -851275828 52919792 414989628 -213902539 466157550 819708149 539281367 610255392 247785682 -145704210 158592909 764053722 -781018647 -986459351 827932422 -370372146 183765103 -730500631 -917265914 14850840 813230603 722245457 808921901 849290593 -961301499 500900441 -769257814 925931973 -765737037 100695749 -273161509 -6771687 -211439749 889366112 -559695393 666895666 -527934067 74343348 -307911462 -664467541 -81499488 -764205289 -356927416 -68877997 67540350 70439278 -751978961 -387502327 855558523 -956968516 413365532 -598677258 612226020 987412650 859651136 -660444674 -511673346 102469713 -476974306 590238125 -99838117 -549887799 -659314767 446506741 867864308 -650074127 231268667 -949653588 379183112 312615533 391916773 -642944183 -690596983 -429770670 963270793 -973315874 260634921 877206525 472356320 -349308464 278595418 -182202296 -817168783 -774020772 -531210235 639415343 -52608145 249626435 699446046 -9390261 -241389806 -207524933 -362786786 977291887 736389242 750580456 310196810 386837831 736145412 -837708970 -752647397 -979095055 -934299910 95515931 -415772206 -368860665 -300414936 -266501703 819975928 36100871 -502488676 387621510 347686060 -311995122 -879511265 -383735760 -406596312 -98240369 988483865 370109268 531596778 -176390086 752623802 -320660327 952570542 502831637 -721514439 917179121 492081518 383439145 -906858151 -957236730 606976268 -998892011 -448365051 895635112 722902191 657914592 -681777754 -114243949 -2164258 291069161 633765517 -175661354 -305197827 -436609678 656039551 325515136 -522170314 -873780181 571571907 22923211 -731324125 -864726854 -573152283 346383336 97404587 550852345 -630818045 -879144706 677540564 821653301 50557013 -158066925 -771674316 393627528 379809226 538413668 -218496803 848938640 216342641 -687072127 433070064 -503521176 -328008633 41723523 -52942070 585704697 57954712 610759464 -254364539 -340042233 -588664334 -290112976 578395157 253195475 381364937 216195115 -404950135 222648243 -146740653 -975791632 866795381 -177928229 -185178179 908873100 788638160 -225502084 754509378 -297957507 -410478251 956054828 671754074 -856206876 -205076556 247836589 -471385363 350006413 -249663601 -301438129 355458955 -28283047 546381114 720480505 424340524 -494549065 -893944102 373800309 -305474832 278451961 -363069515 710072548 952972842 985836570 234398308 -637461521 -747034871 511847817 -626802699 334686534 291479257 712722661 -181547263 -323555332 -288270235 -923600848 231480586 241614563 -311501445 873156134 -905866755 -686415570 -157446878 -349538451 587997922 33576003 774269112 -741523467 866708680 -488746780 -428320448 -703839619 -687217589 101812508 857283646 -788269581 -630610848 -40312089 -786977360 -791649558 -17025526 51076112 -340779244 706557388 -282664942 -356778842 77882640 -923989481 -643030635 585663458 144477744 709049507 345079312 -69730226 2042066 -803936959 849991912 -836207683 130175252 -370954996 124864440 460068074 -648409574 -974537886 106097946 865088197 849582085 986687440 362229323 -810485725 -938693066 -990946985 -437965026 15586288 645429064 344247385 -282394246 273096745 -824656911 167573099 247682489 -163169825 943104299 -165380605 -625664163 -779585912 950963759 -247214291 130861191 -582721350 -912098719 42693518 579195560 592889284 -975408758 -937042808 65481864 413793341 -247978022 -351802988 783599655 539574240 -241914481 -932551244 -282660632 947525721 516498088 -184950237 -325151184 -87191574 -355043565 -374427699 -185091112 352087630 -289612914 -2060342 282961160 822308516 -626091188 326555227 -507944685 -759400985 -542205044 920085219 -35246379 417401012 -760665946 98510019 -356759431 161911294 524002391 347718026 -738346212 -535040124 75008292 -450884780 538508624 -2289791 -901173184 388947947 862258749 -968020640 -468311040 -26617081 222058944 -115767197 -774046397 -426250071 -843825039 134063691 -787960417 -907398490 181303403 192233735 -409659708 493016148 -822527317 -359639980 -39589785 469756072 171309995 38436486 -108496687 814118771 -574119789 -421335946 -245216675 383516881 608607706 858171870 -809050289 134240380 -304606837 113742899 -681720796 -797248563 -185798343 -464117506 889286048 -189798163 418452199 90312786 423877622 -876213139 953736320 -975582003 -835016418 278062159 -105451895 739320545 6351873 -638409310 -638648177 262268090 1579168 -322295658 855628452 -550443600 200763586 283265562 -433027849 265727079 -714473018 -954504565 958494574 -573263002 -216932191 -676692482 -883424903 72986598 797004974 -295783163 197247837 -45189295 566822507 -928157873 723990748 -231966062 740569403 -687229094 -911627707 -826949785 -757961654 424542722 -461387377 707851812 -392874542 -786692069 -963243241 -388961698 901972431 152774307 -396958058 76473095 621009400 384233850 996009336 255263306 117853827 380330758 814858467 534194142 -88804279 662789626 -879208845 511251134 52185017 -809263983 405579883 -268730900 -473270664 834158899 -175177547 182715857 -622809524 -382925776 481130657 -354440966 185362192 429307494 216183962 645475421 -948397297 -496941915 -478958730 -731891989 119411650 318419497 -984359858 -790190409 626702342 -494557397 -438572709 58970389 280070310 -402213879 614236119 -734813117 -48845484 50588222 -74658014 -557987633 -784583340 705545351 -334584634 -775596135 -515676812 684688902 426413612 350069302 -279021384 394183785 -495008685 -564497279 -651324520 134201494 252345437 853329086 268372180 -847690522 115982296 -767207582 422011819 -996193943 402883383 -710822749 -596046722 -49654460 -965288798 683665935 58662323 -463099349 584976545 -277778661 918596870 -277067345 184293828 904512469 407788927 -150065052 283543274 -128847525 429957413 -577760364 -305875467 103923389 276329411 -40548465 -653614185 -465850545 -467482700 -886874816 -971132175 -217681126 761004423 -690480238 920873485 750974723 -83020425 598152717 -21304346 -774621942 621334841 -611440343 -97492456 798868842 -368911228 971782109 -318672688 -625958524 -126287691 -458035124 603928076 270520685 -665015001 459471828 584400682 864379038 -618310812 527956948 -75275465 -557654770 -621238685 315146304 -641119917 -61229782 -306197322 -553572217 -502831316 845683110 -841869170 677700128 -199877882 837183799 635420040 918288375 -751023418 776428790 652448969 65208015 -152528847 537124523 947489886 -359737611 973832588 -47912177 -787023282 537350286 859894424 852661427 -333818277 907361495 280948461 -954411400 322981464 -119117742 335901780 -657790623 271136091 -858782230 93601329 -799524237 -196212120 -856292189 756745418 585112715 -27658630 467485886 83865931 653162481 913517600 980003694 578145988 -704030056 749488272 -315705605 -561867972 958732152 -213554480 -273158158 390710586 643964673 -135494845 566730275 -765300498 -316757393 -881924206 -670769520 -219371667 975281224 -79845019 236946385 896310641 447450319 582485670 850908777 175578743 -224489264 649226630 893655646 674786165 -595669598 -235569719 -606555876 884553304 -980739494 -306339020 -842981236 -476361789 -461001735 -104776319 625056527 13405137 647159089 -446982495 571405497 -212467319 700181751 576768436 -85946630 727655941 -844278204 682302853 770873907 770783539 606589573 569742925 934014316 -87388201 480835131 548899948 201967535 405560727 -918689051 -510120396 799904904 624012082 -440814977 225664162 -189856388 925699512 -6348967 973819226 -60781556 748169490 -732042529 -699351627 -172010728 -731702858 -697950195 408313621 595062520 593379906 402449574 567944168 813032424 -140377189 710226853 -452464078 784521221 -35980815 -721071670 884944344 114200557 -368698253 -813999974 -447386055 -188157032 -213957434 204539084 507590839 -807188749 700694357 -234946377 -784349049 -333574790 540422365 461886604 -487052656 -554075755 50779234 -754827367 -268905557 -241174573 -246214670 -63369130 63885055 -268683547 -550610015 -333168857 655938923 -443176835 -907271182 -416782671 -68352261 738719707 446964994 733303020 938359720 139476587 -123258292 -261650267 -26967832 -800742217 657107165 120381047 -824393550 480310452 126417072 355435036 829983547 397228854 -93283411 688999002 -879779299 126533444 453679955 -814530171 -736203499 -403850114 -973651416 815121937 -484668258 -314776902 -121311565 -544453900 -837758738 -650745518 -726608718 -793412752 466172185 -100438080 -49782539 -543492422 839152908 178479515 936223652 -581964151 845839354 440468446 843989528 221781142 -831663566 809821691 -976797568 -892531384 -511914210 -747821699 898793960 113839100 -332093360 -497514301 -306318968 344542500 242908635 536556281 457592029 -423077045 -950916342 -560987347 318450676 -433440531 -334174360 584140445 -300972281 -870545737 403087597 -917199288 -822673491 -952751167 -604332500 31015569 129751925 330105802 -820044207 140162795 200727743 354666161 955661392 757638204 88972911 -420908043 -283134152 -306466164 840396764 -362504033 754272247 147969305 423597217 -253455904 26982218 592318165 -227811151 -317018589 -314602034 -534199098 -248001851 810577536 -574152125 -602125668 353133824 -80596296 -882441958 336539577 860725251 846493404 -763805242 -405497308 -49384330 642846324 -558517802 -524349996 -363243657 -596261967 -310512731 -289325015 -701431161 983569982 -115046257 -290755806 -83259933 -708829924 429478434 -662979514 -168844170 -937909929 -781959098 680450310 963297877 -586724781 -338880993 791819211 -776359111 -780950380 -539959268 166756651 751379542 -603875707 344871871 -653305370 -811489902 220584942 788683106 957185335 875083006 -675726977 -694406052 -341066963 -53233492 -857288099 632380682 296891065 -172773942 -620037994 -555512939 -613810123 -41165390 172034965 502362651 763296644 -222651787 -465305061 454799227 -687585628 -231696985 -730136169 800034116 -579919916 419863639 -826395007 -395022655 75536811 -433187705 805106173 -444296152 124683407 264950050 -499048382 564411068 -756744950 4958848 261020371 -915538036 584849668 980541001 495874788 627106082 -781396584 -343021475 -879961783 204039168 -403435945 -429900884 -864994350 -617830770 -639047509 548929068 95120510 -655714113 61957639 825793264 -624589012 -444995417 -981108822 -593831013 246489967 240941584 -361717554 -643045211 -978281658 -272387394 923060222 882346742 610518526 -857443356 -324331703 827323939 134736776 110455471 149862026 487428401 761554480 975224536 -537089329 831132009 813988453 -215145061 932337677 -515452335 -583631934 726158178 -408086175 616356067 -868760323 251497311 -416083480 660973137 631651622 -438127770 391193549 -286764021 561773636 42481536 34677410 355515347 625248775 -986756255 650882785 -925521172 483057915 312575136 -415034472 987911305 -819111854 -128561147 472842371 261909524 642009153 138184951 -807311148 -587349532 -600295821 56460116 -146497093 958705251 794704306 481033981 917925055 115309311 875910242 168787648 777352007 -212380493 -591751057 427647927 -950023571 638947683 -562256126 61410702 281765118 -800450568 819847606 21394253 835759295 -703849582 -300892538 -91642197 -902704331 373801011 297767463 835608381 78284048 901085952 919852025 -275309678 822146363 -191527207 -901666402 -243551959 -295676032 205594848 873601776 -196380406 -881615053 -818226820 -888173420 713019800 -718312378 653897671 -450705151 105015931 447669971 -94275894 -138690034 635848735 -422892903 -701642735 -733564241 -237007773 -345003860 600139177 951004617 818653876 -671365694 -458054068 772787496 21026117 889318019 770938152 980726960 603744751 333572115 -612614660 503590810 -225550671 -268295803 517058228 725308088 186864260 640783140 571573098 402720558 -851897570 523482795 -676925994 -245639704 -334381615 859240154 190474734 530496579 667704224 637277650 298665563 159711658 120909532 -939434949 456738630 321541204 -29000087 863129816 996325525 167057107 955252935 -935564920 -552390400 -209006672 -69492858 -595104420 -681945384 859231183 964869331 423028195 -417167926 608052777 838885195 975850568 -558339177 448882164 907586692 -783004196 615059116 668989704 -104613602 509497239 296396418 -912052584 -537502638 -364228816 228231894 703656050 -167874838 -42365655 -255948458 517397050 106541598 984821886 -834954614 -398211526 -554970006 670298472 -248328015 -648368902 -916470894 -135734231 -937178693 -981786134 757330634 -700418684 789465556 123374598 -253188925 -698155199 694200809 -321183180 -747193369 -142962172 -616618290 298882886 494767649 -48593520 -158966239 -132287937 -194227777 -773677532 -521253839 -448010864 -977297430 851914843 40231514 275450305 764962981 119702171 -369748029 -55386347 -101356852 254351899 689110328 -857135668 768000213 -494353320 -136942468 264466426 836018770 -968611195 -324424155 -36274033 -133571040 457264589 -795533724 939504912 310043422 -343509333 48844409 804623997 331575758 737262037 358669452 -799295431 -74348414 -6016682 -420902888 -724740243 -406285329 -426657191 -820637485 112880560 782297631 655405440 552826953 575536768 226687029 -251368074 473443905 -191331306 367621026 617096559 771718430 177825348 344873637 -803031080 265650124 -161695289 807108826 888904799 430061979 -743216272 -952114275 340707690 594653601 -109936864 55411238 997173912 564575704 650747355 983537984 -853391183 564981333 -355513587 -730609601 -832673369 -907715728 685233261 964925513 923634418 968469423 -913072433 -351175669 -255634331 -343317388 -879569476 775141726 -740561585 669820916 858374373 191800439 -448229550 -413750300 203424927 717218840 494666387 -133132758 38906088 170178245 707685806 15571940 751288245 44537685 706064036 657551645 391316064 -412636265 525367041 -123325262 -508289426 -965270338 -369405681 450248982 523623794 529628867 263754274 -720234931 -320722452 720950135 -147763543 510696190 344432081 740974523 -748439405 -466835361 85473990 539061785 119402126 -773825916 34042220 -417875134 -802326927 670986578 -382528371 737089599 784209527 513393899 543429630 786088112 979176985 -49114271 -799549655 -657121407 560643925 643673568 -177690034 594482854 -251456639 -668720970 980701560 932890866 803389989 -254438334 -269813982 -544410415 490894249 -671146112 572284379 -127965873 936844987 877991859 497631994 454989599 -3088042 499784960 831821153 -77226640 -812848981 719114851 -258775748 -426489730 898473348 80589560 -347838536 -91527792 -786113142 -723902564 905046607 517466521 -687158926 -623437164 -607124538 -991435407 -321434679 -497023029 -770372557 -696335822 604778267 496776175 752101277 745202884 232818523 -109970252 -442651621 -794976693 -479790507 543038921 815882032 727707202 -842930928 737732712 -425590029 -395598665 -911882033 106521924 -47206101 499047101 -214367886 -588047415 565811785 904637665 -5766434 251204328 329397315 627454638 575860756 -286117660 -254808443 794756432 -802658458 -812015472 -851830887 -639285864 256225751 -868899409 -64135054 385538917 633710800 -189421364 946711253 300184708 70225781 371982333 879200610 -12765427 48590331 312365580 101674503 -986575542 403516578 -870273225 -961152380 -540644578 -384931391 -419728644 -921892676 -936571458 -275192630 -365429689 457745533 430317324 9536099 -92518317 836107063 -796992577 -312226791 990262579 -147158688 -52296427 -573430916 -843287124 -631899856 130733177 -754841435 -682760637 782343709 4884605 422488716 -524670936 -377234776 -416803578 414417565 523664674 -232705350 603324762 -744390925 465488421 -577218311 -172254439 -817012267 -93158368 -518413543 -982737977 124358465 179754083 -544160364 480319272 -168740673 627443613 792816316 -256559645 746858196 -42404125 -397075427 -707094063 -570126555 -282855234 517947338 413918891 -931083266 54444659 729669116 468829596 520895174 667257703 -240248731 477754655 347685554 932364085 -808769102 -937496411 -179373197 503927831 513714862 665113216 531622192 -901760461 534438164 -867519584 -914351950 746602036 433280317 -165224791 -847029601 -784238451 -608685259 340452951 -282778019 -693393200 -47299076 974650747 551902623 -229461955 -638842040 493284004 -965548563 -203681277 690688553 -266613359 -490441440 -237802964 -896811429 94080358 -952447186 129393323 521649710 332555608 -401268442 -447779505 670400753 -882018134 666832048 155192264 -338083442 -421562575 -592350385 59695511 520765847 -832096947 421107999 736214545 101037453 -412167235 685549344 -396594967 -529911119 -806095070 -700123269 -658835186 -612119087 600194403 -629863805 805073717 -23206603 538328760 -641171868 -238735957 554419043 -577853178 314316938 -270480369 -396907656 -678930774 -645461476 -177739461 828645251 -454866045 -887815768 -307224762 611656517 -127762150 -854843569 407460854 926553552 -918212236 -558369522 -865537096 685268581 213502786 -946890258 -957856931 -405448807 940688241 574899924 359942148 792173960 780514009 -513245878 -519495300 167649350 567039167 -763744820 574331030 -315445031 -841618272 33659056 -309803115 -784994656 -865663489 -152091880 494793451 -6099143 700924017 -620635198 -790423157 -325683872 357102564 -925614814 920588977 51792721 111677005 26604640 -138476543 -978202053 -850544985 -819566372 -641094335 17400521 736383317 310270996 -416754763 -812868798 -952921119 -144598042 934095460 862964656 154265334 -983192275 135693499 372101541 430431838 -795858846 922059785 1024559 703764205 220748835 -525516592 -90303155 727797916 -6675882 803067798 317758354 554808329 234323140 155784039 605174793 -655713142 865519567 -222726117 232789305 -949780462 -53613197 -20197309 873918095 -790039904 753427947 20325119 823748298 344020183 -940288216 639830336 1627893 -370453777 -625516763 -326541845 632978735 466748469 -462938108 182373842 216719171 874704011 533650245 860428158 -608309702 550219434 94315529 13859788 -959342931 -641113622 490330984 855357945 453236972 398582397 -53593306 46412952 667131730 179150654 -272229210 239607059 772754283 -888602052 -181772432 -38004761 960008924 -444327920 -747886867 801186912 976236889 170542056 347665282 317794707 -997083566 822020179 678076624 967340017 -10373583 -570038589 -24512067 -289407831 -571519714 -815945592 325059562 994224915 -363473529 -351309662 -726275589 -122059912 303206830 891463126 -498896332 399609045 598120640 123157748 -362617151 742257032 -257959246 -168961149 -353084041 599337202 -547028998 131751432 -88845955 782607562 -767604468 67366322 830291756 455199090 -424399202 -387652112 521316464 -674345852 -396732522 -997030833 -877618809 -939622454 363926355 155681484 -107962360 692761111 -565197720 -113617657 -110514060 -992140006 -55093330 -292854487 484803902 -426147647 -848454561 467980124 -447750696 458294933 -735802116 -126801777 382544621 -457722729 77708951 399288422 181401824 349934332 -822053423 -491623548 -765064480 -525304581 306677672 -688352831 807755783 567846620 435658264 -300658553 -822407335 31019583 118155969 -395965915 390127130 498755935 912509891 503836783 -632989893 148807660 182097852 -493013928 -506026576 -905523449 -811815877 -222511093 842064954 404924900 508305019 -853745572 905864016 -78080321 688391271 724265854 538605889 -938082903 772316165 -915674788 -455225167 -855847117 989478784 -225360916 -639409986 -786610532 -565340605 -366982317 -797442516 840031026 28146999 331868811 -753420344 820889457 541072225 -926210475 807610950 -928665204 -727027115 39486696 -238186027 -505345517 27835252 274635917 503316817 -779214338 -457626093 872050444 162886727 226971800 -406856819 -847440311 146538976 -873245849 462488792 794006729 701341347 -825816872 850306852 -874541113 159924332 870035857 -116947423 268752643 -59452170 -883864557 -688175463 -747911189 -314395182 789934134 -651621879 -446206228 -925505834 -3909421 -248859930 -528190455 815046255 83468441 -17647284 -167666243 -642689668 -856298219 -201433716 704280585 458755466 -841729724 -722423716 23009461 663428614 693221189 -450775800 -880896766 186335383 -561267087 -577875335 975111851 -304562501 -57113110 -178423095 -738757848 135554668 396469351 894831809 -633157026 -190264923 -239049942 -25457907 -262379174 447263350 -812758010 487270714 157766267 977102954 47739122 -112520841 987835728 905248520 -651754482 77132297 -591917884 -172437479 386084637 -574888911 -323177582 68555736 -589703116 405899955 77446261 -643231539 -660251949 -66782301 655019032 805390653 -165584438 -629516931 -362522406 -192653901 -38145580 761428165 -238783069 887128748 962784607 -617670253 -145861670 -428711533 738077453 423876847 665283588 502110575 106244395 -971943748 -689471153 386549160 -462183664 257741672 645727203 896593207 411340217 -29181445 930197842 860951342 883364839 -539599642 691636787 644068308 369996756 744918433 -675924510 -311305853 355508161 -706198702 -295652176 839261481 -794920636 976187641 555594310 405327218 734978534 116882518 828718053 888926673 -201678569 -875786601 -893612128 171625782 294398018 127878874 126987315 170205099 -656979248 386829542 893813733 -880060038 211086178 -683005496 336902748 942036117 -843297899 926795116 799851220 -570724959 -593362562 -972935659 -598979763 -191241033 -14753557 -420793540 862069618 -858142206 174336735 -406733573 -367331621 581692341 386605257 -920265153 -57290729 180458368 -986371661 671117738 457740986 -378858108 -165511214 -646660583 348889407 -165010179 384887795 320747870 -899626871 17440827 186287200 -179181566 -174779261 -247044794 96747302 -851310493 964576454 846435314 -209397594 415578848 -265705798 935161162 -283176615 -704449103 -364567907 -878727271 664437912 -712144887 392182232 -636229470 -777851718 -720257312 935011824 663460509 -296445686 -45441658 -795357503 284604921 239269687 432513978 -161351425 421606029 265127325 48830671 487435395 460496818 -88113746 467760643 310162211 86754533 315093960 -933249042 269363588 937841910 -738877178 -665778509 -818929926 -223612888 154104096 848483211 -686090140 -374042639 -141038109 -456778832 654569177 -606545065 53122344 647582718 -885631642 -97421783 -579771624 724409942 836081768 227712951 -71560251 -356864379 141707135 -270293601 -714558052 -596419922 -448153159 803018516 -76872702 -853297630 -964910155 -95156263 -893112952 -414750735 -694593571 -491617137 712521960 -967560471 293675910 490760002 -560207529 103043318 61312148 621716431 -413144099 853121465 -100803401 -417529302 -125533466 -682064953 255783163 -58072708 -265850673 -574343442 321968609 520917061 662143583 -235589457 -986994486 -586696644 442798456 565954054 -155364180 392438134 984032876 701543412 -550636952 -546340668 -500623923 -370283291 799891478 700679153 692370381 313528306 503917903 -371117975 -761663774 -572759890 249128611 -289265939 366496003 330914461 136211569 -882913364 459176876 137193383 -507852801 -72878470 -507307283 43093078 -752136511 90042283 968540083 -133490317 535487929 -152759999 -259301771 589248379 -26938252 -755228390 40897848 -826860477 651845668 -667268956 816805785 528147542 573538154 -712932664 949736979 -239627670 380531278 -509184523 -525257947 651232645 -669269212 -653916676 193117745 -175161782 -294533424 690766929 280470075 -325563204 -867651600 692358686 -195054007 65282039 -423759844 -361795637 238168018 640588442 114974996 -921277341 481509570 -260404247 176448009 -10961324 355149914 165741705 919627117 -132627521 -772018456 -104170067 -677051142 258981430 -138269178 347622694 615088868 204879666 483004382 42633334 307622217 312588328 -197913755 706985769 889482027 465600206 -748786501 827059895 -473301590 171672299 -791161864 -795642363 -929417959 753230076 -454072451 -808599800 424368393 -551377121 -1930973 -935804236 242580206 757144285 556149615 -549705592 758025102 751613180 290180107 -303496388 -629020921 -598937378 456278222 900674000 161650399 300402500 902632726 -799247598 107016780 -277665479 860935376 -16383139 -476009250 -856984146 -784830672 728394670 828767127 83607545 -474615689 945818366 205596687 -253853908 -926200238 942705487 39320754 434078703 989761013 -778733785 -975554796 144462283 -507253173 -346617074 763853958 593405912 358718873 -734423981 483055306 497754159 204609833 -945660785 963908893 452380912 780178342 28029421 328933849 97493777 -243090570 68139623 -717723125 414883778 775149615 -6857690 -485699751 224651419 -679206078 703742463 -449955247 -868213532 746281403 875110026 -345229025 272555059 775422373 -647954658 848263963 537338715 -254845863 693961149 -35159458 -119266741 -440625543 607750522 -927641049 -393984087 815480521 -465736055 -382951431 164430506 896643449 -814086268 752557724 307620530 881806378 246547172 841329120 -225952107 -405528159 -33155566 327703370 -81761249 583857371 27608831 412725440 501344027 22818500 -126092403 77413077 -89773243 -971963375 -853060199 8010332 772331913 363657467 -97128342 -854814708 392160216 -818198957 -257002448 8243487 142194730 -107126841 -619195233 -709647847 -415790876 -400270134 -769682158 -638554201 973358020 -279330158 -698132936 -838196384 -654967313 887934662 980272729 677976865 -799713946 -722943531 -162080530 842924256 -70257509 653121097 -757840978 283811740 -831260192 -927272024 -328272316 666053522 704382742 516135157 648882970 -597108586 281660475 609090686 118696064 748431732 -96999889 -892859349 354444328 459526737 730478010 673795982 681865942 436030751 966603526 -805961650 358850767 97175592 493155823 848844029 992743794 586129411 124373163 -932989674 473120295 -689992143 -791938216 -248418957 793805477 -281119649 -874724658 10470817 -884099683 -985927577 60638013 335799727 792574464 600975514 -338544437 -345496054 -361252220 701369548 906065894 253586481 -529213775 -373034264 -64165752 386112561 -875149260 -309509183 -36721154 -302533113 650371245 303615769 637233 -767919888 -741958057 539690752 -193967205 659595325 209713039 -828110463 905545116 355491767 50614348 -470123179 839122648 -276017235 -565772520 481622208 375748732 292004801 -243655915 337019071 -421561655 -220690758 -844015127 -52478534 490989456 -427059481 -601374055 -187258024 -293204607 829287789 729057569 542336297 -314346047 -967163882 589344568 674544042 -491761816 940101620 -811757142 496862580 749613303 332291174 -624479950 -820250041 -183661331 182666761 809279857 -609385037 -598030219 -310674757 435483818 760040356 -134699303 -164026194 987527673 -871122191 -919215270 -939486351 -876137433 -101467362 -35084409 527954492 415023943 -859252398 -891452505 -468243112 -320806174 -508785150 -702283592 433235402 -150630600 -64060328 844283209 562285315 591457630 465896283 869243994 142676711 -667193025 -926376509 164617359 293403320 -515087234 -293512542 178353451 786049745 845671969 89683800 447836420 621991314 -349408089 517876900 -428406857 718862349 -313138046 803662263 492982640 559271257 -875592856 748967124 -778340428 831649661 -735895783 -983066659 940989053 317352823 353935917 -892907783 -727102090 297962970 -752034946 -429904095 -949816963 766193365 622109851 889166580 522791073 -633549504 -522897706 166130658 -286012754 136941915 -271720505 -785303099 8620614 -986811443 972348932 -827905491 846772453 164603943 980259533 555445937 -764348840 254887663 -539320865 -937808247 -133927658 -295126824 327779751 866236322 -940165323 121214817 319368775 -21414585 412494193 -301246384 243705955 -867427643 512655604 468817996 750681795 -395338525 -559373296 680541334 -96961967 257453076 -929311304 931945034 934866778 279551491 875502523 246233764 654193305 526173020 592163111 466715332 -34386229 -786646082 232307772 569509742 609981372 173322002 632117664 181557882 -595949468 46457327 736759603 -575550439 -121923371 -527582901 544073529 593973225 581604669 -185919710 451544542 886985447 333954112 568834865 143246345 -615385118 -469927187 -21751016 704539795 763981954 602076614 -447827553 717787057 -675170800 718144748 -616678316 -691525564 735015634 -27677740 675393041 -2726273 -217882870 -238660716 748389563 99062917 -929021274 40127926 119284006 994055558 231466169 -635683463 253151495 -883872425 908787521 -251686132 507032866 95350487 856145639 132569405 -962056606 -443342331 -304476649 -85227617 756181745 814377516 841035850 -345370312 -610327289 -450153749 554934090 -814963107 576834773 -886092401 752295978 -855083309 214911800 628772903 -491824134 -606468875 -871149829 -581184284 105065320 -739019877 527893600 -973822778 883805122 -353684460 821721700 -476012890 355012308 377154272 -888404353 -136230299 -741272720 689195566 476383576 832504045 205220440 487782902 886340819 729309794 953002864 893366613 -742088791 489281038 476806125 -375217277 -331089446 906030648 -70802319 -740219738 -36841431 624586398 896529435 -228429354 212660479 -974757636 -394083811 -883129575 -793556703 679758427 -270957881 -310360051 147015777 -819436517 -161344897 637582680 399729455 -506765626 -912111501 -656770947 -654298202 860559799 32301279 688983180 -921460498 632875786 -41757425 117030664 -107005796 -773057049 798595383 -25214956 -682833069 511309922 -327029018 230417189 776233386 846822478 373672935 917973665 487870870 -57307538 -237498584 -101834409 -85499045 897449535 951185664 -111315892 -968820511 -307240722 -921725914 -187248815 517000810 -65717720 13682114 710543525 -771189264 189155134 481910976 548084290 -14103653 -96078427 -583165948 -608989019 802615315 -202356272 667214431 811284130 -89351941 681683984 -797512394 924079799 -805292771 -816741700 899188199 908385823 53631968 130946115 387499985 -162956934 846484991 -865202567 428775688 502909611 532913212 -343584235 730724302 156846370 100547249 598254401 867653781 -917385910 203029335 -30569594 983608479 -235569427 -918099679 -548077599 610529131 -852877591 -56472595 440566801 141839093 -598969027 -655145162 -766277022 -572927809 445354504 -799487201 -121109521 401494289 734961735 219923862 -764826555 -27226165 582308956 -391239473 -851113804 -594684325 -333125956 -170816784 -247414551 354324100 651321453 301334033 819475415 590091136 -737881126 -568046328 -675223445 -679535713 -642607769 556145287 236709363 -380615298 -113576552 -810536503 -673604862 689069822 965298696 -981358738 3158612 -955693703 636909859 887867713 -460028385 10841526 943555184 612824170 126018824 -858984665 -965972685 255616806 -467418684 -686046969 274959975 -820847758 -203427405 -800515361 888140532 503566850 423047643 -156452394 -24100551 524679218 -481578175 -372536994 100618097 185947115 749654303 -358213960 -83765436 587285859 588370246 -142638245 -910551445 -290038368 -325349445 -236156788 -976861901 884599684 954658113 527162991 -530069535 -442761856 -693590799 -960142965 -701311299 -595536375 -563820309 -97329086 57808115 -208149582 -988675747 -771705914 -708411258 655441840 699045950 11604848 -662184617 555683601 -656335872 -664466381 852653456 8530539 745613268 -241087730 -891998579 491036467 686616290 217053579 725412092 321080636 67314836 901742599 -582008806 -139227015 -153029343 382793712 325684396 359155164 -536954485 600324643 -853431718 -241725670 -715788927 -180556265 -513513558 -586712316 -730023937 -868733891 362099602 -976863368 289248729 -330038339 -779228751 390043560 849683874 -666766629 -901112315 -579366495 852713773 281783680 -560986518 85615236 727605269 513578157 -370380071 -310099594 -158902989 -631109331 -180864219 99568599 341614071 865899467 -925226757 -787078208 208783448 -295224471 -81329284 946403116 -441715793 630030174 638273072 -755710960 -662886819 -292999616 -627718860 271282055 45324740 -468216583 623301443 -967899005 387256526 -277301628 -816360517 -825528548 -191728411 673553134 -405574497 -541942828 -431097120 -657055897 98115588 -8849267 -838595017 -807523290 841055722 -536366100 388909323 -674659780 105161761 -514662642 366279781 987800992 -45381705 769539127 706628159 829830151 498588273 702254940 -885318547 -257803429 -589859669 -353725430 -702413603 -646847471 -404211982 374661983 474214940 862558943 247177833 234399522 -203857188 -552284495 -151762861 -230262511 5366912 277218440 -170956234 -863398932 16615589 -812917749 383475836 -748030635 -970745332 913011835 11520152 -757593434 24314462 244120379 399507589 -40416853 161058750 -986456247 300963557 -962120434 -329671296 130624597 -957949810 271640740 121983289 642791491 963772880 -904095873 -819126370 -795401952 -542702844 677261906 503461787 -246874862 119672459 -115332767 207664872 -607110204 -618786191 799493417 301729758 -251346279 930165414 188048361 -636661306 -530379319 -677647541 -81097048 -662547988 -395077514 216077197 -64604186 -80959765 -436063414 680658190 -815222843 -532294880 971000833 479008849 85009826 -350526562 -985918404 -268751340 -230157657 -290433700 334333176 78497298 -182106179 776321915 -988103742 -674276282 199758043 -164067014 -241208 513580647 897481973 963493967 -467998176 -238329542 -750881309 643866415 543943884 -163255809 603663546 864465039 804874417 681226019 846440831 141234427 874271757 -741931952 -512191854 -108396390 -49207110 -540460053 -215665497 92114178 535304271 193032843 -239002225 -712210152 673462616 -953273230 214973558 590812798 706570032 587747155 -684979884 -683978989 -404488538 686094836 -204053439 451469610 -401180863 -928026901 844427705 -73667048 127184483 -868341894 -84135453 94258698 -43824862 664972955 554753699 -765362689 762549312 -741561503 473613127 -124616017 -911003559 227539669 686464902 396140969 -391007811 820291038 564473379 -846099765 824959496 -370889963 103162910 483675346 -902915022 504361391 138915223 -959196529 -59092451 736155663 297564392 418153324 288217589 465756148 -622535602 -901519413 -964638380 45974424 -706518402 193245547 -933768601 848065821 -772743024 361245490 -960487080 930736799 -741353713 249873513 -484273661 720487885 -375297367 -591503494 749372507 -131671287 -843417248 672627316 -917894048 191940206 617722990 -611801481 -372112957 789431059 -539880367 594848090 -667652861 700225676 -818225045 -19004776 -624904200 -205021502 4022016 645094599 677778939 914772416 -447229061 -59562666 971789818 399373522 -478433366 -5744368 968036139 -837499867 -2437080 524946813 -273882556 -139577749 -567154522 646089037 -203127544 -336226957 -714948612 826131162 -112923512 283243404 -65222275 885348108 -929039754 -534522264 -320926581 -255853908 -613901013 -537318377 -44921661 -320343689 -449783328 571641148 -530612073 779658218 322851452 -810418342 615721217 409671672 962976399 198765247 -75703692 682940543 -645855755 443696053 -703578441 -381464491 -297848704 252872162 833695369 -266800379 -669301868 987172310 821232757 -560893852 733425617 -360715157 237702803 773726954 110855688 -800074039 -854794048 -969243927 726604191 -327255394 445170611 -179399882 -896966534 -449721464 -674622717 179846868 647599487 -899220218 673928371 219997953 699580547 -902443809 -952984534 872819901 -898400193 -244090124 969102342 -178524504 816178030 622025538 156371516 692224715 -131176863 -492655505 114625380 124966061 798951643 522068616 328444528 -853116522 660295009 140165113 -443450890 112773937 -114703082 451382303 -439749777 -560426003 504951093 471533604 474134008 -53560203 864211179 311182275 -64041462 249167254 964760512 -273877710 -625017404 -303939815 966253947 -15903278 594515799 -325602295 -478167989 161012930 -994966197 979359760 -868201873 -724790063 688140698 843600197 706321715 -470297760 756560244 -880165444 19429418 415456866 -877244416 -260640779 728702897 -628601922 685122147 -40194625 861214016 -512988083 -273757069 180223485 -794732885 -190566180 -2602482 -165917453 -792932002 -384659291 97739107 -798528059 -51800973 152973606 -581216892 133894434 486453793 -72529363 306068995 987524703 -445035930 -831960480 335214564 -966760949 777041089 -347686554 -458714172 -501579446 -653259522 457902218 -939869435 -439906937 -765799863 799911143 152878616 351306384 522256915 -588746055 -62104793 -687605814 -141678659 -394661670 -647845058 -159216774 -713028680 647510448 671755182 -805225735 425592009 347315295 -975269695 797044299 -515616760 -645027940 12491002 714237584 -701012874 -823683495 -722143125 -410253940 -625819099 599721001 -127833868 -938315821 156880540 -13837071 -344892898 -185567819 183939185 -543861851 -627914018 340958359 -649446149 592176892 -87992112 -204676207 749078412 539080740 -175559022 -747745074 -723850154 -881024714 751194211 -807128304 569980663 532341720 -927007568 99094136 123710941 171303534 23631603 -729991121 182213908 -62974010 -285781863 124942113 -117755585 398456814 -145852494 -599384108 -195233551 -638689947 148711008 781796182 630350231 311005336 482229950 -312903418 -190177246 883247534 -49706098 -774733320 387431578 -93115239 -324235115 136270153 -131720470 111007668 991100009 657071614 850977386 596969281 -959467589 476788886 934424066 -145701669 -579593016 78894157 -662811819 467131843 -467099150 -708842240 471627284 7838553 -502592851 -871691482 -522273864 796319945 668704796 645513994 937234704 -879218159 408933148 764314459 -725691714 393644012 796132696 -216957729 -921654289 -184135739 -116915661 -461213530 -874147876 -922666925 119716164 428447654 248933969 889304929 530201432 782428170 586743425 -209610672 340601000 -314978038 953640673 -766291503 -94634501 945004639 396373409 125338581 -182402004 685728869 -347486608 -395519849 130106440 -425150591 -998303757 720094330 487552518 202986417 533382945 -211434574 -825274913 -904989573 849201343 -661020354 379884115 -835808718 195517140 768693396 -464728159 -461078267 -712186659 948718536 -480793674 -555441162 41118661 11062303 696519928 -509852093 -600588222 809406265 871291498 201293470 249625464 537230282 -822828938 -733386382 725603011 471277184 429421308 -963722531 618355480 802595227 -522292609 -170912258 -812292892 168099815 -743275314 -890336189 -304928437 873541813 -454312949 647603620 555438400 -910607820 183110551 77218558 688917058 554368234 -287953603 497570258 690165239 70253890 184707308 -72880401 928381459 -823273955 -912077386 199309157 569689580 -469974788 -788781446 -124581552 951638703 381917124 191955315 -140424465 -969072967 -657556932 609151264 858872647 335794335 952146980 -491131644 994028784 148549817 -389965456 889756236 918017932 68304563 -467163560 -332591574 380909439 -877147323 -208437111 -397877046 356120165 -440877119 488853515 -689165882 -887684235 -634504753 738788689 -533530281 371494504 566898406 901386183 773946848 -644256497 -229782228 -357195346 18105633 -110799582 -755655286 152959376 489267440 -330325926 71190122 -599945290 -140079093 -114855983 100892715 -626089673 -217663849 534445841 -589247914 -422651323 -740344709 -556475542 -195564611 855911690 -160337272 -302380674 167984839 444102272 351603679 -36887785 -157592325 559703574 524570200 885290294 -879771853 393123698 341613490 732953183 50716484 243263743 541877051 -586256016 -836662381 166782023 905310897 -888552299 745796556 953332971 -857030412 -821887082 -665499562 -883420433 -141294528 -24978957 -467661764 100650142 837565013 174083616 212422278 446321810 -337664332 -585451946 792788381 -420771358 -215816398 673518500 -765519170 -921218010 -572968195 -941190293 -706559573 -731557911 475709831 581401920 -989372374 854398765 688974390 -491555828 -405219219 -722219425 934067172 -463143629 -348639131 851387930 932791345 -990759790 -109061750 3629725 -837501917 -35515951 431443388 -705272737 -396194618 227379817 -705079105 -368861044 983438391 864765403 -970016625 -303026545 143447887 668497451 -721876593 -683931373 276096376 -610140966 239244082 -288680369 11528741 385629220 -581146518 -135777716 745200345 -733470604 265353156 214560140 -355133491 104708129 -660631412 19231074 404583034 506274140 -68453173 -729517963 151198284 876304304 786386756 86526527 947488726 -428867210 198602970 -112735506 -98548483 614000098 599061441 397838492 -47894880 -385798643 -88400608 -322339207 996169815 862395566 523202303 675154591 783887741 -874650488 429630860 -243478033 -880738551 -784694379 -610026363 388804011 687741789 -108782795 -839884040 -624748985 -453526496 -706171805 -166555627 442234177 -449770818 -830659120 -963013557 994963160 -964425955 958211993 935930833 -510609865 609284968 641050204 -197232878 -783667539 573964085 -8505432 -800087235 778301610 989426062 729812949 878235354 -670224331 325457141 905315713 -150212089 945396997 -946312040 -787426431 489894367 -718804768 -113226705 740899861 -701132505 220110245 -155762696 -787627346 639266477 800460759 330746368 927303334 646568316 -76252829 -133364436 -608237545 -295459902 -786837454 5247751 185624328 -559137723 -167487605 -798138813 136077829 380842330 136574018 759139611 -602812254 -699224674 164475287 -712258853 228891799 880961869 374152638 78593598 75302192 -217298201 314912376 -919810874 415929394 -152193380 731414896 -434820414 -496467344 -72247249 393520790 -760077564 -519835616 -490939670 -817135355 39535287 364049690 505157026 -604721539 912557948 -880085099 179275987 -145634046 657398493 757193974 990818991 -676631056 -202407388 -327546525 -971589808 852057135 692056826 726933133 -11271267 -268396045 -391836086 -144669091 -687234749 -716539459 -326900630 507205202 928527549 -63537888 896728959 820495822 653236530 464486675 -468624691 142822900 -456232875 487446940 -238316430 -272538464 -831612605 864175162 124814022 791869234 -290223792 -392627262 447990655 560922145 -236971184 -863977952 -902483359 82403300 -712399088 -23725355 174183802 636674480 -402223554 202082226 -24278687 -626285420 867073315 878442669 394103513 -759872017 -23394589 -259625319 -324071751 -304853189 -296299289 -391180777 295397705 964484507 107197650 725809547 380669904 645526971 -21189607 464606512 -729755123 -192372650 -628232233 -430023401 697702210 -681062306 693210423 -270050401 541134952 855893630 957158184 69758224 482848786 -841254990 -708807214 45193225 799723794 973563689 -529521947 105789564 284325602 632256989 237463023 447461345 -354600698 235720686 117453167 319412234 -772626518 -566174106 -139705504 -73488361 195068414 842650851 129376431 992164576 315980792 -783389138 511304161 134655263 -373824161 258277721 -617390778 -713311607 953690537 -966585923 -551594389 -827103929 279235543 610449300 379493991 423408028 -687069066 353608826 -519294696 -682375548 -906591597 534560391 -922906064 -370926777 369323951 -379921423 -242884361 -350258364 140476562 -575559105 169436738 -578492046 -786854668 244715805 -649898339 -566623258 202288777 217374311 860809391 115853340 -927512972 -552850120 -688916586 375382037 83660790 334300530 -718604798 622471478 102760041 -304262090 117199522 289938097 620311123 -139776323 -908197423 -655550668 -627899314 -587801477 593738972 21451927 -424310414 405350045 648206565 131585619 951378611 -224824699 946494506 -944534515 444947013 -384505281 655934946 -320136940 961310533 329454481 -972142529 -873322342 597477202 206801872 992723297 540643995 558904690 -24645319 677369403 -182602238 687366203 -225176740 -756491081 -162296839 44528397 559971354 442645901 213764071 -416794662 -123799556 -816576372 697978859 998313638 -613866062 -898149691 -632050129 -35229066 460137572 -614317028 419143582 105923734 924980163 995389747 445220970 -216506449 95787461 -970076662 893652095 683680994 -762964167 396288366 -973101987 917709859 125587170 531985132 -123157936 -579147216 -229470657 -558733423 -405387229 -521696984 -983763211 469554111 538171570 -484013369 193308148 880609674 -522484829 -246051528 441839963 479286733 -483002460 -976984628 -780416540 -773059459 -389048566 900813791 10546987 849552276 -252194465 -266673209 967917830 -642624135 720032095 -602316796 -941855647 -58178478 706967442 268110323 429370823 872749637 -33588074 411126037 -690652275 730066505 817796650 -770328750 363323518 166151888 -977822413 355507971 -321422500 -479128724 759008675 -699155284 379175074 490683169 -207243477 -683676625 -252875457 72555635 106124182 462048896 776140152 -963850593 -366712838 -273610781 -441042729 6889985 790129351 577490080 -791535954 514372507 -453709244 803244817 -274496667 970323368 74640871 158895529 596746207 52703005 47892095 698202138 -61655894 423402102 310165085 18782805 779745422 32920275 -381678784 -972145959 344605725 -113809335 106513985 -222805870 -180857241 -244232171 150512988 988297298 -836771366 -313941666 280064603 978576913 -82379320 -638745231 -195595635 -543440780 848106580 -724124318 -833931171 926956676 -667995904 -56897466 -454992330 4119654 -252249314 443526418 -181778514 884847242 690504228 -367190035 766573731 173844102 -90001139 777109887 397309109 -355891776 680012055 934359776 -316890223 188114376 230502080 669357749 -953661480 959367830 -681059893 -832919728 436280626 296762176 -886921131 476357933 285800353 -304763319 822180857 -989249834 -977973643 608570440 -871933451 -487299665 861677908 944850929 -656393362 -778408358 -265312566 -670223772 -247349401 -52109497 794386334 433716944 367268670 172349701 -47888268 -795453036 846775477 -237755838 454611329 641882715 -326385440 550813333 -828266055 651135236 913684954 467350007 117176342 -112230678 -730355118 689474350 937047144 -190960480 355508991 -876505274 -126198802 985315209 -497924607 -528438 -522791607 -563458492 493560927 706920179 -951373879 -61857281 806022957 781681133 -579347331 96997889 636361809 -463672009 -423804727 -486163814 -336677285 -249320803 -296021953 582615446 -317710982 -780422466 -512739825 378736385 440781989 142393797 61083416 597415442 164832779 74526500 155941984 -389853922 334693399 -374248345 344952134 -29284071 -28217213 -168757787 900686289 656771916 324667980 -168805986 -951858102 952945256 971754303 -290126992 859220586 647453250 790880363 -884579909 -699055465 404703420 688927638 -133600865 -777376204 -52234088 -785775876 -176287995 -450000113 -934200878 -282468599 281212651 978398897 7922270 678823380 934682952 -987965106 527087411 -436005991 -767834059 -379069707 351072931 262920361 199855003 447374713 983717371 350843757 730635885 -781351594 637757938 513000447 282850024 -190766934 -877888842 -363378348 -690090423 884767472 -400698775 -586771223 -248780991 622739368 90686943 -92836306 -801387867 -805948857 -580680485 544088803 687430356 -702795832 888085568 85392480 -669143883 98450308 -973482154 355584876 764770124 947638423 -632648236 746635477 -195724616 120392817 625716571 183957721 840510519 -132763878 -973034250 -830014535 -690966278 149268581 659889027 -204209368 -986857371 662287808 418735800 -215443240 -744231617 56653625 -101150564 -122623835 -16663914 153721590 -680044555 625877102 -750569574 -386880126 -954133987 913585365 930741067 163479109 923586029 -131528085 -110894355 739295833 914969256 484507787 -802511066 -478225895 -670235032 -789279789 706585816 591390627 498075511 818272129 -28226745 -102845368 -963981714 892653564 -111968869 -754017222 -336831085 -354703962 450315759 -488686088 -336523997 541688960 -701780760 -594183848 779914351 5101808 605907567 -921767339 -29789007 942520379 597808418 -122779397 -773480660 -381538761 -90134487 97676277 218642930 291378182 -998108570 80744601 963969688 612518931 -877115671 328848452 -563348716 954902107 601749734 -540351298 305191548 -434281720 205660971 958593435 936721160 -58428492 -880786408 -303786252 404067374 -501046313 -92783870 -543464968 -287573009 261643601 796214316 180622794 -355252690 336167198 799772872 -65564946 38236652 838013587 915339729 585158200 62406877 654831014 -729467435 -497795616 -845519294 666098396 509644269 250284969 593087562 161354112 28032593 -266121248 99356215 -197064993 -932222967 18629230 -48367316 704082798 462111157 184061541 -739698309 -546416953 -845720764 8119488 -70634338 -985800531 -739168864 -394277125 709314714 -101667184 520227741 -715307070 515558530 247791492 -16645940 -619665690 -297717610 494784069 528036642 -997150195 -68197829 235295060 881685323 379492095 935479639 -533291198 -912250611 938421791 224183911 -864647164 -333465031 318695305 -344498778 -471769831 -937413918 863918619 467429736 -584459845 -353413368 138891018 -614473671 -589021897 352115548 -671628453 687999573 324164227 -60766982 835682369 190774159 -346338796 214072506 198699487 -188428055 391939034 -484134008 -565964624 153332536 641826479 537809779 888549394 -391388452 -695951503 872406697 -208942171 -596915909 -912131072 -189573530 529314207 -298583826 -92054986 38094630 82717076 -992801201 562549415 -692372899 -949474120 814248372 583612471 773324444 165996964 153897133 -286766374 -442927954 -184985161 4331109 -190062884 202917501 489739860 -694721521 -849325893 168792491 -317238672 -661610524 651297575 -751724718 792441158 618395824 12087798 93632857 -58457642 277206930 -475722869 -138224301 -259269106 -776169204 335917155 -843951829 -932766594 -532375160 312834199 -126779637 524542848 993379880 -62312179 203641165 724350866 -946208668 -443832536 -717130252 497029781 -424104325 -882714329 36384816 -849440296 -707633550 -106085519 951693185 -620376754 -124244421 -102904591 799507449 660941238 176929704 612135538 292814274 -557682677 -262819701 730520671 -810114457 -309850339 -960658574 -755952253 627529218 -450244405 -702999770 770863874 -325793931 198283963 -690185053 63923776 -665929712 250311176 700272714 -616389756 -180613263 -491207782 299640349 -161663031 -942064606 -983203028 -311500051 -522011636 712564950 536397217 907540154 -441335213 160951382 844030803 -327360999 -618221558 978336682 -341766626 976713418 -859094585 -993157722 -405754799 311523082 732686576 -177972850 777008333 -800851125 997135081 616925691 213978314 -180358628 -102567613 -627745108 551017822 -23791772 -915960690 -617651618 774658330 -330458123 -908786864 -740670451 -516501829 -266652524 -93175523 -979725332 458460811 297072505 304192649 -214407417 482493203 -981317223 -586162442 699203918 998617472 937149083 -162458305 -636545800 268547769 312305277 -15351356 -873260580 -44557476 -648913472 -956819110 -431452834 -619014374 943648066 -995196637 470204413 -40618107 109488907 115420479 -446711782 -945652904 -62334746 -334992936 760328898 -701220891 -35165246 -379484191 359467039 802300928 55348993 -969234995 614578699 -452389274 755702078 313510113 -92192894 -766455516 921618433 -666385977 263943437 486307630 -580166474 -372663753 880659857 614168653 -947633434 674398305 -541632766 -570611222 593224508 -574938128 -703887172 187582073 -915966301 -364304079 947170483 354717640 153539520 970953558 -423977860 -393256700 563888220 -98759157 -901795277 -867405896 -29178752 -711915133 835896620 -295292604 -67943242 -421697148 436571877 921650107 -413326416 -708896132 846402231 -334952377 909599698 546434235 972601648 326049710 -120236027 -434292640 -661038334 -157134116 270800680 -845980632 -638196176 404035192 85383608 314248425 -613662580 873169323 -958986502 960603783 -149808040 -432379628 -245334079 -558036008 -922093675 413520499 -364897981 513933184 560481056 -664810382 955077494 -200668024 718766907 -293626202 51377741 -646706827 34586061 -533803909 -598955043 855445855 -257317953 450907068 446970670 196754016 965403043 -371415352 -731063935 474678540 358818052 -758222179 111360868 -244017263 363180333 -206659118 -826501736 -249067755 -802606831 -589707367 290800827 916021215 944599256 262836755 -17750532 -715284177 -751225337 -177595044 -580827190 360739412 288784285 -777863374 -541574700 136305507 -482558534 -637328760 -282626694 -757472961 353140453 493804211 36213531 -217287810 -919551670 -288197088 -715951278 -784546908 -373080381 -400192695 -500832947 -429113659 386200235 -403412707 -586517511 -46529774 -322436555 689906385 555590364 -959321397 132796334 -998257830 -466516587 -433071857 412239970 69604386 -647566361 642594275 -196026423 -165774760 67275692 59769382 175312029 -498055442 -662455911 82301558 919871544 248460135 535992724 872751289 -1079739 605052819 -655562431 -913726492 242158768 -394152883 104132890 -370976527 816378572 413366203 442536223 -985545880 -113948029 236079355 -199865788 421560820 -518552838 652706488 -47637982 353780448 -45740400 -731555219 425427935 -609285329 -97158395 661094258 -154544851 -139844387 -900176471 309973224 90956754 -884177130 -926689530 -756744414 387006079 -977768358 -19991500 -34214565 -272630486 790242344 -705584120 -876973378 -154746118 -14518524 -204929232 871258322 278270222 -705444549 440504121 -144341634 -164844319 33270520 84326149 968310669 65654018 902122328 922647930 -573968858 -719876169 -255220176 -600276360 639322050 -867463274 924412115 961746706 -33977315 -545981317 -556858736 749576940 353609520 966706618 284611042 -314808133 -649929453 -420997268 -804620542 320052523 212571118 -828742352 91045461 833940006 762849725 580879146 -668243514 -526062325 -99870067 -996794017 686839270 591369292 -145425628 918369878 294865678 -594796395 810296061 294993051 997131972 98509324 -880466498 172407440 -828956814 249539580 474344516 287619506 474550483 -702167552 -918716865 -111722023 464213200 -486705303 -604797046 -351619568 -679049736 -575490977 852321270 198068848 -328345439 712354606 662008288 963602621 581505518 -517093057 714853589 -82109932 -279901696 -729701373 388091636 -22958785 399623448 576434324 673938273 -197233481 783475574 673433074 286255356 166058319 -59164129 -338947213 -85166585 439517763 -763036817 -331086283 -397881519 640091774 -630253904 630386054 534203202 61285453 -353269540 -699366557 -79833407 909792560 509125886 908938944 -524033619 -941290272 -706725871 630037138 617417274 377328027 -301627618 709923796 -136525076 -571900952 311610769 -877204622 -246971392 -105631286 285519651 -940348653 -270242163 -835942961 691446866 -774171250 -136959201 549911307 383355245 -141550863 268717125 169118829 -959992319 608715518 790260895 343009070 183669678 -620285834 953857997 -777950016 697983793 -433632655 -571270765 -75065982 822895610 830948842 -117557685 -785802459 -806195502 969041071 -299526266 828017995 -314953204 -555771993 -686030605 265297615 -640511468 836630826 -947022583 -102021644 555568173 699944156 -627444276 856397705 83909216 146705845 236814381 -835181653 -93930630 -721304383 -229906453 835766870 -201855534 -487816555 880531202 395450719 538447235 720704668 614595879 -549792447 587302560 -994883783 878660740 185665156 821318419 -20336693 557776349 -442945541 41493706 -439069488 291404979 201084858 482452837 131710019 643455186 -283306538 -33865801 671744192 -459705068 -815423098 489970676 -796145132 520623175 496641453 -256449298 94507628 -100783414 -357629702 -79135938 -93028608 666628058 -655367672 -248466866 -656918467 -602198624 628925684 139584594 317114253 319625709 -451562458 162533417 -73302033 -105203838 655952722 264533454 790743560 -48027281 648928571 -2991745 740646257 -817774375 836740997 831129035 -428722660 244907807 -838394748 -907413394 714795862 7212972 617144429 -423453188 942376707 652749757 354744996 841797459 875095831 458488738 -19229247 354576995 628977910 -350115525 751528730 -727726144 90292773 616278041 859392185 110151296 -653219935 -227607331 -653885444 169876480 638578762 912844935 449189765 331463774 148564099 -270804901 -394039372 -195491528 -212428562 -468719292 -619764418 -790961101 -353331349 -97474768 492430116 887822380 222503024 984694842 139241598 -392153552 115104225 -818787886 974900829 898170820 -91272680 -774470705 -70718551 316209361 -923302574 121734264 -727586974 358389726 -545911865 -94310995 -320408907 538348210 -41308692 -229851230 3602050 -323427816 -501413210 569977959 543097846 -584368299 -562038430 877638317 222901255 -742182964 638765219 369676835 534599481 -687984172 -127163371 660649438 746612652 161651683 -928792380 -554378153 703977059 -692133378 697050683 -976907347 892909345 -720061714 -706428416 939631009 951057010 529375574 963475202 -494397011 614793646 410984024 -927113498 415753374 491822580 -660154673 -866096628 550373424 -19861181 -388018875 -991075133 -739519982 90500647 233454365 584483251 484065735 666370752 -390635689 328175400 -286786652 272017265 937212152 378165808 -457295528 197418257 890641359 141221968 413162395 -354123735 643685206 -235436440 -65362995 -31684461 -920330443 -5345491 -689716846 -364128412 640163874 29268470 412270604 -323351380 -142792581 52248598 -734225315 769340657 815925286 -138643556 -686257678 -892881617 819576197 772344223 944237401 -953916377 -541456807 -276431389 619625911 -54313743 163812230 -780153044 -490455764 -722534386 -61343682 -891537730 -521699692 717827592 -770433474 612781320 402306202 781011131 -594953438 903902154 -752610319 846667876 208110546 -955265468 607603202 -664847680 891532540 652781092 -253251679 -382958360 -395538334 519298501 247066588 435194434 -723350523 83958655 -150522843 -292497730 24228900 -926864123 304235165 -918398686 174289206 -315786845 -144390273 -546189518 816167973 417672779 490003181 662516461 599073748 199477120 -565685665 573280134 -956832051 -570452609 432973304 99135091 -932881073 242814424 229051445 556753543 -29676313 -552810097 410733472 516747268 -408367500 -760277626 181144232 -443358647 130171345 416476931 -445263258 -470307631 303833534 354143420 -463131683 -427347455 371661766 -348391297 389097323 184679932 -182901003 817510765 -595787391 224087108 190537302 753893912 151706070 64561195 -285515299 -397623376 -578091560 -427256 440960692 620512643 854437277 211155996 -790547231 840577043 509445679 -383986919 587731375 -344464041 269752984 -251335852 875750466 219545554 -245385351 581785667 97092783 -361617028 566649311 -843660681 -794559873 795705508 111692553 507604772 -779660862 -975607970 696519957 753195065 -292014698 -321031506 -536341174 589164174 563535521 845005790 189091094 268654840 -216956822 -858635104 389202078 187494444 663806253 -496089184 531406127 341662320 844996669 772327985 235755642 -342424709 650083865 35086741 -174800813 623806776 -265342815 -423554316 -987101634 -991561624 568565149 -915135403 923179366 849241964 222731294 984140819 891582763 -395280101 681807537 -932876663 257858765 358698308 50179785 439171264 353099083 -250528175 455574516 37843259 590476453 591337755 -762003617 753031014 564020132 631607116 85518950 -602378332 334600296 924856384 -11909374 -152753490 -227480133 58486385 -559413780 -604885389 -947635643 -907859885 -458147866 254828014 323657670 -546091401 -473906056 446988824 -66749679 277620537 -418461258 -201763210 554405639 -993073327 456017593 896909639 -627240979 -183924762 174170466 -593880229 -975891171 -347891581 -179924303 -480454813 -701983364 -801456015 -776472377 -616725298 -516237405 -921313259 135031218 343173626 296319357 215616867 -750007558 -867378352 -727881886 -357837206 -455864990 -112633071 577808530 -909203711 -214053514 -909417007 88569544 -935121839 395793522 848718553 487541937 -8883123 -344762472 -829231939 -55354416 506459980 238748506 -648342625 -660304325 -729785108 42458314 745027370 -607569959 -985295791 649735669 704482087 146141040 -384184207 -28096200 538826012 -688637926 -378199436 67270186 778168032 717339314 -848964266 930342117 744586680 -755391801 -30870 -872731977 -592288094 -694699355 229416861 749308162 365909839 280584913 563628545 116447536 538833561 700862560 286723167 -84290666 -34106411 211640457 68732324 959135802 -367425258 -643572542 -569449798 -392501953 848733029 -440199931 -46494684 -784651157 -144075186 859537211 -308178699 401955726 -513203683 696554754 898461712 398342071 -795570712 256905832 -14275443 930710288 254372443 99676777 335010420 644429217 -45584055 302768772 -574990064 406986221 -142911659 625265427 990428788 134057199 -271969436 -573377879 178412625 112966079 695719977 322939698 -697910384 985734334 146552204 73310663 -597878785 -660180801 -503346271 897999248 537202822 -410590830 -70884669 -802675339 590799904 -237447780 918038162 -877295944 4459349 -278799659 -572405423 69784017 -838439264 -304845849 671194240 -11237416 -327222753 395181717 260712988 -154866519 -488985142 -314125011 -629073169 946644779 410910989 -42709248 -696021154 -345010047 786403053 787396770 905717396 -754310129 297212370 -122102165 155585930 -750144297 -169663803 -406770101 -777127114 335574100 418485526 186713894 -652662998 -281014930 307292271 -198965227 665905809 255537551 606840428 375258084 965045626 -304664664 697683579 871638888 773114932 -909630155 29712555 515692224 529027307 -873086082 714740892 -136725385 -459376867 -867752185 565987875 -522883430 -965247034 915122390 -68800404 -1766635 640830952 -150667824 649574471 -575093491 196661100 387565864 963898640 -976822996 350312502 -843405682 -106660449 -756748374 -345449399 239565316 682268872 516712525 473339129 83544505 -796271008 386812605 394446289 518036388 -852987787 -991936403 -995711276 741232617 -288635248 -18974791 487829356 635196580 799256616 -874343514 833513199 -295812270 437303122 -592063431 964262696 289004293 -349757694 98811439 945035799 -36037124 965025107 327614053 959967643 364217682 346529257 -959307607 911133514 -759951375 -267524135 334698037 933849549 -211778157 -365639491 851633960 -769402039 424465382 709447361 -833914551 -397276109 601907512 957857821 165442813 -593940943 -254377283 286495141 -897211158 -852738296 732879979 -700128202 713431681 -778876464 -43704851 505300846 898225378 -663947592 -711409223 541767126 -787266357 -306410090 -954255635 -395570827 -694166045 569600100 51713780 321303231 -667005581 -470756722 -226666230 -458553722 -451003041 -358083039 -947558380 -940164355 -766846958 -999352196 202168118 814044753 -91192054 -406735403 -545688321 -970613541 -730926657 68598296 -31069450 -792098391 -513599774 219517380 703619616 762813279 527908362 893907981 622124057 -288406490 -18165190 566357901 492460819 -722842397 -590238604 -265175677 -938862847 834166120 -301622235 677535962 540881768 -126147423 -735076599 -169068960 926091506 -894709901 -281043905 -581504269 -226375414 -711974042 24059920 -377269480 -902008254 -300109585 -915738641 241329944 107025558 968361705 -372027796 913902037 -506609122 -471408240 -880584841 952020618 908021759 71436314 -373404728 97350160 539005125 -503958465 -955572012 -600231764 745576750 409424239 909382865 -473465131 766997468 751823221 -360650878 -246646208 366009119 -609658047 271274095 779809499 587230634 -146902333 996141357 -746634968 153571016 754513103 469551766 353167538 802104780 734602114 -598975640 -136579556 -858087906 70347762 178786484 153674868 172200956 792993089 -514643473 465785824 -586610161 296106570 -106292822 194612423 203600935 -855897811 437760521 234111495 -392214815 -626918655 652942496 -152042671 611660885 -986953028 -998656796 865516733 245624527 126919212 197376590 982691634 948591901 46892976 530440280 219887526 477393175 150333284 921923612 -431394650 209880081 -809176615 -764652623 -71391133 -516732956 187902562 -732503511 -368376614 -933861858 -543551474 -188587008 -905683514 281968132 -299750080 -149360074 -843317788 293864899 -916401987 -473602756 -424950143 -426930304 402522809 -706721766 -408112991 491405351 63249710 266302591 422901326 -488935377 -469370276 -562688065 -941239598 -450893886 -680834535 -10987643 -655155207 -311463807 82030775 -682872730 341309581 -230350380 -122760940 -871042569 -737388220 578734528 4451164 121556649 -196113479 572529480 204470360 -740941549 -636162144 -199777100 517561718 -961054165 -173298219 -740201103 689585847 840056445 193326365 726705535 174317197 -644809425 724742604 -111125295 -651353766 -111785517 121721460 933593254 863805530 -480083568 679504205 721901073 -406743501 966049812 133473812 308169651 396220078 278549205 872940467 804391826 773987176 -876963000 -136807370 433128827 -267347437 847946196 551720317 -729031822 131404648 -564311356 -619814989 50670061 -16531951 -710956183 835286663 -492130065 726586654 78124277 -556664824 841989682 723673916 570167066 739045047 -914689805 320335403 580873860 538834006 -662366296 -880672524 -418946425 -887626935 -908790898 -363451397 614687170 72992446 -339638853 -1684880 282982029 -667944267 320984990 -403554322 884449804 -115368174 930318376 920110099 -172961398 -866471852 -845098717 188522356 498722918 -947708613 -449245387 497703868 -64688589 651916104 -830685409 -668080583 71596543 146631720 -458463342 -4954875 -367510636 612796922 523920421 259842387 116196704 -410639418 -975800749 9667215 730752023 -57334955 118391351 36197848 -456916277 -578154319 25279857 551422275 -462521098 -791696177 -989466794 -168301568 -368557108 313161894 -806904791 -921799429 -161417615 176129092 222085111 741669286 131008815 -733688449 -11585878 -949805443 -628100995 -937829162 -262011488 -53215283 -981752827 -886014417 743396377 876816465 645379161 -366787525 -656596294 42878599 -871262919 847867201 900757720 190460630 -772879398 171008244 -53359353 -801443657 -586362325 196059613 -507508959 239444019 71572351 911144300 910961268 881403074 -439865967 -299603364 376350694 860922660 209730701 766258282 -934066683 -893337031 -381769976 44686484 680606471 -843544061 -111573167 529246574 611886292 848492632 -606757580 395582815 232936425 -553080511 -98446860 592546565 793726475 673711791 -629137164 904206282 -838808163 -210905295 -551395175 -888108329 923788458 161719295 631900075 -373780164 411026400 -895682415 628974256 -952185280 -795166456 879347467 265021788 -280998452 198975457 -675412886 918391719 -458485383 -348057798 735646523 -971623243 -553492489 377659998 475858478 917849110 -963727061 -550772725 148159918 -732732182 -765820447 -866445770 -871995389 875552755 179410359 -117545535 534525885 305372657 -746196009 -939814176 -732343856 290744348 561249293 740407109 -269190488 -116941447 -668491224 -142608294 85484124 -197708614 -925226027 789189486 -418537783 848811421 515341011 63659350 -692106112 -671362508 686926740 896215852 -67047094 961301297 -712039674 -950402267 30801851 10490261 100917637 797333750 36958365 -991780826 693517871 780362763 721480068 -100994256 429097093 -55243572 -278470827 722096597 -864929043 925898911 -106286317 -293896420 755965309 896639149 951425580 127183026 287897827 481817112 -293130253 -997327600 882838321 198433037 -1496540 -29616548 -954862523 639334838 -857992165 672527138 -116312883 169643551 -423858971 -946920488 503009048 -801732591 649114118 -512752016 808073415 925652872 553806200 -47409036 -655163064 -641986952 121032023 866818605 378165645 921231034 507959740 -764467892 -926230477 892071330 -491346912 -325128062 174972727 -578609772 -714671631 -515658407 -544693138 344393720 444233751 -581264079 -925269456 -982905382 626215312 210816737 741280691 -824969493 924065259 697466274 317430681 -591225942 -757427940 46119067 394956083 -623590103 126448511 -477595434 459604815 361760714 -886980222 -176408043 438671714 -941096912 -713801583 -732305641 -280772283 -616227557 673025972 654059077 -858585911 -949285004 -427066329 -105771490 -474824661 -962861185 -657956774 -934979412 819571480 -340554425 38138732 -851709589 -898552492 -603741612 351608997 777610422 -584287772 900366075 -177967578 -160852521 165193792 129495723 -130835091 -835884266 391435928 -256532281 -591313659 974591859 59972204 63950548 -465715033 853427952 -868942653 -460186701 689643484 -99664445 -484412425 222043814 -989798160 -106361831 526129101 88805909 -224226303 -580380757 413435753 428184594 -235737899 -43864406 -79684906 -780352270 560499855 -729065046 502864994 -180980194 -379767603 413099577 249715246 147712966 216191607 601497652 -99828303 -547776825 -478441413 270538829 -568966659 235175273 -829955405 -94963837 179675088 435482790 -512419293 563600428 283635043 274519621 -674178737 -311133931 525680133 -132480144 -202991120 485326660 -611506405 475487926 -282726233 152712395 680458037 -448378958 705404860 -513251235 -669743833 -522946529 -182659666 -607339345 101910677 -515094066 -655067049 370790716 196087652 918940920 655567634 -534751577 354325337 725869786 21455645 615795086 539229848 493681859 825913764 873090260 -398515668 168115972 567782442 -639695415 -966677311 541639498 484623324 -156473958 475650303 -813830719 -357009781 155470704 -431905924 -408546683 67813237 30216511 209068062 -32940150 -842052120 998671193 597740107 -984400871 -5278842 -829583341 -432330419 -144553261 378023812 642554232 -161346944 -580490767 879169092 536443257 86353509 96318400 -596969243 -619506007 288709774 973910334 395900594 90421983 -965235215 -957378784 -851746599 247533699 280077603 -65511931 883697904 -898802456 -11535604 -39985225 -161262776 -885722436 433268388 -287408222 -706554197 -41056116 915963390 -329635067 -258937973 840853083 92870021 -14334864 -850019664 -195445510 666042668 -666312372 -493882870 -790623304 -306194601 -395478307 117128856 -705348911 334973879 -174990211 394473503 229316876 433607963 -649694409 -932981755 -920910457 985989060 -921305938 207577532 349141287 -338012630 990809582 -331028260 -608992897 60415023 -732427052 411928259 -883947251 123914568 75609534 -125393309 -924700985 -305735946 -489157443 -779533679 310394627 174689915 -241959189 -697232006 791201052 -587359108 667789290 -743687643 734724512 -238431629 853790766 863751463 -17904210 -130128045 538570990 -689203290 -62269668 928965827 -80327851 1109386 792328027 -799069824 293365958 -374563355 -65736318 478417031 -214869590 -167831283 311897534 532246807 -309250369 604014600 573411474 -934239279 782417847 -612181271 825433140 -139360520 550175458 670106930 -442620883 135398708 495032428 319827884 543837361 -892266604 170245691 -186466893 248360402 -743489958 -767378131 261360658 740316424 -579712268 -566349807 644561435 90157028 149612782 -222991846 351097288 -876459871 -730717049 578230865 896506953 836640465 -161919145 -831625671 -400988529 860400050 -690766030 899485424 -276587200 -91184135 398129897 39223938 -414195867 547132013 398216704 -796208202 795657762 649468027 -621645672 -208363856 860406848 -731996701 418797041 -311921158 -17034923 -866633173 388555106 540674452 202406203 251418380 784217041 393377754 -901910331 -789728861 -201041773 -106743548 334376302 927490582 142921008 -226076293 273591630 599840164 -717324805 -338481122 -502584839 298881961 -362016101 440788715 -371283876 160502394 -177544408 -517328859 -379257416 279886491 656155724 600591353 192268973 158395401 -569725384 -644798653 594286711 8817743 -491678025 -810420884 -948426309 -745111550 910738837 436478510 -43172632 -258389966 -25455739 -958550040 13522863 -734706616 -434790364 -672711486 995474122 288205041 169145740 -933249967 -299052132 615172546 693673740 312304527 34861660 584073795 -901687585 -290536759 981816127 832334575 -760572498 -235597068 103661126 -804965160 58570824 787046729 -663998530 391606699 97326855 -454231774 -360844951 -645828047 996016346 -669487712 -273339997 4379486 -832163598 -910400891 -663740483 580136957 724704759 729429158 -636772054 669450161 -223618213 270635454 976665286 -907960249 -883157020 685959022 -394099701 162427224 849441728 65404291 -438754504 321471613 -859209100 178424024 -176131206 -659091698 -674114416 -537525195 714110340 754036536 -729864494 -448348880 931708176 -910066504 194956459 -12665010 84724970 31850200 827979861 -527206443 -737443409 803055501 -401049740 537934681 -887559962 -819877551 506455924 754370160 87784612 -975874826 -374671104 649191115 132933519 -448993361 554186152 130791068 671974198 -953308842 -924161246 -244896271 281614131 -36438715 969253342 471740196 131696909 782418200 265747877 -816205117 409318514 -401862050 -450109894 -737980721 128246523 -129746762 686644222 746976199 235477110 -993552472 869567737 -222358770 611426234 -985522773 -64776099 -584755883 -909984240 311651208 -687286286 -326018150 -126313605 559113395 -600088599 -594858512 906593359 353749606 419281287 -99205403 -344238748 223930003 22928550 584098040 494932578 -152105897 630633642 -38201435 -769771554 193922001 -359541019 -445357782 -176736931 -196529092 603498017 -786814093 -784288704 628263096 -969831968 474914339 520055413 225669876 -332027007 166174727 640569863 412204169 -94028628 -419456784 -67387238 580546018 -928002659 788210889 -889143914 -338953230 649026813 -938262621 220515558 -588656895 -915754827 -765994202 -263603321 -576702902 185922318 -118759616 175854577 -955148780 -975476847 -767977061 -210298178 -192030454 574986286 -601661660 643536858 -617839387 721239251 273425063 -275896102 982076922 939769356 904332793 -506620379 171024523 -467051643 966406063 347973853 806792160 563009696 -209168867 -390197103 -495570230 -287742071 -758889445 640920256 794253904 910100976 -747139001 -655928564 -507026254 -668089230 -204384766 240555558 56526459 -438856279 -889294363 -961133677 863687894 92405681 -662043471 535064738 -558025855 858098255 397229610 -135294145 -153542265 -440002815 -360018549 73866620 154642469 872674548 -69861866 -417623158 311225586 415069895 12553772 152497102 -632241638 210275790 284781005 156325891 -327355177 -899429715 -422727995 111304315 -380813049 417829971 -977029253 -372249212 454509153 -575640928 -779092558 344704346 29242235 -755879252 -700651735 974947243 -760895048 -326917457 486977281 802297317 993831644 -538709513 -941717457 76646177 -917183726 933615436 -459657262 -966300959 560999159 -507545802 391569629 -233088700 993262472 -818626647 956461456 762531361 -674514775 509347470 281388816 -676715951 -919468482 -184071281 336344884 931814818 -312782713 500653656 494579864 -441402917 -593409297 -459764225 163074580 -113961653 509607760 -20163140 -467772669 514686281 601958178 -929717902 -859291359 385211861 829614919 -469491935 838337952 101660728 -160742970 -217256743 -613781407 76593981 85311126 -431162405 59358892 699740255 957526868 -569074865 485768531 -921628098 -563152879 -521565824 612645784 156071213 -650950288 -626728264 -425304797 378167216 607877494 711643747 -606841305 -837947140 256685537 -329754006 414142324 97182472 -907897109 767932515 768897420 -748612199 -453431281 -32756653 -589399890 -649472112 -442581325 -468705955 -244973141 915504141 -100770663 -95678156 459458087 129409949 130503335 -817403400 -700843625 -318534350 13012124 -279638608 956335107 -366421760 393362181 236842691 910282028 -662823830 11782620 -740667391 -664316509 824983969 -2410818 869944779 124159732 -986182469 252108661 416788953 -850083298 808429863 790294471 -653220424 833710504 132819180 -771588453 -145252057 278211069 -475672555 35696089 -358168954 397477194 -459035588 -582026281 -287140613 809790137 578821185 -967737987 528269503 -70473673 765941484 -422894714 746341944 -33532289 -828470309 39816560 -401309882 957146329 -133982395 -674446690 -806952336 95697874 -8890216 722006374 -989442811 991379677 175866516 896570892 -247051607 -182682340 647512934 -766607744 -618280908 358142633 -777687297 -216638824 382977152 -639911182 713692185 -605976350 109985411 721748647 722188235 156005678 -681106045 977260182 -183076173 -634862675 842113408 -711914469 583652733 89143541 711751309 469853213 50548710 -903002795 -79760691 424058831 -872138104 79528386 170926847 -893435765 -363262303 -739621077 802868245 -568009684 -803354581 636806077 -728467934 -10494893 625723636 500132494 852600266 60971172 184486330 195300285 -695946452 -789093958 920697908 -17062409 -30915552 -264849630 726126587 227912861 496441690 -679669466 957273456 540772099 -117763332 -247261681 957044423 -734396163 947579252 114283418 10665392 595055601 -736196573 -310751353 77128834 900536533 -834778299 992332652 -849029744 -111107270 990049166 589050207 -748760222 178888813 -695732940 -283491137 473807410 -18841235 -996782957 816771547 -747247413 463418488 -293510031 199926512 582745344 441785520 -799181034 -659981468 717408636 116682685 473182802 862893746 -827633880 803991750 -613758674 456540959 -512138663 578677225 -804780995 -485048307 -21597520 -315664427 561641992 678255219 -445573472 -316330136 -69842298 -520964593 -190907522 647431482 -942804566 -679001764 -42559292 648102463 -878868191 740621654 860903882 123401039 91615198 -177156879 -286903493 847499627 788154905 -895114611 -132840935 298479895 624019869 395386364 323565635 -324289743 -596724633 313397080 776847811 49964315 122956218 497553308 397765951 -607897908 -892859857 269693130 647892208 325208308 182114273 919818351 -432162219 215705602 -312811104 26126 103785608 -539966559 439021400 -600672251 -162456166 -456203608 115635135 972480705 942660558 -831861633 -537374779 791163941 224644790 -867418587 488214837 -845146867 303900499 106286649 63128823 -186482920 -983173405 -486059236 681296242 -192314804 -81362221 -363387470 988802147 -809838821 959419184 -924269706 -251899931 -623387887 215439249 -405207649 609836620 -776784202 654278335 -553783826 -801856665 -974446171 -608041925 -936763337 -717360887 -860398426 -737567618 255369399 874390380 -162887353 -96285245 -302492507 -412360822 -612420819 878537060 197139596 -647579253 46636284 -163266513 -41119716 475384800 249609396 -293228579 -240165066 -881835671 528043271 71035478 -170352808 916305273 -918716002 -504682652 925437325 -510767949 -871851277 484173848 -609155218 -883512046 579361413 555392658 91563674 -125779066 -720454805 472838224 -617903909 318234849 542124233 25695462 85619219 619211559 -674370347 -144492502 143906 443110271 -852686152 -854887516 38621329 855814144 -560873481 166592080 -456844371 612594154 -125049858 146934271 -837918887 -280436462 -989008598 -746883034 82774249 122343136 -393989320 168250389 116681479 5615091 -625437354 94522128 -202386454 -758678322 325002157 474400673 280194188 -319807433 150894257 652455533 59639769 -156776204 424334915 412213965 553254828 807044279 513261707 937395973 -694498623 850746153 -848633617 -77574284 703086931 951864916 553375965 690283311 799278657 334427034 -57092731 -270859734 682762918 529649285 -460273086 -51361004 -696862965 -861211024 936577425 -498839533 727174228 827074904 139225008 601501411 934983138 -998191239 544978729 -975789750 675526541 -213844142 -214028138 -732273992 858099585 10396669 -934825174 -459167073 -504833007 -920508484 931104375 -471773779 -860186700 130911187 914704410 -196890825 663463903 807527371 579577786 -689838048 634831034 855267042 -175188525 -947498998 -670598469 -583438201 -203157796 387900769 -533366080 -240896769 851570361 524772304 -656431161 -878915323 575273307 -732235805 -919061904 727942957 -989370714 698443887 -910743705 950839450 380455545 148255165 540088952 -753241425 -367257863 -415517991 -252837404 -432170008 -111590545 -55939456 -796982536 -442624925 -384478443 820526915 726288087 -803193141 713656033 940405477 -31551932 -278444246 928424157 -620621191 57770927 590152232 -430718610 323212723 255639782 -8029186 669571961 -26666476 -521801289 -856328951 963419450 -425212750 9935195 537874857 -910976158 -719487442 -773829658 -917931210 -287596176 709903811 13893723 -485348669 -581544146 266038119 -591376569 349145143 -623642838 -28415267 50755632 -673777732 -556931216 -759422777 661503277 716127569 -379041968 -627060601 603425573 -236022998 -20456121 -321282658 499043835 -742166363 584830246 888098481 -275148444 -266592240 744710747 638917431 -617069173 -475786966 -543669676 264803190 -907176750 -399459901 944266887 44763109 -380763023 -819310143 -876203476 2917982 -75431002 -674731144 -315489477 875520743 630812847 -203120093 -969205259 829154795 782467047 -854336104 570860951 -878050443 575465224 891147481 624539621 829223660 -207745355 919461707 -147167388 570707521 -574615192 -764407070 580104475 744790867 -664595416 -198400857 195182041 656469851 -820637580 -290947100 -830525514 996057031 685561681 358108588 274497340 -524421721 136882384 -126618569 -875524762 994864315 -741041157 377347528 489144059 -442472481 979072754 -224881530 -840320707 -236729152 784274988 268200347 644049844 568920640 291243951 55679033 419164107 112875015 -773813845 776601674 894147125 -90485121 -895350810 -381055922 19397656 -186256270 116565599 -643928838 966157484 172632892 -821144279 -670147712 -406916299 -556240652 173715168 162887233 -475398741 -260971664 35040379 -172673428 392629958 -976740713 265440466 -548820063 437422367 -485092911 518681890 968601463 -223441984 299034014 990338131 6943641 -289571459 853617319 245469102 224339284 805272483 -549269239 563730891 -773103819 317329117 707994885 452426422 -114681622 749439866 461667599 328379460 343344403 917700258 -905098635 -904623165 -537726095 -173910718 748100332 -538845459 800870875 160018521 -623479332 -788297021 -725894227 -594874336 -194432223 402544334 -140191154 363112358 -38672000 746652678 -816620433 -143574511 -741707001 629995393 766188191 855990119 380075430 289483344 -565479033 399898092 -224241700 773587122 202145176 -50788454 -619938309 -906525833 -136549079 229887530 378818330 -396604486 964225962 550954963 -377648608 -848901833 -552325975 -740611471 -64938192 -922353597 582487229 381765089 688194635 -343115605 -782432601 637374254 -140635726 -324757616 903268652 900959649 213634417 776214697 818927621 278673146 157030310 -985164020 -589113382 632280755 -205230128 -786437961 -397398422 443534828 905615340 679062545 19564885 163323054 -307930527 -542321270 764672806 -545326030 100310698 -570182561 -273859734 -851726551 38184153 245709740 -886423792 199327518 149643440 587727208 934853783 283875344 -480496666 -744314840 -568469055 103537098 477625032 -463146638 -248430052 98351518 344442540 -184448013 -951567243 -860748392 -665547791 874763586 -595985592 453053780 523491113 760742467 -358070296 368225150 -436712574 240008317 168091560 467133201 685477811 -366941940 -965800872 -484585659 -985250566 -911628292 899323983 72358187 704086129 -777198178 -266947947 706620574 -681235128 739298610 67942370 621224040 986420796 -236339149 -872447260 -576406521 -578336301 -849525084 -695599912 724206755 714286859 803438159 -493691626 450162630 -284156676 -599500205 -370481063 -252954813 -76848789 775039085 -225666391 -629409139 384155020 53855446 116835250 862053418 -743170515 822851109 -920529272 335486715 -919809929 56193270 224632878 -763559744 367893232 91569079 565941866 -480172152 -795858636 -476379056 -245570294 -851689931 -737557048 -751798593 442351146 925739022 -931944673 491018086 583170484 899026538 921662957 -864449718 278210110 303430848 -421069295 -178648895 -21558412 -893686891 -124598428 799540918 321594325 -906548439 484267858 -803689592 823967479 -831646997 -149763872 320767530 -586499080 -836581348 -299494972 -332598480 -786102178 42650132 103158009 214372412 -488533841 -339477386 439567223 203368507 669741036 -425579262 345419626 -248705665 793051868 -911185758 -146576191 -15432543 -467743405 -378956256 -809871384 965066765 184000874 690451190 898161614 928000271 -670280319 -561240716 -197198827 -973592430 739408065 722566300 -477425207 136354045 998247776 -507349620 710773592 56815294 -988278743 214611280 -177455819 -137311925 17371123 -809857891 17990253 -294587299 676474772 303401690 681497950 -813272954 -778341484 -369754946 918727683 -849923626 328356742 208957805 251856488 -127150418 36193830 -789141336 -802499411 -337380057 362306326 -19336244 9384698 489836411 -704793002 406809370 90798569 186439466 239599967 -784795320 655371399 -556625330 171262166 19316305 -427242672 -989162849 178012440 971242755 -66740512 550532851 -606358928 308609480 151776520 760950752 -829718751 497484532 784923140 -503614142 -882594756 689399464 -417967636 -736958621 750853034 -113349262 -908018551 -274132277 199182989 754508385 915326163 120818623 744244572 -345627806 271778239 101973044 -383585429 304404394 259895695 689491607 -656515134 -287903683 776816833 -633468864 241291871 776150719 104508612 167757011 494990724 -204822432 98858852 122488983 -737392948 -45448416 883913119 -255525850 -150799671 -964636512 272443470 -34224462 136568984 -445595234 832969118 -227852733 -287144243 781769599 -613833244 584884338 -795222843 -771679314 548331949 612349516 504022068 -139536015 492772469 -427805096 622478072 -967781645 212377381 428147518 189063211 -98537429 -781437283 865351063 -463295365 -829033434 562202286 660269549 317944857 46849183 -428738989 386354889 728699172 57724157 757261967 -35866411 -749860115 50913541 191883107 548816212 -733912484 -918094586 -267354151 609379365 288258662 412900156 -951683807 -135534679 -443297892 653770646 -486791253 477863158 -559605125 209068528 -253059857 -678507515 636877338 696344323 -525334424 -813261726 365323783 -69988366 -710877979 -888143667 -889332866 121524612 248003880 -823575839 -825859707 -928327073 -781204950 -822693027 72284574 900324744 -387742988 650311899 69010423 -585384404 -113035441 -470434139 943059782 -428064354 477041834 -951423090 511496470 -829371343 678056485 -533378645 -736407157 717819474 -882785479 -901892146 -376828280 -210565213 -749021205 -652850258 902701582 900009616 870292948 124644599 965967511 -880749561 344686953 338963853 713513304 -454126004 147000554 -928332007 301108446 -597403233 -238398140 -523314520 994602134 -859075962 984966134 147239459 444442446 -16246938 -557227362 889252235 -59434445 871014712 455046494 -170599417 -832285236 707283050 311616806 -262312884 359890391 -451807054 659135193 -614961206 -434760368 386489440 -473329525 716042678 369513661 -163731946 -905117952 -137500955 724387079 -7723798 -263055264 -507468079 -397116710 -75748683 -201602471 336489355 60880896 854317715 -744432867 -217057986 -306068647 -188216134 185871456 325872048 -980656717 971579805 54891720 -609182355 -119445197 -799942778 411201351 -675274427 -758036668 305675391 -815590402 -918267471 -365991987 -210773988 4085872 -12764918 -715439233 -904505998 -81513972 381794976 313658253 1021612 480645434 767415322 -21054114 985911140 -946255352 371148299 -658432657 777080709 -758750593 -269693929 859618361 822026712 240311853 -122975243 -826522904 505323669 -362984985 631083579 51625454 253459778 339041775 -605426382 371282102 951539634 234526391 189755164 399438854 950135840 946337258 -834924202 -778605827 -37685766 -839272861 875705321 778653914 514077332 -291623594 -419160545 428161083 -342437984 634179823 669871839 -640435 -74993775 724207092 -6814651 -605539674 847886487 356741325 -756849925 -805276336 -833684337 -686392812 813620745 572730306 -740098192 640745295 -341087196 811207746 443824548 -629750096 -404469194 331056264 -646765841 -909456970 -992285550 -53149888 97976014 151284547 -366195661 -209706880 -434459184 -143498905 -487392360 536226410 814077453 346350982 471986985 851956911 230261957 -55038218 698491229 -12945643 449784790 -557259162 -389425500 401708549 -912365966 302566804 -950523795 -734071577 467750037 -992796739 -39304926 -722778301 -807884299 279980226 204856145 120812177 693351322 -696225044 769988109 -740146243 876818793 -249426039 -496232736 709744415 104504595 86649277 995167661 136660407 43278660 674652249 741298296 -437498725 -712018532 975260437 -672754104 -491744008 -766560174 -145537418 -829487718 -83354032 -738852376 -868325949 -291267910 -481337500 -587014156 842052452 -450068987 -480872940 -150904122 -785253214 -533865448 -462706769 -661962044 -287859633 -215264328 78503584 -550106161 -136024135 -692297780 -412305516 -818169799 572670680 -788467558 -245372839 424923239 -886676795 -370375045 491668424 650011038 -320225475 -777561786 372997616 -600522708 -808811130 205147478 -559238443 -680005242 -603332238 -874749494 46820166 70900810 -583487043 806270348 717486592 -351372497 -493363775 -695456016 663453501 393332733 124242843 -384407969 -443781274 -743411145 -103589735 -363776635 740933320 -827290993 -258433588 -411737457 625672715 -298824107 -843537973 -239572059 -594227293 979933272 -454312253 975890009 844102128 -530922995 219038755 181052135 642287704 752548768 -700991276 -474249638 -940674626 -543922534 361685563 -673236488 -115739569 -669441151 147421807 -740293834 -536928431 -440448989 400210671 -797290254 474202887 -86479343 -591660042 -314636831 -402450112 -488304627 867645264 -507716947 740878119 439506041 -789937162 -714595188 -206195738 -368900280 -147979126 297953459 -16607191 826253139 -437225743 847638427 -33353928 -417117193 704388341 -120257292 541780374 333013093 470456962 798698827 467926919 724037593 623643978 -732421710 -500741095 -791331972 7914044 -55850499 -897275871 -95712271 301878432 -484732648 747117852 -41445474 -341563714 551571611 415833681 602389072 423354953 -69125983 462030477 561820100 -585380434 639755203 -468368172 197880504 -472360990 -650288132 -497670656 727550602 423508767 839411032 312347034 -876316921 -803243634 -927385890 -228216542 97740945 -697361747 437697848 -384912219 -493001943 -455364561 -379531479 -505596922 -535825698 -890482286 -776728581 -101166417 -440331930 -590593913 864326029 583722515 -178712249 132969293 799324381 -605269693 -80259099 -690367313 -455299866 -533423711 -717346107 101095857 -392183928 267667769 822481476 434119469 421806452 -844707654 -944917892 -595849558 -603224173 433601094 533858812 809149779 515360022 -114940863 794439180 292453697 -751249474 -808150117 569853649 525541660 -322742616 -551173666 547512340 568832559 78711418 99292355 -118675540 -619479603 -670700973 -329176183 102413232 237349452 837412707 218372457 52476394 679581585 -556900468 -839671171 602565192 342036933 -602373613 -821486137 -404157342 -475726511 790836031 376273705 601913841 -307830288 -774229109 -964896741 -339972206 -484397398 -679903370 588066387 843587152 412604742 -850242345 -534838931 -59567330 193485462 298192223 465969621 -373091868 285242313 -401548017 925635776 204505406 -533473583 305362646 8793916 -834986827 -388118300 -392621491 -171547971 -281118859 -297751261 -98383165 -843120867 -250811913 -350634252 200087742 581497635 -244905016 434445847 -424388377 619841470 -602383171 607799018 -842846638 936434649 -732674068 862874512 161169336 334932848 -44815228 -570933466 -967033631 885913133 -783703346 -97633976 -310561730 -690768176 -653990202 109860564 103736795 702639269 -107074558 951851016 -626133960 -409739259 -439418374 -674217219 -207639283 -110332116 659328354 -810925089 363235939 -188100909 -604827726 -940372222 206032045 -614512775 -653917504 -406730158 -431045416 759377113 -327459736 495857275 619782332 -478215104 400992035 -888868456 -77961445 93787524 -72928070 346136285 104568696 -872539879 112098456 406050495 -483623532 871017775 -896370252 -829191603 -341807110 21773941 -695405922 770222955 -388560751 420642550 57104784 -250277742 -507438086 879868170 -687574077 607534667 -312830587 -394623187 -262602360 -180521383 55934749 25589581 543501772 -267471971 959022494 57117863 365503973 860395658 687926922 -187657558 920157564 961621574 950657371 -499206143 -179591751 892539844 924301143 796629872 560799546 111070461 822416509 926238141 -698206300 513901929 -711024440 840434687 454476921 310358883 396341969 -544794330 -886034090 -854337607 -475759065 665226990 -814763557 651222198 -540499662 154743367 600346220 -506181688 -867966077 -65088999 -54482039 4329631 600591322 -738405935 -264832094 -967514236 921802552 -691937952 -671337371 971373665 812217352 -86999586 -985363398 308237755 321395697 605619254 -604323989 550312800 717162983 -503441499 471107290 999840805 -646898832 612194804 -170614904 -652508998 -151373794 360355960 738280785 551151683 -764920889 210403361 -776827166 743755938 196584286 -64102149 -131670382 -646722112 403130886 -679616320 979037697 388904261 329509237 -301392222 -334468252 -227314068 -46902515 -381629343 -738287132 -472402972 766133581 892852097 -7015034 266613076 595906213 -961475243 602119016 -854178261 -129012854 613273589 377122699 532172981 754916129 196179386 -633978704 -493640115 -851653475 43066754 813562204 448628395 -1926275 319529325 959253799 -380885188 477378690 494565922 -686062356 -473477760 -212075976 420074710 -564542500 384714282 -535548634 457753827 164844434 -54931658 -30395412 136755768 750391511 358592150 426156670 60714119 -936595281 -89354750 -805277815 -919761893 234158943 -889597471 338937899 -337148518 404173623 430554044 -886267120 202930186 -999138528 -951510435 -173980944 811324743 54083231 411193915 -331116241 -714637204 -781030860 134219290 204763029 -696193848 899859568 380676351 -349049625 -788498967 -848800445 -959664146 687220977 -907667234 -914997842 311950991 190088554 317156033 -596827595 -53735856 22265498 684667561 -603247839 -199065652 -411939929 176713914 -990494076 -544397143 385208720 -983226094 -408197887 664267269 805777379 214180332 -494947123 -263086417 402656285 146388693 156395138 45340537 -962463288 382091563 -412148559 -747409499 623348519 122733255 577154208 -615242367 670589881 76923325 604400334 554790958 -293544891 423497313 -56755105 84176281 -281923820 915819979 742464730 -788088470 -504645418 -280105332 314120367 -450967097 -965763963 -390530518 -353897590 -311684566 -766226954 -182837184 -559436130 -327664486 644517215 -133631444 912556093 -721998555 -343760869 20034994 637696599 -241835090 693897603 -481710184 -22106729 -843371672 -743234520 -691486706 -401648186 876524061 -168620735 -60357714 951716994 -105580849 800487337 449221114 947852191 618916109 -33047057 -237342997 -953361723 -754791191 -399390447 164912190 843808048 -464961975 858838578 -303284292 -768876325 -456730045 384931081 -757707643 277523312 -740154447 -759700007 -144474684 731968282 620328492 955588295 790322024 959785497 24719337 858286529 -665604359 -366913301 -173277455 985908076 -986646955 -538722367 -953965865 772347501 828593779 635782533 617456390 933684290 -626888957 412605141 460200498 369927069 774801087 570206446 848579076 -938702457 112531101 635686761 -654268688 -426893475 203883668 -545479988 568496184 -594082645 -345701252 -392084088 -172811481 987473198 -561717787 828319920 928596291 -906595796 -663062680 -309923353 975037414 -81450371 -48190826 644984785 47488470 863578254 -286728098 -167017727 -942102094 -383228525 -214773486 900088994 -95515400 138914859 -656562364 965914870 -671468370 -900462582 -508235253 -260345449 -312652853 20509197 477318354 577189507 554717668 -105663049 -704677339 -165148775 577973068 -847361030 407151521 400340371 869645133 248850180 235611868 512799832 382609126 563665879 392439697 449112089 -155200288 575504709 1393973 737598021 943343948 -659808492 339620004 -800258798 -88042321 -959995549 -459414069 -123335209 -714541323 328853321 -344437971 754291686 759817220 10863239 948307249 -964402111 480295152 320806055 348987267 -825643475 78275739 -986531598 -172518803 995683298 -147503495 -687396821 -155456657 474587880 65667931 763941078 613943088 484044058 135928269 -255555700 -544236031 846024783 588445900 -549970207 487290672 781236587 -848710460 991707255 -212808985 -35323380 -193548205 -166202833 -145314848 940259729 -42188046 520648713 917356623 -507452177 -281320403 690713267 -730737535 838883475 -702589899 -54933417 -4354978 -448582844 -610683020 -256656465 -943388550 20527738 -939320689 533037691 -586207212 58730103 6214408 -243808940 -150563424 -910882227 -1842560 8135239 -652558306 943363536 -215239519 310282623 153731676 -982483075 330831830 868812882 852583385 889550456 -763198837 -261470093 -957828360 -730822784 -371551444 -377338635 499669568 -422732502 -253434702 -226679743 868265133 -123733698 791939470 -649662371 -291882781 -704905153 521989686 -646151307 -607524074 -656093116 695846283 198971485 53845987 -120896763 -273271619 -328054948 339111917 511375527 72207227 364350793 -819030670 21149682 372677651 -436224300 -324767714 743076827 -962890816 22741745 135768414 739601203 -622335274 -777976908 465950633 823865387 364243589 -328610234 119187938 476620287 894351543 300306131 -847676688 753925264 859712671 117662512 -758911328 105927435 -144587981 -124761973 632826395 189697974 112759140 236778548 -554221892 988928430 -258270985 -741224628 -252553655 -487952287 325637535 629713454 706838790 63156147 524596828 -920077732 18167050 286941439 211911717 457311159 -291638031 821457433 -65913909 572512381 -875613824 -636846865 -74180669 -818074236 -215445790 -934448221 357205616 -614041948 831108299 -276916220 447418764 465164838 965414712 -900281889 244742051 -265061427 722847437 498463372 84963982 -662226536 557593583 -777797778 -475478557 -611095591 724086018 -436099766 -693933870 -380000864 2346451 571391470 581505232 189586233 -407814397 -114529082 16450440 269079448 264898646 -618093309 -611260854 -764652323 -626313062 543980608 621450605 912866558 -986563849 151617127 -548408105 -548503616 -760265978 713032815 896495953 -92564462 -476382456 583609939 378993368 -988153299 830723366 -708909794 -553869398 142816942 -194305289 -143199107 171244183 771140295 539881063 -844579959 310226248 764414083 666190175 153659217 -412808813 540022232 718263129 639499183 417368102 166253426 -262226106 171702456 976873352 -138093230 243536576 618370474 351418768 -617934199 72329468 -115764045 17567189 648691584 295018002 156714785 230683234 -555959104 -370060457 -599583438 85827730 -305122570 510843826 -709039029 533821739 -694941017 852100512 508472976 805717458 150281273 -616190886 886396712 -992429108 881177167 89541488 946555301 -818788406 352270962 20720836 -353782780 950632912 598004949 1181258 242147708 -29355175 -10906020 -426675350 367431748 904257231 587419116 -777446075 895801608 -796056563 455369008 363408594 -172567525 -506480895 373354619 -855041977 -22509768 702697485 471782799 -502110921 610793538 765922732 702230413 -797974096 613573996 -31600805 780370433 207571432 -300089936 295677551 -104744676 -263148902 -716411348 -227254936 620335508 433659907 -500865845 372156049 837296580 -642710490 321901733 -753559931 772151174 -315484435 735701076 -627574781 -736652310 -365781892 699293267 -463205846 817594370 -107737341 -699665471 187563406 -576229625 146153426 660977157 554291556 -630158152 636813402 -50938197 734213453 -887052768 295686531 478792503 -905373827 -480150555 147668515 -280219441 -761236823 -456503428 -297971884 651434760 -443474598 -949821077 974886054 -452596237 -914090178 -616755206 691284333 -810164950 -161837574 981301585 549746698 -838023714 -514416672 287907311 637307627 751127957 228117230 -631580825 -83181396 205986305 -771850449 -948288651 674289482 -908411199 -888311454 642677371 -752508184 159598644 933767405 -30372882 -534255490 -366674005 -656302038 754789595 -998666132 178929549 771761769 671347198 -423179535 -205806620 720143040 485540602 -98993871 601118597 748270894 256719614 144006932 -674916402 -864461273 106817892 -88137621 629613870 -608671039 325389327 337158991 383494535 -539983172 615981852 -971305448 -135924007 523206717 788132692 -713353815 610948582 744011232 -208838175 564710725 -212257925 -536029614 93341819 544314713 825621074 -242875203 -570793644 -560932760 266056616 -879921138 852536383 850466177 545168556 -954749000 53280300 -623037219 954749984 183746922 423932548 -428741497 508035313 -69266533 77764391 170829212 594766006 832392025 187636977 605409072 511347094 239861082 917808033 -945801453 -783506463 -450305602 -127643345 -1651599 -506390106 -627470194 -619272130 -631176901 -673515196 -662569293 -47963628 -322168402 374355924 -182548700 -570770873 394842862 -922951299 -983536128 28033117 892224860 905255561 -468483191 566224428 77801697 165182275 -88964340 -867990447 372255514 -732040735 264959792 -700927772 -352500806 102784558 -581593464 -928456528 262571112 565523884 -847228948 -952906304 -642018592 286420587 822907857 226523164 -414625088 678857126 -847482595 392653441 -900105246 -772106883 293434708 976939049 797578119 4977962 58920559 93231500 985269231 -237167614 -297396018 -278516253 -286951334 946003630 -719508451 -832950952 -87005811 877774453 -235137669 -436909737 634296011 -274090127 -258190805 248201597 828095294 -431589780 539268830 382852681 493387366 190453249 516493 -743865385 -309725482 -17250256 71887560 -226682127 33785703 -188488862 499237718 941723889 910489414 -431582097 -774303144 15796581 13498029 786512366 -400627551 383507804 -752548501 -229760064 -274535642 373618066 914151318 -734001943 675275424 -699591069 947148520 871299178 239785800 -428659000 241069321 297815502 -297750810 433537996 837765625 -145803687 886432977 36244211 -302348793 -711609781 104621846 218495168 -29931289 297750150 398446527 145528966 -896282995 -301552808 802747908 -5018054 -775388590 -180121806 -346741096 -827993631 -619021391 -235524757 767446985 138418004 -169559205 901314484 -136000421 -211344149 -142746275 718912305 -392953541 463035902 -40080611 370400059 -639503236 -289075890 -164268208 -567153331 879829615 -616446615 -765459562 315095188 420065441 719298486 854098959 -361654417 -146957347 -167846751 -449518420 -32282672 -754833779 -405748727 -278857208 936018005 488766767 600913703 47141627 380332457 -263451598 814140413 -3843214 -381582236 524614953 7049244 642642891 209292565 845614916 -606946106 352595998 -837877328 -125315803 446098773 754759960 -815960429 -660789231 429721230 -217268897 114168149 -253756276 -575670528 262801537 -982159065 301282733 -464721398 -386531074 380920575 12586238 -44004837 -65008813 -173431102 411906023 -940762873 -606469576 -684055157 -182847137 -348616187 -788631416 819574926 -992972416 -983510433 -420746214 -2591911 -385737009 243011619 211197575 -395817292 802659371 -748760884 -27927612 921428336 855047991 -423615706 513745754 675306351 -707285898 -841365188 -303934080 -213161036 688115929 526268721 -733557551 -831704774 396488360 288517245 983970931 123351666 -305130508 -870025664 797194073 -289871170 -187186267 110653106 877939360 -716215934 902502369 -933227751 894827053 -22478176 435062129 -587624087 461550001 539452526 492499031 -368300375 267700001 387868174 331090645 599305835 104436090 -56784076 -644934087 -296688872 -549981608 -360943694 918612662 -889724624 600566276 422176647 723033806 -504191219 909103291 -32898538 669993370 986036719 -193870428 -409486534 694148305 913421429 624862088 -408554695 -402429461 55041790 -640988249 568690368 -131025287 77197047 -666518288 522527330 -760813573 636224355 -518195698 -311073184 -602160017 -431760355 224651744 386022826 -636846501 473881878 806814117 141803092 -100102188 -201776040 58893192 -812960739 -427723556 -232911755 482037339 565469314 7635487 669480096 502698021 922590518 -242586852 -22763430 577129149 629736050 -83508606 -884138114 -738540642 427378551 232556150 -835600614 413337755 668290597 660482807 -767916316 -560976690 951607626 -729674079 -164257447 79000375 660614917 630338463 -617935815 314064054 425063995 -258588589 -720825285 -369710145 46360438 159062383 548132773 311129928 -308329562 -602932024 -781677685 580766911 -689056178 -548253118 355373224 316456142 839297250 -167856758 -372966195 30918319 -512787599 374526201 -54640767 -158536396 427343402 -397997504 634781336 -785838856 -691035674 622697281 -982234819 -594339974 822856963 -82320832 92371010 886532312 -869771244 484800228 897262706 -300530026 559214134 -253367866 836870909 -670712796 358950013 -815251838 1665193 708475653 -644317091 -72680553 875600792 604334883 39582850 366579245 -647383290 -714103354 -341757687 116478357 -982009901 -295688423 642204689 -835402015 -789351126 -331980119 -41056768 273591750 708263191 -904844128 -198367778 -329118295 -126527532 823120019 779031185 256741800 6173219 -344609135 753613711 277885149 -653207236 76451420 385552581 671079987 715279048 787775794 -62173774 -957940113 383352151 767907376 -271077247 -509164077 493659143 556802579 -382771273 953633722 843182980 -50926169 -626963592 607949395 -445525949 853361726 -288092192 290816001 -194000533 170856509 281556593 184195717 -267293059 -915563739 646754090 255626929 -906090317 -748847093 451267779 -685573174 987790206 961266643 -990729191 -844550543 337129632 951315716 873229551 -901736527 272959480 78369603 -844449727 56394923 -742062294 69540372 652187425 632125892 -974896419 -705344755 -564249560 60520667 457385968 -654076979 -107688753 255531148 863028948 -992674846 933926793 -995444582 -37730196 88482057 538673609 -298532965 933193354 -417902277 -805337738 -637535205 -897186937 -372794022 -66787645 -423095967 -931905165 835376679 128830676 70866799 -1514954 -158537155 -36607033 -461945846 567921568 -299485955 -656302980 576218555 -517678972 187932228 -422273031 -273280895 229175556 -830185894 369563947 -46140318 363836937 283601692 740514647 435695898 -611629594 -763338871 417775753 57955952 746588257 -133030889 -373065505 589518982 -88469604 -163717434 -398567776 897983518 -234531913 261172918 125622568 357206172 -778475033 -195767078 207305325 976510259 -545147023 -629565021 938899263 28583031 -663083342 726741251 309393104 -281634293 564305742 157185389 -237139466 -901921364 -82327462 -432032463 -220407300 852827920 -478006956 -443380761 -763032004 -939459891 -490044512 718334755 -305491298 -152397193 130353303 976410123 660465075 -256158357 293647511 -909678648 294977678 -805667626 -529770672 232586109 -411709286 534316019 -428666119 -519682325 -387791368 -942901403 122325842 519111332 571307246 858343279 -753259311 477430728 -375614230 -432421597 768825568 -96692528 -724583318 -967915293 -875115366 -602006412 870915528 -852598231 194568958 -696180632 -706675025 735044716 56618709 665215659 -383773419 -565505475 296358371 -779539834 -393542756 -279329204 -86726176 686486253 -656547334 -693753256 999744663 -628523344 -870253962 382590083 610522640 335512711 990596678 -43041058 -608393220 -395519142 -549232606 62133976 703757386 -139808099 -741403415 462675639 -284092326 -687930689 756451648 -620731799 -70461361 -367376508 154317174 314555244 484446146 358158335 775397258 654510614 -431248499 -256140414 332312248 -646304970 288002304 -49971814 30973843 -293616490 510038581 -700689448 730819813 -675513153 -752240714 47281023 295384418 -339280517 -445429272 642746309 -56496130 -581645996 -522196872 634656552 -404609892 445201182 851373019 534801831 460455190 -322225329 -503642309 -238913838 59984398 774942058 -109452329 420445201 -755769425 170925286 422957831 -481834581 -872956937 -286866843 -423440383 -639112687 90374516 -345173463 -763493185 289037952 605932450 732483834 627790559 -197069744 -529356094 -958113862 683712081 -84704893 469908144 308483846 -412706377 -187093605 -429482392 30021595 -700651776 866973802 439856895 120633759 -549817823 -706735997 106551064 785109458 -519414262 24390124 359497294 743343147 736662385 176927248 749011087 -535876413 372617583 239477091 97752377 -269245244 -404737232 843063519 -587549795 -321095315 -203279336 -692304118 -849722853 -12413955 -952985538 909122557 -833056625 -906168143 -714876992 -485398703 -753903293 944687725 128886673 -510605798 314044272 492232208 -338938191 871053629 -635729816 -275652159 637772412 622884788 724882028 -623207621 830465817 160908630 -29131748 -294054848 422660979 208167929 122061120 964226502 408763458 501820068 22186088 -34623374 -353564046 73388202 976595032 559184091 370216724 -15294392 -154401786 943306892 109877047 -436600323 -803060641 -388313638 -669714418 -618946296 -956967072 882972290 -714468554 912437873 -660755042 82110818 974472438 802759185 241453562 806560052 -480763960 -532973072 -975030368 615583438 436678644 -737577366 477127628 537608088 -356586249 6940560 769523069 19221360 314698883 933922378 -618329820 -454931449 -572755504 -943306417 -453365723 -233281923 713235417 -202757893 642076171 618749708 -873106111 655421688 710798892 230013327 -443671529 752482020 576298701 -559053853 145915613 -768954886 -530799304 -785373628 603834093 -622675823 459904617 -294413260 301001198 -503689664 704028219 237898560 -475303817 5220344 790940851 -61591183 967262835 604516835 -169667979 113382153 -28076615 874991751 -287828755 -28084118 -23773819 -317893442 515700640 794962662 412247801 772233548 376009507 384711010 810780616 353599129 -909454586 -933451575 164080788 -443962327 -881869734 76747626 708480626 -294298633 -661298851 -747895731 -625114799 -735013514 918643956 -52710813 -986213898 -52345352 -265761414 781803813 -692160567 -992647882 410072769 266878698 18147294 396727168 -790822704 742383651 -44750896 -307768376 796443901 -934430184 -462836094 -665438448 -597061341 882700833 -945023338 130366381 -6676256 -188059193 -464676842 -113201509 -28463662 482702124 359692599 -163282358 283053453 -876267854 -118001440 -621913400 900748046 -892667666 -478025345 -90681613 648075244 165260866 415820780 -918475986 -453533104 -123024755 -722061009 -51888313 -358091963 -283965291 80698823 -973689200 522031572 480201212 454191482 28475897 748919638 -113472121 283045750 938782126 -321881852 -224229677 728640783 -851090263 828900494 783601272 -133237436 952111370 55775199 175510951 -562119568 -426362573 -483401404 -991527712 -108782952 -255520433 -39660181 827595792 526091694 -151800646 -875701226 442014460 976142810 791836876 -173838190 779773197 249840017 662837731 -696081262 770823356 -41408878 -427068496 -832503119 385930251 -512840112 -992218584 468758786 224543968 -441245971 -947223000 365295044 -711768389 50876330 251358764 516895305 -566680141 644845897 27971030 -516415356 -273031151 292930314 -93826994 249014417 -901640008 564700596 -44564995 -956899716 -454878389 -478738580 681790261 716963704 -616478198 -945215272 -20472665 13187427 -686736259 -828574389 -653166741 -771910367 786981780 789847424 -373499612 -94358148 138629987 101149472 400602964 305060360 525233488 573730203 722502834 -383904367 530675648 -581222493 -211850990 -810054553 126386166 95431463 -855382564 230875959 -8949576 -781394311 -428136447 746559545 -460324256 597229316 817042747 695089406 -210455162 263532655 -834783772 -657299171 743182072 -800912371 904070622 -119476910 -630838376 188351025 -819385780 477196618 435714729 352090332 687123757 -545904939 420955041 -954948455 763202541 872209791 -667174817 564297677 -638303065 -904915526 114403010 -136813382 301050748 -332614642 -803875453 892891172 594973216 96305200 132072055 148733069 768676749 -78783282 -811110658 -288753840 -209020661 -674625076 -918565724 -602850419 -247968750 323949877 669576408 -697830673 -56401515 -244137655 -299770729 -877588597 -233443461 -781927998 -842738325 -330746036 -312538709 -199755231 -150313418 -659600184 -385782474 732703098 855197630 433864371 393000628 -772841708 -232583980 809176362 693376151 52928330 513881652 -677100761 -353594571 530518721 -24691432 -635474545 914704947 -889161016 -715865146 -358985344 588701506 470876912 463719346 935309093 238566677 4339443 -875559231 -91129195 745207057 749600856 -309020161 111788493 -452876059 -91739529 286181142 -112280352 -708428343 -639099823 200849045 -223757794 -907446607 454203383 426722647 536864621 207882691 17182662 -941017208 -906493736 483808213 -383091134 -476062402 888130392 -7728498 429588428 -370187979 -277344908 -233560520 -92335571 474827146 372348157 -619012640 -797896183 -306074015 -209039565 -516967136 -861899085 -341270039 -766750113 -914337479 833570985 -893201322 543950234 -815080736 -633666772 713594975 543052746 139440103 852327906 461653703 642070088 -695598808 -211713740 855794646 -344661671 -513562495 -176117929 -117269330 98427490 -144838490 664386621 -921710167 773082161 964403934 235506825 -288391107 914825013 640129864 22110789 -706757380 493506616 -948053497 208825597 639633102 -545380545 -534540826 225466513 -406901710 240963700 -437992787 -998455757 -536875160 665397395 -43039221 -560886063 792844675 783239749 -105727914 -19164491 -264719789 -348815317 -540057593 -632294841 -80223839 -407423831 232272727 505627161 -370142 855078769 518754972 -929273316 55830957 -702696454 428937646 -386282667 676123082 995349336 312855394 -567093714 791762077 -128068692 423360522 162110685 732881171 700662975 498938960 -34446644 760733689 -727043445 -709681663 -316770629 -648932970 892407222 257740431 -365091297 863593915 -275222924 -620087014 960405495 -606713876 -412362296 -527381932 -178252482 -6983755 831791817 -776017561 573070698 -145150100 913039633 -244614710 -493712934 -350675610 406853559 236983531 -231018083 -445333757 191136422 450059211 -891210280 433320801 812177994 -52367937 -420665840 -363975340 -483651005 -165883253 56360249 589391160 -657243608 8153699 519881428 671626211 962768302 -315965757 186507363 -500357503 486702123 -489532915 192272010 925134283 99266291 -686013137 -591617985 792066367 823230802 -659510337 451602484 509899249 956722169 209903095 324696335 -734652612 -657342474 -761968241 -875291626 -131988421 -284206857 -316336312 881224215 538563132 179401990 292489000 23637535 -47746801 441947298 -67129853 -60247666 487230701 -741843736 -181065376 -270988688 679878335 -711148462 -27175521 497079785 169253576 -167267051 -828513549 -921379297 890011695 -294781888 -646781261 -90900867 -685155812 442044665 -968667403 38401104 823695617 -165964719 430459816 86601702 -260771244 -476437525 -462678502 -482729458 -53829794 -629333448 690434480 230757300 784350316 -800949802 -499196439 -601359095 -202516300 -634607365 -293178255 555597395 -290647213 179638707 117406555 -578520245 759874330 -277584639 767694428 -62073888 -371992136 -236594615 298050500 -894808590 -290976141 96091590 251119827 501664578 -688163555 451763070 289438578 452917543 -745777101 281064371 -455026708 -651285820 -241976461 -270833548 -889851016 513810672 -178641086 720817053 658028660 -757773222 687971652 276684362 249355432 -526718324 -910465156 -893504836 633774763 709715753 -545504652 -822427711 372101602 -855565468 44382372 489257620 969173867 416559965 680764675 -860250213 -120875049 967978121 -309617578 -853608774 415879116 -732943316 -794746774 -754940721 388774366 -932845452 750847576 563462199 246817472 -943005836 -974517902 -375373442 -487144850 -530088816 99318398 -825443401 419720487 -212094990 -209279513 -691830403 -246131614 -814529169 253370372 26400880 -228575588 -838814119 53171600 63516516 906303540 450520425 -851214285 597394475 -830331143 -49255633 672663590 179941055 -90204187 845265056 -72127474 -439069675 -337653482 442680251 752460537 -499850314 -639229339 -123069352 575987205 416307250 -281960238 427236314 -190192067 84497451 -157894631 -172072017 -701968367 -903384929 -452792884 -666307660 582701609 528808491 -994985266 711993564 967929491 568062038 33282457 -43687995 431102791 -369322351 974872009 897485378 -695979300 -709195777 780155710 -410473193 464530742 21908888 11107786 -645334493 294529124 588423301 -554329270 174236385 -999874131 -847161255 475135739 530326526 630659136 161074752 697141546 -698042409 -721564335 -431049632 414239564 -166420809 -436178964 -119635408 -122764650 -93190658 -947500953 276604741 408925377 -624084644 935601846 -460540182 481580373 -595472349 631514056 -414295044 -236323110 -22289708 258643097 -447737891 311685431 -56381347 34243429 140083860 564356770 -499993710 522984146 671895109 -807460675 -726073163 498648152 -132802412 -742261933 41999307 -378783334 -384013572 194748370 -756130250 -676899652 -997509895 527712962 -277138002 644063296 822789435 822945373 -939278330 626023213 132892170 -318310934 607957742 694915400 284721617 -565258551 689704052 -725091880 -247854422 848834091 286292800 -425987268 469569083 52862147 -621525934 835461393 104113447 987072170 807190924 656446437 -99207860 -967617212 -885745285 770279950 -216064788 -634873865 -461096957 -733390764 -481588548 571463462 -336573560 514273498 524404324 515322886 396690373 101800633 -7530670 -479373862 -733609020 -791358014 -280937971 309051799 -914252097 -622751440 557349607 -409238545 -305865310 471290492 733668120 446639833 955884923 -379210363 789835053 -705394540 -101216512 714041394 -780517708 -224021683 529324945 -610426147 373207597 -142391434 -360382817 -142255013 -535891322 -553241225 92415805 -406806978 74567835 -444043346 744896210 -622336216 -258931958 774013293 668096666 -718253371 192774856 38367219 -48637655 -931081448 -816094551 -669920078 830427599 317313315 566217459 732240769 -965513424 384629959 556921465 176383227 -644549796 -517431713 193726295 361831284 410069153 591611871 912986303 -187773072 -323691893 -310370593 223307256 -418557413 -476564796 716700151 -341274461 366167716 -422784072 -544801707 -30386307 31328018 970662005 -8581353 -387006517 228792270 778108969 501810886 -401638454 665539200 900766221 646269155 941585895 -16991088 -124441598 52746978 -749184882 -313119099 140879671 877552720 889827154 871591601 345641107 42557393 -213016333 -507403295 380635082 996702423 232464297 738800751 -900388226 345676895 -299668562 767026079 386637540 310599223 -253100555 -736481123 -246913717 -97207540 689460871 288776063 54588236 134201882 -824418631 -883806300 -250646519 -351211120 89540200 722112908 -923084062 544428189 -545200563 -65765827 503667801 -458019622 661194128 -74838128 -109634422 -267537399 -966610093 -446084913 -432112936 -303053007 837304071 103399319 529975110 624988396 -809429641 209845604 58405042 -219885640 -745172498 419401498 -354989146 124393749 180878700 433683851 444838893 679590563 708726247 -215423118 112482026 -960783156 -559604608 343296812 -969465302 490173447 654217333 50961629 -329443228 -41715533 8738796 86767813 289419443 -621665176 880592013 857584565 -983623408 706084310 -702327348 190767251 568009346 -996074218 606911710 90662997 583799423 853189231 540852441 -941785117 909213342 363693662 -833153680 -240391137 -559702750 612916679 47996574 -19859595 -822018583 -956150067 -270195907 -944158729 838537459 929817985 -773506307 -765933829 734703798 -294392550 400776534 275245987 -614171140 96577183 979659491 -360313679 -574605429 -471835621 -824759976 -378749464 113542020 622361842 -20150247 125968594 -629084254 -286067800 546386125 -556782979 424269796 842454890 -77259020 872989802 -137299360 -908161832 -697239159 -412083301 -479133713 751066543 -310211068 -256800495 5841290 -908923805 604985889 702308783 -854247732 901291921 109411375 233595804 275504410 -319293633 -919290206 896565999 413665773 -9726728 8152651 -110554923 -347329044 -332961924 -818525807 -688901723 -236075113 -609812010 545624406 264179602 12527773 252150564 200793773 -93806408 648816231 -25794915 -472296188 -133425924 -692740600 574971147 -261418135 536056709 -946835568 291132489 497739383 -142725255 509621520 -258723539 -777614989 -682409689 853831306 -691563184 -736575196 -61519793 -697136175 268967883 -939903816 -86794280 42075872 787261249 -995085621 597410898 -843853012 -660644785 -162027518 586611028 115946379 -472491575 603189707 -301830533 -507511029 431567586 721720675 21874536 -345868845 -663261736 842226974 755148482 -2064651 223670164 884395176 411515577 -769159183 363297022 -815703966 -649004387 -620145072 -517330850 -676753030 -814047790 -186886841 -564713326 -908267772 54864015 -946982252 -374039667 375314945 796046676 -63899366 -164017035 -399447699 16665104 428380643 173024026 -400042181 401927228 -712429937 415098619 -881126708 -510031534 -704260787 -165645444 694519243 464666563 -233087128 285207581 -45879987 380393474 846560773 -213362280 383533533 -852435845 34753479 -754303879 524044122 -619862822 605301290 63745856 952692089 839429102 796512128 675543069 -872482115 84166991 -248174289 -694679559 -542473588 174021615 455053782 892085599 282609184 -407750582 -609256736 -992908132 44076112 950659594 21922044 -792743742 794030027 844188588 -943064891 405516888 483798297 -936072291 -40609851 271425974 28262648 905681699 -281342932 -732252990 -873289296 -701274589 327870779 -834898303 -572230731 -980341494 562070825 341719207 738051725 -169861571 -868946153 854239647 -259629303 -833337152 54638528 -592221018 439184854 111701737 942075761 474669749 -415660075 117918600 -170958786 311441260 539834140 -943318597 -384318515 -980688436 -418034160 66415401 282718490 -521353821 330116903 485451969 481061733 -226285884 -771714283 864156430 803400459 105104659 821024028 -443976041 -774439388 72044082 782545491 -550548054 850119465 424960947 710664959 97798887 -130591230 -940608533 -78346868 636260287 -189920192 -10386680 839046078 -955009351 -881362017 666431484 -986501329 206268537 -164039348 525369604 691029570 144274573 -46242371 65119338 358497734 -427827368 223678941 832540585 116114781 -31122193 -76691689 -800532545 467017319 -395083944 -434106357 -367699991 -775594625 981055042 478133954 877661717 616335657 -617322039 105531502 358123849 949773968 196870778 712376318 956777096 232020025 388397674 -740205430 578312523 -278063385 -349210788 810556532 134497672 -233371661 -486275557 -441685376 153470409 516258479 520314583 526865958 302854195 498760431 99186216 -619059204 700837884 611737512 -371097104 -395453125 -476908188 -836234947 -58473871 926470348 -873897971 -13636440 -944405460 536385242 128840821 257069753 -715675567 -31076378 -150980362 824121391 722476792 -852708135 -700925993 -960201671 711094114 831883957 888029397 -858638776 136840074 -727067468 525814533 202083283 293493413 -18037090 -105734587 -75449790 472338903 -582409913 999733439 -933959270 954433132 96861247 812068912 -768386598 -112570449 426623624 -617378317 -378940825 -307652148 -938675467 362387332 -106036225 -609185222 -252545214 -385428446 849769327 717847697 -790046095 -137736288 724522781 -263512932 -785526394 796054952 691127622 -351115000 -798662874 -766997492 989211134 378040836 507502779 768324060 -385455181 -851568199 -87467671 -159933309 536758685 -561873045 990914759 549866044 53471944 -313201862 400831792 -209755290 242191230 104835570 -662688049 -941670573 657363760 -462226792 -268152273 310748474 646873419 -974636136 -775755786 311131907 -719112282 344969533 -28131298 -461767342 -368123216 925741124 -13985926 -143198028 -28843065 -632857067 -654419242 815139748 518262270 126948031 -970447105 -245946707 710861114 517571672 440709251 572580636 379723325 891569598 629780841 -226829866 -267244101 285041294 -600380547 873225459 -110742755 278698965 -210241798 -319334516 -741892568 -930895752 982039144 -363669467 -113987537 -140580303 565673882 -193344549 570866106 657328080 -757336808 134525759 -920254316 31729250 967363211 -274526142 334417458 273112003 323966900 581162704 -265739876 -372424824 236124957 -586875175 -824193084 -441762690 729587770 742709423 520659861 628138571 -329489893 895492863 -117759319 968610039 573597187 3858694 -356393061 194678694 621948058 -732870272 64435134 467328215 -458500539 -590208438 887862539 633651483 -504424323 -361032859 913302296 334637517 666885041 -145231968 -107107340 109434800 588664407 583158205 -61204527 -921420203 -328408946 -636130283 152181124 -936708355 -630768881 -142636978 -966444163 -17842902 363817912 -760404889 729858749 -94556850 -929771003 282177371 -804689348 137974603 574409993 48614360 -904415082 29782367 494021736 -37567068 -63948051 148318033 -267227928 61714019 -532827955 242683945 -898720517 -619599083 931331895 -78190820 300245796 150664319 624594477 564755861 -324292744 -884226352 524863672 -614446193 577803075 -181253492 350694156 -348027885 415141439 880912819 -916789464 563909360 -230138427 758656080 -982798487 -214938781 959110265 50985317 -942092644 677565529 649944457 651268641 467461648 -606778465 -105129149 -989208359 -132672823 441715904 174393844 38781289 753589689 602625765 -677941826 613983636 262677022 991903099 -810344179 -887042789 -670390031 -607320869 409532297 539213135 -327513331 -688895661 -22108659 -735284038 -592746578 -261881943 -13815068 -894526732 -382579700 -853153710 -108696040 18130065 -684198544 899072776 -78558929 905778704 -742772681 645150759 767521117 944049236 35086103 571151336 -415331757 159503859 572941083 -451742319 863821639 203395141 596328223 274130793 897550433 416232386 654573138 385198487 -3765574 -468755101 474826845 -31090675 730590321 835586583 -527986492 -468112640 -201361947 887102182 541230178 -557836501 -363037273 -76151273 607195294 -591718957 479904883 -107063655 52541708 719588197 915394314 -116370674 -713112415 -420873163 433320085 288420817 -797608345 -622870881 795916322 -757310866 -332603061 261452183 -880202901 -170208840 -804878798 -918172118 -934275282 -893876283 -396987668 783448246 -663962239 262909067 -55427498 593970698 -612194147 917406383 621496361 -778023856 -864676922 703033051 894952249 -150640990 270166951 -827059820 -366187924 -853422858 -421025844 946021076 613464645 607432859 821651068 860466777 -169731593 -98907379 -972392203 300390812 109651546 -662725201 -129670769 552386210 387772023 -589267288 327387623 -122719666 -289683223 457957452 -41450047 -466333377 -196003971 639858975 -787678068 561525077 533547324 -884164276 -423423800 808259219 -810152490 504065599 832473882 617671425 -839344580 -192571663 665404148 626268131 -256201229 -938318240 353301010 539503088 -857505583 171557878 35239307 303916937 -124402259 -332195808 -442004310 -828030463 426246264 671907283 -697635376 -795647998 -229250080 31701071 -338086359 -522998055 -101957310 -754701338 -54965539 119366200 -33052056 -719202912 -628428654 -43675954 -320252113 597291235 -812295263 -583236586 -690200153 -774034729 -781209361 -265587300 -595111373 551771641 196993279 725750096 51282600 396670386 603291449 693032640 386805317 757178668 688739444 960711766 497025376 -457682721 -29997785 -321271570 893487944 181362779 -380467761 948357910 298669524 -992328646 547886195 192914250 -159843973 -278922765 -447549148 -59198456 -144581875 253714199 -675180009 695909211 451981109 -244047427 793676993 714921086 -795052553 811917557 -619622389 137210706 693856291 100610667 -313070534 -203099571 -412774108 966635365 -973506296 994665531 -13406853 749069300 -593295981 -1985954 -664673567 165666862 -138036148 -66610951 -505064118 586936242 -201146695 367970593 804304918 667140168 19680294 517433828 -968919175 598383933 -244977254 356946299 578876734 -293491613 -836744020 -472241370 572847711 785361100 -37371114 -971796346 211873554 21735485 175721839 -52292111 -64026942 -315393942 187888338 854702065 -623237183 873179601 -314393671 -997532463 -680635584 812242399 815142113 -235177980 -635317913 -315179552 465991502 -928780671 354789942 -127991176 -961523623 -742191818 393683663 -220093998 945971996 327561162 209009655 622164463 604508057 755454321 -660692318 -834768523 602828209 611027299 -836551113 614676194 891662347 -42449264 -717456509 48285387 368554659 142068638 -852227020 733956540 422696904 13743837 207347942 -589950775 -347004318 -273544212 -602660542 -565639131 3407721 -839989743 -752594597 807184091 631248584 -532064219 -724700421 -12105704 -315005495 -337826854 -666068287 -740154560 961681149 508699943 -67484961 -56727130 697702042 -31912991 804182383 -614403003 817783796 -329635200 255878102 -17614462 -416411943 89634177 -703640491 981628727 873515997 908450708 -188628891 -39202895 -429929463 178131943 702652626 -476644290 364661895 663996891 -824563895 -659495537 -855651087 -292475676 -289454898 399417207 -339225837 -642502431 124678046 -516158695 -765205317 -61740376 -966799720 756227816 -865644407 -257613933 -620091969 -342767332 803738027 -862839401 927592787 -144564541 508629901 -676991355 -850500864 -372999179 320778956 842518721 -803806653 201489711 -654514652 843914001 229287726 190966513 -946978522 312072318 420986128 -758770806 930852808 562123982 452751224 -18609536 190422817 -321554625 -251783324 293107691 -892689946 135025543 -506659264 290198161 47557514 174176972 9209867 685073682 735800665 -562539242 488918260 -915967255 381987573 628658535 -819609913 360888936 600663464 -862964266 385988339 605102653 469616596 -798331499 -855764895 -991306804 -238256712 498430755 174209547 409413399 -208162548 -122157772 78372848 -484646808 154030518 357863769 556199334 457791976 414370124 -23949808 447352664 742482286 136345226 -652492717 735456289 -321206968 -28788588 398440176 889268025 -681370833 88604885 982225720 -169649011 200229090 -84449338 -641178779 171426266 880296674 -890214019 -737524984 -745109737 159291227 -917208694 -865798178 -77705028 616843023 -631706982 -963850160 141403873 907167431 -811404139 -334882138 -822695604 906925175 381292748 539930276 -498883075 -265673245 373319124 -986228434 -990553514 538238110 -946138404 476328978 716083394 -135184829 338879722 47708000 498405271 -95260555 -431920876 -435805070 -452235422 452194730 133568938 -303504086 909339706 190161038 694869803 510861088 761159147 803911054 440652668 -657050651 892932119 -397882248 973457716 -117803681 -916868462 504660696 942895414 189109034 -469138768 -667927637 -151173018 540115767 537461063 146566503 -819133330 492575197 -133106262 140957543 -236534110 946653203 -576281533 317629637 -818239580 209252417 -38365928 986422166 -797527871 -40415642 -694886072 689341082 905052155 -406323440 909987890 158453468 -954124459 445533985 -578361351 -789390890 -141275749 -165232741 -339621773 -586324518 430934338 859740021 332766187 822368817 -138008144 -497278425 -202355322 878467272 -236564631 -891952456 240500858 367876327 283369396 501376555 310387933 759949899 716345534 155296855 -660638211 -138075489 -175299050 -172800279 -448482789 491828541 -589535396 -727710128 -376401584 -640571119 -954176012 -56773499 -59055009 630232584 433019239 -755195530 835251938 235587052 -48022578 -174752531 100076732 672951622 10033954 -583190782 -871541271 -995200077 265095974 93976099 -756051588 -544741630 -154438893 -5390552 542408063 -792508514 -941627496 4379222 -502606505 -358814625 539697646 -663255190 -449701022 22531314 107645105 405731659 -736018082 -766775070 -56101027 560932101 -892541506 -308660529 -388273725 -970146651 -333655903 -131420756 670252652 -932935677 -818930319 912852978 455172725 -120150099 -525619366 -41557220 -631702782 438230646 -253179853 237253279 327933950 -835267684 -438048982 -431572955 -875984103 -56444426 763848131 781893514 972913055 975495371 -104213984 -304922579 -971089155 723670211 782991620 -883122274 -535625913 602458852 973469440 -62040946 504572984 -882922912 455703790 538814 43419909 -292389961 -209339248 -892365297 -45890728 371422533 809916235 -815114970 -625997475 285407646 -772924801 -465786266 -759207669 -374473455 837402856 139869981 -745546599 -263021461 -763848756 558812950 454707073 -892452602 694328386 500913368 431329155 219911100 -727755913 540263058 -232286568 559135019 -365187263 -9329951 901720249 -963637542 659998505 -665952346 -637421141 851218152 -437332894 -954553279 -97001211 -746930953 -812714500 268631842 654454046 721703203 219515003 575637758 687879466 -526077211 444206972 120653275 832437976 815370127 873988040 123078787 13077588 137390112 84693963 -470053126 -179002300 60421728 709653134 971527826 -81286156 -573914168 -433974278 -834806172 -134603276 833088281 904232770 -823677779 700682610 597088312 -306231985 -8903805 106665854 136451927 33593070 -759355492 -304799053 -341847265 -663773689 264435058 622422190 923988881 463968953 -199759863 229398415 228884014 -646472892 920020524 -620577550 -18757150 -511661660 -152966520 -820189377 47054242 -607451437 -826861563 637791971 -531994792 195129857 362248331 -905766656 -81828590 -236603279 630056754 202336201 655892296 173405122 -558963572 -846629094 -220123447 -534850357 -978347183 -671451579 579682619 -981737511 937577069 -807869328 -882588131 413744079 978425142 -232941572 703702673 916725377 506094438 -576103642 -902270174 906806741 954984372 -12967839 -319248181 105819800 74376690 -132710931 779948659 -984539293 -200272520 -875095419 -199941625 442691201 -674831622 -995798919 408189766 448287674 -824524253 881584447 -85647582 833498697 381947823 -915211541 329202890 -353979016 918705050 41239641 -414254722 732509183 -63273142 -215355536 31327493 892916 421299865 26925023 -412970770 -842652753 -764588518 -472750920 -345921766 567079373 -351887728 634359428 951487390 -610600051 -425365182 4045040 526953632 -97092626 424863113 -413790052 418400571 672698349 -979000035 -806072148 -787895737 178079602 370393369 -476765198 839220287 -630096627 284866639 361424117 -758456482 -448827787 -775671266 243395532 752888931 -954125772 557752435 -363021847 -875809864 -970691245 541412137 -94617486 -160111643 -394747042 -824623346 319963258 -413175322 152542922 829293049 -174957631 -728742362 -347797100 -934133199 988195056 -500030121 638650818 668418763 -657851560 -443242240 -751565426 -832229960 -991089339 284354749 70641167 -311348800 -615541070 -668640786 780538641 -315576321 835169529 170526435 -672562835 -383085953 854871656 484805723 130475257 -451320923 -134559022 323320727 743835496 34228351 -779487325 -790853530 75562382 314153130 636208388 -648219897 174882499 955223139 -939280966 -547808763 -411098837 -574953778 -836057078 -956035367 203540831 812450875 295590116 723804224 370951728 807846585 533118825 20134461 -698648618 -90674038 980661904 -922638406 804953211 -127818567 397261113 159013272 -491049601 -894941605 187179145 14380249 -881025806 -187484936 -939675507 -459147715 -986061504 -778426990 557711991 -206652966 -583960444 968521381 499497441 -784544693 594042046 688139008 142583684 -939830177 255145591 487718778 629786396 32402603 12009733 -243105990 42213662 169258728 685373817 -621256721 327822755 -729126519 -161750579 -511780843 860314317 -740638946 267928314 -32760691 671196326 -894588422 -28916581 334348272 870300851 -11630651 -307472960 57940682 -620504923 583206869 1148985 228777795 442056603 610668742 406292063 -321161898 61050414 250392962 -76276911 277892937 -59999229 -614901118 -416097899 81961190 929565344 749483063 -163884517 933997565 498749945 -520993914 -121099894 -348721588 700864900 946279841 -82151371 654854657 -48127618 -213218290 87823437 -120572669 570316719 845781237 750336963 -608936726 603590097 496737653 458906771 242034069 -860148359 873750093 -864329981 381048950 -994602175 -116850832 83417090 472870714 -669671298 746549488 -46226432 290485090 54412059 -421390748 -179553018 -536860490 659642443 -241520751 838537664 391141613 624597773 54676458 7318510 642172417 -849923356 251482631 -120060281 246157999 -892383182 359777196 120975226 153372686 431146767 -984852664 378882858 -478589433 -412996650 -52577691 667765722 280986093 441708969 894899320 538249566 -821030406 -145798817 936398353 -62800666 -678800274 419428512 362792607 517877503 -120789304 95546143 388353686 494282024 -123905060 -511586524 491353300 104441168 -912692865 728232846 893105859 -19171684 317537195 915766363 223508508 718379603 -334739596 602646389 -175153250 606262522 -903594944 879948328 -201969111 298376688 -321919189 267414189 813846183 165204998 301426138 -534053196 -177441647 990630656 915367924 -975032200 991108846 -448207918 -753399152 -55051094 423516668 -658678879 -294855650 -764823481 726662812 827970348 565714828 -765296006 616556168 670425719 755039325 342498996 -332237033 -404458898 -730113929 -705428189 -758226649 -17471915 -129384725 983589761 -62530716 -764831228 740438782 69708731 974455701 864598265 801957579 984660175 678291029 -74079268 294043031 41353753 807268948 -338867049 892469816 -885747056 -819788782 -983231447 -360492159 -279517121 -397108935 -826968110 594375171 674206980 428268331 -496433402 -29911389 995038836 -306282522 446697560 888329001 -96279295 329426120 -275096248 -126499490 -370405904 197305308 -842814760 -687143872 315706098 -343330269 -359654124 -327619437 414873026 -864748825 522338216 -228280547 79683066 618243263 263835946 217406208 899348984 4642691 -708188331 133991712 749977546 -898388235 892318244 -880327261 -491080637 -523195326 -875408349 -295116364 -431979617 665647352 -657835961 180876455 -800681198 646574684 -230995969 -424009892 -625795023 905780916 -67096617 427147849 599233610 -562267559 -939768469 513177393 -420620842 -886012812 -574415213 -352378352 -578322457 -615540247 259134014 907109823 -534274500 -570652305 902112146 959887463 667709307 501924275 556748922 -649691773 -787374179 113327362 868581524 -347667321 396638045 -614995975 789425616 646274960 216515724 -940484109 386966805 -665288798 -396034672 -410957090 75362734 648299617 344536379 -151693803 -969963806 -961058176 764190145 358986935 677801091 550432439 686833514 -850435796 -575443150 -463924637 -547014617 -225379579 560095588 34012084 -201491680 -659352559 -63248786 -216505079 902695315 87219234 -222977988 836757437 -130493194 111429412 -376795675 228062941 -607604635 754445870 -334461630 -348075151 -756753118 -118762500 -432654780 -17272849 561878875 783696396 -886654378 38039372 556415564 -703162027 880245681 303057192 -464428264 512827180 689518370 -560550177 -267461718 -301509712 720368562 -159863962 -692072092 -952116539 75889581 -156603681 -88818928 552697516 501764990 425816175 -713838996 403220237 -680234219 616852222 -634459446 -876709710 -806162389 130444357 -412234564 -331876668 -726860877 -997738571 -885600836 -710652111 128471948 553122284 673794287 437109220 -163885064 913111409 -517502027 340519599 -998778386 -251957841 521306984 -410946681 460078135 644836169 -735145410 -276898738 136370849 252808510 -786666119 662674738 875082223 257269295 240719966 -55630219 -326552217 258176135 965945723 -362408881 781961947 305999585 -199929682 151592398 -107455197 -439477966 599218069 505153230 645466331 514975240 917665683 704652830 -990021701 297506121 156011055 821297572 -675733766 -663331875 720314498 465163837 894462824 719333254 363907440 381343119 466517507 -703540529 -842078799 -796713243 -207564865 -129934151 -887569550 554187419 572435357 -583837597 43750906 -311261557 -546884409 -245021943 -238005545 -803622462 817419664 243765510 90857067 -438821668 122380169 -981385279 212142119 -241561118 -201949560 -888571693 -454696101 599146575 -729578269 71815655 -487257681 455534951 -216761767 -581750701 273230319 12682996 120334295 483507613 914575106 878826884 484590519 372264631 188457336 75300005 952571336 926206133 -992987172 -42089813 207424492 -48584868 276756394 -140672155 -4229439 768525140 501683125 56421368 208765684 -604589353 182783303 -208922943 645274570 109940914 -641862839 -577459280 255277214 657332501 -460129566 591460633 -319041739 -526627694 173453190 -653655631 564517714 672786269 895572110 -45034085 444817867 156504474 327438417 -685204529 -484319690 -259638845 -854345835 911148276 131585827 945232719 160579076 766632913 -342393527 801976226 -563122860 -719389100 -421364944 675727312 -114390961 678512368 779967078 -10273514 458655432 375136365 937507651 -936759554 50561138 123189964 -243508115 76855802 447742054 792623377 -130235937 195776665 -543062138 -982985607 -699201793 -339957694 -389285186 435040281 -29544216 -240943545 967425346 719308144 -425882192 116219681 480110889 844414990 552355519 300450398 -655731271 713923753 725962125 148054441 44933000 -24358205 -114490765 -607725889 -386660759 -565366123 -510448271 -623724122 219382337 464302301 877739084 -201534671 -146309094 -919738387 184061842 -663922395 -950470013 686394179 462469181 -776058516 -355689738 347766496 92502032 -923745056 601038370 -873418607 -444356259 650742503 -844248720 -55101927 -901778630 258309978 -185420165 -146148807 593199078 589715114 -539728053 175316123 -626700682 233933506 434531463 327688596 -905128000 418142413 -102157294 872400511 -932620712 -45384126 -914127896 -439823115 971365261 641705192 55791540 -14176128 -834957459 460316712 309436365 -43052018 -247809251 242710338 638761174 -376761214 473791731 944123289 855526921 -213051793 408418180 -100681259 743570227 -10942875 -563654589 876488062 -922714892 183783359 140827789 -24254180 -236792466 -473999730 623495549 -449331509 -590404027 283375718 103990146 -881452802 418533542 -776035543 -443374546 64136667 -570458949 530352524 -762397662 109831648 223073848 690486941 -985609595 -373266337 629981672 -810279207 672823126 111499505 -16735461 -125925222 -339607912 -816896133 -347661646 395877962 -456582895 -775879648 -385822792 123237564 491749583 152454834 -271786986 602016436 -129591301 -315052576 17484337 -456814959 -788284301 741834609 -139268708 398445950 -757230887 -273964046 533802487 -997522483 -830194786 634064168 312026777 664649992 -70588965 49357748 820414365 676847791 -222086887 -689858245 -626961564 349417932 624706082 980766636 -791431858 95469623 -278759854 354124492 648905395 -780315469 -980451362 -35422678 -555848352 892996738 383293298 461549953 -816896595 847211404 -504141975 416847647 -832503599 -555634054 432491026 -759714964 -987639151 688727111 295518960 596408591 -53437210 -645837293 -814830307 594648117 -853984166 -14168941 544098762 527000381 -674380372 860092394 -47472623 926998286 -458411586 503020590 -421019120 141384684 -766858327 -595949217 481073870 -746207244 948621243 806473574 -428720600 5733724 667849086 -431992014 -201080946 173718760 416172386 -845377414 705525101 889218566 553133497 528707803 860998211 502819280 965933819 -383909941 -233096843 -49674713 949919247 -323169944 -726679925 661432985 -277983085 -103518619 52771860 -103420978 -727917595 386865680 -319717877 -134569200 194529734 -196215450 144000586 -801111781 436333131 -917904163 267884980 -298635613 -799848711 -869580384 -15765948 -859970474 11934003 -494451343 -566043322 60069428 -380702498 490161932 779700917 960107761 979856456 707842920 502051093 490279696 -65354463 549660792 -386409369 -636414410 -129564818 -866241586 54306834 -348001699 -113249411 -61940922 52758585 -658091427 -203441087 292001356 755596739 -102644542 -262011846 92204386 442942824 466888535 -898477155 -380691830 -88060203 -146623334 320334349 -600344813 -75384919 881442094 898502895 -751222897 -149940663 720232869 310031422 798328438 724159782 -512474494 -727484333 -329180152 -336689213 -56028797 -568014533 -843141513 353246413 -934037750 -997058214 308724550 292817928 -163142415 86748476 751506766 595055313 -782499256 -641384348 -978181462 -32674687 -211636651 697970382 -546693758 273382868 725338149 -222295898 -429586547 -669628450 329288566 458411223 -763241172 992788938 385495750 566138157 324972730 -258274578 631268627 184905987 -298565198 79026909 67016727 -326870277 -88448359 -584100221 -239211405 316488912 628111698 673779764 -370622605 651399190 179624338 659488946 402476120 -720977564 -165409521 99704911 -258262485 -440734570 496165898 -737623689 -763998917 -553358925 -921729051 901498446 -776526938 795452525 -289104305 -132239015 -1566541 -160360313 313125397 -319699310 727395969 61231264 -365027108 420597304 934007278 -683234718 -856981183 -273959513 660351295 -42010431 5868224 925629545 -340520413 -464098638 613360942 -251725043 -982904123 557619287 559436096 -303646153 67135211 536445394 567901893 651824659 384687307 -928788108 972194515 -229137903 44017079 393717000 668094462 787663692 217377490 -38535238 784791396 485499257 754111640 -577284693 -391441370 -855756906 851630283 -93254929 774942359 -533150989 894733328 -18671652 231545370 172310448 -747493023 353164863 -216016869 -694569358 -632738537 -436108744 -352720190 -151943871 -665465490 551614528 -641429978 458832812 103801631 -873940351 -662489983 794799104 -214121257 -145676867 -317216608 793960033 359100374 273323229 -299299696 222684263 -906166898 -341554530 -263060714 804067568 34518193 433755517 83430320 997868786 87992951 -274905238 841196798 -654140402 -449560529 -913477648 312913189 -217845776 357611897 946909233 365806303 -707544220 671551009 -925178372 -162096312 383233018 662021278 270823991 857596859 -196738965 -94977176 -908992905 -572138706 -544219805 629350420 -785359572 32305446 -551228178 -758997028 -311927811 -138514575 368081794 942373586 598852092 -752533060 489466534 206634391 -283442826 -617851889 551951098 559286743 -199337450 130053794 3643010 444930461 219451875 154656242 126853177 -817776762 656516196 -468559918 727917366 837805540 -86332212 -297458810 745823365 898223888 498561985 561058125 -388883238 614273898 127631832 -226148146 -27028976 -846391699 -494124266 648389769 -616895989 -920284321 53786080 -658423844 5595302 -896762265 271606201 541563546 -892483114 -458301626 267467532 -468798654 -712094628 536440992 -963105871 -131309699 -788596379 -530076553 -978875700 -857354137 -771355160 -214515021 437048375 -983758972 -793436142 540158841 575471361 675480014 -776616696 -979202653 -573911123 -260169683 758179767 -243619560 -264197621 -938181842 -584187616 -476654028 -192648449 -494154034 -814009951 -944787964 320395329 844044159 -163784668 -792400036 145945151 -270345311 196043001 -653965208 567197791 -577387646 887036674 250927462 -276075403 -356632775 -746534291 -62840995 622096790 917111326 462982847 -184413624 -222477893 422538855 104488596 645973168 958851101 -472105913 -416164903 321729518 -127307895 243351209 -984852338 -231904213 972482326 133923834 -780189403 -779455734 -556739556 898633828 -357973329 913486947 428434885 824826942 -267070324 131657556 -859487744 -881603169 500741832 -568033390 -253322801 156908834 -202487059 781903773 -956899427 920046588 -548758670 -837290991 489767052 -412569946 750422428 -530537435 -911181558 276114317 -12590104 193555584 -843156087 -263553595 112706676 -275204266 -364260939 -324000884 645725776 95509927 -11599094 6990347 -250844677 -690359820 553236226 -886477048 -82080057 -935918936 -967280895 -841257724 -181715160 134358570 201194529 181741108 790050473 285025855 -211098623 633929315 -66808295 480414184 -244212438 -535041628 -128035253 -925665818 -842126753 139791200 628455166 867360024 -832936441 -105447567 868626189 6513639 -113604751 60200892 706890534 200387389 -605958572 88674414 891978069 820454201 -111600344 416226444 -911416659 108543059 452597084 -249658473 -324825066 -688364285 846482927 -494615812 291503345 776159811 -557200546 601762148 -386008660 614442869 200771853 650716712 986679031 147375311 473688412 168454509 682892354 -733194281 -544814950 -665392925 69202253 207078464 -965319390 643920089 513305639 889277525 -18335365 73369197 697539057 -687124238 -416363154 -363415682 -134061271 -789867447 -592725534 -156086503 -929023999 -270475414 -635564330 152441061 -360738623 281710230 -667780895 362650776 -630509241 -565316881 -7628963 -780146295 -919845359 317973102 736602484 -992274982 -449345831 -791176115 96243573 40725760 -339930495 -355100537 -90689047 -728078517 -45492981 142712927 -27802049 306280779 -33830678 331606126 -160524184 507992066 139671120 166843070 -955384121 460684485 453824520 144301547 505338656 -194168993 482467336 505768446 683009660 -653055464 180243901 336427427 180821010 398742380 10847573 509330883 -114298827 -503101206 -393979106 -719289243 87214366 -657807760 817033585 -446572194 -216182880 320714404 725291201 -986960256 349894963 928100656 -837576712 -197728563 53842394 29675509 -120579094 -507319315 -935247361 -319951445 -100979619 -709124405 403224790 -728493791 -338053242 599495038 -654215252 -615476985 -700935496 618235385 40378668 -135020258 -336447410 -630683864 -278689586 199710277 738370968 -133032002 -651760887 647780984 372453588 833345917 -572375388 294493224 -539455412 -354600886 698479130 271051903 669129037 666487200 -106421858 455869327 -859235835 -622932991 515638275 -867465654 -165763602 148261520 -469955921 244816374 461433652 -675275514 -733441580 -848059814 -578863473 -235796424 593348167 51767216 966279892 -488214448 -843109044 -569102668 245355131 228925974 668013429 41237583 913466234 536318399 193429212 -465659011 945129031 178242697 446484983 314241642 -27913866 -877268638 -732192187 -354232933 447065512 -777306611 -639260058 85830284 394803230 248458654 957832041 512597725 214788654 432934843 850289693 -283074402 -991679308 703959010 -697923075 -380275041 70215252 412564175 -145825729 10819977 537469422 -229880400 -949460188 213272448 929226646 733766296 810405636 -964627429 -622088129 -764404865 324395550 -640785877 319169372 -541317376 906186283 -832226991 -20083147 -167075297 825906243 -206569885 517759591 -257444123 -451600734 471763464 359961915 -809782640 -999091859 -879375575 -868630236 338121566 775211243 -621170432 -382037636 -364918908 61140802 -245916895 -123521885 -198626601 17804092 -981783461 649595957 835482457 197728220 -796884062 -570598535 774570295 721251261 -269645548 -52048496 199607839 -311498308 636324136 30388339 -530302480 939754511 -48544239 631477077 96384929 -863366995 942132820 -216141037 966747956 -712975377 -118854553 610499941 975334560 660660039 -403817779 -806119501 490560498 916145427 -555854914 517563421 934497981 435759779 -348154346 -689496996 702840326 -893806045 -168233002 -319968751 -238673091 -112277321 262202583 366174129 -351282188 -873616219 -161202510 -685351126 13839837 -23938067 -958002176 526090599 435477093 -432751844 -135029502 -892564688 -178427010 -655065663 82661598 647410124 544649560 -556186573 -222346608 -427520708 114177123 146631406 -581861604 -414740248 668132014 514377994 -823718655 63830151 996986355 237694364 498388594 362569309 345333385 638090710 157955874 -743235572 -960794427 -705773163 -185540334 -315033398 188384560 815457284 -776267336 355456901 457306839 953389053 596565618 -394770168 436126243 673464440 634349977 322491950 199297167 -148057105 102592764 582190968 -348880707 10111574 5536741 134646003 -826744494 638140635 96229771 -746388546 1743588 991229324 933829873 -309724493 -902168671 898444325 214437384 582497213 997618007 -331656895 -106336589 620773137 171270197 887700307 -372089436 760383252 -89479090 -814797802 365517745 -829377250 987560550 666785504 -495049083 34950015 -514393595 560819828 -864490964 858640897 708475597 913764487 775493511 -970971400 309514977 -367817455 498095604 -112592165 447395981 -967931819 -568571719 -751132519 -479860184 -279833893 259252183 58348349 242726768 655413883 655171386 997168208 -457768240 332250518 721405443 -898119366 651969038 -712728507 -228105017 -154490819 -614693033 702355341 577632780 -743854006 918006109 932092602 659629436 -749963837 935050832 629701819 -318676482 429847571 415221393 -408516730 -362991697 -102571987 -617422525 -684361622 -380965359 -674444428 -136483766 639455589 658379743 216991057 -62707258 -184059693 747762725 554386883 387443602 -304797276 -412158583 -482772887 835039755 -635404822 -804383155 -872492811 -563390966 377117131 -657570416 400229893 645565611 29009217 -547164207 -437606046 118816882 -213537434 923254779 -554442232 -492636319 772048119 895538855 673179496 -817229685 57642085 -201266748 344772528 713346406 -870645389 584645107 223420011 251926240 -797719062 -489923617 -517762584 -176190355 857168138 990305373 -346445259 832816461 685036442 -278967944 -769146731 -313226468 -336248851 -136793102 700239085 168448544 -187202892 -336804796 916348136 -485979816 283207463 -471129607 185061621 -970235116 -820377725 53776963 242432897 199584238 -633557551 -777669898 -712876046 936147407 999757810 -661439144 -375051127 -785196752 -46512877 -751452175 41435175 -856628259 -988610426 -465851707 89381061 305526062 -690757378 747784805 -230085554 880598951 -332650316 37266898 877478290 -476207973 -931970732 746510746 -889285232 170379636 -397481834 813068876 728707119 -136177132 743622828 720069050 476460263 320839111 511338144 -82489730 932403493 676806660 763742448 481042814 -398291194 395161604 377786650 -367870690 -504819009 -205823062 23698587 918609760 -330694427 271992274 731658493 -18737376 -36915765 -905148845 416269684 -807905195 -671617837 -238013837 -201625712 -707364858 -858602088 -680959379 916200156 463005331 -990956647 -101309226 640535735 -623005511 -986520429 903229316 480090620 702024790 -309461572 -638815002 -696993998 301086427 -702426329 -294818131 55064139 -696951086 42566922 -255681205 -771071406 -396540776 592241956 308564889 442832501 -444246316 -377670598 -824588729 969483895 -548362180 -803170420 -422602952 -283559887 705722711 -56117971 -463859569 957615227 -578994763 -530416849 990494816 709680415 -390663847 -584906150 -741967010 -862004506 340530002 638918337 301490174 382320870 -50965743 705725414 -499440180 -723296958 58859457 15506582 -910364587 -410081794 531198364 -231357254 791793265 777680843 571763029 643651255 786031935 711742726 688141918 -650666289 -451815836 -243330873 -755245535 570060761 -402642544 391474457 672291585 122535243 956774358 32187810 -203469593 891490761 731369826 -616953475 591427336 -269619197 -133365407 596095919 -503678640 50746719 -184717393 871131886 -991560745 755148556 674346315 901518641 -733412243 804700691 860966463 -612826152 -794770636 -915729598 -470023474 541862118 929000128 297151331 -250318612 668495780 -125428694 -207726424 -617455963 -711470562 -90097032 -759174075 -636131663 284776225 -968381735 -411708439 119806689 925981395 673245983 -753802101 -321939231 300233335 496024506 -459639235 -920816893 509869629 483900043 389936268 528061600 -605333904 3892555 6212828 418913249 -150646125 -586130130 400720497 977637673 650990479 -782377767 -208085119 997128877 -64024025 869713541 -709600366 -818584909 498372570 675630456 -102486737 263041803 635259429 -632252425 -592973534 658291086 477563750 -808635858 831613034 5617224 888950646 -93741751 472461015 -204210901 -746440091 265943141 -687024939 546553349 997521799 354666473 772814032 195683135 324685278 -198204463 95532677 -741883727 -686443971 -500769425 430328259 -807231355 216306301 -55146140 -750906218 606253516 -567398369 300841489 -832295494 134646532 -18416609 494452108 -349277323 424420093 -375496883 990661699 -852345628 -381906271 -122706897 177835134 -45296033 -91230180 -304555377 888199109 248077868 -873085042 -531547654 -179430 -816000021 150188624 -989866321 -700525539 -131410055 931716743 -128788856 912105160 23692929 -861772357 920790565 -249470192 -760236539 -711207134 -576053177 901793398 -664781512 -12801415 -25001423 829958370 -212380701 651436138 -553871198 -261342849 920255250 288593679 -420079107 680537923 -721624033 -766300603 -552198904 796494125 892294855 439363483 -754060043 -221337140 -277411810 -460730259 -801910332 399300644 912916802 942115003 791601030 562250468 -57931269 936968298 182398477 667981140 -96562466 625038957 327557716 -885836382 -500795898 -349277369 392462602 -477377398 -920071274 477866728 -692292809 688454096 262684646 -845894562 265736253 853614099 43916297 263311908 765166524 -600333112 -168745834 395480980 -803017781 240138590 535622514 813500070 -682929046 855864430 -587598769 286473015 -44871227 339154134 357576709 -281890938 93516141 833437761 50323728 -296354712 287766965 -196527651 -960280622 -333664308 -749697789 260367686 -112601074 -943934189 710847677 729714085 -780983896 588578811 558548750 -780138124 2616446 924502916 922484658 84955580 176297822 692282694 380997308 -455527564 -664935175 -988539948 544143594 -635285221 -444622096 910832454 496536620 -569299851 -420202089 995858480 731114986 -847008489 -133305411 638520395 -448233018 95394662 250768582 -794773424 205892951 144806907 687487525 306617984 99358302 -236109559 -374943582 684181948 -933620356 -42149269 786760081 -508510734 199168638 362732850 755471983 107102054 540487342 347076912 69041295 -435744865 532614642 -109310638 845821796 680081260 -725892655 74185138 -265342278 -254549480 345063871 523318811 -49349607 -234306922 723662515 -978514464 879709521 -402120962 252341924 -710349611 -37742592 -422916946 718557258 -207105002 -834370398 -973858215 903102725 121486830 -667477839 682732938 83907721 856159620 901806530 196938804 195274603 -695226075 -482623648 -487842905 -643424521 936531339 -571451550 -944302101 820792734 -518346221 774754144 537732905 801672658 -478107761 -76083056 774093018 -440331337 -304462213 999908785 764652043 -540873113 -993630773 597755016 -841668695 471243902 939513815 355871642 -85839394 975643408 -846356459 -619357314 -205123200 649908246 101686799 275064982 -434487355 -51087753 -657355055 635401293 -439094933 548866596 -952179365 -301990839 -341958706 980859273 -175526648 134345645 218451904 560409521 254904855 -647090511 -858515514 -871581563 -959956069 945347631 -68692000 639951238 290041758 454146025 547997748 -539920365 847324822 -943079612 -792610168 494424012 627418504 219252361 -882259176 116432675 -890698263 -979402695 -759354210 -291378343 -61375523 172736366 45437939 -531048579 -137968684 879978254 -491210262 -346217097 -115418747 -130985201 494048763 -563552346 412852790 -201038174 650558087 -799238980 236539976 895026527 -866155988 -546054872 740248240 767829639 959767209 132454380 -72819288 -73689632 794911163 -609270636 -869163518 960371714 -62592653 -1759248 -67068689 -242334094 -624650024 283113398 -188974665 -76134828 322010034 261943580 784054362 -113426117 349207622 629981904 336180853 924093855 227740997 551290765 558412620 889326057 691049835 722890532 63084663 727300878 -932974964 -284874776 -735981539 259632436 188691048 -259150435 339707120 -941223286 -291598046 -779023023 439872973 -973824419 -357361792 578299806 -820788643 -221665448 938038872 -676047190 543350558 -374701429 -152466237 102515272 -370481169 450086752 -551994169 959338357 -283085793 -882244504 425143192 -540864583 -59478934 -49254955 -333411050 -697312621 277448756 -712820659 837982831 476410938 719711106 -805195872 388594781 345145507 -313292008 -342048034 -527742935 -209128405 -137946553 928932123 201190951 555512904 510088919 256101917 -585180607 529270879 724828945 973367892 -778389133 -439055860 353759697 757350381 467926698 301301515 103948734 -216417978 -180802330 -535562383 474198376 442599605 717529370 -701512427 172555072 58548020 306595370 -749674945 -728385419 29177723 97189563 782493023 57697817 -403712431 814925558 -324017929 871735376 363340111 176336070 -578930232 210523923 999193512 464067872 -230564617 587502497 -474194696 613159365 -283933287 826972903 337786709 -675716127 -782349210 65326974 105933274 -54715972 -332855881 195821609 398553734 -498154140 67083160 -502672101 189909485 630319854 -277113354 -91111635 492584675 451102290 -361491063 -223707097 642251614 776976904 -407309920 201327629 -192436795 645660618 781325672 -851430219 366552055 -333207810 970735366 468939413 440222810 684726376 -27880300 276804031 273862720 152356820 854063606 43326694 933401875 -794932867 -115837390 -811741103 495837904 642955332 -531559820 570138915 -359907193 881672357 895967138 576496550 -594127690 -282897341 47403256 -541595115 -944536154 -758766990 -392012477 -622420894 -670286561 731034258 -746154591 520448732 345098480 382651974 163687402 -122290327 -657258669 301528081 854706476 860502212 -772567490 -708835585 229915923 -828927243 -586941991 -755521935 311717604 -410540059 -321937723 249966901 -857345892 -545716150 -787905382 116478916 575665587 278089565 160900492 -900860931 9518510 309352846 -513274418 -711331363 -245042462 -576106899 -498102958 -600745879 179056824 287397478 -897973675 -294511174 719689421 12996543 127298802 881677140 -28937739 969023118 350348037 660864718 360501503 -113473581 598790455 -284523272 -31230151 -668029486 399550912 374403457 792628398 853633127 -204333631 179119762 588383570 -628190564 -93523753 -833757381 -62467001 -863809553 59695156 47321737 550752320 292014593 -698307415 -397928097 -317895738 -62976817 222698900 462600136 -574383863 -170223689 417572249 -423065331 145034482 477231141 997048067 -426956542 805757785 326156112 748903077 955528765 387758865 -4992433 291900216 -704463539 683862086 -640770535 -529275581 -74024536 785621093 -694416220 -79903167 853243559 -949780631 647447227 453286438 282576786 -416478550 -365886614 -786791067 675754145 -85354202 928997264 -252520980 -994625224 710832222 -512830666 322628200 526606503 -747085484 581442081 609355894 331516721 628404925 -593216109 -104791462 -877552997 113911063 664215790 255313486 396395580 -728931126 635206589 -557071516 -174310875 483771750 987771930 63900051 993600107 75887746 42240162 929377559 -105507854 -328433521 -186490265 164237014 -185191762 129647399 -450414034 -553404481 464904399 933556809 726508983 -511889879 -389160676 -756173090 667038740 -383467112 -335875025 -555279919 147566816 -644767880 307724329 612567424 378605154 642074938 435880236 469452303 -2830263 -413713538 -278078030 965939626 -572067552 909866699 -528766284 -800041828 -711063943 -569802306 -990230904 -444973137 -585154 200039821 -32965563 -338254294 439833303 -758412827 -150995848 39031146 -802243112 -628311481 -46583987 -884618173 -883621728 -970118405 -431730144 747326454 12548736 -706243255 -40899691 15259035 -73359842 -284830833 610526859 -696347049 -416612593 -44000214 250477410 429444307 -340411472 835726655 327758907 -539118019 62668057 98620115 956930574 717663832 -597882128 -414655820 270173786 -398075108 -8751337 155098755 -938103031 -250933818 -76918531 879308761 320751989 -620812201 -292208589 494526945 81175529 -489825969 -214178241 260295010 -590641307 -306400909 -82890803 -594041226 -606449103 -549486953 -591039892 359720083 159969272 -707308807 417192213 60247967 761823942 -856088814 -988781201 389939324 -139559299 666961046 -220913550 -904376328 -885221958 -845737628 -714182649 989685707 736772877 -94095313 -340582553 -474276965 148408120 -155627797 905876930 313325466 322615123 340692151 -130795015 67440755 -958566973 -764360722 -222449941 -800169720 -476509104 -964783169 656026034 -476622098 -20276274 121631281 -361258889 168185009 -558511475 486182648 -386234111 870890329 625672194 -957166317 168824793 665001515 -249313414 -834976353 -123136064 118132927 -597400958 678270888 -750279629 147540200 895968439 -14053125 171028325 255708142 12279861 844913360 481875826 427727272 617770573 -398750364 -807329281 774519629 -926581337 305434678 -860773267 -155762793 697326753 409289945 -954736164 590791424 445416811 -388422102 -991347603 361008626 -129274448 59584644 564788693 -219346439 933585070 46318944 529882405 -311680911 149276870 828132056 529015616 986257623 -370270590 755060452 681014260 -986362847 473043623 293201406 -28832561 -31587102 -361955202 619544705 421763962 137942379 -125013281 59673687 678022953 -91969828 -584977993 -510101795 564015212 787101336 -451937601 297459789 -391945415 577853163 108965862 -106427384 -453190034 299621259 885416900 -971865400 101148970 -362423975 -71889784 -153093102 422424253 395906663 608885549 781201031 -41623864 -974717163 955101818 -671714030 -250980269 929908532 -583625134 403202059 589764628 995584616 944438825 212041144 577981646 -543712580 375882140 -962248272 -225695973 -210556508 -106480715 -378312019 -529164234 -3140701 124938470 660068169 993305228 -669180584 -728338029 849477728 -414959504 -490464769 -394535373 954169659 -937559836 615553496 645901891 -146845430 234671678 195575673 -410658758 -682230901 405761213 -24650430 -394405207 743100259 14577921 932058 -909808230 714455829 541879746 -596811591 -937715176 406329664 -960134453 -619838480 103440264 -813117687 654904182 767945309 970104434 -147256235 -638589068 305734535 -163983700 427001061 748725848 -826781692 360138740 535820789 964782753 -780176233 -36191780 -983201397 -251218125 -126937274 640260317 -581553413 603132094 132585296 460338800 325104640 -847845674 -189894155 584794365 -509414222 145774583 574048813 -177388280 -516463812 -467687515 107926094 212208769 -711581243 -405033034 -987935429 -367703672 496044797 -258041462 -203076914 -920696789 596535241 -882250086 -429706682 718433286 -656643944 -799039340 540555020 81624224 -612993898 -724993995 253401181 531734889 552799950 -956923261 136023092 976717918 -438688510 989563625 -63348271 619182221 599719156 399260295 -191280332 -528276046 -713491550 -395303064 -570477401 873356052 -214345853 693276303 975045100 -276211600 -812509581 659592967 246552244 848478919 -627972172 330067696 607820785 -331573037 -561172718 211089116 787677749 -90441226 488785587 -305271012 64489636 642489376 -879144376 -689811639 -227486171 536688561 -429351140 67218358 -823273867 149506591 643443713 -228030340 172817243 -114861160 -560390830 524263726 -762968871 -240988655 290808027 -369127406 -616945039 -594381544 942910352 487391163 -561386550 -960261959 -824041858 181445983 -808726582 -369436601 -206482177 617947654 805587491 425740729 -483031592 -843374002 239853146 -727399916 -775941944 -479914009 -910161391 120276516 -720135157 898194919 378444440 857039102 262933201 810669191 643402562 946254142 881030620 -176288620 961230877 -920079199 -243994036 -893942505 537735549 -892881621 -505821861 219577212 25435339 661652268 480650782 -505127912 931106118 783016229 -303258922 -791545181 -652639151 751847745 -210293082 -857377116 804061301 750233763 -70911088 -615842680 -631105123 -790723318 -730508935 628074666 -830157896 605508498 254422157 781250348 -993000994 288952542 -187612013 427298471 319225540 865233508 812912872 988123583 994331764 -401075981 -214446714 525120884 -991120503 -624370518 -171233893 -854979552 614585670 -945624009 543401341 184072258 77067198 210236455 -114138937 -645601173 -889935857 -168430661 -523618533 907359393 710054633 -833518202 -260641811 -152549108 -754174206 -925348258 -924645794 -521777937 368195639 -521518210 763021025 -692962688 -418116347 -780487770 -961505816 684867665 -130218835 -959462712 -889012591 489056543 -835278522 131876901 -933013940 146763734 443594294 -646674307 275635288 661557633 -827907517 637883190 -198812996 -303904230 293105154 865303669 -496103645 -187396890 -726315286 -922880246 809304413 856754341 -990848191 -710823487 899441470 -759714202 -75451835 -905378867 745840560 105541575 -550150986 -392716589 623004151 -481035244 472639839 192369402 -823844645 101942915 556923984 -211066661 -855183204 -422042049 -681715950 -890592069 34110626 150677889 -130890481 529580300 566809760 -406748008 313519023 -293466148 -179787535 -462544765 671489424 -830892976 569848329 -996937564 -470018799 526242025 375716104 431810930 554460244 241743256 805025138 831788920 32749430 -239398161 -415349470 -626976787 -286930955 999753786 733497772 992333933 211654211 -496777817 376807431 -386010648 815417886 283552338 54218554 -644996159 -459094418 894980972 147039849 90633726 -713405585 -740302843 132557923 917981690 -867696765 -170464649 -614257015 -640125014 695321845 728994066 216782794 -450363730 552809588 -651634796 82349350 568808040 860560266 -663757878 -646668202 430122282 509126115 -57866572 542654122 -440173946 -142694658 559223347 416566119 638276007 -56099733 453209289 -413305616 -717438649 856563291 -859595813 -25620467 -638539848 -490338940 543165453 -174828789 -878350947 721430391 -226291675 -39792997 -503465018 -254572582 510739013 -454550340 700564088 -484225 213437996 260786368 -651255646 721110377 38312052 514722869 785706959 666560811 -678626699 332755334 402286304 -444985352 37517179 413720966 -578992511 597919633 -368793841 -196175890 -880536953 -489122521 957843681 -484417621 -711213538 -518260345 757393695 -215273687 790105765 948913683 593561051 247096465 -623823907 931715212 14944069 -488905682 678020976 522444762 349966765 -479503099 -431172419 -756131463 -769816705 633517333 -932063472 894011940 -58416202 -298762808 339513382 -946645706 416143030 872759063 -962896077 927873115 -327282653 289798816 381288254 312438825 430503641 -580139347 -36339569 -598512749 222818379 891701036 -763209343 703491585 -742391763 938481533 498688867 165919693 681102499 663141860 608935687 -853416904 71128979 635454258 91104630 604475277 -942040039 -583847111 44556543 951322900 724305933 -439191356 -563898101 -680902864 -956902202 -428843912 -714035977 -885790726 -586165470 822961841 698260670 -653417258 797369754 -578421216 704862743 669999462 -285226992 -669659853 3963524 -368683330 819047356 883787046 400713908 318376767 -524581417 -411336779 262591852 -566840481 -353997452 729996901 661709209 460018637 683809337 -424552942 -69791899 940725141 794940380 823741340 -11081423 301427343 609716600 245066094 327185175 -35055793 601511060 781372585 -948025121 -402116265 -940600828 -555818021 -619160944 206190646 783318974 -310380057 -540594543 -749968787 -476732224 773511796 158490200 620860110 -868873629 270652892 -405515765 383140132 859591383 -38564840 424258502 290952304 440902830 -576697500 -1806106 -704968220 -730533801 -528372854 328542889 978799103 -753528192 -777459577 74651284 360280472 -241953591 57593553 950819389 -675573489 -682586785 556496463 461553123 -135651629 -822087029 670376296 -264331958 656032233 275336433 238103662 541941483 -354168402 983426207 -391471653 -458855918 -597078691 -974743504 -107083849 -896238332 878048927 238730596 -642234261 29198032 -902985130 262925115 276631751 -549788396 220620478 -643837872 598863028 708418866 -580458738 52169559 -721852663 927852279 -572644865 -255773325 -117497367 360315375 777605069 660857635 -513793016 482588603 -393838351 748676595 -852271354 -793417105 -76041168 -382334522 240453013 -130039790 -3344021 74429968 984053284 178562167 768940666 780835031 850683111 -342850370 -611577158 711281774 490095368 851201811 -697435769 837873415 564991011 384155661 687498415 -525361479 555713368 783477314 -118929629 224534104 703559952 -827606721 997012507 -694352390 -292673527 -149147881 -888621185 404816438 -19560463 153473148 611026750 -673499062 -116551799 -986299440 -287664693 332113444 187896829 -278028307 146936954 -477380981 78036614 91647577 -984016841 386628659 -7114578 8052170 -277661591 713505123 -147039092 -330684720 -266849358 283289019 441438069 -295439727 439642112 -490133038 117911947 -2914358 -978607216 969680030 675560620 -651177250 -120662050 -668954840 163508614 309733286 -158436033 689503134 -603006000 557137550 -104669969 -640112263 68944241 -906309729 -590824665 -103771075 -376277543 797529779 -161416911 512509981 -74067207 -265330025 -659547428 -396344328 238362873 -882663444 416135304 898114337 417776243 -212881785 -644617106 125237996 -481510721 -593506652 -854847771 894541851 532241162 91022271 517856481 -245077683 -799043115 -682226508 -988551468 -398536948 212039219 87608980 747062409 -280840232 43208777 -775091768 559161530 335009017 388731044 192658399 -331343062 -440405381 878463832 929802501 736087580 -213287810 433322079 392239754 518189722 95421032 -194581843 -976187600 97978935 322759628 -638127163 -932962143 -665135653 -387469685 -883138487 -249262844 -606047673 502530981 525981522 200859564 -772383235 -384654695 931886249 165183576 -747450663 -449557968 479932826 -699690671 -533228803 800830857 -130850542 -878708089 999355540 455066022 349955188 -777596745 925536582 -611949323 -272964847 717222649 -149692126 351023327 -40810753 -583470138 184119574 768512394 -66644248 -346465449 -268334744 -759271592 -65972775 -668260954 -785140838 262201138 516640237 -548682972 277063558 465458985 597587533 -466881273 665241860 -346211029 -937829681 -173259741 -606908663 917459726 182977992 -964899826 701643755 552760077 -843227855 -362213969 502664664 -702060110 -546551607 737707927 564558877 580099679 224295015 387356506 824028462 -183187642 -882244934 478589651 517110141 -973670027 636115130 -876347410 342868178 -303172565 581693855 434303539 -875938573 868755030 438604139 -355565834 239276676 -63923325 975094632 -51923787 756938929 -821838764 -944885545 -327793268 659974928 281207446 174619609 -640242977 163477392 -21950352 224918836 841269303 530043426 -499075213 -576120943 -757490681 587441990 -678365152 -747588597 -999286734 -692096096 117210632 671899787 -869457854 84756747 616155021 200084618 -727121703 -282683962 650831417 -89122518 654344890 305635885 774061273 -902141826 415794696 326739021 -520883412 -147680769 -248726880 877669877 -292311659 -819497442 345273879 519215694 -967965960 -194789925 -20636974 886634872 -236088082 -755981235 -900462864 -43384580 259966529 -40624856 929231269 -219119832 606114871 -209513326 583119772 -867542693 772797521 565703648 -486717019 -448165132 647608033 -999921939 434372435 556234500 -867613208 663516157 -213002930 856526811 498416291 72827761 880119478 804136057 574731358 -805597719 553037468 726205197 408180383 658990910 318650450 -514050742 527418749 -632629480 -705273662 133513593 414215136 486462605 -490520746 375636630 -431808307 -438235193 810111021 998490479 522977025 674207915 -542576195 -979442834 615311508 -572579327 655013272 944691823 -164933974 18295070 -298101713 -173730579 -681212591 785001700 -312714322 267062900 -962449568 -910212877 -745135410 168379804 282903313 901854525 -558121642 -519164781 865745638 75570478 -638406130 -315112158 -734980819 -569303439 122757373 723990353 933986323 -132683365 -714417070 116670982 -707927125 418388523 844339501 743306688 560578949 -425440435 -763309929 73259262 -24475586 110232640 -712489350 -557101253 550786157 717720640 447574648 238659327 -132234122 447358710 -685004333 -888644335 862468856 494247268 -68416702 638931265 671486894 811907758 29862346 -672372771 -913548989 373134356 550952721 -809158428 760007140 -861064579 24161931 -715562716 -371676580 -712570729 416381969 873600591 -3769864 -571613578 912722004 775785441 833297979 499828328 -461787852 346462095 48087494 -329025356 751097521 -652556504 181946577 -62408285 -28162938 -17584985 -107101906 778852962 307488171 139527753 -352782932 890642114 364349451 -226132176 -234129699 -70042585 -951782021 214119669 -969941681 169326622 52310512 -129778699 -593500547 105922713 -436123754 628319756 -184861058 853240595 371375235 197433286 -250548206 -558591318 -649187090 794619742 137705800 -559214282 846897076 -46984936 487579659 514591617 562549168 -542088627 246158218 74852414 -52320406 926087405 562253186 453907380 -807766584 531384226 -688780758 -450116919 931676324 852434438 180902128 -3221403 -373362833 -105264744 -304540199 471661290 -408931258 -247236470 351399876 -570367645 731300422 394756401 419162985 -260376412 -808698630 285304535 -474960968 -466093933 -449596150 898614088 -218967250 -523823459 339437465 -776381307 -435932960 995771440 -785786601 -540569491 102178261 987871346 -79766224 -948909422 91303551 305536267 -328182826 433674758 -589676227 -511292434 304686785 565238285 -478643780 -57544538 -999647427 738869477 -415384059 -23846008 74599152 -989738086 -619742943 311222740 -19750256 427895858 290164757 -101320461 -801175130 -252643338 150412589 460806206 -637755357 -150972882 -392972726 -986674883 57379677 642063290 224764580 -668988973 297424385 655433096 -363918879 856623243 934046210 -658236899 -136388651 -375045433 631883245 226714065 425565324 -789328617 179354917 -693028311 989738097 -356308101 440217825 335832406 654050776 119550899 630139458 455365976 522654738 292081011 403978709 -48884314 363624832 -957849327 121179853 -942453903 89244770 -400830794 -729867767 -651953176 -189657169 -578185775 364109687 -519143071 -863664149 -410958003 -899135478 -125536770 52140439 672601698 164200058 359383912 -983730587 -727145763 -920792017 -46478355 -27162344 -750933755 -837668792 -41505454 -903588016 302342083 -920678101 776896787 -466197421 946960174 62391363 -176554661 162013818 282939487 -713958117 58394038 982104324 -755480236 491931115 -689518694 -144258130 -598309094 -177065111 -453628382 -832796979 123226958 353426219 776132430 563583539 824322922 437155652 -212952360 -72445792 416991921 -131996132 292593605 -477827990 478898511 -631147309 -923213287 -373070344 -961735342 313639446 943972585 -944285648 767746941 -290690136 736679220 -815955399 -674651091 744002184 947915780 -314460840 287354408 -673113687 -511638364 415228646 -893863350 -189265966 16517677 781319422 -72656716 568707029 -601785513 639014809 -887811563 -554280913 456039594 -805563594 -241138498 978510826 -695329399 -689848485 -105391747 321929872 -346115462 -306970356 945027717 -439469552 204757790 223610986 497558569 -834175247 -919834742 -513140634 -547147567 105173995 612490273 382211568 597708487 -418987377 628675783 -72199135 -255503875 -29069360 706236741 -86227606 -46735772 392368666 -877326139 940375745 369539702 -619010146 702693810 405497494 -420485572 581358479 212291143 498772548 929102349 -504222012 766775880 273384691 834490459 -196941143 835023840 -120261105 -54599448 96758538 286513335 431129563 -533254701 -569077577 513856050 -650685297 -175615630 -195809991 761850651 -151950416 330369014 -835365530 454443613 509325206 813070494 -494119964 -740615853 -764312591 -770166058 143563923 952686018 776612618 370359022 988406019 -246831010 902418915 659266579 864651136 -16499123 -257806644 842948943 603439577 -419372833 104675109 700282133 182463578 5216578 23945301 -55469356 969264974 515322329 -380689392 -486705389 856997228 532300431 -419172464 -581444048 -605478509 387191559 987805532 -825017363 28811371 141148936 -331105764 267044972 343055271 11896810 500501380 -358108048 -930596255 -916822137 274050811 619861039 828849764 -877968494 297246316 -366465813 -632855285 -441288838 -985773014 824390100 644866610 787769807 394265766 216715832 101619878 -769142772 -154113213 903648551 677930632 463279465 -646568496 -439599205 -269881202 852262394 -813770235 -127142036 644838045 -123396983 -574600990 -927965640 -887698709 -874842091 -798370007 880441460 422787597 808447188 847343320 -940006268 -352274428 978503428 400604302 -409700101 -608571891 218310287 -632629711 340011357 721047800 654585730 -886627627 439262942 10347912 -142671698 -183031371 -991394534 727438976 929830282 -571197271 -239609768 -234921330 -288695259 577731194 771419213 -352528619 55074920 -621405608 306008623 355252405 38139269 543193971 182722680 27588409 332728866 -890444716 972835551 -306011984 905003162 -136686585 -79093677 624182345 686057145 -172632358 235243831 329194404 848958483 104217178 976224875 -354646033 126606913 -865731271 908532865 848984824 601532315 833343076 -472118912 -728837434 229084331 940628033 288632711 -73553421 511308821 -357093914 -97727664 460257424 589488960 199300982 -954443978 -875303499 -739758712 -224169665 330710270 411256949 128408682 177818463 -34661816 977259332 154535528 -182234062 193430217 501479624 -628592268 -830641304 -778908969 -886480365 125751303 -600989562 318125604 -402134641 -584073912 -369642203 102463370 4595586 812917283 -420399743 406718868 479373656 -406412201 -351026676 -499580102 -587641357 -753357341 429384767 -328862 -722213839 37177779 306027194 751230615 -117068725 375763664 774637068 -155670552 948674038 156095329 -859103145 -710728955 592840196 -715576415 100235014 446680399 88317040 814344876 460862090 -333014258 -187742003 -359533668 -89817328 77148179 -486918627 -510382749 494256097 250451078 -809034093 776349165 -588334296 -767490761 60740755 613610482 -466385446 -333180332 127583022 -262709467 51172427 -256826337 733908131 981710761 280440244 -517215647 -334009242 123322550 -305399043 -170748741 -59432737 -999558419 218260070 615095784 -682148721 744455618 430605950 -584806542 -633523848 -185394810 -936563139 -845725285 -35351996 -198430795 -617032791 276001060 254563354 544212132 671861299 216823660 379726899 -323216473 389363167 -414520642 149374834 196949223 -14868345 -853436249 -821878578 -225842195 979424779 893331819 791482809 -678757508 -263700737 -37058822 -564773781 -688846932 3774874 379687417 566135680 826535124 -792683071 -403202457 -491019821 -905173485 -432887921 -394836043 799325635 695468521 -231591887 791961937 -704018766 134406916 -916756993 -705155816 -986757839 857619311 -611239938 -893053799 -807496090 -53163817 327050720 478902126 -916582139 -707379577 550044715 232496781 71877208 88007576 -289887543 496637288 -699652312 -112717852 175515877 -215183567 -298556378 -944491154 957196934 -850307400 469784086 -841501576 606497592 350989722 767872750 -708231701 -387469074 -315223742 -266710139 -611803153 -65536598 -645724752 315903141 492344075 807135866 -894989174 943195917 -431805615 60573509 459660073 959867542 982618746 273298669 486530306 -343051993 -188898721 -330515856 -802152380 -725557329 634432856 958760177 817965416 -266593206 624769905 297587749 -711859602 -466955874 -337786350 564102420 668266347 277604876 667640364 141817642 -588625811 109222649 -994915225 377807587 -147861479 501413367 -933253842 -903418700 -585963971 -459908267 -671563181 164636467 103533061 -718696391 -393178972 835454266 681518572 -763537678 701175195 -984564404 -798780301 636871917 362806738 -640446012 -194691548 770057446 423302715 -794187760 451857916 146726300 -706507663 688077731 17598854 539099595 -731131368 205047390 -864577582 955614413 401136470 -354012545 -567942957 -833542846 460189621 65937403 -853588284 118627158 -369328071 -987921987 967849234 866063799 650663820 578717055 -217642687 762867707 757208410 430065754 496584269 121879905 332909098 486957335 -258885172 -66144478 215617377 636057242 -154268314 252072961 308776998 -463123083 -644864965 -850843002 272803572 -343660887 -104147434 -864585792 663299427 -951786537 -72581562 -382682062 -889748698 639763351 -887900608 -192417460 988965710 -345250259 481732531 102317039 740409296 866132783 376717990 805008633 235072626 117564143 -336147527 614692957 -520970731 826098896 625173017 867542302 106822239 -463146450 -838137527 981111992 -235893744 87681596 757121518 600846406 -284535474 50445903 648340434 -122347112 700938395 423816927 -524961835 -657564601 956308850 423406647 458880048 301207590 654433864 283016835 635394066 316556511 -161514646 -858013129 319645526 598323273 -733670405 527333122 -105439338 -121165387 -473022573 -518629762 -488759515 -299197298 133061039 46978265 -147096444 -915901920 705705830 193969555 477761859 880307608 -400373066 -487735127 593171711 580279343 -673826295 37884690 -618391250 -564731944 852425585 775285375 990097438 -728388592 -821177129 -956492771 18589453 -585947344 468143545 77486320 16598838 -486215532 -801500429 -414564192 -317457195 -987985209 -532425718 674150280 128714398 31204765 74424975 -226352482 -411461484 152790299 622367845 -333637452 621153851 999017489 465925047 52098764 -354494688 201085003 457417730 307811131 124810059 795021647 -223712253 -341098060 -773639753 -431748456 -944343150 -668450126 -403975319 245479981 -335909101 99351247 -445614935 224145698 -240568262 -634092884 690394643 688463219 916846749 -761867478 -811283665 866845875 864297210 -3826576 -49898171 -414715957 -826248215 -984346146 -632803384 -870896512 -542132168 498849385 -565596449 -573526046 774853981 -487208619 -158834816 250140145 -940670310 778821553 419284233 -965315830 -787562952 456590299 692608563 -733175247 -146718395 343468543 -558942 -35230749 103412167 -791200733 927105325 -677215970 442396808 407809255 -951825272 288951700 43729020 292824626 -338813000 -56687712 -51495273 227550733 -122467272 -683484879 461995191 -731414328 -409949733 721554739 517506659 -318361114 206118548 -968843040 -996809177 9632848 -257189768 564980314 625070864 913523768 -236297175 -815788006 -529067793 -382078075 22662948 -741289966 -120785628 -729928373 661646903 -765904793 -661939472 619661587 132245042 -999559846 364879379 447069954 68898052 710000843 661329121 137287682 -127533538 -474558681 482717750 -808039102 -890302127 -815922603 850363797 -766264678 898562392 -461897962 -325850998 735992396 399696117 -659701811 -715758185 -725177916 907437161 -163795843 -961984127 257797745 641486866 -919035310 282991169 -819688174 -72543300 -577165974 640699563 -149818318 -222726380 737115589 528784275 993897630 206197518 176684527 -617974751 605128514 -356735373 49212551 172933376 -651320451 994296498 -976526732 -100002229 526859360 -913037137 925891758 -305456616 -336321287 684887689 -766525405 831912726 476121690 -5082451 452763946 -738649211 -881717153 -151180204 276357430 658780105 811352771 280633536 845056060 -151933868 337399263 -13878904 -872219893 -704039628 -930927861 706852773 -811484797 64130855 -100923833 -403119081 -768281166 420773413 586042618 241651865 182878327 154067599 638988894 614808579 212316791 931569115 -67620222 815799766 -450397926 -886379425 -318874437 22338035 375076188 -603596673 -929811488 386736442 -446874065 -565475664 -607336006 -593080 75147660 756113417 391096973 -110585175 339098207 -905766956 -136327972 43485623 879447325 923865468 897267430 -54167354 -134463556 936996985 901960175 -165718377 775711795 173279896 -610822511 -558852031 -318244630 -113153035 -207859190 996353079 28220098 -75742419 -237593605 351354677 -399959139 437268295 665070109 662876770 -28284536 967193094 532183750 250089215 -964011313 -676608293 972091997 68995027 85439787 -137037922 -281438706 287001662 -365884387 -429483385 761526921 -325675939 -130857195 -396516867 -534046036 -344058630 441022819 791588399 -648725945 462419712 -208794981 -234543180 -455331120 -114103106 -252765863 15664382 -925642231 546420236 -817622363 -679916607 305595589 764874107 -332343354 -726456631 -57211971 -515858094 493391872 -820978734 -572016021 -203904192 -46331597 -698150154 817863079 -353959075 926465226 -581369333 1916288 726493292 856996274 992560503 -434467850 281599201 -434354675 20833866 -548757940 -199652206 673273676 -553197133 -670815003 362163240 256166763 746597441 -976527122 -630316240 160819837 607532677 749239466 954059696 583557580 864521665 952938988 764634412 755318477 -361069208 -704669259 535023574 -454892877 677665156 770052623 -110724977 -36531398 45296930 -1635888 802603565 -230505534 -233602131 -527083812 -336901337 -769463443 -760551832 351433879 968429351 -655988948 648498456 -606899422 -262581521 -444092195 13123113 402401185 -525221299 -938543652 71336115 257076904 -618076573 -653814928 -663532295 -530203461 -327738190 289514778 -79657792 -78549722 408150047 177462032 846694454 -560514208 -961360084 927403494 473564302 679980131 731860105 -358341931 347363951 -514334761 817499430 -68509004 705403013 -290794333 567681358 -608606153 -227856048 -842546903 426661276 -58488 560927396 -853863636 -921587765 -506107632 -192584281 888240644 -455156901 -973951184 -1433851 188435867 -534600290 -122292534 -109189632 -924389098 -599435380 218125052 -852979258 -600788594 881042408 974776651 -76451385 587762574 66012830 -78866711 416260004 -737925709 705385136 706147777 -803840113 58893566 419135560 63190625 304988908 -314201587 782587885 122829286 -251442230 -707599519 -955649757 -984313683 -433851267 51751739 -372971679 -366567452 465531626 626860961 274262984 -461498140 -136739194 -465159305 174196338 -255693527 -875979518 805626329 270357837 -886833440 -258301942 -207210528 170124598 -255011627 247953656 214134962 -452011665 42439635 87367385 949745848 137666044 -480110246 -837424780 271617936 -746396219 499561642 514797940 -165393322 658522584 -274879523 732095628 191069117 -705750875 25355215 -707812947 335086409 -294294439 152303979 -191155920 -48039048 -544377743 171620353 733591898 -297508032 973618982 890446659 446875904 209627214 419075238 -820451969 -545898351 -167120196 -322220381 -870516996 -605377118 -629046415 -498708271 -581953668 -751362303 -5516012 18772651 -773219192 -129618107 291043561 114078741 281420216 -10581289 124751202 -425005281 -558881885 -539271977 -712327865 -697759587 -463441150 975773592 291236588 36826211 557287895 590590163 517624881 155445855 -762119206 -468908886 987250670 421685904 -22891197 -61033612 973890284 301630199 -760513539 -445030415 689300273 -421112470 983867535 847881896 -775982258 -178016662 -459927880 -320304319 -594988410 254691425 157319022 -197973592 -466417593 -160160488 -366374994 -47530059 -518217384 -807535424 -939237409 673058465 -910975204 -263469905 -84774575 459372374 -335144049 473512166 463710668 -991534305 -988078327 601426077 47518752 577159061 -141348987 400671290 -554396356 757536983 -308847598 927536187 -688427417 290173743 -416066383 -837037534 -410127808 200856467 -56497016 -205453763 -578277684 186779475 766760509 -851812941 498990474 -692557814 -874145024 831425905 -862554479 1386854 949019775 -357269156 205927347 -592906347 311867162 292773438 -467929662 749852577 943573263 696537374 308390794 -863217850 897933967 -591368251 231590350 30956136 -552753085 -414649429 -533194919 879910443 -576104000 -50045367 776971597 353938938 276980532 807075486 -371668491 37769598 -502553661 -635625401 543745415 -735535117 105212493 214932289 257674152 871326529 178873442 776412822 -233104423 786310734 765673285 60434865 837586054 723874403 -526019837 752124216 536181706 725662857 639138741 315094917 -601923389 218717690 36711685 156628778 -718829188 320799849 503891734 -339199989 1558090 -62025763 -376036262 262103968 242435079 -406290909 -668702268 931237504 659712832 673890959 -547155052 -275195651 -762691839 -567904201 329026453 -89396434 -178618064 588198805 -866507509 -402059495 -863623342 -516525398 -292467417 603670261 549996495 656801507 387371860 -59911081 965155268 -13505778 333640254 922759474 -385431955 210589405 -221362350 -186397377 -202093306 -861451822 -438232641 -687655359 706563169 -208659424 -472318224 160731989 -632103762 -159391212 -78987802 146181097 401932487 -913887875 313784756 817329207 756323862 835035108 251754946 304600771 -405081249 -63216119 -384488853 962751921 728660449 -591388947 228232549 886154484 -802327574 670057205 -154702408 616284063 -785025508 498310471 269468743 967595236 -38982876 531334829 949810579 586087592 986983839 -681593211 629852454 -938370654 252809989 -641384925 -482088345 -806005467 738226083 -275528660 -527030649 488216626 -195547933 947008841 661353990 305480108 234750077 -498265187 -7425781 478856559 -168108225 -683532243 -32835476 918800740 -594245657 572825470 583489456 -359279275 453136548 579981625 691414657 222448424 488739894 811752751 -573117570 326856429 -339236560 -228784832 929876695 -293162439 901145990 -164357123 -138713013 170773879 895233102 -647851707 -97579432 694081091 -953482022 612509479 -821217844 -533944209 67044548 395213079 984079941 -753496357 723870114 -424826176 -973575630 579984525 -761457884 -172825506 959121961 -705736883 -545849441 764388719 571195055 -426337289 -509158812 702086303 869908469 -279829580 452365083 380605550 342541183 720343406 709290695 -561007681 349853457 690298832 -183348961 600055471 -210803489 781182879 483351399 -596848277 501704346 21431429 532406130 53162922 188307408 -896813846 97044429 -834988734 -649524358 -767532537 122538507 -128893146 91870337 -719630878 -502732018 381492975 357722903 -98081372 954187836 728892895 476080870 243008394 807029703 284647225 168030388 -108494232 278555291 603716305 762952953 -822824832 687836944 -571990877 -709160927 594158751 997378288 81545910 607189319 -299900461 -395149677 249714213 -284421194 38610516 221563861 470250273 -570941043 -97377314 -41703428 673198934 971873606 331504482 -554209566 867264920 186732987 -169978073 -871787885 490430558 261140094 33086726 826679750 -312005743 -224771855 727978159 500241091 423197337 -555921024 781865283 -956593497 111256866 361312464 626914583 -866324259 280153713 413995071 -26413302 -770966948 -696646096 270933472 -323013213 -656123026 -265628606 735455021 -425836469 -494759686 756017135 -331891455 -248113462 214983290 -26773279 249955673 -783012347 117985387 814764385 -768735882 -495435775 655155432 847710869 840147553 365108031 400185296 -645150724 568071937 279911470 630121261 -665183623 -840754918 710131509 -266015640 -942297769 513488957 571915454 145803444 -992683887 256610887 33517084 224486880 -965106718 -990558472 -238436390 -826504760 -245928941 747565271 -416662288 -139524989 -203813856 165338051 -157236076 -248390802 -543090129 488248091 943161658 -991384702 602345051 -50582144 977059837 -417958134 514400847 979355629 -423818796 -551052247 -372209013 -697418202 248444130 20047596 767872069 -300437300 214180783 975009931 805789120 -424194968 408590462 673076012 866599957 681204520 -373060312 955736397 -209337106 261143526 -529276099 626312839 -571141722 384140443 -318493083 842898244 444857206 67015091 929421231 225944281 595884988 -702674222 406784791 -950034844 -201222125 -135432303 -887723939 -126744563 -274827411 -35215844 184702461 -808209315 490758511 771652877 -984097458 -659576560 270542349 -391950622 178718786 861618976 -504287930 -144357779 770416438 -508066298 -471414351 -432683204 -798985232 54777513 -773891527 -441386101 -779916177 261923796 -874372975 -98748843 756735054 -888001710 563637128 -407302267 21909707 850470450 672267403 -788880662 -884477416 789988797 745005772 507125054 190656295 -412824806 -890582202 521418689 -516256705 -31350401 801356968 381820092 938801539 -297050422 26565245 956913697 591202145 -820373553 943809562 849981468 -403483915 984078319 794747782 -846641838 535313598 -474666955 -818057346 -622284745 896720557 -212999692 72192886 -749108671 -408126456 924001768 974150982 -539647625 306220562 66839434 -424655808 470213451 845605925 26620297 -281720714 -557606438 463868299 282604694 310255578 482410412 120391786 -582320549 909759594 -915734167 -674477254 -484513048 230448001 626745629 861639079 -164079842 -355293744 933276539 675361024 -155172725 -95824646 409646298 84957220 -19164887 190554331 765397385 -628360059 14440400 149787495 -454219539 65971950 -383612920 490295955 -759065279 -522000 -454152781 -334366130 -296390782 -685821744 397954514 828347758 838007619 -732170043 315989693 432560587 -460937617 582705126 840235331 211054672 726696 656990595 267641970 749492912 682963358 526936882 909953722 -151558742 71689457 -303943565 -477193265 -117836597 882459133 789036019 -511013591 -19937364 -649249431 -316958837 676206594 979341865 -355225726 -209833489 607157234 -987801181 833469239 40886224 747571648 -482350887 -188804598 374409486 -575096588 682529238 -839006358 897682505 -183690364 -966634133 460609586 -484263380 125911721 795137250 -933974293 206417956 684193829 644141489 -225729860 -741987742 345349298 -257155571 935158832 813788802 999236575 896981653 597494173 -462682117 796269601 66716293 45571677 -706763899 165500453 784627618 755189623 544097420 446314826 -357270167 680861236 224594870 -818107361 423385778 77019074 243542243 176955678 276764844 -834549825 35991269 600774261 -602818635 187545583 621590322 -835589844 -328309021 519086520 -135065780 -459663721 -827549221 -446819855 -366142906 -252401806 42113221 -131960886 -931235661 -360102812 -260766022 175094852 886261063 -289327004 -930667690 -656270579 858977627 113698128 -720585481 413693426 181990333 -609363683 -439437231 553859944 -909609547 -50749604 -67907311 -824790815 -365899660 -560353750 -593339219 119257768 -443799330 396095642 -469919138 852159630 -711022247 -242437251 76595917 -678264703 346023602 510940007 -340408150 -978786415 -102752390 -615203342 -875062189 -309339837 -92225516 -889416709 615644661 675477583 -365473800 -681463080 843182714 -720980950 -705818874 678458847 -438749530 -952829233 -385437867 -326669639 660374599 83688977 328263948 797440394 -711149211 779948779 759763472 659056796 868522609 864075896 219148564 182498182 525271252 197047480 -680673496 -398336552 171194200 233426087 -433346714 -679379239 808993450 276867732 -573049919 -180479347 -953731949 421373059 229473720 -196567002 -837960387 -405998086 557460790 -983433197 405840193 -200577718 220239440 505289845 479823547 529794798 858617786 149980527 306435902 -442081082 -656514581 -436163224 -170893642 574578488 -121454403 -343311351 349076826 313810660 -249761697 -179285901 -829463092 -616201418 -553212402 -111342895 -187899816 356768778 486711387 587293045 -58538160 -815622099 811724771 -124967906 575824515 -297791523 625511980 -920954575 929524806 -527966717 508164218 -871451159 -444458713 858431731 95925870 704123108 123965179 -174455453 250898381 524884477 -364476151 249227237 886170219 -828954184 343042233 -658024086 -140227255 294026548 786210179 -90914094 -729635229 -666026795 581658073 129497657 461692045 -708434238 -131985562 -300394610 -136084410 10420854 928102162 -316029858 -57837601 -254706388 -73548404 -544625261 101275609 561225145 -297028217 -909576496 490090500 247780573 -818252716 -130651490 -625777144 -251715502 -152777093 190038518 -681149760 -426643859 -683887677 103995196 237850138 -314050589 -824621086 829802634 192516288 511149667 -88514523 771309713 545617240 -324748693 -143524538 687212059 -228977202 285344207 -66693348 -557399734 141934071 -31882954 305828266 -154181859 -176414602 965285155 859280315 656784357 116193451 -53335298 8516997 -464260723 -871473102 91174559 80324326 987482230 11364896 278014175 -582565644 879258280 470832853 -392107277 709280790 968926962 351764416 -684024897 -175653227 -294784252 960656592 -82467864 -803315332 5409035 -339776819 -978022152 57194187 -419430184 -788454968 -686798816 -820367905 -457677552 352554566 661633958 130542362 885150080 -967610943 -511763972 790144355 -178473760 855296392 483183993 946933882 973509370 648416544 516502927 577065297 -351603810 -415655460 -20541888 382028858 -879643588 -476855196 323204977 106449342 -323475288 -178817068 -663225986 -157417111 -748999044 67426991 610876300 867532175 358783182 -190218842 -672371121 -897881204 740941602 268719451 -91587249 -334231010 -914459425 705968335 -66575429 -874171526 406730639 754975643 -177661517 698097965 -704257582 -698091251 -827563157 -824944395 -40857191 720254539 916005149 95305888 332137571 -104385303 -713909124 -330497051 909804625 225859333 -617430329 677672269 781173018 898973749 -88527861 -98018769 -5355366 -491596782 511867147 602131641 247836329 -364478674 -959988638 173782833 429133521 -854278390 -895387546 -290133939 48450640 -772225213 600613773 11507370 687487437 -426885678 -35623745 155525122 -228511337 820687088 265096323 349338355 -745537034 832241378 584045166 -757940936 34476434 588801264 233057292 -297941438 -294560459 214132190 -979100583 -682776794 -216508880 -680106626 -180113617 263119791 162184722 -539004355 -839813600 -741167553 -674670720 -909065148 928171475 407457835 321990498 -559052370 -322324391 -125718535 -319373307 -229224794 -187266846 273347919 501992113 -184261443 878216055 530569721 617544945 -642366973 399218071 -229539957 806929753 -360926280 -845199984 -745096487 718053589 180153213 -628675960 860788978 -493773614 113220016 -492985726 -346980547 -74537843 770437408 -943920408 921381045 -871366030 -114129084 469679473 157620809 424635432 -666527403 -480148149 36708074 -118094050 457001206 53343798 -81822040 292222422 -941826536 -6146389 -586039093 453366354 -335975499 -542146086 -71941830 -878537245 -589589608 -323767325 -75190916 813473646 -754527139 -247836965 536653235 -665246885 576318555 -271785423 -291416417 10356665 176155886 -819185363 386064218 191656390 -288918572 -529265443 376587416 948116625 -10811027 471569679 393437500 131724504 580348521 -655150802 -811161959 -99875663 -160660433 -61471457 718263648 357401971 -395454126 -250906320 -595412173 471248317 -97306875 -203760705 -725561696 609544527 180672867 -200359543 -856496901 -835891839 613092615 -739725461 215225317 -670907832 38305602 713635150 268066240 988680775 -173593858 102017706 -976399376 -814611489 -579042105 853842918 359426518 -174801893 -307607679 -415288473 225182279 -211113275 -463942279 -189741534 -506168847 -697440177 209300382 930927262 -512969926 49941858 -917427641 -427101515 553861494 359694364 -760309800 594004750 661656724 -957320774 -200435927 470017082 305073076 863336803 -248530576 -930010794 237954735 584685915 -948636710 643778142 -399780463 -873393894 103643664 -240530920 -462412779 465731680 -320197366 877633202 -634520911 -511437625 475943350 -560532479 256820902 537585735 245199566 -226127576 -660973774 879467015 328606687 -521655308 -236035731 -390540865 108998512 868286064 983875058 -631810089 -961736469 778463232 -787747686 322265120 390945516 371318604 451808212 -713824880 -772287736 -451963322 45246525 -912154546 182679407 702000897 264502589 716702821 909030684 47705675 -995804834 -458352535 692654516 844294672 74677595 -715957955 544145662 -156512360 485286382 980849064 909935109 13382029 283969326 -424759581 462833564 -15271259 -375939891 -686129634 712571715 -535338198 862311700 920257324 -70874332 899566000 199396363 488620217 738990462 604603322 -393838020 196240454 617905811 473745652 -650761392 526869350 -993490329 -980984389 -942754298 -536649234 363581242 309990959 634963437 -63580221 297013 -137322088 251133641 322831466 -310423131 -268130698 -603114456 802633620 -507781000 -23943597 -976374295 -575367026 181535462 -301393438 -560797533 381937309 290808608 407563301 -551825440 412865790 375741657 -74812479 -46853247 -616911264 -495446390 -734393546 -34338272 -251838351 -301323379 -634984216 832711311 -870433616 -792610262 719348269 -468945335 618416911 894421452 -811753356 -562556662 975002741 -541891622 -426963123 -683836217 -641740464 348328419 -965675807 864011813 178181688 -924408328 -981096911 709167015 -728074147 143948412 -913402478 258629765 638521419 -251727721 -863827515 113773013 -995146938 -379861273 273590603 -501160995 -966066135 -835866859 -231899326 688973497 -949306161 357198893 -17660060 -462206382 -257127660 317889773 -631353859 -432114221 107372821 878693245 237568568 632825434 101519072 771371442 -511408064 -443391779 -624991443 379197281 728026843 48709988 -515186262 324366226 516485144 -496707395 -238939076 -121231641 634940184 -666512361 138503503 -567990146 -75646163 92251731 -55921813 313395848 114190301 353697989 338207871 -295411461 -669630403 -428190702 446812982 613379504 -184717471 844383470 441926519 369641400 -107722886 -344843176 -543246591 -178340041 341264119 617915547 961800092 291659635 271936585 60737012 87714860 -669921686 87758583 435837146 347198166 331238188 717314718 -854068120 148425493 -494081680 870954950 -986457472 685730540 164534459 -304857871 -488449754 -748032891 -46327748 676721436 530662752 -195824166 515076817 376505494 -760474653 444638080 389139232 -430835115 741045379 -394249933 -958830560 -981087141 -778404447 -73475657 55338053 421822848 783272227 -109016020 -155856420 -764212839 721247830 344079916 745815243 91809817 489473317 -320936175 340903066 93733262 -248918736 -534119135 12634825 215738860 922354062 -756600444 129701180 -480110491 303594312 450027500 509418483 -615251204 522200223 -743977763 -976264372 756569008 -770071807 242360295 -860998402 194839651 583470758 747546530 554287244 636682321 -533062193 -461155677 585643666 -609988362 759839768 214886506 -549646386 769408553 -32220619 818888666 262309537 -8477598 714120698 -92634178 845647408 3894628 -766636069 535850084 307033548 869625695 75942227 -595653569 -830778974 -640522789 -951565114 515943112 962980669 685105048 943495753 -85284988 350571162 -410349507 706748055 -495880557 -19774040 770521777 -203378149 -81517065 -156857740 900551129 88075116 -63705033 375889537 360172702 -864181755 984673722 -705865685 702176540 951874089 42819218 477233974 754536817 751454513 480409396 381007697 -635343820 803067861 -709047711 987372539 -339945548 -222426956 120927633 226107098 640346122 18444537 -161196327 -502339589 633784725 -113059356 -292987600 -29703164 555967462 -620551410 834797545 965361948 209765071 -648698909 -231100494 211096999 947049548 756525815 414132164 491080809 -768851796 145499007 -393624850 -788455102 -635782028 100220681 -184952143 425449291 -466341839 -94958010 -491311012 -444623962 575946205 -901831377 -605326398 -637708422 349130432 -347076813 419339404 40699132 -849751091 625831462 -797866250 -425327726 -451434781 329174782 420935809 243505795 599533602 369494559 81406366 -942522155 -164233213 -240889909 -413411054 -995642854 769586973 217331787 943127883 -585945221 -286793093 -917430821 -267327474 57814957 722958269 -731764812 286542708 -781661336 386468248 -352978856 214996912 -29540335 -154068791 -27953755 915169534 521249144 -206992959 -170174606 -974459454 328713226 -905966726 87406709 -910867497 54447338 -995719485 943136098 624680425 -473723390 54918453 -121991109 -194688285 307335215 113461867 686731271 325265791 836904868 -159428116 554992543 -77417835 779931681 -503503822 -176842603 -895420748 190039977 -57121879 292069838 171173032 920448687 408150317 260836784 -244460915 -323594434 -42243500 -8483522 862705904 263427987 -192387516 51326309 -103576148 -831909297 -93420013 412585976 477236737 356123151 154062561 -978862136 649095745 -198669008 397622453 311121848 -815160533 -28435370 -945878874 601487670 -825043376 650407913 -101913667 -422977228 741616177 -945191369 84233975 -461207447 -345142197 -219340850 -674813428 -389697116 -737140421 -93328051 -786214669 97203594 980184837 -289242102 -439182886 -308037746 -993018264 -653512537 977157073 -371967277 -21582088 -14651597 371518565 624493169 240639932 646773433 96755865 453981772 -342374165 367506830 503357842 -397325984 -282778547 700823088 7559554 -867906972 -711476163 94181695 839477966 295091569 -703254344 -294036765 477813134 -724245838 637566526 -758900601 -271562683 -630891855 57854059 -870713723 -961050223 -999387853 -657003000 -877962012 -322235908 -115860074 -744488594 -466106085 -631489766 -854422753 -221123661 -314639477 -327356912 203361145 286642871 668897716 -56664247 569190820 -432732150 -724388168 576774349 -684124513 -37468095 -111261597 -522922680 -578894585 -969354255 -172027881 -77062109 681751969 61896849 -976320151 -6922438 674639722 -594889676 -400719002 123307515 496696057 789897752 12095404 671560396 -177687468 -808866619 -86968926 -848387159 -566074451 102304002 -898488476 78683913 -389811127 588032421 -660240814 299869592 689447061 596061326 379166445 -735836098 478693214 273838796 109814739 -530113547 79079752 -359448894 -827980634 676467395 698206034 86319623 752917530 718982688 -710254860 772492570 556215319 455136958 -276035165 277704542 -304765693 32814141 -510077641 277062607 634002714 417547146 822354945 858372142 275526155 313471002 -426504302 942243049 966186607 -207975118 -767523659 443549 119497718 956472875 -659387686 -477144280 277999008 776188784 328012414 -464831247 -860189680 -556502497 846383531 356530634 329005622 -241100843 666997919 -331356874 -977050643 -867532541 -362163681 -913758153 128800467 562552922 156290685 -472360352 994647968 -136663081 -290962976 210262904 -430414602 -487193355 824975947 -381436460 -974877454 -98901624 -399739779 181248669 190872937 -4754134 -522651671 -609324213 -825492664 818899685 565270483 777278782 438288564 101099816 -497077314 547839830 -292226654 335883860 322651124 346079001 -236630380 221346480 -339682378 977834182 -119244962 -676488544 -494089122 -378382630 854450722 286029486 46596824 604862200 591766456 650067129 332290726 707794720 114220056 -505373082 780713363 247749483 -514351585 990668400 -694464464 937142429 339312308 -529917419 -954761005 -785823304 192987136 992270682 341420068 309439979 -688724639 -211242614 542365031 -391218486 -80946370 -18796837 -134029494 -609213985 581564002 -981872000 191623458 -344244682 -925998755 -870854914 913186961 -811235071 -986338873 -48854077 -636419656 301552661 392894740 530838897 76280627 408549110 82451266 -74326568 -861090590 -247196470 -195000209 -557159086 939747910 -423617355 829638700 -749253965 -436218305 -389382343 270328785 98161214 -14505416 358806080 305331597 -204940582 -851525045 586570115 467248985 629078494 802464388 711131442 42874069 -368410702 943194332 938724947 960368126 946355900 -373113197 -915968404 -343575424 431866035 -147026176 516427749 -877106349 505493952 202070255 -578151105 282462678 680318678 799955946 -168206646 -264194505 -39432402 558278470 -562911894 866845439 -22647950 -206167797 131862639 404574001 863732574 -154910714 -602501067 110621763 -131975241 880085152 -604357154 -527872318 585754763 778918864 496901085 -622379968 -225582309 898818884 -135861257 543190997 544770237 -528248816 -237716533 -34362847 828963455 -999300258 -448043545 978164627 -665821201 -981911541 -856069184 572690516 -625679878 577934437 -744270643 871438423 -413531967 -8902488 -389667858 -127425475 304991625 -126546846 394364659 -350342576 587422325 98128265 480170106 -150084502 493036623 -806042993 -379935513 -255523038 950730078 -805505532 -425910237 792699167 992697959 -586741916 31474251 661379343 665687512 723565961 659846757 -43612537 345859763 -632733194 -359104888 -402051815 399086834 -642556221 760516444 -812380502 649086193 47166119 -797206622 708524673 592951680 121033940 970115363 404023586 470759189 484844581 -74617418 326801984 -755347468 -871075130 213368337 520553794 399542076 -859028688 -436627094 703486535 -408392937 946879109 -485137286 521004945 639341327 -546915557 -579014383 -77504038 -79707767 353629581 -826732670 -850601398 482592401 -220961442 206808258 662414246 562514893 355770161 -943016733 -246063161 273079195 -389743401 -270673710 101410636 -176219020 311668103 -906575205 -941316969 304097644 327619762 589809277 209061332 -508581025 -427106713 -158901157 -112751418 755546014 61897869 130425837 609617129 -350411272 -40669663 -990292445 142030593 -262950513 35446720 250115485 -707276056 -631744157 -334543579 320226737 536552073 267460281 -5931409 831735951 691187214 -701449910 511282101 -797947197 824165945 168737456 70167261 -784851313 -963705937 -840720881 -709623984 196452191 -685350468 -891326838 667862951 753045232 -375355758 -349962818 -537837659 -70817674 135315972 -961973475 304459534 360064833 132882151 -685074074 -49674683 -996729148 201245495 583241312 -465142835 925739655 -532534372 -482504011 731635925 -822688631 -134515937 922957028 -783280362 -142832228 752017291 -199469694 840621657 -797469219 -315760714 559250604 874067251 733065812 270301728 -845560624 -126257797 -789647812 52928384 -301231519 640361863 734789331 860001832 818091605 490964507 559202616 416971248 -652970575 -495879653 -739170326 -16244719 864879037 -158006504 723339522 948461472 843978836 -765256897 486115264 751175366 26381524 -54604648 887851058 184253580 -258052426 72671614 -314662215 199219222 596831976 -192456813 484163781 -816974434 -701214483 -423408238 -425661568 -105041559 -510218404 890276193 765797969 242171133 -889354248 188454880 42353209 -76852154 142792008 -979782256 622019865 571482520 -50969163 -396985589 -40667738 481007280 -914997493 -636436996 -736411228 -889993849 -899349755 -112588006 409715520 -43088101 528428523 -673470329 688160174 -361873904 915911963 11515103 309625579 435824498 -481462401 238756051 688600701 897735767 899938031 502317980 -470929399 -61168353 -200435198 822885597 828457520 -180656943 32449077 256411260 -594431523 887035346 -250651759 449121008 34776966 -147107299 -243393009 443421178 -907815655 420064337 -295803126 367257706 -854314468 -911468354 677014102 219803627 8754597 827454896 758862111 517326160 20173424 -848552882 -389120712 853819563 -444385129 -657002718 -870130600 454129078 -599257619 344612946 -823075180 706940458 -381516026 455455963 308745359 828894567 954270360 953551641 -21528382 -100121476 -291809792 -33742154 -371287380 -136421752 -429643535 -659744775 981568383 -610645713 671358450 -643926882 695341706 -431523631 279035710 892151248 637364279 -734826002 -609870899 365936235 730157188 -284599672 750258043 558156972 -183009 187969048 -386557608 -246034108 938450548 810205849 793643030 -869456171 831843193 285524119 811630984 469134295 458824702 517281958 -41478347 248181164 697967512 65093101 380057990 880669338 -399944349 506442242 159886 -69622070 -848986513 995857842 -643683114 -181908460 508179698 -203533973 -100250757 771826988 844603725 -826327581 -983135132 776772424 -51431607 957172180 -740442267 -428923758 -244482217 199975529 -645984636 -868921716 883186138 -394733094 -828149146 239046773 725757642 96287179 -173839367 267905952 503005402 -203675570 -503989015 495825203 -112157874 7649437 -379252461 35083149 873575790 -5584263 -353836347 -621402243 725899214 717762857 -798271639 -220064952 74977396 -729364930 -737477327 882275338 718965755 191235325 -845837501 796087278 157073550 -473112083 -962468235 -968216079 -248139903 211423472 -900113988 -23754362 -368120675 872824141 -760751247 -356849953 407402442 933962875 148036701 -693080812 900620289 508471220 -270179510 610532372 519905528 279807257 -640229258 564704975 838402138 295498992 -552347134 -855897683 -60872243 -30887686 718432547 17847268 -665917286 89248838 -300352583 -22099950 -999691398 -32328093 621219051 325192445 740952625 -621580934 486713423 -762423929 -66048439 294983864 336197224 681240380 618600514 516457142 930996250 -509437392 741658948 -576874226 223813584 788299922 -40327372 -314893986 -721984662 -271411532 855467584 -329692664 -346722970 741317161 87740694 432134986 511713109 -211258360 761686572 448399780 530862584 899624175 -108634064 -970198197 -173496406 -434456387 227651785 354973961 377827557 866491198 -443631013 -430930717 610496050 334491626 495168071 40972247 -486230185 -137896317 -375413157 652937746 940894472 395430534 270527230 -38154558 676392039 262170010 -431324954 -701806387 -750399650 -70566300 637281708 266769528 -898785641 316292881 -941716624 -835104012 -387337011 -414180488 -46788614 -912375888 803366828 -654132525 997809924 481567970 -574643468 25826921 -560468392 -219268883 -58071772 -74907180 633137737 -814682289 405592003 -658189827 870656893 -443295749 80759593 -754177354 358249617 -761560563 -787481910 -760637768 410400900 -489805858 673843566 971257946 -659631934 -983582814 -610154199 546855954 553256397 -6146368 145492519 773760246 -206844231 933726045 683621571 855873984 -576137286 -785638910 156658364 771551701 -357505311 700671454 -702780423 -95292402 -602772169 -918864797 -222518625 -707983209 222516573 955255139 -566665025 -409917033 -633669904 -117004513 388933349 -144400770 -409230054 373535435 647951940 -743508657 -735952169 -443062217 32037372 -989879273 55840033 219166897 13401351 -233633521 -55018213 -748338673 596759678 438246778 329934112 -190315715 399095933 -826865395 -305461495 668139699 765181188 -533270297 -50042961 -881515746 479422222 -421280336 -591695129 633111584 -884847293 -411152134 982724674 -414860948 221732124 996004051 -641984445 409817485 -328388737 823970159 -427295247 -747078279 530544218 -473188275 -528667061 -796407283 982809557 -234188148 -682522054 578478984 -14472637 144679076 -568614087 -814663584 969868962 762335315 -747588480 282333261 924496134 415863809 5950774 53921587 -520102570 256581641 -265682596 -783058381 694959540 488296576 -7492632 827596607 -248529877 677021611 -446910140 756222153 -303181355 -596876681 -242933871 -514587382 -537786029 502453648 488619147 421867629 892224507 395181080 278127629 164046033 -101408193 103845633 -541294687 123345875 -744852813 -137591985 426560310 -113315493 -734125503 -721411475 -946889273 -178833499 -542004059 562748268 -222998787 -403698697 -259745751 216900300 -626227783 892417281 168142554 -208452520 359073038 190674546 -739972649 -617541558 -648570176 -228630362 -637515574 981721133 35398996 13385795 695425942 70789877 -970243847 -283486774 -406603322 -228561311 124572717 101827075 -222504321 528580471 549031043 428422639 746726219 -888741613 481454687 -392980668 -382853485 128256468 -128154593 -977629754 -31924875 -258763666 -806799256 772199610 -724489287 872760997 -249328183 38317155 59043053 160072283 -633360665 242209515 -723325871 447757985 -781377155 -423831621 798571157 490733938 -618598259 -775530512 40049632 -93794022 -244164097 -248612826 690987629 -117972728 -828704374 -199935744 -888197911 -800598388 -306845927 -430907035 -629629981 -245614623 -680585858 749431274 -701736284 -238605202 -852914902 140834444 -602465897 -702534651 270603248 -76561125 241994602 639126598 -344518800 32778352 -836384671 881202732 -989753987 194206543 105487375 -455943126 94766078 -439453069 -87618132 -384210690 -392696834 312537664 873476902 -742474298 -20791228 338571603 -290158450 49766386 786095014 23482728 895157219 852548415 89309767 95048308 151569399 106764860 -210319234 835684039 422853553 -488788812 -270704213 280031146 -550831748 -412019096 -155446496 804873948 642279704 457966851 -299542953 -546722156 543629326 -772694548 782962636 -888640640 801740396 117073677 848066983 365639184 164479378 -82860999 -634731498 167047019 330926935 -757517758 -911249512 -341054423 -497339775 729461584 -196471646 432654767 -294041272 588726394 -855236321 390734428 -332442 706680412 708572097 980199717 111584326 -375588453 501271328 -551661308 -310642913 335590568 429925518 -440221604 192950815 752606033 -358685997 980068309 705345605 -771576741 -501318126 -704611453 429856412 -105245816 115763734 263082533 949138544 -888848916 676982332 724102946 790213033 18235580 -632624955 -619052048 93016431 -844134154 -440984567 309107922 272416822 678256868 -462775074 803055094 664871564 -761751486 873006807 -834305885 -756283589 -980830612 722407166 -409527363 364236339 -14934936 195652807 123281635 593491933 -387814175 382647434 428713014 297843613 872616105 -627075448 514508082 -87481742 -553206824 65449856 -4681219 307646792 -175530574 -494158390 594172766 800305139 837129489 -713096591 697204159 -241723383 839201212 200374365 592144976 780547005 -881811984 313700231 -542454225 -626632151 -179992027 -796837141 772175 -212490878 168829977 -386654552 499030067 -2299756 -750347473 -859838590 -476385677 841377601 291429965 582338853 162112785 -489738996 891366122 -374934229 -719096847 -628285566 430443922 665267204 -630350667 -399111235 -511303671 -353963586 -334829996 -629060956 -933510657 -186110730 863716912 -781051254 443500598 942520790 -83056398 -398716406 771968145 178670036 9839649 -998102510 -268223814 989016592 189887464 -759121039 532927758 -405324393 326080367 954463756 290253420 385294938 531487933 -502082685 -738525250 278350158 796291202 374095993 498986000 473670256 -167257505 732331347 862396316 763904718 57503473 -605220712 -52789689 736752292 783353832 -1123827 33656888 -803370082 342734991 -463409026 107555373 332097510 -45877340 26470875 -250168510 -149659917 30412758 576458786 -940463169 225960670 -23431050 142409946 980658769 -232416678 650156391 -793249966 -42513192 718179709 909869859 137167259 271191862 -343046426 -668736875 841427265 -672054673 200636276 -136812564 659265813 80479798 -85779827 -858625378 822961593 239379868 791357721 958017346 -601050627 56418686 -550403234 -288034591 -379550804 -445710260 -666402572 -45899607 330088190 -614313670 650615510 -362263302 -390350914 -365927732 137624903 -16127968 143185051 -377302300 -26505841 973725746 -677033171 -223555796 -551856152 622630728 336133703 845615988 721669979 126666470 -666145979 241199694 172481505 -198836227 -158632732 -607233062 840565234 204589004 -814411669 614826237 -593292410 -412132648 -212498006 -174466631 369978534 199168813 -298337035 189922693 651399259 126470428 546063565 -74069908 -778467426 343505047 -533973901 -9384682 -716168752 -823781623 -36206099 -177105559 -722221028 -97894565 507154628 104236492 -611991871 -42153365 976043173 -508030802 580650340 905079873 -547429274 541973682 -787849256 -883572286 -562094157 -502377311 -442737907 -633727653 -64734065 -378585526 321576254 21333440 -658796957 -51746885 342768032 622918671 192455749 586789631 952691653 388823894 234191607 141005654 906051708 -256696422 -729778645 281612309 460380284 829159376 151051213 265044777 171585250 -550160058 -514345981 187185537 -92913027 805001592 485742525 -835439169 -334551155 325582819 161865849 27646193 609327271 -335030162 -141937379 -704254480 -92168767 -887108687 -958216587 552345161 -75906477 258613716 161580672 617735693 644734433 191922020 -449298173 -760714029 255381329 484785672 736160453 -731402401 513841860 835388364 157023380 -11070641 -560123658 -793052845 -740061250 -789932220 -855467991 -449856241 185096786 940110940 -10629737 16680369 369639172 -618808952 -864167871 -743391713 96017632 -396877468 -558885011 -237271879 -362331763 802276361 -621219666 -288099488 452413228 -141599617 143045765 541035333 -875232175 -295131216 506739960 -79710795 634605186 651801263 -92099223 -918266905 -142348176 -796652462 869648161 -255039262 -737936465 -174364948 -869832224 502140958 554119929 -431964772 703690057 -722283433 -577503940 724110745 735376445 974553911 -170980224 547299130 841469058 36545930 487301444 933440597 211265310 32456648 586950225 -437297021 -885808128 134686930 -475013349 741438215 830305778 508553558 842578075 -501910986 723690721 655973774 -913024171 -159347109 -447917653 -63642943 -392789115 289508754 -4667297 -333535302 -423332482 984818435 923465718 459386872 831700695 -210067842 -388721788 367392020 448971282 -132067331 -875209114 612228769 -286196085 236882718 -417085159 -919554504 950761130 -638146726 383684859 -413241721 449986600 70964608 321630775 -586848702 -355349119 -156389888 -779575340 239967930 930151520 -706687407 398913848 789450277 -237608719 -783429911 644666445 -402947076 868266207 -759124407 370249850 -489542113 712537664 -888011965 701302822 802690061 495791911 -422929398 528474354 -270637967 -902569313 14615493 51548345 -403845902 -685815765 -620587227 707144219 -354133287 187888617 -190077092 -160013721 -884163499 -330650662 -78800330 -420873851 -882693378 260390974 79518576 396446134 -429039214 413745551 -871321181 468813174 167977544 -341055280 125722559 950378321 -232786978 436055407 -830946003 -291867519 991786406 -845591986 -616028471 295637866 -80373069 -30887316 -98549068 -89478207 346993296 837053495 -475380835 485972483 -73018717 333518900 -671748876 161718356 180263997 827434473 812240312 -391507414 247953447 268544275 -451983820 -407088198 -963476323 284916147 276186403 -880986885 -490802581 -947521268 460488393 -406742879 751423291 688129972 351786569 -560873469 163156012 985636544 875608146 -675853239 -255016349 -133935869 416400863 -458134365 -859497260 653893892 -694057933 803089216 167609090 -171024129 246800016 -401802895 231370468 434777050 -886545335 299675834 447670578 -176448534 -658408256 355650946 216153548 -901685848 -581747946 969612720 819347886 991083388 -317249874 670299119 -416692583 -468117691 689108274 -274477372 -702618061 137389311 -338890871 -5469004 -205175044 -194752610 606878500 828865880 600270450 -351414337 -218210269 408291837 -702130483 550473244 -268507656 -61213408 -601731388 -862666355 -392649542 -656474425 -674754832 769866513 991116767 274560202 -429183890 -427379648 785634562 849673903 604807750 932282900 589600571 -757741356 37640689 502431998 322746568 675859794 -413462661 -56545064 -20346364 792155113 -742100617 -998267344 523897499 670179710 343429582 167269416 678791204 54879758 133004816 120575899 207859103 812938127 -672397961 162683393 298134407 991551355 -756923266 -676196013 -862267326 -87840928 495408476 -305864797 477856198 -667334236 59861325 569729636 478221025 905323597 377685300 -575709207 -882894920 -240585897 -70199966 355299076 751083156 -232275345 767597961 221938483 649943884 888223926 639023884 985851398 -990105163 -421908348 101916170 -703841215 197899886 -3754834 -143574643 294462554 626172526 -97120822 224755647 -636217756 774995991 993977246 -301555624 -150792658 -174074086 -542336105 25559373 125363465 35718246 264295220 -545707174 288431637 -448390168 -922951224 144089243 -274119071 -765102832 -1662099 -95132959 -577312961 -37771210 -32405169 70287978 -81837371 297392789 959232410 -240384397 695489201 -481564418 -1922012 -356713669 -965798824 -942585736 58621455 25941212 486920604 -744060567 -257146714 -6660620 544591723 -490770010 -624287164 643935260 -941436149 184685831 54932456 359209376 316028634 391189949 425027057 153256913 -697230321 889711220 917162442 -342182616 130458049 -267679257 -254316788 -899200978 359664576 968385783 -483119638 -549000955 471820649 862285071 -359896075 -25117680 115534772 791326097 442222556 -308032556 982053960 923167885 625893002 -797765263 -429162949 507852259 103329683 99791388 -324351069 -462987512 -923592627 85618188 384780150 -550414149 199489505 343920821 903810642 790027497 148479834 804343741 301462461 901189826 759915331 104608089 -706420577 -463401794 782017173 950011922 -457655403 651686749 -141231500 389568920 587307019 -205446400 298499517 148924887 565368359 -802051071 858596514 -733557047 330016635 -883340008 689032537 127819949 -963753344 129464332 16308665 31706242 304524680 -702937444 21234439 -570339321 -588426337 -991640175 -144039014 -85355306 -183627268 62216872 259453878 -894026179 -609456588 716332459 398550766 408046680 -924649797 471000958 845972688 -206244424 -199736686 91296824 401035550 -166031898 279277923 686242594 649204572 921467903 -236304973 52528355 435385506 -363354697 -831784200 586996864 -637919765 59938555 38884436 216929542 -784793817 -108196020 22333804 564586811 -419425764 207434224 -960138798 -52327958 -953752939 -244350271 263512706 162752768 800543348 -758694377 -902360024 948671678 814547339 -701402226 -749716110 -712409879 -287553939 -164456844 650081195 -177144106 346761216 84577849 442753722 -688247564 727800256 -935133235 802900912 -706706557 -100293654 1465031 -761960065 191934815 -86125733 -908490371 -271043147 577540039 857317521 -60951169 385542360 -883620387 -880418122 943585886 942127467 -831814737 603972409 840156269 -27290765 -930874561 482539951 -895588471 -346505995 -401005768 123644856 427428525 -249531178 70209008 27479885 908809034 -60232398 -474434033 -396697040 30354198 407470145 -107581069 450627184 -950234251 105571395 60192240 809286121 -343682503 793086831 -848777644 857131917 -173087256 -884031175 -386800608 112882665 4439920 3742096 729582496 633636674 995288419 -298103667 447425004 -642269438 -179771317 441513246 638894062 -821704378 -214064175 -128810324 479749023 -884599361 -630861643 -800944999 464297228 -269203315 445965098 -521755297 -805169230 -127889376 -820300411 -732543148 -816206647 -875234471 974190011 -960768582 -690523867 504924228 454834932 125969476 700631954 186083700 -333739994 318749945 829487089 111757276 950191145 885687569 -721495551 -370712776 -369519435 -2559653 -981560381 428333389 208982898 -764840851 -699628721 876914527 -391436827 165873288 -75761504 -890539810 387354511 8209350 -478301320 311638189 637234489 479461586 278455523 233323333 -470041486 -618123124 810804999 -681789049 -369485492 -486643095 351625923 -61498309 -190142347 319662709 947973724 -363708539 -830762876 205223679 574842701 554809852 -928493401 -103504172 -354468530 28925952 -894510465 838054498 883146855 668161770 927809115 557966372 -545621382 242838836 -200231545 -762080154 804390947 557465100 -457642939 -835700776 -542155918 -667799747 405050174 167586802 39394178 -681638947 -593606908 774085435 899184744 45456732 -384662408 -564866686 -850664588 680183161 -764443445 35145720 631616029 388329067 -428064134 350111767 -901186017 522497814 -307203647 -825807649 -903611380 513951229 -609849404 -23803749 -950775623 -902431631 474111928 880612525 217146403 489679517 371764389 865565521 -529255908 -954180749 -989651873 -922292384 338479660 -707429651 124531887 -409313149 668509284 996376198 -656922655 -985327922 685770622 -932295614 187107737 -16913034 -831097558 -90228566 923488408 606499190 -566004123 103919145 292283170 -615525206 -689461451 821119839 408361056 733930838 -731448144 -269874354 -218812325 -811012195 820346359 288551703 760608529 -934159155 958780717 79735381 -35597848 -746633383 635460614 -575315095 -622477213 -859720185 141081275 902900662 708205790 59875783 -474932351 304361890 -193028844 879442120 514455351 -728816541 -476732226 252342953 -698213965 -22594976 109592184 -44563052 -18185495 11862754 715565035 547675278 437722894 816364871 561775037 763175366 -385852345 -973865420 588619561 -395153497 466000205 -150099498 -804239721 676694957 -172349883 281461288 30544959 970565957 -933312835 -475501943 -887650133 -231286291 624070125 304378047 -899045501 862397593 -934623352 373238564 776097592 490138299 884094146 -102631881 -668250586 663549338 -203399347 430793079 -839956600 -227567436 85833119 860390491 -380224055 -871970422 -557304301 431184881 422708582 766760248 -608452545 -542185938 -437279412 -539410351 512524124 -850797207 549715219 -941368671 504539041 329060602 577217340 -390190400 -942070423 786149585 495902028 -48999485 -211270699 -433375880 493080158 215894060 -926316820 -626924305 -392182141 415171444 -132753686 -652665207 -419657864 -764239971 974599680 879674528 417917264 -477087262 647114223 -574478139 873496947 -45622375 889678823 -928428783 58608669 -425461874 530216393 669276045 579525769 175077387 -681334530 398279819 385600233 910104618 707804906 -95998747 -964692712 -326170209 163599453 643481751 364856968 639650554 -397427840 282228505 -222754186 405345449 458180460 193692435 -749051231 -764534816 157482592 453296990 -411818870 -965805788 -77904181 940632758 -60609187 576787243 -972885193 18924960 -52751389 801609879 -734945132 -994543882 -353119059 -663169058 758798657 483674121 916305028 793816386 555944033 849095571 -551005775 -613192170 -747548511 -554012423 -72378331 -85085315 232635339 -496503625 901761950 922729669 -736016843 -766373548 -151444687 585918259 634264062 634226416 297604949 -211914656 938491546 -12837438 167440867 -277922966 35351728 -582526054 -221214326 -873231422 -475538168 -502597002 -87383765 -427120188 -126624246 -311117836 972833998 -71833886 -521831732 -377785991 735946602 783298624 -720602387 405794022 656276143 902509988 453354026 310298391 700476716 634868193 -832894827 84358540 -383740510 -559477751 495081483 -310975005 53363274 463412275 -75710455 -516158961 -899037937 686667733 639314566 -296037642 507631500 -220247202 250780532 437408851 -300811059 845035966 -220414461 768829389 -400881640 985639527 -431839889 -889405417 695475486 487607340 772716274 271844380 256527671 275309866 479377609 948217636 -922603500 791761960 -769545457 -931839424 164853237 -173519318 828387212 -193814441 516311841 -624275545 -755016298 665479576 -724603074 785032890 -37939325 445533390 -879489599 645870963 765355319 407780503 640981978 549275478 -793134349 843306403 56682883 344040788 -334271406 159465978 148662194 889481567 -528502396 -618642464 569180766 -174906568 -639610920 252443841 454150719 633042974 712829803 -197583720 103814070 109355105 731042339 -292986069 -948192425 -455819653 342366886 -387159008 244627161 538435913 -422401083 840139223 -782081742 584959996 -453847998 -935610464 345222810 -583782391 -621931455 533985248 571160153 539314364 661287250 108499290 172864035 -446086770 242644987 -692479767 -653793000 -150292576 255067068 365347882 114212306 -463376321 -828326276 -730510999 -690545812 253189814 -758116569 -121289677 -387400674 -815684302 -674041529 -868641467 958609852 365137128 882478347 122747357 627142621 -741359055 -401945248 -925303942 -490975050 543912377 -154652671 -702733286 -66518640 909354692 678043290 -781969957 -568955342 858559785 650844174 736579662 119673765 707191288 -39920308 637342256 -114236757 -156810588 -278356166 -616129249 -550721099 851828371 -153160907 358012496 -733127957 984273297 181116599 927341659 583764331 775394485 202998629 -930910088 829176 801413705 -83789896 705621562 -168174879 -206959846 -543139153 -157859319 -906014629 250182641 429922985 207238898 -269410052 -235945673 -302183070 297881667 -824090036 172761626 -873689311 -936233998 -545937004 939669106 577062094 329704788 826902533 584656341 -839446760 136558684 777627179 741256216 -658625873 -845854332 334231182 -273891861 355912281 -631762142 -38300005 -683083426 -181232167 833183513 -355367874 972619507 -57121540 723932022 -197055445 -410903882 -231330397 -294394032 -270475158 -714503647 331398741 -488575853 767450295 -568178634 893749314 32928 -444039114 58846737 -700899264 -926737379 732414600 254187870 44860507 902310825 -731637926 795943003 501682632 -819328255 784239924 829778031 -266594215 -942600712 -590199905 -317430832 -488995117 282466206 -534246993 154426900 -759480959 -626707768 886766767 102531482 677073413 340441389 -96933663 567469116 -57306390 853168773 -468247977 997941487 -976251689 371877741 -57224058 -218030385 -206221872 7198176 686013123 181617724 -31821757 -513777914 363731872 -736542310 366556266 671076410 657161692 842404863 -562658770 129057785 -689223705 -143032648 902122761 122357506 715110505 -266301680 259246218 561748717 -72190870 287722148 986776388 -705662216 86187144 -695032771 818533176 -857521085 413711495 851088963 997383975 -794261307 -384765509 446894667 505992555 641289753 781629119 -501772338 933985329 91159219 -169746198 118786896 305490058 -319013270 -877726121 -216716307 -534487583 -238974748 439504179 355654344 76028565 -967391794 231784753 612968483 -89009496 89685851 -858812430 890172541 118615891 772238956 579792072 478080583 -51479469 -133741395 -599792506 955135736 215975484 -616450136 -594836533 537610707 -118287098 418000775 -311752932 -520206493 -963796813 201640892 -493349258 -439804380 727977477 820635682 -196585028 -509458174 672863399 219638990 -364326901 -424467241 122492445 -689768192 -466029898 -17994658 784691728 -790457922 760727384 173072498 578309916 936152112 436382526 -806362955 273607652 -712007346 -410208382 -416555558 -877981123 -673772696 -633380654 10922035 -401772039 724228358 281320396 -830476451 -588947287 888931046 199413638 -787472194 -667070922 996459785 -426268251 842116147 -339898340 362724 16664953 172942790 -560896288 237550898 -15765271 594196694 -814480108 -491216005 193923074 110106857 -667110233 685999408 -513153673 179495989 992295618 -912773849 57165220 -633446277 148958281 -572013776 -220081948 187866642 156601131 339521153 456449634 -974098263 432609639 -593110203 -615565934 851516258 977497505 -360874497 236381494 -388043810 289377136 -118489323 -435585508 689963402 274508505 392807174 229643730 112256234 68737309 965403903 -226979422 -702418002 240800658 724346044 -323697102 830341391 -814517525 98035851 -814173311 -986330972 -400227378 482294414 268524546 742397212 -58687463 737983938 732685103 -211569199 883661375 -682390829 271515990 -222355749 -247492606 590565390 -943364398 -333495667 -438351164 952401323 229003726 387719688 697540607 -415733980 108455641 293977610 420603409 -989750887 -339909324 -676783621 534746393 -99925873 396769730 535733981 -325156488 -492781848 -946643165 -20122438 729015220 -675613045 -710900256 687922014 -565061940 462609069 -230495130 871269160 433308153 -411461490 890960557 -407851762 789122227 -424145667 -335153365 522670884 686825446 -917428972 511156104 574839327 927909261 -522684668 36855929 -392284509 710403005 240696720 -614715989 996810232 -92641067 224233551 -781950276 980411113 -887443649 181629080 994459377 -638011875 841513046 -271634682 314666560 -156520336 -727528016 -437778143 906211519 943363662 717920380 -336349659 292390874 919196611 327419273 -710832419 569449140 810219403 672951429 422585884 784874837 -876772967 296428465 -47528136 -893174664 -948544199 59516814 -544591665 484906363 -818421962 482535137 735557092 888635907 280633867 813493465 343971492 -111245547 284888719 -177223747 -883538850 -183664884 696422723 729041811 762248574 962876791 -258531468 -918820214 65689382 666939219 486692180 422515778 476633976 246734988 -313508403 26940989 644505814 220245309 305666247 356299132 251614965 992567632 609458283 751591552 -968727152 -704483353 -180407442 -88264007 625575346 -947935189 -546760332 869053176 106985781 -858671065 690657381 -857387766 589626876 466006308 7167459 -447208870 -821057502 2125282 640837543 -97667227 -553885103 475464354 582328832 927871158 -602863282 -508989255 -855200980 -558146804 267813324 830876637 -11036227 -596611630 -701546646 -537311968 -935651703 387011001 -345007331 -114097945 -458930526 982857305 98103730 420553784 -392490473 -800897799 529749982 891565874 730976856 -696849162 -312185763 -612093721 364943575 200880087 460455627 -746614735 -556734870 -227070864 -662304996 -401376946 625447394 832245880 -491993800 -78893511 333621013 -319958297 621234750 -923352882 822493976 -173287532 239613928 -566050918 -629138689 635816554 -759279802 346784160 217764649 -441460374 153284409 216894413 274212906 -34020185 26256228 429064816 116595693 -983645129 -842352834 740093249 -527270738 -123920580 -935442103 -345977557 296449335 159551724 -988921897 89497435 253085889 -517313356 -984984776 456161743 332758394 524914076 502893020 130776822 340488226 -623665585 -722239706 682064225 -807398993 -600294130 -579191902 -189586902 696520545 -705596956 287777966 -821996596 -514617997 15157272 482739287 792745265 -386825250 675530925 -190229748 -49014853 698006562 924693512 954380680 939896962 112940336 38750885 843045536 457516804 -940834002 -984078062 920894126 634602558 -567218862 -928179854 -603878320 692377570 -131549456 154243083 464379738 -225252548 -966855126 24738883 545894489 -402763313 818661442 161040398 -88099190 -454598190 599396245 -787596362 653493668 -127449061 423062582 567892232 -510842297 237331850 -101456447 139983523 569921155 589317156 597838083 -14060694 519021905 18084950 419819912 -534494674 -186305005 -427491347 -89082285 37689479 -654261307 569329749 -29005095 897423801 367514763 672363259 -694576785 987525018 407067610 586831659 -363582309 577275487 803965120 919877296 583987259 -224511716 -959418582 518353646 -754315227 -348234049 383513982 -968516785 -419895305 42781046 -91556945 -379087743 708775109 355009284 858680586 668706206 -581605438 -417318909 359696507 660230067 -523146455 329413833 140328660 -626458510 123151431 -924530691 33277248 -224053283 -151877497 752453050 64445231 501768009 106929102 -231851659 336547875 -672003840 -654948931 443251272 867364960 892590118 35426013 -478297625 151949597 -355689818 407318815 -413933034 -400658595 -937954442 -943017425 -225230794 -652359937 -873009539 -368506660 -636756367 -231976363 -548057470 -290615095 140081992 -425003299 632077259 -881807163 979565097 919907434 264532444 107049676 680279114 841012821 -714051680 -625890450 470129706 -770673432 -287045409 -235850380 -613264175 719552581 -783660786 -847204481 877984268 758743319 278698031 -604005038 -271221017 -203140333 327591382 -9964610 98690287 -940254530 -936813579 868252103 591266757 -787278653 712635753 1690761 369616661 -364189408 -35916278 -710277470 940350782 -845748838 -361432979 -866995666 768295392 -870960484 -982838305 620215190 570299399 -378731809 -183642298 672955043 870874330 952806883 962948624 743244962 -406905729 -257019438 -686745233 30117011 527503550 -258605316 166303922 -821956375 301052372 -325015198 360824928 877186675 240337477 -922087958 -262967412 -479228699 160870122 64678265 671245348 872090571 -505503751 836588525 748086247 739650317 308681456 15014666 838975520 925560606 -275488174 29821079 -342782652 980168863 -964396049 -223820655 -140455052 442153419 643887385 475065084 953566790 93406877 279736810 -4313482 508229874 -860713236 -583079744 466748492 113688142 -673704575 -566728199 -286589116 943223624 133007751 -854291396 -556837540 356710417 152735453 -136344759 894403898 453386896 682780599 -934510179 -640888979 -585201445 833195768 -985831560 117434345 -710019721 435381434 903893810 764711122 418485246 884936132 981711797 670967045 558221592 -785968961 691648982 498242835 -48678263 132707431 -739617848 57290075 -664452721 429132013 158451391 972605965 10566985 880707298 243501736 -886265873 -261829423 226989002 -79033622 -925284769 188202630 -121307593 215944234 -578921922 -984748603 457881998 -832650185 -251272373 -326626500 864323689 696511861 -714779625 -241407004 -322666294 -853168080 902699789 412664895 673852893 197896539 562195210 326245297 -706540219 672491193 946632714 543662253 -665699342 247826547 -41579518 -578678091 366650549 -330482471 -777016906 -921167028 -322872421 322579502 524311867 352967353 74679304 -229126561 510013729 515682988 -218757289 789793919 -764547321 788870172 -414699987 998793973 486729749 125793997 265155363 219207825 -652053783 -995750862 -987635582 990695708 -121430976 982464426 444881985 166362160 252587371 871149776 -368904502 931075450 395553842 -581093570 689433209 321064647 514997694 904017346 138102265 695517518 73703260 -670628107 -608412764 709313639 47989387 -912478933 250888887 -736927199 -608620346 560725500 351353305 64590630 -538002954 407295931 -574589594 -358603851 -327775580 -924704006 310749698 -830010944 202710014 -657863541 -955117353 -890945296 -106918791 746464499 513133934 -903212361 802234881 952147088 -532781775 695623191 594834028 -140343596 -340081727 487848476 -958119966 566325228 700478965 208330022 -920859548 -977784427 -854469434 -405841183 -401452522 382823497 601353944 42488335 -235002276 -737555622 -860195314 -991943091 190223210 -85135169 823437341 458502066 -901763191 789259001 -711514652 -59379347 371517840 994082271 -157015929 -100342150 -421277024 47649610 943462619 613374533 731269803 629518583 -865510753 -688001918 252255446 919596665 102428304 972727404 488856323 -457242581 -967111707 472081565 -324182390 -309855837 233985867 669307974 -154857407 -172807641 -363985718 -942640563 960222150 -546106227 -458844393 -71480158 654613910 -29623569 66461875 585519033 -596214385 747436056 618540824 611776068 -736572821 -598559475 -756268171 717067332 -67321896 -380475377 -954482133 214081045 277858758 -154980968 -646044828 -216191526 769016003 613796913 865313181 -64389995 -886542197 838662193 -883670694 -483396219 642777533 -500351624 -447996902 92809818 872432442 -820488376 -786054003 301761121 -419408257 408807573 215261646 -348845252 -511216770 -962152166 -472500166 352136502 -830495342 933806971 615023886 -350301494 -709722299 192506028 -277749331 32313616 251174708 146352118 894650856 478752998 776086390 -878692609 896620952 474859815 915940502 -323114608 389917891 437561317 722371813 984145368 667085357 587188422 50205025 875856998 -269535620 -251003570 986397620 952731812 748001490 449256951 -11853107 -492389076 -895750473 -283522001 -865569522 -286245819 767564411 -654696468 -669938713 990095867 -366032024 -355162106 -697715292 14680012 434382883 -465350851 349380683 -15671881 968003837 728944785 -565163303 864207498 624282411 -478573355 -312356138 -506976275 -260252188 -206183019 535267111 -134160176 348408425 -990580979 208408044 591931099 -959543677 -699776153 572853566 -665008851 989907036 898597721 -500661881 -879342201 -836931026 -283896854 947895049 640019023 -16341006 467776477 -480742017 -455882262 -100960790 -671369133 -663388935 267064146 191755833 35368557 826519590 -227745691 -808276808 900549297 -560002770 -585472767 852258903 -168938127 -691294060 959784720 -377046014 -423323267 6552984 670945670 -562605817 -114438149 198359361 -750048503 -828195896 -403394783 -465427564 889027148 -849437282 -654130169 -795273108 943591290 4144965 71345276 -631179651 -613148902 544107237 -815539900 -792249 -714749077 779193776 808551064 996988235 554696936 -238442473 -308082273 -197927953 -498672950 599890960 221442977 -407292279 395000327 863255237 921688988 635041245 315275287 -35759432 562518660 -636407668 -620525807 517556517 344103703 -473005461 550156939 892457158 489148719 -435002676 -400653792 -334204411 726660582 380832372 -707835808 -529700832 908883605 -812722330 -428766989 321884775 270118772 185753530 -16532941 -173933329 -592367490 -273301216 616534100 416695709 668054614 395756813 -801946292 790882032 377800576 -788607766 58299978 833809255 -354180555 -343848040 866462820 560752358 -34386232 474380332 -944135063 415706874 349820396 -810256358 -19225446 -636900161 883874881 -719360981 640786906 -270885344 303192318 -211249109 944369936 32570346 994889213 152917981 -705769549 -280522291 -185641804 -996644629 -923238159 251681847 11963669 -559286617 -376456574 93678045 -792791051 -157441287 -843645724 831568156 971112023 742139126 -80015241 -112469177 51526876 -602390335 995847034 -813366212 -917229447 556796750 -342366446 536212389 -18342399 -37484307 395224346 44095990 -764507961 972201294 -980199772 384923310 -965447870 350972112 803831170 -474737536 -445456131 -405848714 472181101 163985519 684134945 436710837 -22531623 871325802 83442710 -262213560 985561056 -116990679 775334901 -609045931 910167860 995903681 900781515 -292872542 -591211324 695489897 -180848317 587961914 -446739127 468665869 -710597405 326406154 97692914 -753788594 887990841 27138511 -638505594 -811544926 -539984356 3135787 -412870458 -666845657 -598819612 897244135 924977327 682716053 577274117 482585875 -143486825 -366793128 411456947 556491584 464923289 -543734552 -106171380 683997150 983897828 243361014 -718868242 433592667 -331003229 -312618412 165249798 537979463 872487443 -605116517 -823429191 263123527 534592786 202868694 -526648108 120205734 -648099264 760681062 -825604626 -685371783 781849018 171952000 -774237832 -166149577 -427490097 -415704163 252608321 -985289122 -649059544 363941557 174400852 -494877417 538621076 780788155 162652586 -999778895 2782786 757989754 335977136 148009653 -113221789 -730993179 -450757209 790085366 147120785 809506892 -734954349 852444385 -947250835 664434857 270303196 422677740 746395958 806924128 264802619 -315602431 -479897951 726656726 329709576 919146065 -433897640 690042989 -65528289 864188597 902930075 -671150646 -141292241 344059375 215567459 934363933 923125244 222852455 673892381 -967655061 393771883 747050070 931111774 -506741195 215161083 497768747 -873551940 840799734 -500900105 -404773185 -941728702 202313518 461209612 369115990 -507699476 -120473315 465512644 -861300838 -459692983 56158253 -955497415 -304069711 740292443 600770278 73570962 982564994 -927903991 942521318 -640818474 839714713 -387898032 588110154 794888813 894788314 277783406 251743702 -501346967 -156508889 -279345630 175297711 755391466 319089797 552127915 -58633022 -286274218 196465110 877685787 -672253231 -296267018 991116768 824340243 -490186251 88142906 -978980510 -204173407 -394685564 13164024 558447693 205325186 -658875613 -78471971 982959343 546543897 -124044953 569222119 623197888 -858124062 526661643 -447625786 -58122703 -172284741 684160136 700547703 -493623627 -72754482 -734842726 694148166 269753013 380847445 -138570484 -564742792 -768841309 423464739 -936500798 314051165 322464198 161102213 277233979 660980927 -145213873 -959341272 -366425531 509224496 -123198759 -667044097 244008968 -902229939 -772800870 889092140 -254758356 342059468 -122976475 637168280 -465983688 -971915093 327394572 305118412 -996728384 121928314 567073391 -251323661 -599938046 -68550490 46531706 -577812050 685373235 676909863 779741195 -912086862 -139924004 541818793 -5181925 158549004 -875376319 742044243 427934617 -773206075 185422718 643208522 -268738793 -514292564 -74936994 -288150586 236442899 -149631883 -72524830 337070883 -427669070 -786720501 141717508 -553955175 -596896560 -359055103 376120770 -174634834 32004034 -845146209 -986005984 -536273241 663001108 -685107259 687935313 -45817113 -963800463 633999814 624405501 659366337 411200947 835552114 -800199166 305276154 -545793991 713098853 -703999471 606265523 -233636066 341416856 522132350 452899246 -558248971 852818175 -689354830 -936486934 212657801 443592873 431884514 -788966488 -211119089 446072850 730293878 -732640793 -801689921 406494516 -849527284 803554198 735706003 502273803 -242276830 305852450 277086137 269597368 -24460373 -240957460 736627748 -301774057 -81020941 793403525 -980852326 -342239276 -77200578 426137951 -228502027 -778557275 554570993 317538090 768461567 890776848 640642290 -962843709 -720888021 47368926 583060750 90009081 -68809801 981720605 -384777365 -441213203 -795663983 -762231252 2979522 -641525603 781115311 -797747638 116800627 -439801153 991710091 591126632 784414905 283651319 -485484353 -796932928 746490224 -432018747 -951414917 522097863 -883431270 720989838 360237255 -793903079 949500094 -900464486 394017594 615573761 788361159 -848964978 -276801843 326848200 273920020 -62117197 -274557791 -992830199 458910403 -725042703 219352831 88233447 -714219601 -629894985 238483964 -859692443 -699372044 -266740854 -808639936 660878277 -659840283 -251788724 -457640994 279652843 -401927311 -513546241 705898702 700632827 -399689088 -456906831 407072868 -186326559 726954364 -530184543 -676576972 206832842 -580031947 -524441090 -754616281 -864935238 40983160 -662150269 786278208 -965077129 85406324 -59166246 -284668937 -819112467 -200246830 475012243 84919329 309196521 -238768949 -754436008 -423294663 823734613 -454093257 49998869 328521539 475803090 -261499855 232745712 -874991835 -86620236 175336661 -181149531 972498829 866206839 -553038032 41397136 -620667342 540571591 282678251 44976015 455115956 421067936 941572532 764017148 -660270909 -591366900 241190184 52637451 290574631 831740599 -202484910 895694896 491426512 914182949 355948359 847720849 -576057476 955623676 319038609 696591739 -191137472 14006617 768458178 894089209 953036024 844606683 -553105536 -106419942 674745571 -547562416 -686503296 -512454733 842402259 -202844269 -197941150 -896158359 -73825627 817354832 -590011010 -129188697 -585086850 -76846857 -234031837 -414657690 555755391 287885120 -481271097 -234067097 228871301 651736358 -272366879 -267480687 -599312772 80818295 447221556 617446584 -807734949 977371950 -961425662 -757481379 -653485651 797597561 -157533323 301091628 316331965 691262817 241610376 -28070376 812025582 -35300672 -72351110 -488772136 863542035 345150624 28109329 730488352 -139087825 -663814106 -445253277 951611578 -541771667 -954971939 -53629250 -678405280 -138483274 604232476 -451058798 -879571593 -966616509 -64416890 -326189676 -528307425 -949762803 93480382 -715928359 -178857158 899149124 794770905 -653160042 807047499 -690965299 393996641 872191972 134538201 -639614619 635328200 658506635 324432159 620485600 488615796 143593801 539946286 -153422797 -168848755 -105316509 -332972115 -271335245 -946389779 -871252542 -613270410 -934861869 113212747 701207494 -517681999 -616909701 -475395045 375011351 -615745435 405836855 15137690 472681618 861481479 902098284 -758622141 659568743 329678314 91967643 450882890 -264373207 977758820 627629352 -764535963 -209484526 797317537 829107086 -793456857 -826887245 556881421 -843285005 405980299 467265820 854459253 -658519798 396963609 483662335 217472918 -709980919 -997533333 -242973277 -384707017 101344000 -30729748 474986056 902515712 152967241 -697356702 996994579 -348880104 316430229 788104262 -834409629 -385728096 769858011 -623659045 768095033 145372881 697247254 -483924920 -542328091 -217353280 -708819507 750074501 -901322434 -173846140 -139736952 -966125552 -85259306 515816193 -253158584 -319000646 -250255627 31499638 740542446 626097505 75974466 410704844 -385213143 42804497 124606289 261418112 -330836591 482442416 466200737 -446287457 490206468 960570728 971143586 -873932958 -308690836 439647112 769030713 -637323907 -622696719 604601312 -855017913 591720989 102810712 108271316 209385469 -626453488 383517455 372218886 -885014217 -60502891 -302351541 -670069641 -463344406 785747296 780013403 784870109 -947500839 258715521 74932602 231272023 -472434726 843669064 643914798 710110245 -758671838 452200613 370848375 -873736837 -163151353 -776893798 -215882628 819015115 -588558993 628138400 -142725409 -428370898 795489095 78121247 -723670213 -304697974 135404669 421294729 605755107 423223431 -265353031 690693707 -38799593 -124406159 52606058 -750880018 -490922760 -486848672 -804244337 956201664 840985960 936221669 911458070 -70724583 -585909749 813079890 -538624826 5799829 496617661 -858672252 -350376905 893231803 41809328 -539178204 -58718629 254587582 684653889 -333827535 879740136 120992668 754184226 -37997102 -634955677 98590115 845137097 619613859 707549157 -752360334 -598671040 -461125613 -83723937 720039763 -761645526 -468126867 -327622234 83103117 318662494 438183033 747101946 380128592 -377098527 222146129 411565095 -459107179 -87004875 84199529 462205427 -181427382 281041731 218494100 -210472045 -799929777 -777763512 -163077192 525747453 -133996378 -897525714 704647832 853838802 -117263978 -943679215 237252514 941599022 222323352 -636961898 -220088781 479474411 -903843296 -920094539 566058326 -492067223 323647485 719958351 425194503 -174981552 205021590 -573279322 508748152 -649393537 815878879 351295074 631517848 514758911 -97107054 -526933476 609885565 -457393075 955295767 -615888697 742619366 21538703 -383215216 206388393 -543877805 835191618 559868997 736351805 -22350764 763422317 -71467825 184958334 -437924180 -648068483 -160551048 -567498931 700073416 664474508 -346808865 809262548 -965999103 937038035 -214402811 -414771172 53619980 -620529175 648731777 595499633 -856993755 -304082151 81172056 139393682 -295614535 -32749195 -882358228 715895881 83582938 805429812 789392053 -373552976 -899590911 375297260 457319504 377676889 -233388446 242932635 792732863 567401707 113138093 325206135 -870918032 838535489 -524996777 178653330 765740640 437413146 906124303 150484293 840474018 329713194 -68380590 -482884598 810275554 -212802178 707561775 449130746 -783664130 -847548549 -638645256 769183169 -266126665 -136295098 -901188011 -373804921 868619412 700910313 877312944 434390323 468757602 605048213 717189265 926286633 216024504 -496310036 -877096363 -923052559 681346949 871606311 96986390 81633118 -220183756 -667415640 426958127 -594106875 53552938 -489213238 966954266 334539865 786511722 -885048266 900442891 985284013 -335539700 -76731165 -856334352 158266352 -30560370 408237009 781117669 785761232 416662774 -484985501 122803312 -183435763 -655066222 663856448 510169559 -50377799 -757737312 143512630 -999356506 -222196953 -878421942 47918659 -552265698 -533183211 545442 604496131 -115238928 -969803465 877758951 -276931403 -835518903 664775088 -162435540 234345097 445966465 -771246434 457810130 -554074073 -604479423 546732934 -626808298 927001540 916999099 -715147256 224723950 327081248 294848609 122504486 -727832380 402086197 408229381 -436677731 879953479 593398389 -930238123 460004354 -681264359 -604603674 -694442434 -519732882 -780522191 560363469 -458469766 -847965567 -971291535 -60769437 241941646 861410703 67889454 -19036947 -379749164 225900639 -776765063 -27767146 827854537 -318279545 -695531355 200780685 136739249 373020006 -883731797 237358578 242975292 -891965435 -161778277 -102242631 100054285 -210227115 -981596990 -627662063 453822306 -549017237 350385068 -780967479 84197452 -607238997 -673182757 -409498394 -98417363 445064410 -931003340 691508761 -683933343 -839495669 -943197807 -842502120 -817543921 997406105 -835990712 552878730 -866095371 -953795210 -906017739 -366209018 -357735832 68884877 254334788 -373081336 133587767 -154290870 119503280 -445786019 714199316 205825809 -953184144 -98228888 -813283997 16755216 545287294 -461415528 -806552696 -246783762 386121290 230300637 978865790 -134049043 -857273303 -579870136 788517794 584266759 344179913 20225364 207577023 1591112 480706738 -934511661 915500338 -49161684 -773734860 -358358755 -679126761 -283824138 678178919 752249910 -373525904 823668565 174521732 -205108066 381219240 -378335279 -935542812 -342553965 -724977027 -706404738 684591249 835199728 -229868732 -432715904 -731099226 -500504272 895223792 973043366 -627255476 -48660292 887629037 -280059966 -951649351 -813802150 421354587 292078332 -315419444 842297755 -384707664 100311227 160935523 -620836548 332650621 353563203 896960996 -629621069 688181932 -258692216 447956890 383210741 322703793 -32491882 865019067 -14234567 -874707070 -293438759 -986880476 -840409481 -894886142 351051356 358596529 723990780 -141929567 147662694 868988404 -499191124 -991236995 952949061 -566108217 765272549 32498981 -659691799 -73263093 492917570 -730370170 -514677307 261388706 -535143320 -779882445 -414231095 -511407445 -651331545 503937631 360056128 183073494 -563227877 -938039859 871545311 226791158 890937192 -590623883 -9531506 -543407030 -250301848 -735989353 345138300 665280782 -283640437 90071327 439819731 114559200 437325073 770786358 527360684 -236936410 776792753 379923566 154637340 419032076 -44047052 -164551648 -120914719 -449848282 -894861054 -838183009 112416670 -4725979 -163270947 655487931 -174930209 -844834227 358254470 -572677794 916986260 588298398 -482621740 939601695 -893861997 -97390148 971326457 -123998234 212496912 -412770768 -372330560 588697739 200005123 -184025378 -530786288 -953936201 -839212813 569479199 -38078834 484028148 -770418618 306180806 -292314223 -973817821 140942857 842329448 693947792 -853155966 -118303551 -87256564 -231514202 45033706 -234241793 -267822422 -903550051 746625267 -998526371 -206004581 -492369751 929434946 -696037272 627403257 -245437140 -804244554 328569060 -371215535 704835011 363342138 905755643 676348996 -869359625 202265801 165475193 9699932 -851376606 -689230128 484881196 161338872 373562528 -474569982 -437039212 841130658 306799306 -888163382 247348994 -385940987 -170144787 730116009 20655633 59867588 -887627667 -478534361 -798338422 -725227994 -779903603 -629899626 -567763295 -656712538 147291830 395130392 -852754624 567373814 -989690898 -900325276 -611007518 888054777 551535399 -916287467 525304071 248537864 -426401043 408761864 -194061635 -45410213 270320227 3237335 816085433 828695264 -631594758 246440968 -609283405 556811416 -259998537 -378039601 -478274258 -405907778 561627599 -292365127 472965419 385095637 545946076 -991167699 -250162644 929151434 732578555 155021187 411221758 586017677 480395619 638393431 -107103292 672720113 275294868 481864212 -981603036 283535392 -316625758 406181007 597177909 721326701 -219619063 584389155 13669807 -89322314 690397403 -651269384 994904952 -373469224 -806343660 69384900 -439393390 -42041785 788832248 -443291483 235503339 925892924 790752308 614718495 265941177 -704709947 -213703757 -950348101 999797195 953126838 182658384 -203190485 -569347510 -878918227 312471885 -94985471 -77549576 545005654 191146982 681596252 -832353643 321358157 -104197205 -390403026 758744252 -847235666 -826349760 410035306 288848664 -885280340 -473588889 -533825009 934236338 55493450 -393407301 365168870 748964342 -677201918 -543899932 833881852 561522152 222129753 600455485 -429228574 582856045 951480008 -316394 -42808043 455949028 -782744457 -907457165 493463048 677179002 427677667 969963748 830982147 -120921238 48352688 -930813289 -90413483 185186867 202253609 860498781 320945248 -785050565 328428358 458162664 -320752209 -215225069 -70033243 443526426 396840513 -419343417 573174202 248617359 140463019 388450842 -336650029 190837913 311438657 889172704 202724982 -222012754 381291685 954211488 -128418818 914857569 -159859880 -268728374 -968213844 -823185372 330368669 392889779 546378498 867986111 749569874 -992821181 -961800921 182345811 -787808964 495293737 708076082 -218764110 -751751330 -16354969 95526449 -219083081 156335650 -134876800 607181267 -21308038 -207833031 -912090122 221892204 775301626 822583566 -512554188 395646112 90502079 -970035838 -737634463 -866829821 177522698 225189607 -993353432 508747062 -354562249 -172383691 725165543 645593295 -222514226 -136389467 -551149839 -710137615 54330421 -776317800 781044169 -354317967 250293574 -844003995 -96325035 -699680385 -338122340 832704167 510312582 997576378 500311426 733604555 -158077953 -41533776 -443128587 -842518292 978627833 -209951823 832400436 -479429823 715270593 -219108987 -744227633 -855433144 769665757 277251126 223023282 -69616778 -938332579 -384900038 360876402 -190095762 523778222 215015168 787849779 -991465700 979038283 899587908 -63956425 230399468 -5189338 -743562511 -128951114 -385432232 374060375 -702017702 984312520 180383454 88114525 -366135304 947339226 829640060 81555760 77475965 -120765092 752753401 655840800 96011433 -165235613 -881481994 921657950 741441053 -317798635 -382334742 685848564 -813969945 975625316 -239858068 -450055659 -672158503 -418263842 373836505 579296003 -160038296 843366695 186181352 -800416405 73226708 -222847664 988146658 -45001039 593483572 171238605 -960160052 784340167 -101662111 -67064980 -835421692 -854399796 -287250688 32860026 -264742100 383521069 -796971731 423197062 -825179231 975061681 -12266228 541330066 -487826060 938764357 867498575 -305316214 -85359308 209784595 670929966 580367555 171664098 -629042718 -542179197 -295182061 -819489450 790672881 22550463 -119093853 428409927 -970782211 -604667305 -951884668 728193498 -298630135 -792936767 264832200 -19640810 897338063 -796568006 -786173379 485684775 -654963043 -468956941 -483625501 -504324138 -833687538 753468165 -887915192 -315518674 946387540 -526229281 -326497778 -135230886 -466515918 -908201063 288897852 705457472 234503638 -342250655 -629155893 -65820592 298747665 -914809498 943967450 -893873732 -619004107 670469421 758556199 -638859858 590940547 628101030 -695627708 32098770 -161512174 150156751 -902563963 -135858757 992509081 653500045 856363931 876648235 -109506240 -346787998 -480702932 153113822 77828735 -622732313 -429866619 269150322 377785835 220866214 900143232 -635601242 300907241 -646550698 -414077948 -904528420 266073523 -882126873 -768490701 206158341 -937534706 -183942664 -277939688 -665783564 876891738 -218701163 -682977371 598874980 -278502056 -853830669 944579614 192595463 -643210908 -294097495 276101393 -933959253 -840800112 -950884006 566395330 498672821 -594728030 -25177639 -49119782 -44925083 477528048 651885643 829817629 -663178658 291251622 -521003577 722934390 -6783352 -629119225 -157570956 -408342735 -301820510 -386194398 -722144897 860500568 -938747558 449743128 -584400031 866386768 -184080110 283988022 -112821021 -998994110 517976534 -918698117 780565100 -352083632 -379649628 -532667435 331270651 -588453672 817755851 999442492 998083308 -410549715 39666725 658761942 646103093 -13442553 598947447 -318950488 -37282552 142033588 213737557 816136349 589983975 545901393 -494198898 653524871 34540664 -616627644 -550843587 -366789679 716193632 370483595 -904889995 819360888 414514841 -918820672 305953389 826020731 -560519202 -761713598 893807788 302480733 -752793401 -454903601 -111868882 548239162 -673462112 -368153763 464247330 -233905375 -153320569 -761768593 493869719 -849756454 -286434503 343755250 228264732 994122787 -655996229 214155892 893296074 155623896 -463964038 132912786 -453364537 168246880 637107696 954462896 430857662 -124341283 -268843264 653660365 -495004079 308733763 -820314733 829239630 318773421 8457046 370515530 -893380245 -861980170 -600350529 911497749 -959568966 832266467 752888331 541361784 990065042 -222636004 -854457570 -691277776 955634991 -676832486 -461544510 -482927402 -539911342 -32095763 -146631638 -545747071 -763970228 30202783 -477027369 -192648024 -881034628 586512559 176616717 443563405 556913967 -945463420 -506786988 -685575534 -615451712 956964012 -805870031 -407563136 366418723 -81710016 439101153 717631158 -411992489 -814036531 265047268 -925977013 846039783 -2315458 455518715 777582732 457221892 -669413928 -291440927 311192308 -45193526 -530898007 -346981941 -669426128 166380913 846811591 868333999 -353881615 347066525 -244760972 -168649374 -63536605 -811900092 -525677880 259780283 494326501 -633870862 -385520429 396891149 -39902567 931648803 -945569933 261325483 585732752 893970322 405182067 -233775792 -122353456 90422172 -818574530 789288906 307303742 448884091 910779490 219511306 -205864629 277607358 758483086 48960210 969750692 -242800603 307798266 -778635407 -529045955 -755231887 -147454167 295872582 897638596 -420541066 5991768 -117980548 -642255992 877850805 629287707 -810712849 -246025652 -517068439 -872379435 184986660 -458645703 -94107993 -149197010 151823903 -293936207 820313015 922950040 443704915 519739044 792668476 -32382018 406055441 -500147494 396264277 -19058637 362318928 -270616443 353292693 892819803 232769141 -652473923 809597845 -526874607 -315442921 -67596230 -547547176 -19945812 122922659 94725531 208421680 720264229 -946953614 -5462263 -391229256 163219079 31957421 -81895889 139212619 820039694 -213944148 -569436690 776900163 462192729 -48947848 -532834172 289304702 962619366 868690972 -442488353 224180318 -610464943 200352105 -34880499 -368259159 -604086934 317756676 -921976181 129790195 -919027039 267467286 398017903 773519124 -616471297 319133380 -426592189 437641005 323160565 899108027 -781912100 -655276212 625247028 403990893 -25728538 -610650431 372529062 -244953743 -144663893 295045644 -667258421 -619735478 -711824271 -637500858 -632763214 458569502 829694406 -804150905 -555374573 -516872450 -947483129 513192432 484406355 -480687855 195234364 871179060 801371050 731533913 -814971239 -733237770 198786644 439285731 864289104 -527679268 665262235 365235494 -943080487 -419194130 -870718748 102177843 -472238452 40358048 461967869 729705031 299651669 -700694158 230159613 284558692 -523809999 832210387 -247017764 -448461705 93040685 162547078 -623279770 -877816752 -881619251 829861594 -19250748 -419478534 -593083686 -883614546 377071410 -226914333 944824589 982767110 897589998 665399298 -519104919 -992791844 -27978575 -434395169 -936911550 -224260967 772208684 -978094415 496849945 439514525 344983461 918530999 615587734 712838457 -86433732 317416841 407787015 -311908115 22539452 954266400 -796914453 -591812572 370829550 -374078472 -832282619 872745191 -276937890 -810020621 -777475997 456053171 -837175578 -423931301 813007912 333063955 551144429 451885306 335740526 496231453 157726414 878231825 -681432705 83483914 -684232365 227209954 475685276 861025062 -983626521 598128986 -394925045 205500802 -492347190 483190854 -919264644 -784539635 -673641039 599120340 -958754967 445561690 485245284 -462053900 656101445 -653727829 483869599 -435085088 -427250805 -217802089 941979876 990799639 -780719312 -73430506 -496869601 833143715 720063984 47549588 -909714899 134957894 -279772123 249537331 -354251255 -328657211 -263238350 -249777195 -365059983 -854955970 184904850 -57686115 970397308 30310551 28923362 829543633 987594837 -775833769 318453635 -277834456 369919938 -498435578 572999824 -549325522 -774408328 -955030833 -455944192 -742196484 649088459 116501323 790143415 796531590 -567807 -877484401 428830945 -630091818 560703083 398879605 -690312957 169756557 -725864533 -98078405 -232340191 843049230 589095192 890101767 978337525 398685268 571889226 524495918 -678065092 282307662 468335600 -21491088 -589385796 -159426578 709907943 -909988188 115743934 -695175098 468956901 394557555 -263745935 -601533571 455994743 344659959 945604043 347950571 -181229916 -346440043 688285599 81997297 657755780 -313365887 -550706460 -193008268 -429279862 741759351 514589164 -830623872 -629821799 170348599 583838094 -885181932 -234661738 193360884 167242818 -417597497 -930857929 971752418 117793362 401514457 -485458269 550246037 491786486 -702887806 411974986 26081850 -240280874 -606908013 698838097 572889711 -657996823 441052862 930021899 -209265984 303784533 753835484 284999922 -638811817 728482295 353080511 -363288695 -175930019 721039781 838117588 730563282 -139511440 128821723 -937484936 528705875 -161206455 -968436155 -868747472 -745228848 4074611 -485529158 644533909 -48902796 60871951 -624272250 333488459 160476128 934571242 -115781840 634542506 636063151 378706679 -221672596 790884904 39370165 409993945 56453043 38899040 -325008367 625612155 -943791979 -208220755 349783054 -819109420 198798844 -487573902 429656932 -347093147 758542226 -589474136 978498450 358512553 655771464 774518259 -471050493 -442826468 561121827 716198274 -840961707 459889477 -270096899 142175892 -498098303 -534295538 -692153962 -412913852 17752291 -618402869 136885119 -724286920 572707939 856878260 113038547 -812648670 559508646 -438179760 142379487 633971464 -890584292 76862839 242437355 834455226 633361120 -874243859 112720976 -756328827 -407040049 -861173002 -504696375 429963544 441161632 -986695317 347694351 -915166513 901653247 -396305550 35869529 631619882 -865410036 -169389216 433137459 -26785776 -971191156 105048047 361455399 -539885963 278900687 -187802090 964874778 408111148 -781035255 704762231 -632358473 -402047125 -142200229 927544312 221166053 994363760 -506139273 949332318 499966451 -988320896 203119857 418408248 -720213829 521319270 176598406 356926757 -424006428 393731132 849946021 -38187449 235995132 694793346 -659376629 893790734 292910623 772246271 902776623 865248384 592075852 407167261 -479567037 -421489683 -450578583 26216913 42305576 959668830 -140690632 -279382303 -486799763 -545133640 564470494 306719093 219906683 -130087590 -866421884 -979367628 -87259197 662240244 -275812166 518707 -46397705 -804281987 -523664161 -598947014 -565718638 240516029 386394090 -671084875 942965649 237755609 -836946067 900789061 -508321268 483925535 273816489 -292084326 -577970985 -622571276 -375019876 626151385 -306194221 114835244 -567870240 -803920984 -178257879 -913848079 -626498540 -496409866 -246065695 -534927672 669969213 653777010 -576711430 711909542 -867806689 -984861047 -925354659 -84653445 -242746607 -838070963 -136364012 -194176181 707878511 962707917 -168176504 236475127 -633235763 -906293675 -798434273 559649673 -594906521 423657316 654003111 -919859160 -499434131 560025371 156796025 931222784 770789514 -149321515 -516837391 -796125105 -289013275 -645793289 124600069 475766280 61575183 -530390570 811692141 978577577 -385950342 314296229 -242065617 459230746 -152697443 653117388 281428301 403818642 -802267678 -844523840 -665368601 859479225 28187258 -310403321 939025093 -591083276 -323266782 637126495 -61650253 436177205 -12199649 907827790 589925964 637165068 14585345 354664126 -937360820 934905009 -543700679 -701690572 -377507671 535613221 -288790767 599621635 -155565581 -706538217 -633498746 155285180 -108889299 -722849817 642467148 125720042 719024902 -650333356 -441950912 358581753 290043829 -851020391 -380517600 419648975 -39501816 -881485359 -817919486 -134637195 -772246920 540197303 -471023231 -584688318 -677191600 -793361616 183642184 -959355607 -530129127 -699027819 24797217 834586225 -390245891 -674016821 631057981 877853460 -918972614 -71958814 -736572950 -364373544 -436856452 305557429 807698160 268876306 395314657 65605340 -448046549 223746765 -748994760 -624306266 -57791477 -593672637 572906925 941904358 990813324 -261308738 -206170240 592235990 14376754 993073472 720483956 172147328 -555100889 276223476 463500171 -816256218 305665288 -559815472 913454824 140338678 -132074640 557795935 456856248 -838053090 -599962112 697125664 -338947060 546715781 -360444272 783650710 941083918 -196710522 -159018905 86077978 -776683583 -206294442 -519265279 381361247 376675290 96893144 711695551 223571479 -477646564 598910746 -882098811 -375862604 877278227 565457824 -142405564 -378163881 236408124 -985018542 313593126 -601867186 645040003 955463011 -841660884 828695749 605946968 -313838145 495408404 -275530565 -271740384 -391882729 159300356 390397391 561472394 883590494 -518176049 -668353328 -26136635 -346678250 471539668 809918601 541572063 -51154810 -189828088 961058903 -156036980 251443779 -370138341 830274441 -535686164 -554384540 -117430053 576014435 -161517285 -36012884 -24043722 777851363 683341365 593330719 405404299 -488793556 232226930 -146983388 -445059418 -580474638 -872150434 -490148981 512188175 -748572218 -404566105 -85725458 -933482650 60567549 703646626 -682403872 754116444 430076165 951474781 -676890641 881447732 447786994 932288450 -938780901 -550006695 -881894554 335521183 -577780389 244152850 30167399 866429836 388430503 15278293 -310837817 952182688 -893794714 70862777 751900746 255404431 -408920513 289330877 634250321 189214000 355933727 709169789 192779448 739441221 -374261535 -846912455 -210548689 913025015 -314471183 244472001 -655278708 -595978607 235208101 -800518647 569593465 -318045817 -563714775 -340126853 291382898 -175938769 654839242 -723099236 -840063602 -895691431 -831686321 -409110660 873031174 -509570476 -455834302 762516453 -429157092 -293965296 567053365 -231844182 -583490992 192883783 552768380 72076707 -455846629 712007604 469865017 -141937459 461351313 -765439559 19399348 143815247 572777396 -335246539 228827293 125698768 -48842594 845773275 -779163164 -495361643 850729608 -295050427 898798057 677844574 411185244 -679069275 -388822349 750273296 366701471 -435070891 -962781630 137707442 -651330371 837596638 507197197 -209162173 847932027 -587121580 238848472 308033665 -456056975 602166412 -437793333 -27463730 595153071 734354604 853821118 540029687 -51434835 -276433473 -40253984 -532443348 -759098095 6751866 496449700 -692803411 -480951890 817445759 -925750395 -288787142 -897518946 457293692 -749635042 327720653 -365701933 -165038765 653016993 -332546053 495183654 358636076 645911250 -487202861 -104171415 -50359038 -967124916 282101059 529537882 380245025 -848164317 -750584530 443439774 -133110023 -987938158 -23096989 -950811398 305655691 -890993739 -824840948 235253982 -26803629 860831015 -676883203 -206047498 936972603 -509524586 13324387 -458567863 -234716827 -686803295 412359756 876352276 -971418360 -31801786 -13291877 -150937876 278207085 -966081231 -146800137 -748487027 -299950157 554197468 -523567736 170670547 839219046 -776449236 334206114 -186078679 856193637 -413514469 -504667507 -548471322 -635898614 -437242729 480786140 369462096 -769087095 510370111 -115173845 857960467 -537440949 -923409470 197094477 -390549457 -372869704 -62554249 -23753005 194937572 179408555 -498634657 653134455 -74625666 668065142 848962845 699236173 -742518516 -169028817 304461025 158419380 -216637716 -182229841 563618621 731923271 -750002355 740955781 -451629357 -822156337 419074572 -803691654 -209436818 299594976 840542437 -517407925 402905639 362601360 482327859 -591147040 278538841 -744753121 -844512300 -840208872 67568677 735874953 -974538982 525683594 -211519242 577551798 414820813 -329356328 914190912 -307333085 -120983036 13387097 537811840 -188597066 206085724 -815696300 446642186 65012492 -942943355 971401480 114874163 -370805668 490508537 412827392 957126022 -262513102 -74111807 -92904290 233385022 -695281062 -330908665 -35090647 -655457527 346011375 -182114569 654705424 -225502492 534749201 744070052 -323992105 -397639406 109427968 916752584 682259058 -75508165 -285870031 82778640 -596692876 -358777852 -595237340 641470038 54792685 641475819 -332772468 -459591574 141174232 -86017421 -586406074 333552131 -157705022 -918874853 -440654747 -796350534 -745972390 586612342 904584551 530957793 940999936 -649389939 409612350 -152983661 -70919656 754232748 417416867 844256199 -724863543 259987194 -66646567 46602836 -788587992 -267918058 -548154732 225298037 -777561545 421481950 225734032 851461132 -309345718 -536946678 -393796374 850637407 -681638626 -477548884 273819714 781872730 103110445 -858942484 -282393975 818201332 539977376 -579805356 793854037 -761538363 846928844 489784713 -906781484 744281257 -831642690 -191005777 -956670295 -179041026 664224702 633222731 665245230 451473091 -525996313 -81139896 684188547 -341534958 -760100982 786450727 733413069 -207834932 723773486 -314414447 -72482935 967707988 -528183354 -501580020 187274202 62732517 -904256846 590306067 -370591746 -346215576 -360306272 -340615241 53894262 52770971 -29650907 -227676323 323674072 435298165 -797113025 -186020982 148048771 -831839480 -343936513 -755340918 -162355258 -497056942 -522428557 906956195 235754805 -101663918 -692029401 54518875 -394010828 557473892 -817674724 392226312 -740468680 805119620 -310072196 -139534306 543222105 429801778 154224689 -513732463 -801677281 -195080243 -804299473 840878495 770451316 -341255252 971575062 -352111870 -614925675 -999593674 163969366 -977806467 70962218 -524670170 986926264 -354322218 80286000 384577157 -833106674 425291013 712037977 516652599 -211265031 -81697733 -871297146 113905216 -848671917 772874891 -508088101 521392011 737117504 -375732465 362955166 -738154166 39246597 -163467533 -385884157 455071099 171120634 744012063 -838878495 284129631 234963564 758390684 -710682818 -154646236 751940303 622980962 -630547680 -161820581 385987468 746337107 887166392 31812750 39567238 -391489291 317647826 -542769677 738742768 859201210 -363116820 512792680 336523782 562439191 616322000 505021619 521867682 979234480 921695283 268540694 229048445 -858307570 -315279777 710782739 197387841 -489267124 -609295566 -310200180 883798935 -775533769 -994415951 -59412629 -515304586 989699914 -809059271 -531207650 514176318 45873048 72849373 -500488785 -652865451 921890739 952960089 145300103 -368393160 -407223946 -135969728 489338318 667858549 -392023061 -909059824 50465894 70259790 128207827 474268031 -677251277 531911394 -167274359 867382127 -170802607 933815786 683008955 -738477587 591567672 336202599 -672767151 877642780 -781144738 263034327 76625261 423005852 868123958 -878930683 -226570654 -155303139 -910874890 7016811 -519062279 -88379095 745612343 723460793 -230030140 -97826799 -954284748 578453109 234576032 918505225 316276174 -178433811 -295714514 -32559250 810711159 774185251 321316382 -178348540 -681734953 855838642 -641858617 -64429420 -356178066 574658535 -88421682 729683821 -310457238 -257862175 -116112289 -104226816 -869823676 989797323 448831109 601271406 -484307184 852078974 -520688777 -865629029 402479375 -859725972 654916520 555152334 509205709 -694551608 -457749814 43086016 -502797508 641463653 444424431 157491567 -301282108 70623563 984558700 -971374354 272749547 -249883594 378044312 -546345807 875710144 -70359147 -393261909 229133096 5601764 75703221 682741645 -267677882 585259621 -511508009 -542363720 -51480109 635393308 -377230311 -354880204 -66940690 888580271 25135746 -646272364 283534777 251722259 658020407 -577435755 164567246 984024157 566144876 460009800 395932126 -448941338 299791798 -107641240 820181197 813011357 -204036155 362278523 -892314945 -674116325 -328607783 710122 503909517 -137714962 -368474139 -215621677 152659342 -264396624 389971582 -891530614 339325246 569646037 -446086267 62666751 -792662097 67211841 793664820 991497636 -975149012 751713085 244203509 -35886897 44957874 675202078 -613799327 -16846084 -222229733 144686303 -866888088 667832013 76119155 557974722 592191797 -916496317 -569769978 -841465468 -977470703 762155317 945610960 9858490 -987802232 804370477 -874756857 -541975369 871956791 776505500 -592716623 436507153 -779511063 -252245609 -828719595 338774774 148419626 -287913356 -688228320 -718411405 614014557 352231120 194740776 -271907356 -523472065 -174546682 522754357 388766970 833492917 -869454056 -356457284 -777718050 564840672 215138528 295648286 129893998 828309481 -195204937 -819495733 206310699 876845250 -284653328 554409527 -126786357 919388726 224945190 -979921951 706537817 -918838306 -576463638 566546923 -390281914 -264550178 -959901212 629603567 -490143715 38530670 -743449496 691060061 357171445 -496389961 79217597 535053532 -962894670 -670792122 -848151686 229034572 779340608 -955112389 -505716696 413455795 -586227971 -347626767 -977413716 445067191 -273279486 652380388 -506047634 943552368 217889439 516341437 -584602662 109591314 -783674521 -180331879 353310238 220915047 586100527 230524170 -726053803 -785316836 -312125405 795181230 162446866 -470991550 707764675 -192158455 894550948 459402159 288257200 29567318 -560817971 625649241 972242513 -885541309 53997599 425888310 211655424 -220332814 -311473016 -524891575 459879550 -543319381 145147596 433726442 -919417244 -661318690 -189722602 640673074 -674240587 289350702 13931557 497787941 430807109 49656295 -265443958 199234821 -354493750 -459321245 -905341879 -884127746 705623412 726411181 502000839 -246658213 -296363319 269442528 487765531 90883824 680952660 666542360 -340055258 33207620 -760376201 280152412 -971425988 -767258429 -9940331 -820595151 -878264994 -280997938 -377867726 -306061311 -201793385 -249214458 122932401 578719486 -764099787 -654578474 908036098 -528740061 27265794 514499443 -456889078 -485167562 493224974 -279591640 -922256379 766831839 -38870351 -887974316 183674239 867685576 759519361 -700953857 8309525 -329312953 54123476 -360185210 906053532 340328634 946169921 -970118057 911274260 -318980465 -977034582 60947745 -326016946 889812902 350874882 -93121847 506467954 -957402044 532153070 -178302947 244162640 -989218040 -848166603 180309361 -714911197 404564932 435903043 962451014 587313377 -543978632 -898422793 -899634987 -609953222 -622264687 965116938 774165170 11503491 -394054353 552044909 -388623344 598106000 391178789 -351177849 497495016 712157052 -666919564 -358325084 -65667238 -591323467 -325033419 -875966935 229103573 -105164134 -29416648 292017985 55904944 191616216 -591578471 -895782509 -651381137 832594682 52227357 679983704 629106321 294567824 -261849935 586484984 919721703 227119554 -349372043 198044700 -50239887 767266102 578577086 536620849 744310306 -326745284 450245151 578111300 593129836 -676335358 -406595787 -222797993 -76821134 -987275606 -852439419 -72528657 -336508275 -444920459 -495954589 169052826 509439151 442681417 240715431 869732798 -912427466 381868279 479041828 -419747633 -699368621 -390608884 -352514469 -546542357 535431529 812947471 2641376 583943608 -266162469 380840298 415581976 -679098403 -520432746 906311267 908534618 -423636755 394828314 870803408 771865647 875040257 -101410545 959185399 -251454199 289565121 -18919004 -293740867 684504822 688306037 -798190264 -900942667 -145777662 -494078220 215966875 230245990 -350587986 420778064 872602541 20112465 478296804 538083528 260957047 -460913041 843285309 -145892884 -604300467 -917717943 -158352569 -786054188 25535390 329400448 -592181568 -402472514 -424896670 -782221660 242063703 -841454137 383674862 -97752317 -181547951 326278557 839992486 296350412 17542201 -520869111 -150716901 309737324 726945354 639776752 -723958108 116777199 -195237122 -880180641 812010227 152452543 140763803 -735224249 927301125 -481090773 725053261 -159236057 -657350314 -534562433 273027865 -739420338 -550680384 -370983224 -861683751 12168956 276804422 -284024559 809358523 -707374011 -560527306 -628577733 780206033 -668937865 -981933324 -538095306 -55816367 -291671171 -2436520 -555863662 -868271381 -184632320 998813846 745276426 -565488551 -955650002 352153801 432604105 352690346 961191004 -533889073 754563932 -607795059 -822181209 469417554 -54914663 -979413631 802681949 822207756 -730837315 935237603 883031421 873471943 -304249669 -764229882 963457851 -939238201 -193936681 -411494505 195498555 914946154 99261446 974656817 -406108962 354147020 457163751 130559186 -501556402 -649459622 182957958 262041492 403112733 -903844251 -986807324 -69785513 305956573 818399736 -788068155 383044890 425594088 241075342 -56859658 571920353 -126323001 -1684904 -595973324 948026232 -449621584 -879177157 -854684697 -16439591 162256192 -333140410 -467953609 -637955356 807208257 964754686 924402012 546643150 581338140 -257654157 -856175928 -487808416 260977414 804486057 828023445 -186350856 -32843468 -241855845 422899623 213954545 961310429 -287511906 -586519801 277655151 -788006777 -936095764 611289816 -460001004 -978861198 -396121028 -98764973 -754160704 -691380516 525692947 727408171 260920522 -182450527 876489774 692398301 -50991953 710410674 544193948 -973838500 -942326130 306772517 372535973 -383260899 721180261 212226608 -691576447 -35187884 -576067018 -646759151 743507054 370322359 832283381 218899362 -179627413 -945807915 349570505 -587881039 -443268968 -22765854 775502509 -8541263 728650537 -783683258 26578612 -532788405 -702279564 -845861795 431829673 -287650468 982089362 189852297 770945868 916757458 -120033018 -685428569 159293382 -498231248 59791331 -84471694 -667244662 696490595 -434460682 113749113 -726215087 393333733 800891348 104537985 112476766 -25883816 111622433 -987899741 -1114367 -260456280 274450050 177575444 547105444 -189899260 457103430 685132513 -842239012 525960887 766180087 -855376942 -73861713 -105014287 -760374597 -628354721 155814382 -100091493 685764366 -770978485 391536132 -725900942 290408359 -139768835 -377331077 -701647678 -291249153 166223074 377930300 253930029 -895460164 285464907 591676627 592286079 -371093539 341608414 -402397712 117081961 -402152450 -769739015 607075132 -52797630 490266564 -368675451 -560101613 -638894916 657691000 -432524492 280515932 -975204667 -243808878 -156364119 231612528 -984109154 552552216 837407152 -173968038 -514308819 -798678096 459523335 904169173 -662271402 418713209 -677667021 -64305540 -343406655 -95688102 826793713 -763912303 719261991 -192230494 -445086948 -448350943 -762978046 -637621956 -511146437 -802774809 -943469837 792782175 -409752384 -875525466 673292716 218082484 858815840 -217714381 -948337917 -783357897 456912388 -117546529 -565805846 300457976 -131136420 -23585095 -728052280 -583024583 489296656 -638043809 511231582 828507026 -272150018 -881152803 411620182 295414011 -480760286 -472284772 854925256 -569200601 685973537 -885426139 -26671549 -963298319 787687645 -683690998 982365419 709407586 -335071619 -543011156 -9840347 702078711 694921587 83787708 -407833801 781136145 -297674654 -129539442 -367749840 -845947824 961816906 -455124474 786862318 -590999386 702755726 908170746 -810710904 -797887726 761349555 -695580697 362836206 -238626965 377666588 828841121 -587213396 -555709473 634858296 -273578654 -679874237 551432382 -533056428 141700847 -576008476 -987476447 826156703 982294218 758452062 475022001 251467915 218746696 864478431 2743120 -427951373 -108804954 -968942460 34150554 -123201660 549045272 839917544 -209526862 384199408 -988708684 846979709 -441210609 802735108 423528216 394689257 -172000419 -390966686 332389388 517178029 437736510 335336961 583107444 158158720 107614006 942135881 948748968 -825318749 387774427 692243798 -786157700 983985099 -795531195 310774397 -232006584 757721183 763475595 22017411 635985044 864486751 -762296294 912913528 506667454 32311676 -250526845 -875394215 -563733663 -159697391 -945076323 -579529535 835124752 512791421 608547560 -956457379 -212482105 572422955 -492753153 -217690777 629212626 -21550967 -637995656 255532803 465879656 644103632 -172246822 768758266 -776010318 263823080 554392939 450104116 585002923 516874346 988808631 572470929 -822252640 -292230155 122210202 748447905 3309321 702636383 -586481352 829359097 41053947 -4568167 -293055912 293035698 875592528 624862205 -320519517 -632362749 -484659671 274747605 -851466282 -262198368 550555230 -986268639 -50980307 851966129 860211846 280131549 -214399880 -894531951 752520726 -431379600 -588091238 699715483 -192268438 69526390 298988109 156049081 519220000 272377202 805428354 432107256 -857885765 414969362 874950045 -24500861 -70949635 435965764 -838832660 874264179 -682998645 151493848 466723774 813280815 -11856327 40196887 369684820 69369228 -853245337 -782366755 -373354268 -659802110 -651079936 -391271351 -798462454 -598417688 10706776 75321719 -118316239 829418393 486274784 -883078656 -126992159 961673508 904036353 -876265501 -892281451 780892057 734831088 586436148 -979348143 -438659030 -732189518 411166185 843800261 -212681873 -13260745 -306853412 -739539749 -487649590 80044089 -363521882 -427785524 657666720 789137115 -650687955 -348079456 111935260 -772373655 682195022 440345279 -696215535 817987942 636457268 -616313660 612106498 67611212 942270906 -231750874 -686614344 -209917624 148465333 -504884762 -729275222 294693894 17453542 -869033056 627480113 -781825910 -773615807 -302055057 226236631 -574610101 -994416936 -34638302 -698943147 307687313 -838508305 122747378 266827239 -401371268 -92757156 -679526857 -109435625 819447881 -601840581 77904869 -137719638 628753626 -65016754 474709162 -354780202 432337656 -161385230 189801439 -112190615 -844633059 575015056 798243767 12308321 -558903841 -184999361 -221908557 496860016 916624292 85616586 -67682544 77574810 -656176681 -910293780 -573598401 578584095 851486694 -977876264 -353836215 -267081644 -895027113 -808802225 -476072186 464755198 -504511180 -362895675 -185660676 604048042 180698105 -525404791 434406462 -233622107 875652318 821822834 -557961368 107898715 -587736530 483231959 -923973614 789814646 146083659 624559708 18246890 841175407 -412586240 267622659 439995907 -736270430 -57626835 -531594330 -5036882 -735153081 -698071771 -812920975 409500674 442369385 427381833 387162571 -708551539 -442682528 -397760359 713421017 924025179 869753938 873871483 537024102 77999281 -232790372 -717770492 -642269659 244637271 22675404 -894649405 -296505151 438572556 829041917 224763298 -392052217 31439810 -890317793 67217388 -686632024 265850974 804431152 88221778 -497258367 -778639964 295225011 -717276595 -867168859 110960993 -909943794 97885048 350909773 -705630846 380366383 885324053 -626361277 -853620722 688426037 354661368 112196498 -85267628 -98648984 -227059529 -445499759 323142110 585215787 -85968466 -877414117 389488442 -38391457 -531362208 -922294570 -800512401 -900686166 448576011 -707589085 -641105995 523067752 911609921 -934402976 -208335586 -204647611 94241027 548202708 749819678 -529912747 329398171 897818895 964614987 -225053691 -681556309 881487104 -747471276 -72023160 384032565 -603297914 475704379 -859740334 428319660 321313139 -243019402 -545083050 106595604 115875861 -196125435 -929427094 423608740 379497377 199879847 -977872719 -849834674 486016536 -342456886 -49993908 875650479 351181882 629492149 609594398 460195346 135205341 92644752 335788528 -277097208 -70004249 565868900 -291083318 -579415593 -924776200 -247719650 99196519 -803506726 -229472417 -750279968 -548363692 -595908058 393431902 719479058 203141900 994748623 -815194495 868677733 -608513756 -581730550 -959615857 -265512206 884249138 -442065416 -531269982 652996027 422327914 -13445416 -989450308 724370288 246802059 978033716 286208863 464113757 -768525906 213858611 282926288 -429255557 138550174 -192455728 488192410 -528764616 37810499 189974107 247683540 150494287 90662834 628180389 -261793948 405079972 398305706 -399500623 239503808 761591423 -385656063 -855321997 -226324441 -326972766 979342982 -573047398 -191430780 -855123034 388924057 83478628 929194469 632418650 340228012 -290497742 -144120253 247369543 -424462071 -316322127 269516755 747441045 -720076062 971839747 -703237091 -786642507 896404809 921242088 69975327 903602619 -12446094 315745686 50479921 502927591 -415807024 -384717774 294885984 -98999824 -308610077 582311315 455544014 225263597 -558853470 -566248055 -898243104 -738102036 -232280738 -236436180 737734530 517498961 499441112 -70608374 980745230 -423975272 -211215872 -81576165 -145967777 282617395 -107206281 236411821 -85284705 283349994 -882779434 -721956768 -847724565 -363576863 -256448587 -165899988 90947307 696348661 747477582 -985193027 -782254595 714319689 -797172848 -444063751 -797344357 852762492 -80255834 480306483 938836151 613121264 -108121029 781813074 732721183 -429782321 -438892450 -100826373 -763736268 148853510 -510866632 934088913 793902207 567462509 433664397 142941104 585425201 -317391907 -196378900 -719407875 -860345428 771320339 694175199 968957910 375422914 975935285 -788426312 876386569 -240886764 840401814 -171823814 -382560302 -764218745 911861440 -995666265 -173754468 -658111091 398223938 -700901413 -595553525 -741330149 303879369 -558489054 828645628 -937557209 476931147 217630903 -645716557 76295314 618441893 -828916951 486619664 188907570 851339902 -584956342 631296104 154388536 -727971785 -645471357 -452827280 -232066209 -535929610 -504867122 790945890 -47510190 754283094 -201000907 -456610571 911336438 755142040 -807702013 -564136918 514085558 33074431 -400598263 -841063716 -811031027 339147694 -800233275 -931479070 469290244 -40446039 440888423 -353671617 296924274 -372139895 288930697 158322074 -550719637 622499275 272737536 -630004334 -278360580 895553439 36048531 822238173 -781305940 319258847 -324076330 -798327957 -792558882 -623649017 858164194 -403027567 132105459 -226955376 446562926 -687493721 -549976175 602254062 -880599148 -832693124 -462102537 5009827 70376345 -494404033 -344484768 567275454 614159491 18091925 507282950 863088115 -979642063 721681568 -416187205 -457162872 775496791 -417175167 435774518 -305620813 -846339956 -569159197 -943640929 92975302 -807761557 59987875 -485674940 996263860 -612491321 8385135 -53832006 748129775 369950496 -443632424 -358208615 586740831 -405309522 -988655654 113514379 662230209 -352817538 448168088 -175761582 336055941 141624360 -613298973 -514034051 -374309656 -802285137 -806181984 858407613 -324274035 -566495860 -502947817 969075244 -736973057 -931315607 -946981595 -725797947 334647952 -952435223 761078476 48472109 206360152 -242019850 611518840 -336455192 419212948 -941225860 557807403 -179149550 -682050060 226277047 -170502458 -551997885 363838835 667161497 -394525798 808101607 -679927922 -496047188 139037039 330960555 81767720 6502430 -390987281 642922809 -221421277 -149623931 -752647931 677182901 140734538 833669867 387951894 648703265 670181631 806425304 871775977 -313397839 447784722 62141580 633214705 993910802 -505059212 926699469 -785763133 945701787 498315384 -271123175 -27771600 -339020292 90353457 22522786 -30896407 -524592696 -618643995 169531281 -779602070 -75299728 497845606 -603174377 267426271 73013459 155393276 -599889697 -125518208 -710950604 -984974502 -473423998 920724338 -421614610 500103758 -270077730 962224547 -355756471 -646305577 -143553838 -368016000 -499799142 -765633332 352952439 247704828 386709745 161811918 -204434835 826576148 466372358 -394683416 -237321329 316657799 125691830 -823408458 -953621547 52507902 -406720312 -443048514 56071858 -149411693 337605309 527743758 858087546 -145463020 500203550 340202570 -565900261 -253949339 118907602 -393427802 876233834 853505357 -474629174 -280051383 3896232 301870114 297355370 397446530 238245666 -109008500 -964110316 161880825 742003789 66938817 854461404 -258876512 366580727 -29627471 113943028 120196643 861664574 -470808033 -683839552 102695307 -232615538 669936380 -680505768 80642485 -553275046 -71665470 947948325 139554670 -488416180 105085662 -726437964 476378371 864317829 103993013 -103771638 212313460 -470701012 447083251 381710351 -698280276 341434210 -554383525 -143482385 608718212 -915404209 -333281255 -19489689 350834380 877298731 -583390251 -178615491 -431828596 -744876776 11536374 -150242082 204417317 -947927924 146800993 924933355 -173206707 2965212 419426599 186651441 815351212 691993284 439655841 -837316212 680496236 -923146585 636756372 372452569 -916713223 -816696985 -415517379 854415302 -730756122 205592008 -453425208 697913742 -791652687 -703059082 699023007 54475986 369181015 -470826644 -545930652 -255704298 45405639 83276208 -121007922 -397668007 718383392 531108148 -968932998 699841612 59664104 258161031 -212276539 -523518032 -248392118 -175761022 -910290417 27310817 -576458136 767689414 540902367 750906964 311951798 -467393991 514896634 -65681769 775288313 -291441158 339315964 757187489 88936448 452938390 -75485389 -952343748 389936056 251774574 -455908256 586593189 -725074752 204980192 -394348000 -39616097 -555252552 -729327622 777765588 212842212 -574415410 555283076 434648058 -468270562 633306914 -21057526 355911251 815951357 855881528 -751485678 562363740 -65585574 -627909593 -630007337 -234367235 477166302 511511846 577049837 -715347884 -842768679 812883227 498527635 541789144 -36271141 452320460 -54050153 423756201 399499486 -958879389 261889228 -967706859 -458793901 -299288159 822738453 140142364 -594615367 534685905 -604065912 -577216249 -198439711 -231709304 -995192704 103101556 -993233993 -67523259 586592360 -215214376 785913838 967322213 200789763 678019556 283181202 -725050301 92489482 -485793463 -119134096 -500767620 613898135 -862827180 227876530 392310738 301396763 434090722 335265836 -164380358 450951733 -157847851 -979508460 995515714 995429464 47055626 985578352 562487124 -348493049 460457138 -112877448 -976300937 266332042 -882835202 319339256 339329070 543041895 -509187913 955121003 -125709089 -521583260 344389523 -886110841 -684894740 840800833 524117561 524950763 568292614 -371824590 -152664251 -315603262 -673534991 451087400 523618513 -659475411 78522211 -405617979 765577015 -928780502 530361980 -211536188 -143361991 126132280 248212434 336847555 -611386790 -734312576 -813826570 968147273 -171092680 -361509467 -271223891 -328100722 -307082527 651056041 -23789957 409474966 -965879361 -347064710 -340655293 634613598 -899089630 -134125930 -505165515 698679329 -898097680 -151440235 481299004 307051704 -139799370 206883332 -990892105 102304665 816282027 460378185 -21103786 916579849 -901071017 235489551 42983646 775184680 306181052 402454266 -457363917 930293215 784586700 -122394239 -149900635 -304837476 901793739 959752340 392555189 953959065 -229244976 -881618095 259431172 189132718 352320875 856626206 128394975 952018201 355126886 147792905 -979955139 118135795 534532740 601361322 905029084 778238999 -253087958 745444443 -209684969 878973725 620393150 -743454923 408032190 233621185 -341748095 332570473 107574410 331002625 -854403042 155896599 763847265 -184793031 -57872284 -368076314 811121651 472490095 525373609 88812536 20365381 876173303 529785893 547899225 26315398 -678707616 -760838450 971110958 -495539776 547891681 41329491 -288605696 445404004 280189438 28179919 -245789667 -374209014 -719424712 -624336917 369477428 -673403685 -996469069 528311878 491299385 526947622 100301898 -132814769 299193632 681853687 138424710 910403417 -750542328 -388777985 -994309797 -209881506 -274425505 653871914 607197392 216476734 -535927827 757513732 808993541 -611684797 478931781 107099500 693765723 -256475698 356740711 304249185 160872601 953966932 -345272499 -417578024 -469439219 748367790 -851600931 574408097 338359818 90684835 -305962325 227924716 -522526874 -756342986 -23845105 48067690 -370748474 615680847 -833464927 630332803 -86205994 560314752 -136716842 72339735 554326898 -567496147 -21096159 252294892 857788230 153653947 982687645 -474892732 424964838 319487083 653541696 172724614 -555202255 625658905 -801538358 -517810090 586713165 134129127 -455894138 452528173 -823118573 662677654 372279619 389298314 -304786332 -67876299 809025704 -155644439 -627678352 -679320745 -925261091 -282238589 556709204 726385652 869507672 -301165929 779545830 -824123194 693130228 943663589 -406767844 85756728 500115164 -603097009 262944029 -441673124 767133646 -665557269 -297218127 273913066 -856346418 -958868762 930441078 -451121887 -132173177 70303724 -358624241 -326051911 -672047446 -164804609 -913868218 143448882 617804876 511249804 -152047674 -859984964 -343309055 -563270558 -150187669 857394117 352830692 177387869 -239308751 -714430060 -891449177 946879062 349532970 -73069258 769996673 -9421804 -805501449 -278362697 828921843 789179250 -12841262 -76586478 702875407 -29673244 508516428 234353014 740457203 -578181423 -986251348 -755039418 172289905 -590310037 774379828 142723650 845676217 -312482166 729182740 -831798456 -485947911 -175795883 -3284542 763316431 111906691 516845014 637594199 -640174029 -955906207 234887157 403658732 -737524227 -56930231 -710988838 -347149422 -918374428 -789228849 642343798 -405719088 -820558935 -241471053 -449644428 -927611086 239602742 379422432 -203175364 967110182 504182359 78527479 930191485 562918801 -886545555 872768477 -230962424 53163851 -455233547 -167689740 -561835927 637416985 -852275206 -483336851 520266750 925859731 -519395054 -45791495 -478198085 841415046 599089107 198242200 -583622293 -377032726 917219646 -118385055 994880854 853435084 8793888 232952406 456562994 210445035 540096292 -814971666 -293307404 70154477 -763637041 469503647 -295610257 -679026347 423044165 -638449359 287995237 -92395150 280835751 -348149121 -988575864 249134350 610852104 -124841084 787457760 -129316967 -320690254 -706913390 548123370 915112212 152171755 -840820369 125875016 864768185 859866744 945734583 662798431 988673687 773765747 907415993 -520851282 -821404412 -658353792 168200955 186985534 38450880 -290079046 549401993 -261248777 558231924 -206948669 625190446 185979283 233636096 125152480 -754769105 -582358266 -49735764 703890631 -543572394 -987706007 663657492 39277298 922000990 755323614 -469988154 418249695 -75527344 -155445313 14060820 -61507587 762866756 -221902739 849832136 64422056 -846272919 -415576268 -242853347 -508184302 261921693 992185145 615828749 266084209 -587992649 105779124 -744328814 175746384 395131408 -531851100 774320710 929487584 -571715301 990442139 617798131 -191332030 792006820 -488081907 525807272 571420720 -882279769 -560839761 762629567 604098642 151104367 -477401270 -427196465 719207834 -333915057 -740278767 614686611 -196047031 641223018 -588768005 543353272 630067918 -347031416 219237791 -530959216 -598367098 -68279237 961561236 -523970873 746463450 682006956 -407335131 -438182089 16133528 -932869413 -910124190 136761659 336684669 868730765 -946240720 -951470925 27259608 910402873 580747728 -120660412 905291628 -195755552 -363383585 625333885 791084852 -675989941 -784945147 620101684 -394090006 -548600987 841276922 285958900 -896789020 -895707085 -523402105 -53495779 346849889 305133546 891304022 879245698 207035990 489844523 274643039 322247729 -869728440 425209189 21247870 502633059 241268407 54540022 -776646322 -715234075 -865566061 -574604868 -747622053 -501667424 264738617 683108839 508384743 -620794141 158811324 -557652112 110291051 -475261064 -217447065 700765734 484988792 -674046290 504132271 -518901541 156198320 706804480 176183027 -594850720 -162123248 -706979605 626076445 -193091608 980723306 -597333144 851342522 708602602 645791530 921829774 524774646 -733719862 468605936 -90904060 894536449 -906384541 31621027 988582339 -630681162 -366424827 12483498 -977896965 -462158933 -360548663 99781559 -791333779 641891375 -186768296 391328888 -174625417 -381531951 68105466 223740072 -348782215 73747148 -123132453 700604597 860312739 -229064254 647914831 -623291384 -547746468 864503257 -748664594 -614763848 -209845474 -186415645 -31211877 913698980 132361507 -367149017 -375151023 -854017896 -168880579 387588913 -258239329 -317625848 53913151 -817522205 -889260568 673538553 691403065 -174797721 471774435 608662321 -12493525 -686510785 -57129189 -713754873 -504916033 742609322 -82816368 479078741 396108715 -626459523 -946136076 224659540 -655507552 603036164 541000 -380194584 -962955643 498106799 396991082 732859876 487990691 -195105815 737790628 -528211138 -720997447 -546037279 198114080 -119844823 338685998 181162459 164008537 178341722 -636873416 653126496 -460189189 -919063958 -716816622 -359184484 275378547 -251153788 254095738 -894281071 -952156109 -297503581 -793070153 857066540 -482014891 958340678 214627064 288539265 74522430 -812722550 417307300 -651934192 -528988490 -863182520 389973852 699174483 635104564 -713482497 172269834 543491565 558666956 251288031 -656768548 -283633317 500713631 195306098 -328032829 -365065678 851629164 554529423 466528011 314716425 -977247715 257142473 -618015581 639769810 654955286 -199183831 994444418 842951809 134833040 941294700 617544123 260651751 872326521 757867937 839093062 -436433211 187150861 -367654140 -11772900 483070845 -506161091 -598251916 -874119925 -639758757 -424648403 366888850 -416740168 -619480264 -791767770 -458634923 408326395 157946227 -45141710 -133775331 361391463 714039336 -670621315 374483105 399300905 -119363606 239182917 -976253673 909491981 -788230173 487279732 39653004 644088578 -864543730 -181683040 -906321656 -769623039 98037542 -142351382 3950431 -679235176 -116611067 456780395 602653058 -229828026 158669702 246701585 352815578 -999937206 475725363 -858238025 -824522415 846345832 -156184061 -158910401 -553782524 -389392715 -788908200 564479706 585927523 72066189 742122814 476983279 -945764203 -736545663 -779505577 997240969 122163272 299721947 -314286634 588537613 342343560 527393606 885790956 -820779268 739397275 850144670 440397699 -689595806 -477165089 -854654168 821058603 -675040897 -782347738 -363515356 93914421 -421835319 -782884649 -429057907 -71095029 -442076302 783355984 -843587017 -781005410 -578378990 488728693 -816000493 711155561 -170465079 768557470 727345182 13122233 495047723 987807375 346546328 39542124 110282500 74542969 475693508 -385101713 869557382 -442451171 -554045173 411958095 -531662961 -205174377 -271024444 -208003099 -250389559 -568086295 -392316377 -628277868 546586578 54308298 -620748073 992954280 196874343 529154608 209818575 -313330666 -932911556 -634872160 -30979485 721070948 -275036295 -221096935 -660872518 -108237389 417424580 -407422447 -240818588 -678294721 -103423431 -440158343 504705851 -457969120 -853782015 -569827446 767281463 -170307945 -814298630 -382138183 -185428654 123250071 -959251797 695873250 69117746 -840982840 282218164 -626750060 860267105 233031906 -587157860 140984432 44073508 -937423874 -672016065 -626400440 907448579 959575457 -960053471 -556181541 997591428 506526867 -364155572 607988754 -375087096 -6380289 8148617 -737956324 861660326 -256694873 887027162 499587321 415031648 -715466018 -637531887 63090514 168661422 -790526955 -338844123 154596736 -966786889 566699838 117213044 -172468316 -244763898 -561072610 572731217 -202965059 370594608 -665124311 142112994 878707307 -886015979 768193658 664939766 -280829827 -664626654 -277898026 809180007 259405206 658517963 799085998 791625039 -80723954 975226401 235040090 -454565769 -56385108 920527640 715925513 -951574959 698308878 618623614 -401760515 -669689586 558607232 681161728 -609957346 -224062867 417203075 895293942 783317000 -277081553 390056983 82501382 -325534629 583606628 806323585 808403083 976709523 -382967216 692494648 -336033433 -973552034 -57553161 -236806158 124260902 316783792 -513215778 916078694 -214886115 -148246544 -309490877 307547866 -998427865 -855093857 381374309 -722675461 896766034 201372901 590452453 737944373 -837033309 -381530216 516760923 494992151 -519516723 625878154 607730107 -339519611 -739852172 -117350587 566928391 268214151 -37489461 -607753102 287518764 -598214208 -503819702 719125375 382937771 -179718286 -595621668 591385884 598303429 -513139506 59852097 -226881909 -525504530 -288018497 934441156 283844356 -911625595 -610290213 -579319134 189393128 146498048 18869541 468044951 -787129257 442009590 -120773154 -211008913 -432020642 -659463070 29552303 -315182901 -586600177 951936596 -66498491 248061638 -947212230 754410219 -534784686 -545603782 411317767 541045942 290443870 519218769 -640735301 301632916 594578247 -433512650 -156828120 -555648287 -871267317 4690426 -387699252 896027462 586805438 -736790804 893538499 -493993634 289934435 -384349570 516311967 -117678238 -593047169 -21065142 -194742522 361519561 -815190514 -688636095 653358465 -510022651 260982447 -723445248 -333223364 108433031 121479858 890903164 785155007 -48001851 775346522 -887061478 113341121 -893652185 -847509402 -754150223 -459492287 -638333284 540345433 131088837 -316442786 255663935 -47243389 934140010 -800171865 28738654 525818760 -638595250 -55736863 -719249001 886747297 446464806 728485172 -284889102 376981895 -51470429 -673311659 664234848 205968869 -367869487 502461726 964480918 -554777753 264549380 -637109218 -395363077 366061840 33011825 266008936 49250885 -732756997 951714753 425008906 -68590259 -346448606 -945817133 -873544161 99061376 383128415 -24581451 370377678 -246223217 -429649438 310250368 945557505 583496589 477796164 -62251554 126703251 198248447 -68414317 -671600059 -132749015 -477388447 -640570304 391606298 -492121948 63502015 491119538 -152665110 602962102 -424611430 -715288850 529165109 578638773 992085413 -845936606 -265426127 -442130606 760217435 306933807 -657129537 614085345 -599932622 -945358821 658238353 -855253635 -805528929 939807673 117544368 874854990 -810389642 860738040 577057194 -304831278 814193266 939191703 -460518504 -621849138 -633716872 -624057702 -928340854 -58691839 973736097 -913006552 -863443767 -926198925 -308991319 -826880444 384446843 -253870305 -780432487 -108452129 -433692844 834684656 739413414 4547944 -501599150 -494561283 279094446 115243639 1187127 63342828 -762705194 547376430 4898698 932440717 -840318766 46295227 -31031816 -952518872 248175406 -400571487 -289360911 118470787 437339667 -664491684 995645304 510187378 567053834 -982883028 -492752332 61637939 369074343 154191170 -545595695 -144938899 995939288 -635992992 -712710837 857164593 -12250606 -262377741 -564577464 -735817535 -170236590 762333693 603922750 -51288230 169716457 -821682617 -427683504 997864607 750004467 826886653 -431164118 5991395 -286522608 721490557 -65521579 167328619 -246108153 419961802 706692344 -985360723 -286297327 -780045054 -117486439 -745349895 169886764 -955707748 -391422151 354372802 972746230 -569769468 -400062149 -394613266 76203472 -768135202 93641099 -512492943 -102372221 -399921111 196581008 -300202355 -313901500 -178282313 -91110910 -829439969 -872566421 522272833 -190767260 -495224330 120032530 -943901588 -756157934 -247366563 19664704 342374939 959737963 -828920311 -822520923 754883271 828934656 611213607 523149997 436680760 -436311333 -331729636 -887171483 -333167054 303109310 -413071505 -101957768 -278778465 -254826882 255417318 -244897267 -941100534 220646813 -74359575 951754862 203689075 584909922 -352893768 770537400 -915318935 143211436 615184755 -283036716 -402151752 -878684194 -660297365 881176519 -769845233 813942929 450279716 -684738966 -17592419 562469542 583300951 347917177 -568062357 764022188 442876169 -658101267 -487452402 -463055824 -875981299 -577507381 -642322654 -182869899 -458170042 94363208 -171237169 -770654606 -895096597 718605724 943719279 73522607 -551812227 285122918 -520714215 259885500 170925780 -503143363 927255569 943758760 -280264481 -762542874 691736897 -485588092 187508839 -822576522 409828174 -677670362 205419903 -819256075 -135852575 -517111765 -264059695 164048733 456167965 511992921 -901364075 -885408136 855641835 -277626625 -685712864 -225416897 -801930947 451371711 -776526476 -415448380 650483629 939070921 -350040388 -176044700 26711084 990285327 -35258537 586492286 279258393 -258551965 585186546 829524383 488824729 -341821937 -203896739 -83537783 344159892 777491715 700449565 164748388 -670304879 607424956 226388466 280944635 577888330 341522132 287667421 -212902921 -876496428 797467634 878193952 -691665192 -122360123 111995741 -242551009 -698755496 -114950834 -493256391 -189497249 891177537 -647333014 -778466843 902099658 -449119117 576421855 434983662 155518397 -772660016 815626290 -774885567 -660474753 -933114440 -263974857 168100495 -968995723 285220415 875560959 633379363 -157628161 930475405 -359563753 735725978 731720464 -358835015 723674223 -743389956 986814831 -478691078 843232168 724217053 555092083 -633567191 161906484 -695599435 487414834 -675202485 306981472 -541752254 -566888457 364945916 428099568 360797141 -96941618 865032491 176873737 -336410697 -899320666 -889443631 876353523 -464284044 829181671 975386317 760997738 -984017835 -615290798 -468810342 944640693 596972942 -634296585 -473141950 822533738 825991802 -192186878 224839624 998674252 -800578814 545268656 -992275339 -223007493 -448197682 997382725 244369180 663257516 625563109 564725522 168699371 755213291 627371795 685343160 57921182 476029605 -508695904 610723627 -954250150 706167539 236357912 58433115 468033774 286259371 -389120447 -938616645 23192366 -480094895 -317620706 57405106 555021117 667274387 -494167853 521095716 194648921 712094150 634496122 -723201943 763977967 -428695359 -334164968 28910197 808108281 44327537 -170801360 -976729826 -307332496 -70717369 -618440007 880890186 -463717682 -569499 140076491 -40280250 -83773154 -963006172 872356631 -329042211 984298439 155999842 988127030 451619507 541940431 741968940 316089717 -6127342 -221938003 -410629909 735379295 -282888798 542241753 -781642591 -417223731 -685234603 916454538 -146101564 847070306 -444168228 -888054982 462314263 826547908 692082303 818331404 -874178277 763964663 -309301030 499840372 -254757641 142120927 626581602 -70200969 913220127 -6224015 -631585418 -1021823 -748836475 -754547095 -243270881 -529997070 -159725165 418475284 720901046 -380776717 -11701282 287922976 263813556 623334751 467333218 471719494 -311293383 -808598331 603837679 313351807 951932750 737776673 494480281 891738421 -733950656 -538123891 306773410 649415201 676970606 -669374692 148908132 27459537 796801831 626357499 -26536476 -516186865 492959112 -703767778 -197711542 879895560 790019353 809840732 -552385120 105540524 -243638647 479517216 929749619 285150154 -670074755 -788760704 -686746171 691247716 -167231902 -594100704 -564181273 -851276127 23805141 -871803456 620056008 578139640 911400084 -825563600 727728436 -352618678 966634481 -446218622 672076944 -401083310 -44584104 -369717812 -750511089 947537219 -127220081 970915820 716088488 -968928415 242734697 -523975957 593346531 -84702785 -211094747 -996558732 -741692514 -478143686 -971197344 32777125 -689466666 -580548134 -188246806 -954585884 459921439 -486326045 24328437 131471903 -214015793 -110243472 -356640982 -546155611 293237107 -560572500 896150912 -63290825 -28868484 89335697 687882144 -379274802 -471069159 988687138 -782633072 -931566512 -927834551 458934243 -199746682 521287894 14446021 654722684 929423711 336482045 -339933482 432782345 907577019 287819595 -765471665 -543529516 370898372 -276958670 826923641 -235188398 -758315761 285827934 -564314936 -151105901 549129620 392007567 -451041922 -691751054 859407917 -996295330 887271177 -327193320 292847368 580017121 -533866451 500705193 -354663525 940637803 610283255 -28135530 174737832 -834193767 -251118795 587260893 -421303818 631608286 -674489635 -142389808 270046227 184690169 331623216 -596730571 145527237 665399542 -871328965 -166901958 425681800 -689428413 762915714 378616961 -547215914 -285502029 727242996 -881487578 -506402985 834806600 112297592 -984816464 290680651 -103692581 639292624 -692645452 560620016 -678905140 -766664625 -612510280 564260336 503449995 -382800711 -310079391 348378841 344976817 -871888352 25423919 -542957708 769025148 -685327388 340727168 982418116 118579138 -317729192 -392750644 138076066 -668945382 833503416 -589393164 -621190529 508166303 -3195616 690460506 265692084 908532692 -464616373 339046046 92006889 -562646269 -527759105 -746616149 276434865 774891330 -96717885 -637762287 -809861755 784891878 458620197 962294536 -946658037 -809528342 403324094 892116200 -667668977 -848421680 999132176 691232163 -557583534 303354337 -716593209 167276806 498040289 40840482 -966065960 -989206329 -959030114 -617136672 583825153 69857165 214785207 377138358 -337919590 -183441892 487502586 432986901 124720638 798678652 -414697878 -588794478 325918884 825251943 288575088 516747197 154389298 665090866 -405280105 -871304725 -19504487 -192524839 69270967 -129546912 -625749556 -480396758 110483361 -959004669 -13414400 -750835943 -660040785 77528840 725396714 -571037550 326407685 -948780924 -645526743 -751535156 -478506700 791520735 759468050 -70813806 -897463737 633895709 244876774 -504301249 458519991 330323871 193862775 562946431 -436790810 87729763 577635308 -176322811 312520742 -863933253 -646162914 365925850 -856711218 -285788124 168370575 -322503082 349905841 900788667 213168492 8371898 -958456643 -589037644 -591755723 -952969461 -888203767 363092129 158918771 421154550 -914863537 -802944721 943073689 571848437 586127055 -589163775 353466132 -413840783 -77604678 -456851494 -170762600 -933607475 230315031 109719466 117435029 -203050902 -534527903 -169118592 395292141 41376376 -828189503 209861163 66710529 35155153 -687286152 350810633 -293230211 -824865149 -768504601 -970164415 889543635 713077332 946339161 -795663716 -715778062 880744095 369526158 745003568 -448891502 -953929349 996000695 324375888 316793537 -915033272 538753904 443230824 -161539951 494719210 328027048 -925386765 -364521119 947165430 -814552111 -18023729 -849620630 -505670374 -489385189 -902561451 346170852 -206956285 -70762542 -511008401 -552845410 -374654035 172860954 125976481 -864097978 660953959 -765687923 -545709185 -598700664 -694800141 469318434 -324630277 -235161817 32181693 68099067 365324758 -433358657 -617529285 -392580762 620209296 509169248 -661128712 528233335 500594514 866498098 -299189073 227638109 -712867166 953619682 -177743905 -140707902 -953889719 -523304499 630246232 -521123321 -773111575 152831228 486248277 136445040 -169685750 -798479098 522528884 -885930977 302678051 -784453505 519572329 465831555 192680525 -922096547 -147669448 660319624 -920534516 207293502 106217387 -380222371 -120569296 -871808452 652704389 -40972477 -738211836 519166469 -347579899 232889231 833922642 -519587432 955278099 -715553706 439631234 -365695810 233678079 499840213 957881256 388469099 -720041864 -50070276 876055655 -17567955 995053260 478317308 945091584 951522617 13148876 741505283 958841984 766182735 427936335 966076777 -455772410 112200056 198915696 -995841398 805497950 -835931715 -582414429 444978748 318644302 373609473 904250112 8355933 508303701 145283119 -110490580 785126749 110567962 -604219103 -540049356 620610790 800056806 -388234514 764854175 970807120 102794878 -565217851 -555054282 -38004508 -921873496 -409086657 -645700358 -944454169 882486681 -839141147 -621114989 464600737 -147281154 921576570 -279842214 593576234 -102741975 747211745 63123080 -748433249 6127372 913912760 -76404892 439827331 364183737 -594363211 -31587356 775173021 203785829 -421140641 -748834673 -41186542 -786076889 783634974 527820021 -304671610 891423002 190107754 874674362 395823621 714255612 383668168 671726422 935952581 -447431998 49885496 168162968 -499741743 -476961895 -578707576 932226893 -582167086 624930830 -475959689 -931990022 941039131 -555650720 -972985776 457392927 773266509 -944232362 34682547 -421803275 721311586 71611625 657948343 -735663068 697193141 675904822 -825501410 190861400 868856737 765093524 -297203007 -734169942 -76996548 -13350613 242106298 299681154 -239519026 533906436 -191766604 216060642 -319919340 -239713932 419131677 -245415626 -670969462 989901167 128194322 87975999 -711124827 347296079 526571004 -367995616 463200677 -534322709 357998259 -163269012 -14182601 -890956627 -519659573 -964833018 -895605906 -416970948 -122657565 266255514 24313347 -21933725 -532604482 643110014 -19518453 -243222424 -637239640 -412776206 -920888062 518747843 629268780 -3422401 -509668966 241918032 -602120907 -469959439 524267272 202170796 -191423444 -764103673 669013317 -524799422 992464409 922652956 201979383 -482377326 135005256 -884274456 940093967 826290910 -232416953 -583056985 -31638934 -525569980 -369419248 194836468 919577455 321415622 44055227 857438804 -182203536 334953548 -108301732 -293740651 216972743 -402766553 518548127 -61727800 -195630221 -964982637 -886250859 -604999286 -666326737 701878668 14900142 -873517994 -848521239 533102191 534195323 638627908 135090607 411562723 -847783658 -814044494 -989904248 -735942147 -13246020 -301498375 222826450 625723516 -472499764 -415010140 514062428 -67411749 -174206759 -877055656 -104040174 -201463846 -365068235 610288282 207183623 906584153 -198565723 702029873 -213781530 135012487 235986747 -816925532 -762437644 -891081563 282907599 -478376375 434277481 257925204 233733800 -437066069 128933147 -500704392 -213842005 658271085 -988399300 38222534 -677620015 571583807 -95002028 989282226 -854739492 -968566712 -727851669 -307009138 841813115 -710725034 -578065284 -482039183 266566048 -865046063 830234415 670513340 897903433 -653350436 910244730 400234177 -895907329 -90800941 25908979 -712731512 144335088 939729623 567328274 -645568166 -121578371 971285231 580709773 -81005143 955363594 615317422 530136271 181660824 336744586 -806393832 588991597 -457638614 499614135 892935515 -257917507 998829264 -993313720 -969367336 -322368422 -59293467 594780906 -272056009 -388917857 -859386496 -161672515 676030297 -426981410 -361880926 595408367 -509956961 364641611 -114820343 -5621153 739677089 823714056 702174891 -745877923 697118911 -681046376 -730261969 712801849 -66486478 -159782074 -801734961 -73593312 473357608 -500037856 218753286 -548197025 -751673486 -811921429 173455285 -723981290 -276476646 447630243 31516772 900339667 -502673447 -969256838 -725471593 -41307570 -203256532 -736105517 282755808 -727371225 -501540667 487911631 -587098069 -686295346 -487817879 86998836 -745964466 931615484 215470137 -881828871 -285450503 -205735882 -666546553 -380404172 -404397375 186460850 -872586160 -908141057 205735198 -259846994 635114405 916179328 12627930 822506080 517693439 490228357 -70294174 158189956 -299347471 498059293 -913664966 438658519 -285530754 296627124 -363623278 466431865 939928946 -118643031 32322100 506743172 -259292853 620568547 591365018 -835650879 823553710 248822496 530095725 -169904040 319735662 824394271 -484685881 605148474 -144892588 342888534 575775533 602763695 517139284 -460873549 947893126 817647301 -595363211 793699859 204314468 -479804344 647548057 -859388522 -926390537 -747393699 -542197716 -324176227 -598990387 -520803337 218243447 266840822 286898026 188385926 34525399 32104823 276245626 -507814590 625905047 463424488 -98149271 -541114405 -75603999 276877110 -51861288 418250607 -69029602 426043028 724685933 775729656 -463687446 -285589857 57467482 -410992047 61748292 -209531230 -430355960 -878650603 526197071 414388568 186465384 -833704749 301063153 742079778 -424828434 -192779238 319178807 792453389 -615220300 -227004198 -124050722 -198904843 785198741 -184127036 -493766156 633056947 -316364338 417624157 319835406 -695625564 110857065 -335360105 157976708 840482860 594355933 -364001691 919370013 264401801 912752569 710056620 -564623445 -72610310 -398238794 801088304 -167887404 -527577954 -267632253 776187321 -620966416 426135983 269961125 -795283806 -825695923 -289196452 -372969778 -112252273 -76715776 183086426 770395582 -731646630 -435149708 907171351 118874930 -180634479 744175155 635918176 27644420 -790083746 -660148586 -484286374 -178153251 732127395 44828541 412125048 465833388 564927859 -9774058 -561069010 -599463495 683538350 511853852 -34673244 -700610859 276042893 -270808427 -51233128 479433743 327628386 -885737803 565095529 655246645 691115500 -96915463 -315874963 -279450095 80469833 -961952520 -206792882 893757971 -387986912 -530743382 504574398 -807049668 405268816 -618645848 516580202 -124022951 150642497 322591103 923429174 -785317840 -17520621 199926781 753344805 -611459738 274477742 706824734 -26391235 -460227952 -876320192 -358431151 -576937531 -457109430 300990560 -636487999 273939544 -584440813 286107532 -761802071 878398902 268859022 483664078 -249359330 -765211387 1686668 -626769624 830119658 -123383364 524195447 907810369 -503702142 294971124 702638961 908739082 466602928 427801484 -255048308 780340368 -46173555 535144324 432789354 -809775362 964425522 -885834543 708428112 773884269 -220608807 -975743419 -116445387 -233810046 -275377908 278463805 295651336 862003279 786479431 875705411 527311177 -966278591 -612588619 941316971 532184188 -466452037 399281389 -429453467 -248780488 -7056352 -529839324 69295678 -371659932 -468553632 110168366 -807875075 -165234127 -648998927 752528201 -983823895 454843643 -20780135 -539719588 497398499 -723476704 -827330016 -436677991 -590127201 649222945 -203137804 -484565989 -737128169 371712245 -99290099 709325543 426786202 -436459767 -206142064 262437393 401279695 804991219 -324176059 -746453466 -842987001 -572110224 -716910027 -455823269 860638637 39662657 183119460 149464364 -488586601 -108833805 524551302 -521230537 -514398947 -791849881 665028735 805191700 250464557 533515019 -215786427 151528893 -162960716 67995558 727230637 -234349535 -345959322 -176896274 -438713700 -353109213 -441303442 440821012 -753775529 -110842564 -679426445 -991214138 74046443 -456511150 -343275074 16351003 -991155790 23577469 31762014 320269506 -797553462 -774065877 53526134 825394824 162958956 135626630 -755709160 425353110 -261303397 934745963 -690280538 -115493016 666590993 939622286 963460237 429046238 -228696056 -73082521 -241374474 947056576 641883389 -91270662 883963374 -489145042 394617390 305363424 -27975516 -464282459 728619544 -657088911 208894271 61802518 -730972181 640253641 569055515 904988861 482428507 205877983 71279030 384032026 761265814 -195083787 466471213 -217471103 -784683535 -427771747 -569485052 934539605 -314972261 899161425 26185370 -718582119 -974061993 -535841 -37128061 -904637387 -604062060 104224976 -298524782 101432061 -991465218 979828534 -901318177 -136697120 419605970 884028559 691240582 -947555709 992244965 293145422 74407674 63108016 -706719547 -831384415 647699960 -98987755 742241065 -795394031 855295118 -797688869 955493654 -586746014 330404669 -185442975 39020571 -833051570 270832696 862968961 643720066 752612193 867089986 961066637 -65416456 -867532612 223811148 -475809638 328892466 -340695271 -655643797 608702015 323641645 207173398 -7355742 254585535 965455286 -567217548 77145080 152108097 25145148 -668548202 -748185700 -255165120 -657462263 -524482762 -549484118 -806703366 -720178692 252731886 694635711 -392405550 -959938264 -179333702 -986417037 538937648 -117417170 608546448 -785712700 562782094 445723406 -861275533 837603247 -325650284 483101852 -455577406 725224039 -395545520 763394306 708974339 -845437694 756858384 -745574944 671113531 282650238 -819858089 -194667973 390033755 -447624171 562621659 -118419582 -685727006 -26503088 752559485 -261993566 94470281 356514491 979211381 -487256373 -898291670 -724921000 -420787748 885219629 -371535322 -80473313 -91534230 -91456964 789401948 851417130 -341352292 465179565 28848798 302418321 823866748 598190680 360377714 -305036790 941637506 -607636532 141438101 -488214909 463610143 963806388 368837726 293774636 -218717733 540517478 278415085 261521562 -113416523 524363610 197957663 -948218895 -999483305 748785563 978291273 222313616 634582047 -547076359 291607816 467422965 589199950 -889547086 -164503401 -181550224 70972972 -401218816 345966867 -848119812 -283292452 571819015 614033691 -789054087 -781374814 400694649 188715668 637003809 205697882 -653988769 -34250349 406630159 780141792 463718063 228028539 -485808556 454372719 623118408 811942710 -698643318 -79030893 -310728401 -945511376 621123981 7776628 -504078084 11940008 -584735726 -273604265 -360464191 447259754 -845067384 -833553548 208240927 -356103473 -582589084 337522420 -517488575 453902599 -912178554 -879914922 689104141 -653864979 -351944701 858724621 -360709555 -840938468 355514709 505571010 206870119 -553581020 658348284 879545770 -19470391 390184064 -921311669 -199095777 -557359862 140971918 944374223 -970516244 271356315 874900207 -719348599 -257040220 -211311742 728725990 403502033 -280308763 -293455130 -558947555 640058882 628687385 393160740 -539249634 -961514789 271595876 507674684 -163739327 -127771365 -183025731 -427243185 440244779 493590632 155279339 283832078 -929528199 232240814 -236717342 199879176 800911798 68522037 829699065 -509989522 550693704 -969761990 284991368 -724370289 -557594287 792922799 -311234519 -994543532 836238344 -878154744 -468836802 -649911779 -249284365 198862367 882797757 -174229234 214281969 -819133899 829881943 771759933 -136064583 -537596762 100110497 76153818 -973757593 466130821 519150972 -540696299 -47398115 301188404 -871562476 -573123795 -900306361 -517975745 454658090 168614501 -167613833 7010365 -786636159 834437080 -365913630 300353745 471776041 -640543235 -777877664 -820975622 -533664646 661871934 345543251 169017936 181918200 -974309190 -466869817 55939871 282823764 736383852 -33830744 -365882486 -68128041 -118805952 637694811 380632450 -593389584 -834140481 -364291361 979265078 614658327 -557993229 -646077669 598092678 -117551365 674416087 720876337 -195401187 357699193 -46614865 637637170 -124641902 -669838121 835976590 -27690785 -214241511 -211153411 -484866911 -884248588 730018148 177475786 -593526364 -706523328 -736473667 -374701552 891971620 822049504 410413699 -199422417 749109354 -246354520 -169771195 268588225 706475006 -84472038 -636475187 891507244 592406822 -401072279 -8414918 543052910 91829809 -790058271 80229763 868074066 602059828 206797660 -274440267 59374566 -894579381 433135151 21210733 665296853 231711501 109818157 -935349580 -426747311 -859462433 -384821873 -386804112 41651838 465802689 -96277136 307674737 574337860 37678555 -269561391 621947354 292570775 646508968 52610956 -22331153 -641872197 219373365 -467120815 453578046 -721745232 713689428 -167051065 -464892583 -211303852 -952440602 872524645 -418406822 62930278 59155642 -936573383 -204266792 -573645084 811159024 455631756 -702311367 99869003 223000400 -192733806 -120536347 936297993 466897955 560087068 -999508887 -707594007 -442001731 -844953986 -211098545 -616865176 -364194760 842022145 -952368133 241157195 -362419053 25237366 43657900 291226302 703034526 336010590 -573752671 248806349 183109096 262715381 -709279087 110264273 303628958 842698850 -135283121 770160685 130037520 -947328847 -15096368 33532451 -195255880 -872946177 202800608 694929106 -349346392 920960602 33561852 -601984810 576862305 501428484 -338836300 38353135 165862212 36670951 -982195858 499651715 -890407413 612048842 484290884 150164474 -514593241 -306487516 123414385 -564611558 239455612 -874028844 -54328351 -303677994 -405073705 -489623719 -776059072 -997795593 839461471 -463136343 -159236221 853235511 -534550152 302329311 -581034647 -238273028 561389319 233471357 527864738 -294211178 -591438177 -468244086 401166629 308902258 -854964829 755625535 -177271920 544305842 -219533077 -273667562 313108212 -175256696 -57633540 451558938 645981701 -899058960 395978421 -369139353 793626958 450465588 198642461 923358292 -125891997 -403169568 -167230049 -782909260 982097570 -359629638 -623170917 97371612 -326461065 841282915 -763453726 -605816611 191569638 -605505613 -431540512 -797023472 135785507 -861270683 957378104 -568928541 275170653 799510864 -342210033 520489341 -503590132 -600577802 273741096 -224343855 240332343 -47308485 499867805 384682102 -220964181 -479914380 93749970 430752846 -586490953 474108326 192052610 656185557 10529034 -922057567 226432527 -227771457 -290844524 870971140 960212159 636243345 -327935698 -224422671 -458069736 843365553 -410647719 -669197772 -745917953 -268606239 909700790 -355976951 473224748 -818471729 -390945477 227099364 -974727277 -347309413 -502581679 -466884085 484261152 87368096 834962919 774682525 -63484296 172641987 -659836664 508753553 -674275523 -245334236 -346866792 -902273367 -519909457 -489527826 832311251 86638043 345629089 -888084872 -651553496 -259555012 417372583 -672980150 941475545 258007204 -262647889 471090315 -263579648 19179175 -711088619 13945506 257898569 -657859607 -76312051 430101261 -811653043 -782421484 -383167690 294544427 136779329 464521236 397877456 878732636 225023009 -932154618 930712739 -158977103 721649905 525593776 -591771725 -806583258 399563487 -195406226 564394590 -434821398 -328606049 250340511 132306501 696096788 -193208434 -901132991 -755017078 -440725301 -581671216 -94524536 -639749875 -302963976 558900399 -184264140 183986595 -509740407 -571984851 -298729935 -928378871 903544321 756926251 -833403957 -203627273 -195881581 321307313 124661048 598028639 688471316 -458328781 -349258331 770546995 847826311 -189643383 132000570 40224248 262581654 -570043798 -171079312 375602063 220956347 -826644414 660910068 830149472 534529998 -859119659 -284844978 547679219 -691000968 30523629 -40240918 82984740 375425707 761010927 839167341 -292440432 74270072 -166330428 243558425 -259510350 970572883 -729534171 787458895 -264399721 695932377 232598051 173879142 -971425264 -201952881 -167889962 160456605 -153352939 -902051008 80314003 -717335839 -756285327 -684827752 696851709 -884488911 42257883 294689569 -425205033 -110147293 -444299047 571655488 -58908271 -969598786 381393235 -515462642 -979992150 507715067 303948848 -977581297 -657353788 133762227 -286954623 -63175597 -528126253 -940641420 -615634457 662371143 -237671862 918921583 -743618081 955384800 -817462242 -786596335 -198361778 681749490 47355345 -43611986 -562031212 -753049265 12222613 391213315 251400892 -841475068 793235104 708174557 -285382313 -776193598 720408352 -183151034 96932866 617276603 51096598 917009377 891914912 -946094975 69574734 685585943 69479304 479576674 -27983982 163825179 -950799908 -367014366 556366881 361882291 -942857181 -587667078 842954532 -75828091 -934567186 -263197693 -826611577 807844128 147269211 727918227 -511117716 429651329 293794313 433412900 -196526665 259283595 -76371072 -512624286 405198882 676757165 -169638135 79180045 663070323 115985015 899878411 205330030 782831938 -682204822 541167514 -19099698 -669658186 19248796 -402595024 247129779 -299266355 642886775 12782855 986015074 541968520 82359943 507546988 821165035 765447143 947335131 614213697 745966139 340890087 -436297186 601182781 -400736864 -981012991 945132115 -342752975 -841985471 968669557 -78677843 -659641645 -835435858 54783949 -828291253 -822027409 -11787015 -135624145 334863670 -50007441 839221416 -432497867 -79204314 89164077 827841991 209140228 -933894519 930926295 -992907461 -987891312 71710921 662765462 729762592 270124634 -610168957 -264507512 -348374052 -348358767 723501103 497969059 453237355 959963594 -202728998 -121572906 616947329 -275728773 -893830316 -381032872 -969661921 -712489096 427297442 -237498112 166540306 180252147 -911373887 -279439963 -371739340 457663786 -839437446 -357982946 -235915295 277836760 -473758417 -166362486 28404101 706607427 660224348 986521981 901375622 -630168022 115565508 -375194808 666278447 615210552 -732749484 -160400883 -296696172 861038702 -239533175 -833140305 56784733 387173128 741155128 -313944375 680839523 -971000506 -643055044 54020089 715109023 -100324021 -917902174 -703161492 -987521363 -116788928 433297002 -379961448 236746502 576588580 -220970064 706486077 -986243512 827768470 -768123740 324648872 166343721 747571966 -645735153 -731717293 479837492 63176735 643585876 -972848115 -977393939 -199979396 603471226 113337839 -204727727 994392166 -94308741 -413471836 607380766 -868897439 -745504783 -953549923 458817961 -205994557 -258962922 904883220 728047085 322311696 -520697085 725011848 194248506 -969041702 928127303 -832130954 628023773 -598350980 333587458 -800307078 -895467614 -559016617 -115169132 601182250 -137122321 -57065104 676474204 -306801671 209520111 897840615 -759096691 -692284953 -472426993 979257157 -985956477 171787413 22913686 -857535054 239817341 -889756211 39533050 -952707990 -738616746 -999503659 -593805514 -49603572 852727423 814821833 345646575 -479844547 -687345795 -365887091 893319989 -235651890 128028914 948799508 432867978 625369778 -500076182 950885455 147727497 -662543718 -943989672 -316130494 -207387870 305221943 802653303 214274700 68297453 -846189360 226233022 426260455 570216701 -823817445 961112321 788440849 154887356 561118133 -819545282 501540365 19623657 -178647971 -38776372 553989614 -821820803 530733940 248065035 -242818372 -490390265 506807315 80375784 248554410 520629987 15111282 949776753 183069608 78423145 -726103187 -676851292 978507142 -83729609 -758817169 -598033489 934926659 -395473945 573905540 -150979774 -890742776 348679441 938897775 438049004 501821918 -402382969 403523126 917999308 -494369042 236488009 -511419688 -498401440 -201221670 925738079 -275826042 -884655234 609502072 -138181701 991927481 -26361804 476821228 660456470 327283985 943377254 922644362 -961206251 476747275 532097411 -966495269 -329254259 270361282 398898458 -865837652 184429392 -310995289 -337148290 23970611 -843928767 -928448806 587327835 431417702 120317642 223983302 309583725 885769308 -163869336 -455154478 -269419432 -156567470 -370783390 923758486 -256041662 -500378192 941015361 164672819 -958080001 222095045 298619277 -411844215 119382519 127036908 -678138850 349535970 346356846 910289007 -517922156 420656175 82074539 227787586 -676507659 5827471 119598502 848537141 563302421 647463171 196088660 -488050655 -828245459 -237574757 502000845 530277602 -512960909 900682277 833264145 831167905 -689531463 -141446567 -699900706 -872218803 73593303 -119921858 -304235459 -238424125 -157169920 -457714274 -665865378 -538449737 -512749481 849531067 534568662 -862617415 -46053501 -109454549 69389573 -180589918 48001708 107953988 456447041 -734312148 -518710543 -781394334 -388261513 250988792 -278159897 559902572 -740563448 -83918845 657207263 -755649062 -235445263 -141039665 -417842894 -455803267 672074039 -685668045 585677901 -342054031 872187650 -963241157 -836711852 794618205 -225556502 -507911057 -203141904 241452794 -200707118 -720093537 -837779321 193812495 -951060061 509569916 -621609147 -485840177 -828753596 962233743 -231002046 -451452173 -895341112 -991801135 586353868 -83226228 -502933481 -148146517 -497356521 428758244 -601071633 505636428 239849207 -16832474 105364741 104591734 -868753746 854125222 -547881522 893672426 -944647307 -142830430 -520273341 355408 784099644 429630444 -462954030 634426239 -532552332 539689038 -755601389 422241121 -718449245 -705536494 579683960 114111321 -163990714 -655017139 -137155267 -833388664 395192665 -159322443 -752207959 -511620870 -356029690 -543575285 -836281487 730985360 169689837 -527766116 161253073 -523447065 5307444 92698804 -355757752 475838074 235757861 621615069 -511348230 628472051 -816842464 236953836 -876315979 -694019925 -11044261 -411597944 -690004579 -262174104 854972842 228780292 611065411 731607117 -871137765 368100473 601766170 639982774 -517476846 902006640 578078211 864085536 812942244 174615637 -154359688 288393129 209195040 13869551 768169293 -630628642 227836303 -129618135 573933054 337076503 122894591 -484670800 589172866 -474927523 -745895782 761169882 986005582 -768803281 936021763 -434869127 514971951 466868548 57438463 -445305565 556545264 -212160731 367711531 946338059 -594334921 494463392 -593905434 80550999 961015853 651558758 262077048 578774895 111870985 -584881087 -616709402 -736144791 -666245766 400719318 -172415193 -220427896 784544015 -889775611 -28508761 -35328964 908446397 433046465 196140924 -376168413 941546955 -303032653 -495488227 -743340318 -905644736 -840403973 201431755 236320178 397420519 -587797059 197403641 208842059 957317773 177010278 371665991 325362832 878561094 44577781 -333895868 431048604 19012082 763245466 159702965 686914274 828637600 744629471 -605925863 613755054 259251227 -372446335 673716571 -677643612 898538363 -180717238 -51753751 538629549 -546164412 -380239451 -345462482 -739926102 -922858331 747057784 939353116 276578309 986274404 673322700 620901373 552870226 -968961563 614353083 273969515 -630618455 -718096657 -368581780 754398944 -882148153 -781569234 439000734 -322698571 -355070834 -691061040 25167830 -644389216 -563875626 39526724 246242791 -228729057 957882147 53954229 836879142 784973993 -682374934 782102090 496552160 662965522 336249956 -925768554 69376730 -659842073 196026572 -333043617 -301177601 -648547267 235201056 -659360123 833956858 492087686 4801569 880922406 52358685 592165301 455592394 -668404894 -770873934 984161102 -317160445 -1639827 401375270 72971531 320440049 -878279912 -274297720 -315989872 -623734087 498671784 664572800 198987732 -410329249 -514111332 -826170469 810402456 -345923989 -756839781 -483645223 775787458 127751696 -653752152 -158034508 -456962198 -433620721 -266247089 505817372 908346000 -669354063 492757858 -586033303 42606476 700230092 912715442 -718356944 859566956 218722696 758868519 704361766 671688666 -666677665 -563127929 -490870711 -70333467 512588738 514478545 249445116 -459825435 841377241 522417982 706626466 534776572 -629790573 507785879 917736109 299074064 496932374 -927345817 785503047 971714509 240869847 -375286822 -843351394 155311816 -640752861 -800629792 6806794 -920775908 616841747 447560759 505469286 -98618772 747120292 -453261224 -74506788 77857730 -192004500 -738949436 409997380 -293824994 -674852226 619507807 196034060 -998585658 -808341134 913796902 910283883 -545703602 80420774 -139011023 -107166858 -940162538 -951738253 630149552 549637179 -729282310 -253990225 -230269767 -199453040 365048016 -155907188 436520161 -566715666 970894599 166001474 676537519 224101153 794357334 796243068 -985117413 -135051879 -72119665 135705325 906166914 -746901966 285739136 -830254861 484951384 907580907 207158503 377609202 -809408717 66663544 -24858703 879275284 820197233 -648829771 385835043 -603627301 881405545 959160593 51315924 1341712 145366599 13322967 788440238 -208731210 -199624930 -72086334 -647173186 -151840611 -402088233 322708745 -647622353 -209368026 -298845223 -892611779 79327416 -644062376 897475355 383205374 -967633241 876260877 -396240087 341925089 -457786297 620729668 -875972609 574659108 860936285 -985873045 32118063 339790853 776303606 -667440130 722875370 -768912916 863794387 -227490152 -43582955 -556151587 623325235 535244528 -793138321 -6787797 -716395510 355272023 661606700 -764940443 306156146 -508142915 -73182096 810857166 -388037838 -254944397 -156857243 -195895983 -956222053 -902646398 -455709091 -103563313 -659759464 -762733412 -70949425 -499147150 924848491 -412450778 561140068 261879243 703227032 -685597754 -11232086 775636807 1352275 -795553782 -620593706 369575445 -206438351 -665774634 -873889666 -733920148 -713380446 155887068 -354558898 942809329 -927193357 724699916 -197584411 773845032 431395044 -444866633 -241554790 -436661787 430338835 -655691749 271148281 109116666 -229466040 362071314 614709314 249037244 450065715 -387311467 -781408912 317741452 820230879 -233140268 -207717409 903106356 5343775 -414705261 -94948131 -323576184 -367939768 224495337 -943377202 -428281643 186089674 -889418228 -663299300 -471444344 364646649 -78174688 -844084442 499762492 197040100 -774462940 68352795 -731139896 416481504 662914810 -739400963 523135390 -241119115 583527713 -950747091 -829331457 -64731155 295585409 -820265744 -742908752 -975196786 379754940 572688609 -688428047 648151399 -407477694 307909980 694374535 -414339517 49503907 -871360880 -301237785 253249906 -247858231 -712117325 -417636036 959975 565008975 -646042618 574009340 -914764915 -68043203 -598717521 688906649 369200321 790195484 673793913 -516544317 504491529 91892332 498304006 517949432 -67203694 -697143893 -735434160 -460992272 -729844260 -872265430 -667254368 241449931 -416242450 -260075206 -655517341 16971285 -120982673 -358874188 -234971550 -781890921 361835389 -373705691 -338875468 790428464 -489611396 496898096 194195869 189999202 -320980480 -847460607 -721724189 -62444031 -319300689 -102869607 441454745 201894803 -229702740 -515504995 854321404 640646073 -217083252 -509829390 -864490206 -851505864 -996862942 -871297341 -667828712 -70076081 881282186 -837698563 79653635 -707624244 -518624870 -539352312 -730180836 -153798788 291723406 14125752 -402361703 542460530 -641197242 -519892448 -6422872 -283884666 388440984 -965715847 -353750613 17019433 -95668504 860561425 -242593305 -483877097 445124906 736442833 -96002081 115163154 -511664080 -146192279 -777524789 -798717354 946236880 -656046961 -247140249 37260013 900970964 832452940 -254334122 -260775735 981665738 851731378 536102817 35609771 421183790 -168372194 -88594850 742733420 -76621903 -755538050 -62634267 -912537002 -558600224 -245533583 -349309550 120961929 -144142493 494055028 53706676 -179752675 805821283 -596009745 414518653 -57211454 93138838 -181543919 -725089615 910372003 982178825 -413904348 -520300213 -66742749 -780538134 -882778514 -975327312 -614526116 189581195 969242420 542283249 131219950 67419519 -972782860 -757874684 -939660371 -956671452 -221426645 912854443 -142729795 -766083586 678858383 -196921033 477224455 732903623 157648133 940416817 138800384 -5034635 379797637 760824012 522218722 -877792695 667588557 37060948 -28475026 -330314338 922046239 371016188 664447242 -844217528 -386775721 73285564 -976061717 539021905 675351238 -833865033 628124748 -255314300 -381210881 382189858 -421944387 -319709373 584545472 -579725920 -176194524 968588663 -687741880 993826521 686314137 471790174 753837001 -746663103 185895436 408620902 -611280685 426026885 720111713 -454082597 -836337156 684945614 -468909963 192991186 -307927302 782200924 -691796902 755354817 318287837 914322541 370231503 68416887 637533715 -945931011 -720390184 -9889139 -426786680 -545995662 -219488285 -6586974 995404778 129458018 843369477 -20556524 -671880060 133844315 -195447164 546177206 627827044 -898988517 -746352224 -915507646 345407900 631985387 -643190178 721700226 56833721 -712264702 849477622 -770529773 -730621559 -456548895 245603964 127126900 -77222211 -382983501 -554467780 -779439796 873738222 497726221 631613386 -726275219 370935254 -115703669 209395549 701295753 11562903 636563601 448140802 223822508 -803242059 -78521035 195458733 -103112924 225034058 -309428588 -523356478 461188783 -738556292 758271827 -100600512 218325352 839367367 -89354560 -502267295 -770007716 -297566825 314942139 845779950 -40940221 765705099 -981553484 573569961 675524617 647385287 -471581236 -993770893 490040541 -669670304 259043520 119319302 -736242161 -100388478 262039070 -965465707 47231141 -996370509 669361802 -30812529 -741536324 995039565 -732473445 -874299067 -729969547 -458719899 55028191 -600038578 -197336947 -303733757 510810568 -187139704 334311837 -417310828 980008695 -717416502 -757166351 784350358 429438051 698041652 598465746 148376258 -966943343 -875883161 355377162 -534803303 336411961 -521050882 177388514 -104789004 764929327 -588018371 203858744 -311461844 45830398 52919953 -499397043 -195331781 -381817443 103187352 13100959 610372737 -664499474 -993262876 476541611 -413290211 25280704 391952000 623846339 -560896445 -407312478 -401016884 480783217 694635501 -749256063 -960424806 -751799812 -777753580 -441283415 -289735300 947209786 928007966 646148851 160287625 -526113413 465589631 208580858 903575950 -60844637 -485295341 -278928816 -318727892 794334048 439067938 -547785925 384778724 -456957162 -966406003 896999520 -100533956 -258269850 636343474 -102107528 -442621147 -381435954 -571582873 -290854242 824864516 454282316 466373400 -950057746 806710108 -434347625 -480914079 -409350628 262022897 -567996504 -564842883 784943319 -638725703 282030598 -46322903 302976906 632052251 -314330362 -181710887 42373305 -879266869 785375532 -543358511 -336451514 -359678757 -634333529 65542021 -291993297 -593350893 -737807885 361183920 704514031 376369818 146680675 -918444995 -876102703 932776618 -70045869 698647493 -886223051 -967259783 -146671362 -918825782 -221786995 -169932929 -268057597 665671607 -769915396 927371335 -524715300 -76917607 -411604784 -222242126 900232335 -287448373 -124471185 870202212 -894525635 -193253156 73371165 57516047 -658124411 606704704 738262935 146632618 139231474 22091473 775865700 -238425729 -310222736 950228000 -98133958 -363937747 583882021 933625719 -954973811 -20517307 148425329 -678390482 -251920022 267347809 -567406887 -789601707 987241151 779822179 -471007365 -763268377 -779524137 -338127476 -411432592 636201165 -947277780 -488403568 -755412238 -763561590 -724228486 -759255270 -928161207 486497069 626092498 93827631 -568223159 120159447 934207362 -508389452 -926692306 62087245 68843578 -612868615 85552458 -141484957 -297449992 -433477754 20244955 -306516571 -310539446 217462865 89358138 -733352551 241137764 -626909427 -214209962 487486782 -807410270 630539171 -145832754 122245224 -783469482 -569995884 152829987 -238131418 152991518 -125859620 -135452625 -259413265 -471992542 -745278912 783455891 937136677 -163316123 724058004 426260952 -444381854 368700695 -115769472 431534031 -919538019 445980696 907385395 869056045 150755456 -303889881 649760559 -210585756 -483725950 210429513 661752086 -446648064 -212014102 -615142264 435576600 -665214308 597143405 -255719940 84717089 132434638 -332186807 824595033 740402061 -953474632 698874648 -532264765 26867653 -639713881 -397862887 121847470 -185203520 913501256 -716418124 929540188 381702476 -584628574 775992640 75565653 430163750 -877775928 85814759 977294409 92797697 919362339 468381071 -832915132 -625394309 474856872 998969107 -610482027 -967026455 -90428966 262524782 55469935 -575470958 930903378 818084530 -760565824 485741449 -780477920 749563432 711867272 -179635785 240786226 790877675 -984326583 811418622 425343881 -244165111 -824428638 -326270567 488619691 839332762 269951028 -659732576 772514397 674177198 215580287 681150908 111996714 67594839 46332748 577172902 -515762344 -379051111 -276462287 -377415104 678865703 372423781 985960474 869013790 792919923 -390332075 -719912772 -318360799 333414897 -486942157 -500750505 851118894 553088302 769686680 706282071 -442657117 -688119331 -744202602 197991729 -576777348 622417068 142563076 631965335 455466709 611249480 99127774 -139490771 586623396 562904835 626180262 -603881907 891604480 679935077 -122419025 -248912242 597382902 -451961075 793430299 -850040831 -141617047 897168401 580280811 -585339496 84070690 98366409 706145731 -559666338 812799738 741386059 996379239 193263764 996442370 369562475 123096572 -687466047 353734192 -877759972 377810178 275846590 637342870 -473933513 353699316 -149281035 450138379 -356834206 977522061 -214173317 185560698 345996005 -141155840 883298524 975638054 203586380 511436554 -843988972 285713121 947763506 -626741351 -484321632 -506456316 334075578 865403020 542172774 -574758627 -502875420 241124267 -7707316 578777526 107082200 -230873336 493834840 -559749222 638086434 -53877833 -649554590 360911852 151324312 331964545 -871318011 98718170 695628898 437255281 -253344803 -950013467 -270875102 556751248 -749083056 -388985193 -148117436 -804038719 -981500794 -54562966 9947972 -818130935 -61162447 -160258020 -985740728 865445626 789472497 930924894 -910255653 -560519358 -441156926 -492370871 327692494 514361267 -295973466 -502798176 -453444324 106329240 -16721640 146970046 659744106 904565360 888418021 -975696557 -776340110 374348021 -458820060 -919968060 -874964709 -351992737 -517116835 371869405 -730351111 433113044 -883221539 608069139 -60441985 524029221 -929385190 -561303804 -439789321 -409946395 -483667006 -909036347 193810745 836592683 79649709 -199645585 585863412 -41404130 -916192534 13524328 721066128 -486115642 -416276193 893819945 -948324608 -818904362 937712120 909920901 943396563 -920400454 850932804 -789729981 964399175 -846694557 380164741 -85820775 -654827604 131636192 839203116 -956734635 -592302999 -16973883 -204752043 873942524 -827241038 335387989 -493779724 -508529156 -49625976 398007112 -750631455 -38212459 125647964 245253491 -293874451 -936207137 -753673031 928974701 427764711 913805808 394641540 -711409300 477164422 -233173728 200179605 -561972886 412617794 -163038916 -865662287 -448919069 11384478 636841574 68270734 68840345 -518593734 827140269 -370946953 26458620 -842837064 -48335636 876549858 -459244262 -238047483 496609234 706895769 799055177 127786844 -541071102 813339601 217042220 -444091661 232585278 929225751 -72915618 -93147341 788701317 -988955921 -467237774 350811621 31725990 28394748 228297356 -825769744 -180786180 -121595017 -845213932 -774495209 360059378 -57922042 -343253585 -253095675 -63543417 247591608 65564976 -147641032 35222387 -648014897 -362934086 861580903 673627624 -4380288 -514450993 752034571 -60574076 824268999 -371216522 -381473986 709471349 934820518 105913213 -240796158 -241941805 -356780015 -503506948 442622744 -306865857 741924733 -851986174 36292996 -606653499 530329134 734802112 360231788 -919520182 -606981997 4154675 -251036945 664688825 -740421311 -608594208 558786597 -353549561 494490862 696984747 -257982338 875283188 985323515 -324362824 915118854 525770513 -145515557 968017092 -248341155 -270660674 -904842340 44325919 -706698953 -27614115 -992462172 592021131 201271021 -608535445 955424286 -568767231 973124191 555101159 266283737 -597709570 448592289 900719190 -73476346 -508547881 727786463 -118615701 -150172407 637534620 -330401376 -724522368 950514469 622088355 -74737389 406191136 947096256 974838145 -475078743 818931992 25150188 620544698 -74764526 991787723 824257049 -766804575 966502547 -284852250 -800043112 -813397609 987414934 -73523545 -200253244 616859281 -78128093 -954623089 105784789 71108425 728072836 670880224 -502620383 -21345577 -550427754 -672285371 -779583057 -140929640 728305018 605103528 -396470927 170110191 308253277 -491594732 98848037 480061027 884582853 -913839776 -52052793 -920692607 221592375 502718391 -234827680 -151737438 839978286 858393768 224905687 843293656 -761468289 -902382989 -28649933 587560052 692430886 -543059852 61795016 874182087 344656431 556831265 -531511869 144347240 -957016884 287438836 -373110458 -131034413 -468615801 834475381 559350589 -445965221 773210862 52727274 348960110 531410839 -93922868 -885323292 74998483 -285411530 -1206769 -259523670 -123934704 -163437643 -806894483 353853352 -836368711 526863491 248282734 535904320 -220099735 -347833894 -203566805 321396402 533194753 -909373874 466235657 767262362 -71461368 958798590 -869949221 -811813544 -702189097 -325421816 -533343293 -947552372 336612969 976700328 349628726 -270554702 183051326 -977029503 518917237 484542941 397585573 340698256 72894866 -919234186 394281329 317647054 615306336 -664087356 -128328774 -510929193 885254754 -437384952 513552275 -182368693 -276261630 342136677 673661436 496495505 341474295 -43118909 754493183 -640431091 667379832 -569546712 -636651401 -210577870 -971823822 -371478781 -526739232 -147702464 398807051 644645588 631655571 -485808856 -472556179 643563450 -840106008 575349627 604642965 802757001 591906746 -939034978 554682357 -505082316 -885532383 -402675059 101334299 -960324173 -68064099 -590598175 -722422292 -762792799 427825146 -763819774 -447112646 109622732 694716086 880586949 615038363 998418410 256210225 -806378295 -925815949 -792833520 395668176 480041103 -867273655 -882476607 -362546849 -460482811 13566747 111495896 -909172930 390927960 966134953 -467242673 104826789 -381974694 65297722 -108815676 836349539 524529798 -367653029 478389381 -950331506 890542733 663642477 23851120 -30645506 -534951633 278694984 -178160621 -447837079 337277472 229183191 -616271701 653574740 -426035936 -985220434 982373859 -765186291 -959988272 -242356213 321880066 -909912464 -530482982 -942538380 -770221869 -210429964 356925304 -948673750 -309362751 -869623782 731419716 -949638690 -104251557 -399533741 -643780423 558978884 694107676 491300289 17981193 -202181076 238395826 -226673686 -182476009 804022352 506303978 81891704 43725630 -49771766 629937128 483465995 898530847 731061505 -208191949 -660177614 -807231221 -70537173 143154015 283905198 -659844688 -909250938 837735447 800379233 -452986007 -274581449 -721474475 672463073 513376542 41142554 708322379 -979078537 964073680 -328451804 -523222477 549820431 -408327913 -35385252 523590850 638533022 467864894 -756287485 -410626021 159908837 -926540794 240384050 -364885667 -1227228 -106509279 345501648 268404655 366563165 109878435 -792819155 539620854 -186066794 -119833520 559084921 441537499 -700183286 597864140 -19567366 239330885 540752561 214472335 77743151 452487185 -503151767 -106620254 -444082161 -780926953 -896927967 134920984 -293049017 637304151 140236196 -100011147 518827828 509635648 610108219 -927630244 -708326075 -912790626 -550363021 570825083 460315524 988652595 865887117 -450766458 897342184 931305496 -923215406 733948290 335749465 981475385 -58716111 -582622144 59681339 327149540 -143268987 -462742827 410533671 -693279370 104830126 -703701323 571601098 -883762969 -354744157 -507815458 -716549586 582415969 -519698276 -64576869 2945568 -107723024 19428484 792553755 -269391106 444702820 350110867 -432009672 -688538903 -233986628 301691123 190032495 254245126 618848885 -139266003 913030102 491787187 -728864037 946335817 -492639997 -267648510 -295962936 -567147839 -108993102 -663402409 510042779 578247403 870393602 413696068 762857556 190698715 -288408613 107552909 -510089106 -135817474 -769640294 345597895 745536881 245722064 317277577 -249547355 -480726495 -692469900 885754247 264142225 669526088 -860747308 673779304 414624729 642112023 228561434 -348607156 799274570 -688804814 -330277933 837055334 -31922937 764389454 -755897095 875220503 -817746613 -967596357 -274349042 -502818274 -629333503 623373020 393251129 -258038786 523657479 258591392 -217617020 -831977939 -29090478 -781985684 847603752 -435997426 -738027662 690231690 757303300 -379877448 436127584 797482349 -873460742 157258367 859423727 666507206 231426551 -923830591 -540875920 456942778 990182082 -649191606 990951886 -582072260 -223762319 -955226981 116112417 89295930 -174037733 264926345 125239634 924407305 -718140442 -701857630 721550656 -960661577 -40177096 325497367 -497169644 408087064 -763334423 815825201 966514657 417328736 -218087581 707099363 565535050 324558975 -781275678 656393651 -725275785 174043668 722295987 -422266962 -305312486 708076841 -4080630 776633846 -544228620 -379245213 -830041875 -35351893 -232079223 98193737 153967494 -631465167 -82052855 -414395538 804643482 -471760525 352249533 -52001030 -98601862 -792644302 125879776 744344233 -63211394 225014262 -899987091 907711557 692608532 -832416021 599571510 45429908 987651143 746185652 883210394 131563025 -882081802 -354849321 -887658338 -363903843 578721676 937807585 545960609 -819895117 502561271 -700592520 -359233685 24149029 601807446 -239622519 273919337 420731165 -207842679 829913277 245954667 -784717703 -107543311 859285915 -777530936 -782392166 946036351 161811757 -928455120 411446070 378465738 114924174 245129626 -66195753 820425560 -856844318 897410725 -585036950 725156703 877939648 -210600768 249972529 819291539 -489451878 221708795 -936917722 134989909 23197215 328669380 -513342688 576057503 -850046170 -96848678 -620782824 636017390 337218719 -264143694 972144564 430861452 -983538750 -96538103 811936191 -886398180 966355463 -186425986 252117201 223177918 -598732212 574694339 -270007480 -976243392 -522617999 7604183 787857813 630815934 -57745001 113728059 539125594 -689642237 607349651 765842226 -132851038 244151032 502814949 -252407782 898622661 -639673586 -385752390 255619605 -613119842 -51226303 -577307768 -752528958 381826892 -828304699 -367510633 949934010 315256493 -935240786 -344940559 -446718979 60586670 -730082631 -456572117 -478143415 674265822 597433700 417653511 -744433557 908921122 258579452 436735278 586147408 -174796214 62640446 673556794 -632321951 989351006 -529316233 -571387185 -90523345 728794202 497632997 667897706 -286492121 -225466640 834449014 270857353 197732987 984493002 942198097 -11538580 -260283056 -6997462 -120607349 21298355 -72793 286392343 282264453 81112296 682560927 50264215 26864330 482149604 -649235327 740738373 125970543 -875689546 -100668523 -845595379 81929054 -939904704 589154376 -902746631 -579555111 -646381249 659452976 563583883 -463782061 -268258748 -42134720 29483931 -19550455 167287470 836783085 166009502 -65056786 -880652098 -115550769 81588767 -677496492 -436874016 43673096 -652948223 732330545 -460588635 787704908 537854988 -232885318 -595540002 -122933055 -996594738 353612527 444856863 -286686678 -564337563 214241241 -45879639 -620148873 -801467550 147258102 -23222988 -674896600 189976962 -491591018 555709252 963579702 476633482 -754058678 415884032 485842161 860802719 552420105 -161773763 872124061 528257672 -305844652 762112459 311541454 -602550447 -964059837 541812604 508992195 -415274916 475107794 -300993349 -13684471 -894368485 -509140829 716042262 454598179 440925392 722355785 880153987 838260064 -336863743 -389408196 -183142488 -786924114 -830992466 -745475959 -18775739 -288767473 600106137 -870224036 445429559 -667010804 977245924 42734406 -577878188 -215995168 -390283117 -886155745 -317139498 192116408 649778239 39160616 520060623 -248665274 286945768 -884177184 -864932772 -491250951 -658347888 703432245 -642832678 669712120 -231953632 830083567 205765115 21343824 744811101 683373958 -357038029 -227750801 229674720 -36752065 318526560 916487779 534741897 499949570 230185160 269582260 -104148958 865862560 902375844 -628932010 23061879 423536785 -523233791 -920775961 735053008 -271197223 560907901 -744153923 -181858610 572332701 -260336642 -892184542 -432610965 380363622 -713035529 -545811407 -295949463 675025812 348357076 -590446279 -369505810 -243503617 -572454551 -80081691 -896040706 -196233210 826112622 -687723842 -554636561 -456547882 70906725 55761667 -892223400 793922392 -943287979 639057391 115589117 -675558333 135947996 760163749 -654119144 -130039706 990638783 4940500 436890900 -959258686 133899036 74010626 -749959129 -820585768 -795851097 601713792 215114581 -233018728 -496348530 232157542 -433213105 -799211729 324835849 811682946 -156292890 -604771990 405264199 983549425 -969788265 -983097374 -621854568 720251843 925500643 -936179064 -356960833 -288802990 546343109 548476067 -759735089 -833554749 -365196905 -352423017 734994416 778227199 -313037842 -216804291 -128961034 829477457 745683078 -213370925 -173596568 171890776 -923228026 889855770 112312741 -637979113 440280276 377077650 742984958 -232070181 -270975725 152292800 718125673 -184641269 -685379038 342573216 877377655 370990558 348890180 28666037 -779403716 -428945002 394624877 745545433 -371664061 990158453 -750048259 -76041275 -334287414 -845689660 465250170 529583529 -957730140 853869360 374343656 -546525430 -417076881 721833584 -565835941 -483549211 311868215 546382808 404697256 633872508 -465393005 992004952 -307877 361531548 -580325568 418587803 -609038257 303482585 289804111 -417071315 411114322 -579450280 -254550536 450277814 -502152065 -250975379 -661441228 516407845 -378264792 -781469137 363434770 -961287657 -834613026 878396902 -433016020 -608312250 -623911648 -811936174 174901592 717307109 490190632 147098880 442998922 569296298 -876695040 174197245 678054380 -395276542 751730508 448140374 -318434914 -680572776 7293561 388697344 -473199761 42903249 666765762 -384164500 -112724522 483612296 -198884587 310196049 528287554 542281794 -603058372 -915372485 -268160104 -736481439 973248928 -558484555 499631025 326304658 259484845 917476609 -17132269 -949857744 -266989262 -983595348 829076454 302488433 -948444719 862120138 53121061 836338019 712364133 569924973 -55999837 -951109015 188039905 467155479 763492082 -772648944 -128210757 -415228934 449190928 368028995 957860654 33104459 513592936 -151380213 302409634 -935631500 654320182 843266638 571071860 -514583090 -146835221 323801281 -166620424 -633678041 473776308 838057218 -940531037 186685449 308740832 450570730 73977710 269951899 949469036 486370939 303404295 792626605 -951992752 112602475 -602177780 -839597579 960290294 681546520 -336668470 -850931886 734311910 -562676101 -64003522 -646732565 -327440524 -588378646 -702559931 738931706 -185596444 -583406309 -137403560 -198264810 248570617 -640575461 -458010196 665399115 -137984049 -347845188 -659287369 -288217980 96542958 -570779567 -246716587 -106275279 -693320 -255878854 -974877720 -923169352 -490342889 851667091 483902445 517980965 -831378092 -474325589 82964550 521178435 -553764872 -120770629 489661627 259720445 689276947 -561240731 -38785715 783937782 -975701601 980574951 -784703272 864928905 -785517964 -83161754 -637124174 911858849 503202901 181859115 -745415494 66433727 -80759736 -726162115 180033047 -237732892 -730599787 -166442918 -278726152 874728265 -709253659 -302215737 -702305583 -55609149 -566676074 490243892 744959411 707685902 780223932 -294370261 -321560368 -62888778 600419112 -856420657 315707998 666461413 -500070012 -880928775 -580009264 622327640 215632672 -966458078 -537281097 962327970 524329437 -638931676 -700176611 -763221335 -347684956 -746916389 803558071 410717328 356399708 3699842 -685571905 -160721344 -615438581 -711935553 -93810728 864575212 -482699917 -732459090 743082137 901014930 656725117 656564753 -24183710 -627371974 -170475597 994406359 -94887548 414370492 5403387 258751495 688462976 884092091 778303081 -358108016 257859522 -796626578 778938673 -713828602 573745299 -62594842 232389828 -545552422 -322296543 -395097435 229769988 532179089 60258622 -710959470 -703501453 935383987 -719584759 855617607 -807862973 -955101341 656410430 -473181374 531190951 -685887189 675757487 302824952 37221882 186852881 -930193213 -456871552 -286950995 93758679 -896548785 447530995 -778864049 871026860 -346549570 -52226398 871296719 -23522351 -879585945 193989972 573907535 653973856 -781965682 945864011 688461868 671594975 -602740660 -317668584 -792116954 785089077 446194364 644973687 122096990 768553198 8055042 156404470 398953641 815048790 132205544 -277517535 -299752482 -666079655 920643365 356594226 128997806 -314281414 197177062 570036711 804730489 -792503057 -637629782 -600082980 587563841 -166989041 518092754 -626181872 128522247 369505395 -795207103 -386859355 924231712 -521687380 -376561934 -179322035 140239595 -103050349 326456501 951978628 668572558 -596156637 548136889 -644634395 -799584966 -740139087 -354839508 -141168244 840335875 293162441 -598936442 681579995 796335810 419612869 760244058 329884709 -769068864 853669296 -223351210 435815600 563282954 120984987 -241679751 -448226252 -530435827 -271723277 -529471218 -611152545 -195531288 403672252 -818320034 839355231 653184521 887077970 9185432 95142792 -873596634 -179253731 -598616404 -542384914 921218797 989216276 -397267832 -564115905 311762487 882058203 -876821283 -89500208 858310385 -348258290 -266269103 869911388 -120934822 810237420 495672777 -364153231 -69758165 767244176 -172901867 -309942029 510760578 1250513 -603775537 -135460072 233676496 757795519 -481179774 -869160244 604045543 -313888540 963237306 -708189787 -605826891 859237043 249995874 -592562286 -363275539 17780988 -71322439 -430554836 -489355086 -107057146 -76886390 -779434429 -910067007 -865993776 -318662200 361870004 402816471 -375837960 415550411 175520007 -756817567 -581963048 26939706 -824090876 451354556 -906041681 -242215958 52289637 325567332 206044055 622995752 555083727 -516938192 -837006741 -593634181 -752432414 -459947223 43609167 -757135963 151180103 -41671140 -369588763 844816044 559513246 646571705 -697070327 444870277 128713325 -673242489 405159454 293076856 -347088457 82689653 -902435215 -814533996 -486523819 -62720069 580968978 -275565334 120086102 -244537882 -344822765 -384376056 325622812 855365109 -691432523 719232824 -128906413 559047480 -822409302 117636664 -991791073 -296701305 643415240 -88135846 435769579 129389067 -690993093 -972567324 985132446 584974943 -899125769 -138898313 -800025210 833113037 742134224 -115623975 142928316 -825070684 -483096404 -616733845 -25578713 -584631944 34617063 194200528 -108046415 216261129 -151811634 894904208 776254456 -259762857 -237017907 -75755620 -24345112 224807355 450733648 -207125778 132619579 -158248752 -961026825 -311224703 -455880115 -271161148 387253160 -175357370 -275748522 -87230143 -209134488 -917918486 421747674 -99405161 793157131 972151498 -492311369 242190022 -554956827 760495629 -266469635 -205041978 864092122 926708269 -789574546 -271418796 -304535384 -323009477 783386145 -31577161 970232740 243023877 840367118 -94193516 -499568610 -421531967 600066793 751928584 -814605308 638495198 -459046091 163092860 182991048 -451679012 144402683 -493166617 -729210591 -901898403 -140462246 958763780 775833626 499442591 -880527506 825368203 993015441 -206324787 343846471 907994301 576572070 -421235169 866557130 633795749 -372220658 -206261457 414930652 667345941 -771731178 -991246406 167602532 -474488352 854319995 115400046 121088673 392819603 472239242 -938035199 -395877853 -640190783 -25574877 -30461055 -792463682 880564149 -576984774 601439005 32809638 -384192223 412452225 919628912 -623158247 145441051 973925214 186414919 -134023455 -317198876 -634839572 -600899035 -643749448 614904242 -726310137 689027266 -966119378 123599829 -916844698 -621679826 -671853376 938253657 302838030 886245450 -980698065 20006950 170715542 -529619285 -356156001 734252113 -49457563 749813818 149755940 -670435646 -168075316 312329934 103645659 -817459542 403462948 -152020564 -753404128 -723107557 628656895 245029049 -260179910 981259313 644351297 507946997 133505107 -738009911 114322259 972634682 798469987 309511996 -790301200 591251377 206887307 548850223 231827312 593329767 603585166 463239575 -728966471 288013145 -716221055 -313592998 789190391 838866988 -991187050 402568624 -976697330 807359510 836523144 22872802 -856915260 559071331 787151549 -666001639 -839549489 801527758 -497076711 -700124082 -71453561 -325614255 -893719970 930765915 -912478896 632717929 -482101706 357572412 -636517425 167129234 560027181 -640025682 741591810 -508137250 321622164 351387360 -391199409 53041902 3177607 344828161 -107939928 -587319586 -370857978 -650880298 -965611041 161867393 -903338605 871114393 -179102331 666247841 436039622 697534880 -257374821 -107092907 -163007625 592958057 822414686 -271112624 -215069129 -722759551 -948994948 494024024 854690589 -10279122 -406784709 -876153699 -59440124 -559260584 31276250 396648493 17842496 510749246 986639840 963367137 -283912924 -344620545 797797077 624261558 -448789026 363577927 -937268958 247895788 93099133 374293087 -42731518 253791534 692351126 -982924286 823778801 -308036643 333367862 -109365016 610900763 268247700 921618062 51080921 -422857150 -410004489 -938495331 571151358 -738376444 -19650542 -846772381 459905515 -431342577 -512090233 651300941 129665417 -235136863 -371812535 543462261 -232735391 201661249 240736413 727773193 -529026321 -915685126 -755418749 -262597235 135481061 764210616 156153537 626001427 56943784 561094811 -764853418 -474223233 -6521455 -703205141 -263621141 202964382 -413377817 844026154 -401100990 440892238 -927263818 195090290 -641581968 -22913685 416266864 -699445589 -290120946 734154189 450262145 -42153052 554821151 537347645 679897517 415873033 514691129 -572384263 -504960404 890645768 -64694715 733230209 962743876 624267826 142828661 159356085 -778445297 -473641489 -725534475 694180632 -6373372 -559734932 -910127692 -29895058 -976279966 466963116 551043133 -998892471 -335005926 667453998 378856715 -428732545 -164941074 -30878562 -959293138 666673792 381369472 324782782 570187553 90537085 -446655807 41951000 -399875773 -1962901 -734012840 345807814 -640060561 273153594 398857227 -207263721 29945759 688139614 411178588 231997636 -622804062 -999315829 -104012695 -643221156 -89594757 -13370301 -670328152 -965856500 150983963 -117304899 -430731565 830215823 -479945213 -809479340 -257679819 69770435 208311256 488518024 456251871 592337090 -794050679 -511022859 -139704214 -280815668 -672459401 961362537 482354159 818733532 -775222289 853487431 -311559794 101273234 410637428 -801720716 566535724 844684701 865920103 -924310301 951504371 -69493796 -677523407 630014105 -305113609 532949988 -853670037 -834009943 -247384448 -601562548 -775240811 -105709342 759505903 559328790 11141514 -224793229 -697305354 -813844697 -360741367 743515480 -904791096 137978752 -529287131 -622896997 -891100515 906800773 647537197 -281649618 -267141281 27278490 288875049 306191553 104836786 -442842927 588987761 -977551469 -51201760 195014190 951727649 64748723 -685897210 -823259084 759524127 178260933 225149572 -180144706 63889207 355363049 986480353 -999078039 90825622 355857504 357758014 -532005234 522131781 921510401 -972579696 894912959 244511801 344064282 30336506 -74929464 785725179 442826672 -256232232 -362251449 940423348 109430348 102110026 -397088446 -294492750 -528915472 26580011 173258883 -718030338 190703534 379400300 334616398 -331897613 -282734633 419650132 -395593454 -244792954 -489194128 -557686029 839847051 824903677 57434512 -598393924 -312153626 734400461 910831458 21071062 823090423 -469859114 -317506703 765731296 295257936 701843008 441188634 109001021 -253807757 267874680 704605086 -153050935 -987580189 -310488693 -953731917 -613884403 -283306417 800073556 -440430904 -376443947 761386752 -69702958 404600234 371814954 -654185944 -847553278 -361297714 82480625 -944791503 -783469583 497978343 -233566111 -694251888 299507384 -285408047 776278393 -542746629 133953236 -851049655 -543384121 68654063 459513685 284187380 677003335 150088124 596359821 809274080 -968521732 643638703 -688446244 238420085 -431774683 525995342 -767386288 -6356934 80789589 30667150 340843010 551699400 -834134905 780325113 -838852125 -683428860 -588025855 935028264 -394634181 -164275495 -567755152 533145507 -924220570 623234650 803222930 86396890 762850963 -116840578 274502738 -280549649 -389560266 -618553870 -871518881 -102675834 -271792158 278794666 653949856 -756714495 -497818286 -338478607 720565429 736785659 526168027 -16718259 -453277274 -993065993 -280105160 -162947414 -459308947 59836994 -690275979 -577305362 -323061551 -960395719 51302214 -826525595 -672879376 -597983940 550052784 -244325535 569575623 305859977 443169726 -418242154 -22751536 -687453466 -634668395 754500325 893050616 200427742 -395209306 -916168021 532858411 631345122 -698971442 -260630109 -332797328 -286782564 211344406 -272368173 -269524379 530984261 -86119970 -186937651 817293869 -948240852 235617858 854035859 637781476 424903660 636179994 -673111166 -456130139 -515010803 924110763 -320748664 930288428 965037106 -271502010 -713834832 -21746716 -280035173 573870714 703544248 837781585 850311629 -714023155 393292724 -132752598 124291439 146908962 -181057478 -701403201 113052811 842118784 -365618537 518148665 136122293 225701414 932301366 307761205 -169331505 198128786 176950180 -634748541 812031618 -61833780 -153925602 -65630799 369737744 659701780 45828320 -140074353 -502565257 -617841800 610092085 816594875 803930276 69827236 -549161627 -258249586 -11562906 -656279929 -366677037 -351610742 -781048534 -6246682 -202094739 189890420 321377793 -65418314 -695380840 129440961 731548909 -436493327 -128377675 -434360682 -708260006 -710511139 544846287 226544773 -355129203 -736408512 -375078967 387340532 -552016196 -735590504 789646492 -389677814 -507647741 -81391698 -839721657 -37455070 -859587817 -153143041 -692283215 169428894 346107084 -406060144 238211171 811843604 164964878 -331115270 393580441 -700055211 -874026746 -620045999 942894505 -410359149 -168399205 -405366434 176714900 -84062173 706247768 968420320 -533984021 -304378726 -70016615 686322423 -175224796 -932127652 -908422086 152836323 -355266985 713580490 375511536 937643646 -281859569 941714593 625527717 -625954436 -509954437 -283685737 970866360 90641378 732007628 -937304732 263724705 -192103448 -238005681 -325088538 261587301 -797413286 -356751599 41432825 672881852 955744312 -963134382 -438671668 544839844 381114266 532076028 -242945962 146286678 -587232433 211290275 404122871 552004149 -569378415 717948204 -45587976 -108065440 -34174004 1664482 -147606711 -999015363 -344385373 -525977216 294324131 -536965030 517413739 -188016124 993654710 -203423487 749761928 -927099346 -11050633 396472897 -878412849 -566987694 -745961693 483142914 983036810 865014980 -883181697 -658040652 78359375 -119131069 -10320493 642778392 -505192133 -312732937 -287597779 -564279306 659479006 152042941 -668686081 -953457972 -824446412 482982586 -30903764 277849987 -234624335 120514243 717326525 905131042 479697415 -825244702 -775177660 783497503 -339080102 136397952 227730771 932107289 -824538639 369600385 -21082977 23787407 378701140 883265642 -498131521 347719765 -953730720 -504636731 251703241 545689825 334189226 -96132462 524714451 395684417 -285398622 -32560714 832052846 411560642 47960384 -134997649 313155690 394991277 118782671 -200630700 -296239763 -976483747 68790154 938120528 637665277 -891147823 705852588 92837939 -869166383 -859244117 989948794 -203042323 -93319384 -914881991 669416200 686696634 188269387 370375210 285136038 -192858934 939066024 827860770 -314837442 -934226114 600912845 176798665 145135288 328193086 151057510 -246218629 -522371211 131642408 -37285657 790628839 961486819 464200194 -376032608 -77191636 -839519415 717859841 630542278 -24367476 -170080860 303484737 -252856199 119898508 -178851768 -181245924 -507510564 83483553 -384166763 401037085 -231188173 711135057 -668297211 -877998952 184784142 973652783 190701239 -285241837 114981176 -141657284 66443199 -525432069 862716078 -932438627 281009373 -233367695 -304570327 -614784430 26982095 970728360 -672235729 918208060 981642779 746361578 -969511235 905265907 -449066473 -131409466 -203537535 -452344045 -912921173 -578088310 -317789169 161340088 -485219506 173521484 -246291369 -447784455 -263211280 -274201208 707345955 676978371 -873135701 261575973 958909953 897503118 699867464 346428137 359644737 -478564311 353207239 -845723954 -880316166 -670246850 -924524270 -342231492 644582940 -196857721 285300450 939607548 -251196221 -103566710 26769092 -603054422 -295025847 903396267 -254168149 -653201946 -41848582 743126403 -202498934 -570053832 632699535 978177948 -728406985 -774025520 -250792022 359007224 -270800057 -810872970 -670871970 224431701 439537526 -213452508 -946472236 -595737241 -510864307 -432781393 52511412 -496870953 635747366 331094067 411525314 -653044797 -458020107 310554880 -851964768 982020467 282826669 -83901848 132386770 -970122397 -725830616 -453320661 -340348972 86577974 -447283539 -641951696 125264806 411658721 81786154 963761182 556735008 -283799934 907813165 210055925 -128396902 -432015240 935893515 892514177 -449621568 286960029 -884126032 -979712885 -602128748 -176689759 -932147591 37069470 935489373 866324117 874321403 711357235 -307659949 709625751 924419609 550072014 -85493079 340190284 277202512 -603476606 -478876188 -500884987 -448889677 -366694773 -315529580 502824641 779074062 -445117302 -297215279 -429224984 -99817717 -344612981 -575609190 -554968086 -179373143 -236844674 -714765023 624692899 826785613 288063778 -106644073 690921149 16103797 -130612184 -694334528 93510635 -273312387 682297551 921157199 412767378 898073329 952023428 -806678749 461861489 816833788 101546778 -708168543 -387531315 -898633769 390441372 -257377749 983660039 729732027 -161382090 809333462 -927442791 -547124098 -247315603 -772817925 629938792 502452545 53045334 -843207607 -422660538 -7844292 356439783 -873494505 511092552 -102528536 -287136319 -971612747 412502412 -417227435 856151147 323739287 128412140 -865759657 -724378581 592409102 -173057563 851083470 -636988311 911221387 -271581462 -245257840 665011590 239753046 -799363309 -626463772 -294155708 312484115 724081728 -734511341 -719578177 598808178 374139933 466528942 255141071 -731471506 -562801000 -693128746 578037532 -371804072 970083213 756780520 921255995 -133415646 -565250145 -343137058 -327807847 541535747 75081877 533682954 -629037891 -120399157 195944284 769251645 -781723542 -245509847 -976286197 30429719 -402068779 585280953 600573458 -364902555 96331236 -971602975 470952823 702318115 919960862 -698815186 87931042 -843653407 728071100 964424915 -564536861 -603951096 387293089 -446989879 -507244982 305937958 118234182 959752921 -212752071 301885500 -604971016 -237352708 -939424061 159288776 862690988 -254082752 -179406834 669249437 -154136204 -492691171 -874430697 145220206 798148176 749163284 733724313 -592443519 619644268 677325949 -222606934 -414324417 775607737 -580496074 91599460 987812097 -947265971 671590867 93165234 -756677386 -677425004 223740651 -277161876 217269567 -205788109 625971660 463842146 -96025576 616107373 -855153103 900930191 -240431842 -236804732 956567717 814081951 866436409 680344 -690264488 -93084211 -621626410 770165520 806919159 -901558009 -683585193 315942615 371251226 -569899125 752895900 -225037099 956411549 -808453019 988474604 -224288260 -367719783 -256569245 -142890574 680286818 -219101708 -628602852 -185961584 -931906392 -701244298 -675887066 -610322793 442882507 -793951918 -236378246 134603915 999262240 756316694 512855693 -32411295 -527707125 -717915413 -562865152 154350314 -485988962 625708880 -105067581 554068034 833430682 -103235128 -987605980 916283971 -654691257 -778239168 124177277 228448632 476825810 245628658 -818270348 -770450473 -74306687 432452584 111253234 894775600 425065428 -11543926 -754993166 683895603 -174282603 -659211189 565065944 389932532 521359163 382105867 -563704432 -275168069 903545115 154401560 695660275 -531759043 533672294 -679669156 11034623 77089949 329191495 -652418490 -422552983 -27462745 -765336794 343861253 -310764245 244304671 -238745901 -516701960 -578135973 91859615 368201837 -581475201 854020217 872445614 -759446371 514517767 -75071531 831188492 674332746 -542952718 -440637180 -689427957 -780126568 -482135182 394020654 626846337 -508112504 -545961169 547596310 441356110 -252477704 -652061703 39253159 758311417 -398348773 128441752 456907485 453530139 -864669631 -625481710 448024598 130259338 303043470 -505446045 -689671253 682669287 909134941 168457339 134637207 359395934 389604895 -219447333 -608237391 433536965 -287993467 -914597000 210539844 -497014492 377137637 836255288 -977615637 85544196 -62802375 -830036991 851877600 -867906975 -64859510 -977033198 972429489 -451848458 -338004554 500769346 532078347 330693473 -104510371 -765443389 -683495431 967192794 38502716 1179041 143955598 415159865 503179923 -770687910 565495618 511266636 120239284 888485970 671780072 -967340033 -280943685 -929954482 428689007 337281922 -495685870 -710047840 619766642 681129528 466616507 -183561017 -830969179 441152245 -784173123 -160584549 48645643 -155116399 -751847038 -849429001 763194994 135577778 -256004674 -265246309 685183554 126197820 236461494 -544876880 -570419121 858231663 475084241 951191323 -212962825 94248961 612250738 -686451819 37641376 218133115 -38302851 932667980 805533791 877318026 -654765391 -694069869 -841991734 -884401581 -589533073 -586337559 313095577 -411087421 59159995 844154727 -182116411 -1410420 66467454 -50746820 -831365131 142996256 -443691597 -469546717 -435418535 467855990 -35139281 -766973611 -799052977 -860094139 559827605 -499846277 -421118024 87356379 -767582418 -560065072 190893687 34355191 -88297942 586179981 956144289 -536305485 -178743121 -316333330 -704430050 -124545220 -361865725 -717910425 187864006 -55493637 778107657 -158809147 933125252 1128426 -116884634 199508106 619583808 -511670918 -424516227 772236160 887559297 772299926 905216405 897882042 111246892 -156122814 -298718934 244556245 -238863828 -19399714 -377453327 239932903 877918857 890356588 -50469534 278945958 -816683372 464370066 681182791 -120008991 910704762 177293261 551556272 -213414731 796906337 -694644027 173683604 -409682629 -391728141 545997724 -483566596 525572309 -111538334 499153904 -975753191 -211672065 436960552 -526346639 -731918600 -293141776 -678178102 -325169302 732481904 457149821 -193637025 765747817 851310243 433744550 593137313 -920399808 256263017 -295004289 441740929 37271485 -896722267 -182174149 718198458 165143924 21210666 926088099 901238130 753623932 286768428 525227710 -133262166 559291863 578396305 -808224669 -415442652 919042523 -385909115 629322226 559147231 306505834 -915159314 109072115 -978058008 -38928365 47974393 534426090 434347853 651063032 743487963 -293772140 -894435250 -524102596 37620875 748762039 555919484 -353552385 77048211 -972184024 805831367 508530401 297734241 -494086951 614513949 -719851899 -311301995 -665220600 -891994732 -871350170 474612806 233356984 -17553395 -576084245 -181985918 107414053 -447171391 387916717 -424913532 538234863 -158154244 807909198 830164040 -348630689 456411269 24605235 187201436 664318017 948329666 111904280 -391214078 40884443 -955382834 627681553 502087781 120388613 438277748 -865974659 569642415 465521169 -354098190 532292164 723753049 579701679 253607340 745392954 348631957 892017982 -979718320 -283109965 -308618462 -460219584 -789044169 -49234769 -226459558 358913160 538383587 469359858 671233660 359950738 26002180 334888707 -774973105 168046329 -557245586 752398045 -845104116 601287990 959651810 -277238029 -194577392 -252981213 -340325381 -460098602 -735329927 -684893141 484660608 384815115 545714414 -636937103 848783844 -410886699 -369808926 -692245010 446552874 -612067308 403461111 184458862 -928834940 -427178312 830843890 -639102662 -978801921 -441600173 869340618 -429880951 917140349 715867081 449122718 307839774 196260696 186158837 528938412 248390404 -560808535 792253403 -613496705 469027484 -176932419 -490348256 -310990931 993165232 448947259 -163223965 268350742 58973032 -878517729 -847570232 692827534 445255135 -261809520 451082549 865356004 -970983620 537755188 396808299 968080288 772253183 977893810 778880592 -280802995 837448898 -113734723 975221835 -650512307 162822699 692028158 -425753418 -808644163 -611919945 -473121719 -693174261 -113603407 516072568 -707263351 151046627 129414407 -89515360 178922374 -610950262 -761065785 -799550105 -814183838 -60118162 -895885365 -448182152 949137977 -970216322 823109057 -293991607 700716872 -472685338 -57265906 91182156 -928982613 -155201675 -296084159 -566712432 -185358581 -891178311 -295558758 -90424877 334972586 -981485836 604867144 -215419554 -233183632 -562441217 768489419 565594278 -658201529 -128352891 -8374708 -205458704 -643089257 872794719 -300298010 -311309066 -853266717 300495091 -479179746 929608756 562772541 -16964445 511715175 423666480 565820492 -240410997 -715370519 811481234 9551743 366846057 -186123429 167728034 -249035484 337081321 -185359633 404549382 -433055059 -862519926 650681036 77397271 365141975 -47361026 -110500960 885591705 -791708860 344991690 433993851 -966354802 -95937954 -148965195 577060989 53205470 -668819523 426484629 393282025 -475133838 360426129 654625657 -238813031 -794387872 -840922566 -752121180 -477700482 92717800 -5909090 329902377 -92439881 203639106 -574033378 -868960685 -860399303 -426237154 -245779062 268118216 -793724465 -463524749 -203600485 152063018 651433463 -630179155 430079439 -252479404 750831997 830089912 752848002 -649386292 892123030 -479201947 -651495957 -361601111 448602042 887237464 -429125599 -305113763 307270324 563550938 303693683 -128276374 -510776961 516081979 -222081964 -316053929 -946197000 -825984824 -415064542 962319913 -662004500 728899421 368643239 -927784854 -992859599 499333568 993642813 856704433 764476067 -864681413 -412639161 948122464 649676809 629192264 -429516784 830134984 -470502147 713052893 -249538927 -791866419 121119225 448475299 124976621 830482659 417645398 972950571 818206569 93690554 514182721 -139557645 1103423 -154789445 -674459820 938584811 -82572806 793606569 871282639 -418575517 -878457608 -602973752 25375089 -14204261 -383445908 -357306914 -87447107 915135889 777663580 -587045797 639920153 76117933 -542422489 -799111459 834556035 760566820 -135541848 -183326048 -77297970 -706758244 917246169 224064046 -563809435 -220096940 -474002365 -119545713 421354198 -463908421 -728614407 109095711 -797226797 158926489 729579152 590987635 -739526666 466725722 841121232 -210257792 866354365 -383528830 -598226105 -602293578 39385416 -187501393 -418074669 630385929 -63768495 -79183667 -274097665 375988295 -149352245 -633898501 -84626640 519631011 777597766 992898024 -137473956 256362370 753563025 -84292170 386866015 271960904 -144755535 -1993170 245763222 -196280159 643580931 452553123 -197452237 364203610 302996101 859863601 -641717392 -945630522 -429467112 -436433000 -319568963 84430 -164344726 534482563 -370687608 559460270 -751105583 776121906 688318389 514803433 -441296276 44891471 -214413644 -892271193 -958759316 373155908 -234366326 -66346778 925741483 884539744 395868384 678519961 624831722 -16737865 -717452758 948661080 -572522012 -214931178 -733455585 -248598058 -716521138 -695824215 -644819237 -561903513 -760268981 941937169 881244703 991339080 -952898535 713007480 168394928 739742985 -235686882 336484075 -453790155 -871098700 -259569045 884944311 463578947 767353061 -562737674 269398411 -466552206 -242942697 -311220867 616049456 830546439 676675228 619564038 798778830 551630178 206365627 267153591 369565962 -593465786 -808255709 683122973 814778432 -521330299 475088440 155207397 -577560432 -491399909 -407415380 -191047766 -102831286 743184710 -426367912 -293746989 725541649 12466475 -116188841 -413941614 -328455966 559551231 -485776443 -61560505 292407645 -425183303 655239960 -387326303 812690667 808531555 -796715739 91811374 -532193756 -504039862 541753764 769601772 60099435 103301569 141227750 488665946 123775486 -37458733 255215021 226242343 626505105 5165411 -909886044 800141288 -245004266 355436777 -556750321 235066530 -308681455 806155948 210555900 233610187 8343641 767239390 -634439305 -34717929 382143641 -512483241 -32354574 586438051 -651943899 193967692 194981405 -414194358 -964589239 800941234 -265251889 -485086105 183644441 700102483 756236068 409706254 3168821 929404531 707336868 753750520 517108728 105847342 -762200055 -392823493 611376109 -402943630 97457168 -675436434 -631172124 -534327071 622613567 734631982 309174447 50164028 49759866 979096441 -949700032 -398661228 853739513 -23062400 95187441 -404439072 866420527 -737051202 -26075720 -548190566 -368366065 438035052 37108316 -159911629 467056995 302277440 142090312 996715027 -288167037 -646504971 -802755929 702331297 -64010409 -575070406 470517666 -905226124 -232357732 845013236 -701856367 910367258 230162508 -329574957 -637182148 -776725808 -690061066 68199955 296712808 -218889445 564958842 -207279959 -189604051 554506161 330832250 736944897 168599586 219858529 362720284 168018349 912523899 -664962540 -459406628 465161884 -519295455 329419636 -585751561 894252982 696729741 -177189373 -951724035 -6269088 81436385 -795571980 94480901 -307379892 370886274 140595336 918152891 639071044 515324442 -873728720 912055759 -492033650 897301792 -398798004 737719098 -160231429 150731886 561037508 312500039 -467990552 -664278389 232831744 -758999634 773828028 -989155812 -677526444 -369568440 -560980857 -667824966 997777290 671883303 817740092 236213148 801583257 476698977 -829891592 -702326814 339198677 -10987249 815008682 -370997742 938882730 913649936 507727484 -376124375 -42979494 -621134591 -889139050 -959540383 -767338365 967990193 -903088239 -809381727 392588286 -209085886 752655524 -27959229 -363275959 571124248 490780092 -625563195 367875812 202771316 415858317 647902615 -239207336 135502218 276719690 -916087879 656874917 849257524 -244646242 251170494 -936656525 -991112716 405119598 777940786 882565403 -789660718 514230077 -104227028 -91563647 981379014 873977625 372405313 -641584819 417107623 520643759 802675728 -264129995 170382916 -647693055 84418985 -372383088 -16636070 -143706720 -926844810 -510003564 -484753642 -964561204 763809978 -611092361 -958604798 -583027136 969106529 -564798534 617418754 -250406155 695313571 607683711 -9187041 344594680 830414110 -626533867 321106790 263577187 206070190 -8340479 -998043794 637188252 773283058 -960043505 -45738588 342471545 180299357 596425693 47439016 -886362659 536217120 870627302 -916461161 -470628188 179984848 -890730606 -71186601 -311158152 722566873 -187002497 -860492546 -904140282 643284338 -429147318 -604294127 -140164410 518437047 -296295951 -665269748 -995613845 -118218127 908941108 80296215 -330286613 -24312467 -19115230 348440390 -311559608 885361597 -355508801 108402155 805607703 -234088614 465692317 -789972576 509181400 -961348371 -786411858 161704514 -625469799 874108236 -842011241 -7327678 -90200740 -984922179 583092177 -22941337 691966752 156970453 -52936 335582461 899536002 162322422 649958826 -589182994 344648455 285963722 -134174099 -475427203 -197119522 825902029 -764048870 136978874 -549673827 779584004 735531583 454603411 -574817695 -656562347 154784622 533186573 -712202089 -450883922 573720257 -555419131 -466662798 -669958639 -364234669 -967767836 276256031 -564992858 -653413894 264360120 -718647467 119566776 -60749996 -639247970 -342294386 -391439061 -17749883 -747605488 -453618289 502035919 713165581 743428685 279294009 -881230865 -204479838 -832226177 807549713 -390987440 -54977544 592023637 928664103 -983528787 935454804 -683541298 862097095 -338104777 860345522 954468304 774140033 505194403 -472140576 713095239 311982699 -442999806 -195164502 -65586278 888994491 -402267245 798163068 -878691352 3727106 221314285 759443721 -956551673 -627458503 947145406 -207121562 104268530 317734360 -960950458 902039764 942165160 -321646403 -294304558 -805181488 -335534343 721581891 439616985 165584986 629394657 -94817461 383818331 174336471 -329297319 774236570 360356649 219291165 758038125 912018550 -807595240 104199699 206001822 273027598 -222526801 -804754311 -225074144 381030854 895972326 87726082 -362489709 -623457488 133699308 588697906 -514078300 -540728451 -743092886 664061785 -215157610 632464178 -389246625 261215678 -586802761 -973358686 -460193957 375282365 86549802 241300467 -928663770 -974803561 988591190 476439283 162123416 -983786652 71744403 364048446 92901496 -776782604 -852070829 815962200 977903042 -344499952 103147511 -502864989 458031330 -727379431 435823614 -149574953 -415779659 941587932 -311695773 40919147 223500614 -441581640 -154447058 78345349 -781834101 -56586914 -903180186 -100425397 -83386590 -544618524 -359478984 825890177 611270578 -408885834 -685654479 873036102 337173136 748415078 -181395329 528178614 927494270 -261264865 266279174 -190994124 -963838884 -249351427 -242106534 -75156088 -339308953 -523247803 879854083 447157346 554998257 -571956171 -3479080 -689779968 413239718 755073792 -932695929 -65965474 599965340 973646347 203561984 -873286617 356536036 523707703 13151131 88964630 561706354 -604465581 260900509 291346111 -619759321 -704971928 202601012 -860685145 499029343 79505882 701959923 294636882 -909124513 998373596 -756128996 -612608239 500796836 -363258518 -653594946 -242711522 921086120 -821852127 600597299 25446160 -474757707 -53946719 -416255113 -908909665 218339505 983088903 -260268669 -384429357 692322149 154055767 -295946651 -90047355 -526702393 -506547894 682961325 659767760 596344704 217245823 -124644069 736329763 -965501823 -9272575 -496121593 503357811 -18983891 793654390 -913156400 -14476698 -459065460 -110623363 -51622806 85571110 686107324 769373395 496043185 -380500342 -935208112 -771348565 -925881130 844177147 -91817172 -103135781 283908480 -67063243 -623241785 14347746 355917370 -871265163 -236601905 902160441 -821757439 -193788454 -105378417 -225251563 -529122458 -494551818 -860881630 -705742169 -952170308 411268591 497179268 259598111 -936926801 262655725 -603813718 598709318 223903079 113850585 439148304 -752556005 -800001978 -886282265 938402804 602925652 66235076 -932069368 184407665 -495082520 -663016034 -603368880 -723609274 -19374401 650425865 -552391468 656776819 -412221479 -153832680 347899998 39574022 -578472950 986219513 -949787870 -109277664 -877774894 -233745889 -355533564 855049984 -424410859 -748658127 -495771435 188883492 -291641826 7674555 962289032 -722413467 -506680064 843976409 780892453 -803217630 -613883800 -687163526 -422597958 -238397488 984770290 3800033 -885812346 -979643959 -157330350 -867624820 -989554992 868604453 -764796487 843728002 -596356183 719395204 609791933 -870142027 -739725800 -193917527 -622879946 -46686719 184598355 -388699655 -594269322 -274663863 361512580 263603813 510925712 496303460 -172778877 485082987 24126820 -107292508 397569739 337505848 539365981 -74508059 -177835990 -360674171 490689427 -45357717 176144854 -361719778 625920488 813575369 -211971146 766637728 622693188 662869415 -723835924 -228316716 540786568 -462349571 934555894 784490723 678931561 -156405113 -154991151 -316670766 559326127 993094700 -360082461 497418426 -917602073 193624818 -697913903 668437078 -225137046 -824485634 60068359 -803189149 468539516 141014901 647120162 -29444364 -52397070 -558342091 810960184 -808842429 -529709489 -247547271 -489891439 230615476 810608401 967830514 -584290609 -408202312 -238927779 781403722 -842968263 277363071 -592504480 548201678 -235129794 -266813698 976605382 287163931 -968673584 -46313380 -27871185 -629177320 -619123117 937590853 -616615031 524024392 733115983 730152856 137905137 -384286212 -405404335 305106081 835616237 -20002621 -243130681 -875794923 -877947319 729384472 321847463 969724822 539420254 -900555698 697228462 -907824309 -239881015 -928525746 -996382671 -915743961 -162664886 -357801701 552737641 81845263 -67817864 801839766 432163851 335032771 424166570 -948924126 -248602522 -287237351 -649802764 660199867 146059960 339616242 920221287 879027753 -112778228 587205861 488753385 -387905079 578604093 224359744 679337156 761300032 -974569059 -422443245 927979218 567402796 -482833532 769768757 -475933064 737745515 -456851458 805317270 -822502359 431012182 406664620 -831596662 167953875 2888313 868740739 -724554788 -958693332 -478529967 -128850535 208684732 -21993620 402278578 -459859132 -927708980 -189802887 929752985 781995391 486802633 234643978 -348338088 89158486 89265784 227119486 -759847026 703550775 184636943 -343098977 -619474160 -606680140 -25319177 504669015 -491050449 -641308207 -474025679 -505875875 -554128494 -540805901 -538770675 -53882798 344906789 -237162532 -44168190 -785937772 361849553 492476220 584663844 -969414598 384500313 579770305 -716497289 -735692435 -836872088 468311133 -336592090 -249295944 242127965 475842057 -269543519 -202495490 185557711 66102959 43659555 -531104948 462524326 662991104 -671814400 486544776 529847123 805214507 -235905066 381311547 138769020 695970684 -841675187 -918304591 376099605 474366930 -366653873 -23168519 -623455763 128584944 971839003 981803812 815387733 475038904 -869501193 954512265 564950291 -947807804 307326062 -923216548 -204224882 359992004 -130796606 -579054504 308298912 650835227 953071943 -360986113 175668680 -817426416 197887175 67015833 -33739417 -308198275 744818955 -152082058 708033719 -32605410 -992843627 472521546 155430125 -154942490 -567747560 573459684 -799848034 304604895 857859202 303190945 -646985101 732601365 553585615 -636735176 398271403 -484412648 746198980 65158119 -150356952 978125235 707098083 -25330766 312702073 968978639 -376615651 -504815168 446573463 442860815 -325386491 -854482407 943585647 -755517990 473007499 -279965955 -369608561 54719604 -317624525 823290074 624861603 923076253 -471091719 20221345 -629953376 -154326089 941459710 325211613 571237341 632242006 295244370 144231102 187654736 -623523181 944599551 -757890740 675962259 200435286 -880922155 887736853 663487931 542517983 421199227 648183118 515825551 -266176209 728984009 -681409024 -318427119 -206385083 822997712 446679675 749023739 307770518 -339159643 984764598 978461751 701797094 85467469 5440744 710099962 -269936055 249717163 135920534 575351232 74284714 289652388 -818940669 -793196148 -232734839 -361612677 858475603 -660979342 -76368653 -759415773 956093472 -491828778 626721084 726184601 -584599966 -2477409 -714521342 456904329 981583293 -223834694 -439887136 -8148679 -773449171 309657443 -869293479 -910014972 -318701816 818528775 405978635 -265541076 710405701 751712259 -316425959 -962444310 249130570 -146046549 -599229668 838233090 702357155 58428278 -509010228 -85284651 -680537403 286008612 856910684 -38052481 -901932409 524527243 449704102 -666722223 -692515085 -288861353 458915631 -440997801 179874058 -621906187 387644852 -347221771 -147529139 -570025867 -429726689 -468956837 -955046971 -959445398 -471698800 285503038 -908307531 -830828144 -124965891 510698093 -311425506 595379622 -515116539 53064549 395898158 709341669 440357257 -944153148 -508782537 847241215 -912276533 596803160 -293700117 423013864 -407973366 261196474 927676020 -17080505 529906014 -662009025 -283900757 256748406 196511563 748331602 -959299393 514246084 -703653142 -727485847 274260556 -208999582 -59443236 -712952872 -962527458 -450165233 -215255236 603912547 495307395 -90648914 -97936546 403806710 515343974 890286170 649349584 -740168961 293975474 682720530 496073383 141156858 -219053785 233586308 799621784 -244387717 873684319 -776931735 -374829893 -766607133 -300402817 243281548 -423202005 937775748 -866462588 394592339 -298156411 -43317669 602813508 916644921 128106947 -628708342 -653883909 -956135383 715790271 603455039 427230669 535804675 -281373118 -622620658 779829048 54372428 665247496 349089727 270138598 766127415 -362190592 487929182 -38484021 -481846387 215955503 -906618404 -974603558 -546626383 -797598823 450886839 495589249 673935212 827296393 -965299295 785492116 -605829800 -556088681 709774703 932515466 -423980423 766696280 918201120 249543873 -369770806 13647412 383675817 -272460706 756112067 303174102 67146628 -55403521 318404159 -620124770 659986485 277630357 565139857 -520443722 705616505 705937229 55791775 -361833325 -567013905 -947977797 774693079 579216694 -740914824 408766424 357289996 697071846 772401997 -446606821 -88827591 909949131 132207096 158028738 846178745 -141398576 442625183 979987870 476535309 -299753728 119005411 -903628448 -993733639 -895540517 -66967468 -34618666 -437401515 318136972 -795481563 -919161240 -838510242 834166088 -347975866 817707245 421457803 -757075002 363849486 657288130 460056702 10691720 730587361 -831079586 -304234089 -138291528 -323301704 248380953 379770554 453089524 590096872 421951924 416929362 -472797980 762606370 847272976 419285687 266957416 -394499927 -828281098 68980167 -375285021 805792267 809470428 -483580279 172138677 415437623 131430685 2137236 308023225 470688688 157297847 219283124 969608883 -418253580 108738172 981484881 974422537 170025900 -960784220 -250272101 -531044363 -863129706 -963132432 496990698 -711755463 -785950676 -81382880 862448144 674387835 429907513 -674751948 836041234 -870614430 212738132 -169366762 -94373720 396417832 -177247802 926581361 -481316921 467438596 336644266 -38598098 645912397 938479321 -714559838 -360294351 -855340264 -496692371 -995098693 -17601607 -271211116 499516641 -478650900 918990520 -367823029 -203148729 60527769 -424719947 714113335 -966768268 -178582480 911499320 -894159160 -451795815 -59552275 642363960 -384814221 735438239 638792389 -307512763 -277870834 15336272 -222597836 -995406046 -998345697 -253168560 -93675740 -553568626 -589971561 714329962 475430525 -558301644 -814397739 652643657 905236926 -118839342 -824112211 856029812 493542136 -987709205 -681226656 -308031559 757119683 187939708 -157126247 680884841 576375038 -369635694 -109191657 609401885 639618646 -685203571 410465386 530582785 100444240 951413541 53091917 -445595380 -795936671 -609157447 438026705 150340547 436875550 -374811945 652602317 -791847024 -797991768 -861712092 120000965 -272854157 -342271012 69763926 -360409789 96576218 292670367 -118151719 19555999 532033468 -40059981 -250713703 -302544221 393672176 771823855 400474300 -991290280 26701660 -798335753 -501325983 -926126398 -425358744 -679475032 -974622117 -381217285 -773999015 846771898 -160898 -585646994 731111460 -232906313 872317294 -886190965 332801157 -414103550 -975595370 -753201715 681477652 682731219 -975516312 755574192 -166163925 752171576 923233550 -475692174 -238668030 -127461908 -808204616 789721916 -771185081 -281445269 135058499 540052857 409211701 442128731 260658396 489604051 -181175574 607564225 208793855 -35772741 -633665301 861336614 159082297 -745189150 289615689 -873011162 -652046239 877816032 860049790 715585244 -796924065 -140462975 -631403166 -281953661 -345847524 -65499625 -457065087 -48890824 851925000 688548478 853000218 -109525914 32814779 367591825 -832105953 -894352671 -218518991 -468555519 -969593772 306705513 547460648 -318522305 -766862742 -497590049 -788966840 133043114 -889957227 675482520 -340342000 -471899457 697912597 -540036001 255578148 -763303181 -689291753 935412862 290438075 220772134 745726375 -953568113 215846026 -103229102 -477269676 397186643 -316326406 260953379 -172593400 769073509 61134866 735451704 30736248 918594855 715566998 450804683 -296529 905121754 -266699053 -10665794 865924208 505422628 -836909232 110364646 42586160 496183686 -361343815 277736176 -931971278 -508332924 763839332 -606002939 -929037194 436328299 704928143 -247198499 -907352517 -639906257 -431032934 874243856 -548606437 -502610816 622710860 434319727 -43018556 -816821436 -744165644 -695428066 -973267592 928227268 -255276935 519628443 658596201 -293187629 812826161 600311596 40156650 -675904567 554224156 -552219603 809339185 -988984482 790533747 -221245489 423432355 712076444 -650657062 286047274 860961222 761967079 424313437 -865005534 203827572 -852162323 -112466847 -699036855 591264398 561156363 531802160 562363112 -89547827 579169717 -560508208 -40673373 156363546 287463623 76334625 720153716 -799313631 -426793498 278208526 -838800044 297357264 -449672702 297696987 -878886396 -338686811 -402981417 915763964 726248524 485313690 354265891 429954936 -556136882 -545509622 -19599983 704402224 -275162455 -591269573 -799424657 -232662191 -603630743 -390714181 -957166464 537957373 -644321030 -700406024 -518480477 -272048763 -609549106 814515231 984500657 697675188 327144773 -704547177 -731240592 620075337 715581497 -375193544 -311919773 -966634856 -458146343 946448765 -982587218 -149725202 -361691968 604542753 -903261142 -181309433 764641017 -142272164 352238666 592516983 703612858 673902033 -520724254 -631492196 711518519 324932835 -999605053 -691904505 93044979 888927264 -376800242 267680624 395521962 -700410317 -894641284 -651441443 433216067 -689305344 -835808573 -628434651 -823701971 -47210927 544914856 -168473595 993958154 773732592 -809817715 262673595 936287238 -882586284 -95688388 -219502101 -864850046 -279533551 16898287 -843770637 -582481332 671836349 796047637 222761431 -196587215 188326658 -96728981 630710829 141020602 324971527 89001386 -535058524 -611617959 -812987514 983014540 854346853 209178059 335496984 750933850 -425950150 962131734 578397568 -466647152 -157689508 -4114388 -964103093 -67793199 -890510224 285668963 699436464 933937064 606504709 666151802 106353652 -989405471 194075697 55763024 -730339110 -760175649 -845208647 -388015750 -337007416 -708750731 188365979 334956016 -125498275 -467353152 -711793144 891321361 -998846497 288273746 336592010 501132170 200544874 574496460 446454403 -307559261 -584277550 -910697649 545258842 103989357 -723209113 105611922 905413569 831440932 714384954 911884206 144595709 -744131889 -264892339 547557628 281200372 288656949 183767349 -479648192 130845972 -356140253 -919565861 82607506 -576130662 -916555598 322866814 -321947106 610542896 656012171 171770026 504959062 675914382 749563548 372064339 -242221412 261374720 -794171139 -150148403 202087182 -599978680 221319951 226173216 579941902 -753604446 -915990058 -516840510 798781298 977213101 698347086 364784665 608242082 -571292700 -493830179 -330875958 -185590855 -570621002 773004737 404553770 14289922 478029979 252995786 -458830295 -847158809 -464905925 366116547 73278544 -509027229 -819363661 -600973590 -436373290 379548575 995321426 -764238639 -339515024 -982001941 -135017834 298796197 -237631795 -266027733 436324546 568171928 256090737 353715707 612220044 -397401758 -154212794 793294015 -784038936 -442148955 -582101172 -513760249 31720713 -295201817 318844536 -466109192 -562957447 154134715 459630161 315064238 -744993107 -477105232 -111227324 376687785 855619776 -335440114 -570763608 -284467904 -924364084 204698754 241997186 -646018679 128240466 814486204 -647377832 583260573 612559127 116603693 382675469 717922326 -64316086 -188216813 954525697 489250987 28141156 -343875341 752469308 -296632319 -618380171 964081497 -325915810 20035224 -194277668 471738172 -621501229 196962758 -529523576 185912168 -300773618 239962054 -350077647 217973131 -495219215 -26602909 109443662 784204080 -61988673 -714443263 -135984117 793867851 -382314380 446890994 -25671009 -493653804 -20216853 -787395631 -275753821 336016966 398855917 180924209 142821616 898433836 -121173001 396278313 867121535 77240842 -10250837 -36836582 148314806 858386612 -454355627 -29272032 659007770 60717986 780306578 -636872672 150954046 -436406785 -222750696 282836881 617476178 215261958 -151177944 -272653735 181556161 -693612530 -627280507 -295985750 -118703679 -295013285 -56197450 11051417 -607709746 -585030862 788372320 -943631092 464797189 -920707550 -458276009 -484978848 -416575296 940227243 193579307 -73824577 132810063 293892500 -168962568 93807386 -557854448 -773384620 -550889998 536622638 977673404 -34408693 -892112297 24810766 -138868976 449661666 -155770533 -612863106 70352828 326281081 832829621 75924093 -868610416 170410001 -45459218 -931723250 663122567 -187096405 949143377 -758106128 586527574 -411944000 -970511409 -399363038 -108216902 -129594449 613923085 889185662 -690071111 190720114 740062976 995843126 -290177858 -178788079 30037684 973731715 -719306782 -395984250 73088165 -744522586 466618935 -204362505 784764544 -504171010 973584824 262967821 -858022164 -452072983 -229220383 615502519 400737410 -994998778 -350156379 569607412 547414519 -911883687 -611153840 -873884289 316108147 415173593 86946381 -829813938 -469718956 -918351445 495777174 443079986 -267703747 -907321713 -436940050 468062447 -920407812 835953400 -496866496 -890889560 -644296573 731098749 373991911 461698886 -918840467 -658468809 -668032236 358052346 -194676872 635570473 382886526 -589229297 772708372 -660265474 565796417 338131998 -820458623 -102889061 339062471 -496168497 -143625859 -578270034 334079761 726544520 530301683 -26317614 -203157727 985948071 -475019123 504727884 177280294 -587459338 108193784 -668051713 492281632 -710235375 -558472503 -172379636 -73866641 -210012188 -30144537 -809602711 -60844527 -387345765 -284805670 -202153015 -335443596 199359257 574617977 112546433 -365836517 -703066030 -993417275 989944765 790133992 -616056978 -695767393 570185232 647235414 633902573 -639105437 -63821068 -431169088 501061989 984998222 68258639 640867749 -370786729 -505501581 48388717 415342743 -440244710 263475154 -375631989 183410911 743199114 -26416328 -267686435 -319720547 -225168955 343867867 -789338992 856778136 925216883 -455117325 -75959280 -14329073 -177674311 -831569663 -20359658 124823735 -569360686 -334452276 771403397 831711306 854857408 428365718 -932347235 -460251111 888311241 888083581 406052052 -979065831 610519264 258612493 95371301 466373304 -658556277 -371448386 541771580 -739111077 -371566674 -465555713 -728903642 -824480991 -647832751 130405898 818610042 276206398 -272079468 232504385 93064327 -395555399 956190564 570139865 236158498 796275143 575819691 -458329518 -83359564 778684635 558223990 301063417 -985184132 -479060689 704302737 -964216301 247104737 479479984 -520892437 -338635914 89999985 -502352570 -731079146 772513058 -37334748 511732453 66103632 -555502036 438030421 -83892539 -842457583 -940309568 -498577462 629738578 -375590459 -190174477 765350198 451335986 832699784 3550638 -282845758 611161757 369283571 106356613 371493166 -8090607 -519214490 -201232822 337446446 82651209 -526295098 293278829 -58796290 -748259913 903553763 48087173 -597124189 121868555 -945495995 -658663092 667092458 136271591 -393629834 -311762466 -301379492 248145656 -487818687 651742672 -833200755 -927725627 211489172 450551931 -968058159 -706950519 -254910137 -921358344 968597125 -720164252 -684474500 -903526121 479248212 -789689369 -178593244 -287397622 -3043734 -706828832 -122463311 16899477 102135934 817212072 877609409 559775752 -714830080 -753175563 -306384610 -375428655 -339929643 225746833 826453540 -991597507 551083467 112518094 -739609120 546374738 -510282298 489484207 -763558565 690241985 -843821052 779721336 341311129 34257755 65342566 -201103756 799351329 144008655 937438565 -330666483 -185746739 -447311467 486838456 -161863626 197511910 -343942756 702676150 20572479 -635693928 -238013010 571810033 354466884 -238408035 -695323194 665538093 -785137872 -593837530 137908159 961244523 356506507 -69781002 182951759 630206444 -375459337 -943025116 -327326267 974686416 345753022 -646637193 -999235134 -230952303 -267669142 837493632 -187267316 870507488 215443792 212234472 48740677 -784181809 1271011 299941672 -987337533 -579594429 538892404 -802138224 210953638 777085051 -130164195 865989486 298739457 -165029914 39066308 370029353 -489826035 959812166 603668740 554290960 271227911 499098339 635243451 -503334608 -517782041 73416084 -3271990 -16205924 -814279135 468578696 -385507408 169011688 -674704426 675758249 777817719 143873311 417316306 -771653617 552792491 -739247675 -717368822 728278344 673885246 676502186 23460110 -873186848 158236463 943223467 787962245 -356187288 843960617 413665332 -774432190 -713695745 -849214266 -726976562 712033532 235566674 639062959 -883611953 338448017 296739683 -39114007 858653713 915713949 823646538 -209492802 -739861772 773566784 683062516 736976890 -503512798 -403095549 -589615172 -148764009 172912238 620319134 -630295621 -444484716 116549818 585835990 -815829465 -131862006 -987742740 -844428429 -768618918 -707358000 -130768439 -677684803 -68989127 447349206 479837352 -375308105 -953174420 -787865057 304911543 -152920667 319770140 -674713030 -706858430 766243722 483841444 30421375 -119617790 -176784335 198707600 -845920294 100077335 523105113 402657452 784229704 14243665 263317946 300972391 855752659 -43729422 968870448 -396361945 -127037255 -861688342 644204975 -117410610 693889783 -340560092 886611114 -231719656 809361574 -966792405 151834449 -711806998 -194801862 -320428935 -954347479 -45619527 977548049 929303439 473898774 604799308 47473766 -346925636 -958691366 923728686 883717409 851245211 80020730 891272692 696987273 -946537960 900060722 508444342 334724698 -378923997 529998130 439920961 276723082 886135281 -722957818 824804125 756269229 4407088 -875161212 -198349272 457670248 -822952522 -110388254 183186454 367054772 367716699 859156965 -162678826 -41423094 -299715252 -302743773 -54604004 595994141 -506558454 -479034619 630420847 -495220573 -961379147 912624570 -149707460 -918663888 898553337 -47851596 114033065 -268889519 -140095980 -39505438 -266463387 -108618845 -228352462 -844501028 -753514538 -437884844 1336042 -880149807 -540345987 905770695 -380363215 897966728 784081068 183173715 -957905874 -91105058 973648805 786544651 52120633 211404724 319971657 -900548976 929738356 896063535 825515925 758010251 759628999 773699524 136580639 -295598245 -212796572 -318049423 183905777 76928196 612856320 -535480435 -574873441 609675569 -99664951 777039063 206911552 -560334939 -222774035 938139363 -989794740 225253069 750396845 -522484715 263865660 -936135890 305633139 396681550 110939212 58583093 171968551 -268942226 990259719 16216141 -170948882 -780651092 248880015 925371991 -313937124 55856367 287748832 946128223 -777334651 522978816 -137714425 601365955 -429538981 -473927124 22675424 796290695 333867950 -375060734 -841270032 -26034876 -721677002 280548009 413013492 32846900 420740320 -654206640 16044285 -222009320 -285286012 -198113403 459539094 -350240223 542780464 -921072469 490250420 -909668245 -78041456 463003447 -442354988 818671432 837906579 532867927 251576637 -554609761 -509569866 604818904 -140371477 163409779 -836912537 -863824880 -599547981 -925359422 329115920 981119682 921113595 812243915 -132539566 -730296848 441374838 -239188958 786438864 894523384 835803383 913468076 769839494 84863099 -920538735 64432872 -680428319 -293340056 581583632 -541807346 -786444504 455429623 331196394 75131491 -304068092 201050850 -167742593 -559992997 117811206 -709325828 -927014822 -774688912 -784453279 -204397568 -396213244 -937055636 669897574 -657968701 101260488 -599812399 -902636568 735122183 -800406652 921029184 954641010 -927229596 995345614 430409645 -168194126 -592135324 -414459238 -85263056 -130011769 998830364 796121122 671023921 -472855800 389762547 -609104205 918640229 209463948 -239272826 -701235487 766424853 458205254 149443689 489481121 -816324725 652092226 -340996579 522082892 842194933 -68147808 -419736484 -168564966 606391686 199621532 -315442650 -879197978 -362833886 -832722073 68091795 -21345770 -856951755 -639820319 -638515970 549787047 -27534135 -795429210 -21519186 -794764890 508479112 -571537161 17023089 -216693409 970468046 -300528202 151656328 4780821 933745925 12855142 562259497 -761420584 714955413 -333388796 26261359 761257885 790777171 -112448250 -69762916 526590928 -236619036 -782591119 -779466412 512234125 469070626 -161191701 382454594 788699081 39117608 945708086 46532760 578137541 -440075255 -768241742 -760937815 828529179 -261498779 -989037280 -911467788 960058393 374918535 79340906 528447243 -392627793 -515176602 275539504 -16158187 -197710131 295932125 -40596286 862457042 -84911994 262467075 -872863496 937040883 77555304 -175595769 684906520 -958548221 -994533699 -806904379 39536794 8017449 403398485 891629446 345982532 320998296 388307015 -295345134 -277942215 129439377 598795039 11312645 -944402410 -756880389 -779980261 289608401 856461922 -466886677 938627087 -618400332 -101983410 382755285 835842218 -859911099 -847106623 490927733 694769007 883092638 743101985 895593379 -937023093 -383279420 209600151 -160543785 -177851629 -149301375 558478032 -739959290 -81962331 -83536938 362988139 -465346326 773410341 -251665386 747164828 462111134 -875734697 923633850 18724841 -603631201 -437921894 399685142 364223410 -974682924 -365990101 -757978697 -578764902 967142937 -787093926 -243924716 160468740 -550162470 -107148835 8753510 589386414 700319520 -113577386 -13682177 571919617 759436341 -794117274 -915695252 -66039115 -488279752 74615497 259206863 2184135 236454824 200856817 731681739 458551583 -75009047 -833442645 974398582 401112288 984785983 183285473 526842427 73114418 -498844869 192580992 -278766246 188231722 -89180050 -155541932 -930259886 -533624686 -267743113 -491154094 -376877164 -763250276 524407473 -172250185 -562888863 -562891927 -489165719 829544228 288194178 447207995 -52043371 341013560 -643210511 -107162605 409646430 300781599 -333624763 -733546554 925321867 725113772 -524883510 -434173027 701105008 456838707 545450532 -826307513 4713779 715023999 -230332745 667881347 774552052 786745815 160208860 717073382 -293087054 709342637 -408630339 813650153 -837786469 685453096 -493520261 84079886 -351538723 462470189 22734548 811393811 88497319 428614509 -859728850 -930379709 -981527181 589338720 -759458495 -44770818 -35054882 -504479498 -440373568 -100233630 -415410551 948635176 553083070 15995874 953298095 -692772890 -703716999 792671315 695775228 784392453 -522911674 946442135 386569008 -620965317 -873213923 520654501 238209455 -645365398 -685370840 700905563 -636894675 384409171 -128525861 968239776 -472730945 -731169153 214217860 273867918 773672488 55069166 799981583 108202554 687780215 318108939 -288691141 -275266134 -375383971 -577483582 -637410072 185853040 -558979493 542258930 -615709789 118159450 702218922 783053409 566662563 -688865550 -281492027 -551469575 -590740130 141550988 81564769 -192041815 727016835 425516883 443025616 -424633588 -822862318 -809400214 789047943 -383764799 -495309808 -837063776 309608439 -470353467 822324835 -353449464 999089719 541820747 689166921 -772014947 462480754 176537404 308011156 -496207330 856364443 445679691 -842683577 967922426 -640611906 -428356777 732335035 23865072 303443786 -770882931 -781533903 -464820939 32475746 706694671 -806166130 947372172 -384090086 -277558758 -409225239 -403683489 -783587820 -729055570 -873398042 124352847 -116089340 -529960640 -702177146 -936324251 563477946 447028276 -731554592 973438697 -298845835 -186361006 -137024754 434518827 -600034283 23179790 -412856681 885818547 58986303 911440386 -820418256 62106316 327447802 -641656435 -375769691 -729577680 -277211207 434893160 -935016139 843903631 -315795605 953335371 -937573655 -985230186 229106028 -941381221 524348141 257147922 122266208 -178030828 433392772 -824033714 -296535732 -219971516 -757549377 4403775 724059760 -831551628 -915085931 -550374440 -265327821 726776519 634873700 668245756 -577255323 -762090893 -962312272 -614549570 -728717636 -558759601 -854243468 -94374399 -330766153 -491912753 692016227 597904543 868548656 340610947 159480251 -556897416 -223539606 243809739 899749659 569498538 -889418859 715163771 -338342499 118528631 230920387 -625712025 526452932 -721565128 769726583 450979695 -401527997 37048740 -106425182 -835937959 -973901603 878269305 -356762391 78216360 884433853 709007538 796148860 -977647041 633006686 -837678017 -435966571 -719078146 943549124 652312802 -903675989 949840748 360822656 -397080237 -451521050 89621204 434584379 67868516 164961514 397674739 -158659969 650654729 546992060 -359779644 -159434929 90615940 -581564285 -996805082 634384408 -303320637 910600402 117987720 -657982226 455594882 28019991 375241853 803210254 -951069775 118247854 203735393 947351622 873232887 606088919 -421920629 -402240435 643294978 -676068439 -254440598 653961131 -580497068 100283379 963540951 729590263 687895168 42630510 -66264133 -661720292 996829688 -570318180 -65819743 19313518 337796344 2630087 -130489098 142172067 178732922 -989698160 -919080286 -666214943 549565169 -634215322 161521799 -207523120 -47233947 -689034976 -899440396 188132949 -142540279 -421163473 620774508 489499042 697371628 -572220943 21603618 -139253778 291676276 -248908428 782332683 -164986933 790617908 46696852 428695689 889702076 -408148941 418002336 -330901148 637410952 97738554 131636243 -137057347 602004652 955384528 -409575910 592837219 572651714 135355383 75753489 334361926 610828012 865162802 252905038 -343851637 -956140607 -454739321 -55200630 262340039 183736976 -365970949 48523429 -8377674 304704579 376124944 -439813706 -879355443 -703804959 -24454304 978337133 -508410502 -245107385 955307781 739205633 -935631546 -405146516 344691751 -368901538 934112918 -69072201 -689634340 -727995849 -863918008 692363619 -293179900 -148144166 150695883 -111568420 -834807013 738503513 -671473548 -704621884 16612604 -992984910 634417532 350404837 475000288 572839316 387715831 820467731 879492858 -853871016 154307440 822387178 -672479786 -615926648 -146887632 703010003 544002067 567528757 -799731431 891555100 -996526885 481691272 938754693 -238569092 -700636769 -583068085 -668871468 974691071 776586603 149068114 -200453965 706574096 -437685317 -103070253 312596768 -10707270 92106384 5425373 854251028 988072515 426505801 -715305530 372131378 -258412284 -205838455 280540035 520104315 -906139967 -983187610 521477868 -947405356 564740010 -872759402 105246796 -457538714 328985055 -638763195 -576780218 208032233 243112704 849174669 -301327253 -820161004 741377455 -178033073 597493117 368802290 920289492 -857754951 -491211570 506120544 254785764 366378833 -505949426 -794317716 817969094 -138841762 873060344 247928726 214295668 48019348 -517538078 415463003 -768863404 291608331 583507629 593879563 -382593700 30372075 -298855574 -82531507 963804847 439810878 -919089928 110049289 -74014993 -974679894 342874726 381488309 169481552 468780625 590481519 -385479083 -273241171 -195765402 14450048 -191556530 320792652 841899583 -20495820 -999387348 -267240097 384587894 505601980 251307141 -603333373 -768208677 -112343406 929255802 -299077188 202057446 281085316 656850148 868509540 826878843 490851358 -610307425 421237577 887964370 -522240542 -810555656 -507018236 -560285481 -123206600 779800861 -111532068 632340523 -365049444 782728277 -838725595 -660676435 265297300 587863185 974662537 -821598596 -94951825 48703320 726678067 -586986861 -467071155 -929876238 154168813 -812170529 -324221714 -946755157 -598522248 -438218997 936275576 131551790 541880141 -67993805 652783044 -982976129 108503735 38129920 -368087791 -928497079 722844520 777092942 832822095 136734182 810591690 -423792624 882993760 -258448019 206728067 584420914 -835161974 420528326 -519990457 896538673 486352188 -661528494 280974773 -226787989 71008147 559175739 -119057273 795476739 532483956 -422552993 844447075 -140640389 -478316356 397539879 469130238 -683301001 320687717 84849524 331032348 723249866 -343283266 -298111533 -935529041 198174074 884676825 -944166296 791312613 957498787 -3085815 -742164389 -925669469 771734141 582256231 499284209 -859778380 -927072510 920590234 656140859 467229396 -834232244 -759403891 863100782 655554564 -196595668 -961882867 834257781 113395568 -562800574 -675917986 681084732 363434338 -846990302 -117351055 -807820016 -605082156 388551553 887790838 113107539 -194621082 -312276297 -89199815 -752404206 -387299337 69080165 564958093 651400131 -166560679 874532003 433215573 -817837035 181474664 -886266285 499881071 -920776880 673284319 -878356702 -457406164 638048575 -267757052 121370922 -333732633 377584654 -961363723 795371233 115907145 814602885 -888315136 142899728 -396118296 895471095 -206310261 266656455 163028941 -993768752 897486153 44485376 871748139 209130033 171211053 -969345512 -876438964 -560675733 -867434116 -39314132 -863979316 -866852276 -194018065 508638971 -356472641 307492405 -538067063 -589855988 166696484 975630720 -128067119 -996323194 -944560206 -127588651 -999879063 933391869 -458179677 879536836 -330907868 -871980675 -578652608 -147485576 -286540957 -339551984 390697909 443753078 963438484 -71812680 -233605299 688795638 -147290632 -580119740 -470488381 666238596 -174715680 455080464 730482904 -34460097 949447385 -65942019 199496669 -229321892 510826676 352210619 576513211 -234245629 -620139338 470724534 901459606 -584470763 -613945111 755492480 -525695641 -873941326 210233569 79574511 -95026698 763101890 672607313 499773377 -956160312 -565583882 56177532 -859617450 209367669 170309146 749239715 949089867 -976803604 -779904313 956014137 457863152 -380491512 -743448244 -31657438 505588326 -275354262 820168959 -146776539 796042359 117583774 186266899 574964389 368759917 508317746 304108486 -597112685 755622500 -921916852 -246887246 -559186212 -781766564 112993824 737983397 -687291081 -996202565 933620950 537564583 -505657479 259095093 698772354 -508893860 -587518900 -783010050 817073291 137729570 -200496856 285548837 101023093 -676185215 555246651 -832448895 533913946 -405513483 772038122 -329818345 -769698695 622212356 -917759795 -698437511 -205306180 849201241 -479059558 536915406 -657200221 -782797827 981367816 770176354 632591111 -155511174 -294590135 -816910908 -99800596 -514139831 -952762765 601038429 -236258608 -890189177 -223007061 -785784327 -888630184 517646144 -815160837 -492871791 -469803799 -639995357 122241807 -589933559 504296235 -6372555 200320636 -572521584 6084708 710015805 -409302967 737926539 -674940926 -888512761 59601123 680622300 -271454312 900629271 924655913 -343924713 467666401 -511492882 179530279 -387111684 628134313 885207863 -636430269 -211996399 214019126 464165763 -99385545 577534084 -104964012 -254316008 -572542345 -896793075 246580000 -246185658 916207115 377047035 -410433164 -195970890 -28900810 588920446 -658085301 -529500960 77586255 -700798423 555480012 969044334 -146074670 -55137125 -957867754 387238680 -762047721 -788601519 -363097357 -496645013 423533401 359617692 -745403761 75090529 509704292 279191186 828523170 948663197 -8614490 288311492 -349030983 -575778484 795016106 494052544 -472876144 -70733183 -902658352 -631573029 638729372 -617046781 746545290 29697129 -615235202 659186318 -874829781 955789794 -95895093 65571594 -442273635 -143394169 920403560 -680763827 679289560 -933107386 595257927 381847063 -360808497 531078392 -970849778 886430849 707614118 -808956819 97499893 -833532011 -42713631 319352565 -997909437 -542481621 -660305921 46944236 -472231920 28496727 710543263 -214781470 -989839717 563767041 -378709487 -563262071 945023721 -536868802 -179841153 -572596472 -731904734 -318646396 -18670272 970721727 452343733 797171806 -237140461 -774293197 182574372 -352470557 331710672 -236786077 -808833994 -420841437 550656056 606993097 402709894 -615073677 99169583 93138696 -350090167 188794238 523849294 -632430802 951502607 25302642 436401176 -449503283 347934809 782349167 -326918309 -971818618 633436359 -798132785 172902362 -448144951 -464088302 -426605252 338194078 -351724073 -707141324 -97968986 894558476 -720389303 -966605002 962090104 -535552830 405533912 -690068468 -339899511 602754101 -509290780 -823448020 -998869324 -882679784 241432961 -539107010 263471567 944621327 170574087 -222704611 756628976 381652644 -207278684 262318605 -449885245 -77420947 615537836 -59851644 891636620 875500015 -761261712 -990864020 375530373 -343929621 -861853234 -289034067 793267068 -856293883 -853120156 433641192 -217137673 75318473 634145794 -166725967 -491809234 871570708 -590911372 646788105 -398691486 956775232 222128702 512308826 -504449429 -797213562 802424919 745988560 27852110 985652442 -60850579 130398865 502572248 -742701498 -969406736 201743748 -181369958 -583119145 199994720 -736150786 -390785433 139856802 914739486 154879280 290829314 -49491491 -314599560 675932643 782072555 831666127 68323536 -543142907 936315012 939349654 -546855624 857281552 -436515541 244022260 626874887 887712416 334877346 -543663395 -645360839 -952288634 616307557 -243413096 433651965 -117523003 981856569 885157446 591037397 272241451 -326496659 -470951479 -542866034 473923220 -82504899 -644074857 -414456876 231153642 86779719 -696488152 376815832 -73759527 279211254 961075712 368095730 -275641639 85403783 -452499238 -232125091 -375048938 -800026308 663629249 2356903 639714753 439749557 414165258 348147919 -659978071 -103937561 911597366 -343950188 -402518143 155086704 883314883 843575942 247127750 283726793 926297844 -315596993 -551590611 930636126 -646538340 -783072689 756267245 655804476 801485610 -722074838 678210959 717131971 571965050 -169164762 436309592 700377861 -374030394 718467087 912175683 290159510 513591144 -588190868 368353799 735895851 -808425267 -676552262 808640962 775901109 193790361 -434032678 917193140 -973745541 -614964637 654768499 410236935 -822364380 -334610084 -516200063 853679566 750429334 -986130295 258596358 610871522 -264322912 511529359 150839701 -463914109 216170664 959441737 946830633 -941839265 522843515 294317970 269767148 -446672963 -636150726 1474219 503722756 680126875 171980596 -849369110 -627201851 -936253817 -774886906 -196118886 173387157 -30181422 86334210 -920461491 -197683474 616702809 882774559 -366494682 -222692433 -456883687 280528247 -810729304 -957843258 880038575 -607779956 -778070000 135536528 -592127162 -517452642 916646104 -666559357 682313094 -840470151 -855610625 -530693087 -968715767 -186992420 -625695704 -924847054 -405939834 -519642970 590435154 -653497160 -326803316 -358824185 -918943636 -168440584 63211064 823798925 277210405 -492057667 699246521 -850230508 552167102 363444337 357935242 101881691 615962373 -867872069 638659662 229105293 -127691293 434571401 -175563297 -704703742 -392215592 -134762238 719194027 88476272 324416689 -784159802 398865513 -293298966 872590210 336634481 -21043926 335541504 -390157093 -550625490 -79153119 -203405933 -489995056 188605003 743890811 -687286911 275296685 49392436 899239210 -921624993 -586404376 275509275 -981097783 -359497516 -279209760 -999882642 -220684112 718200664 282341634 516624026 393747617 557925203 -99473434 -646630774 -657282327 -187049894 -823159476 664991294 235588945 177139345 -950627058 -967568700 -971828965 -425073192 -357536158 287577381 -122989695 -29958349 202986235 -496529601 -578519683 303111491 -140427925 409032042 -322650915 -94773011 695629658 563275068 29579637 -743749490 -373094353 -836089183 -994512614 95816420 -284668227 601098463 -488023971 -146056532 112012553 -542863526 57631677 -837751229 -211645403 867430556 998823599 16244331 840397863 -279961224 82372044 -44173641 292946778 -949769071 652337500 725565765 3660293 -980382465 -291821060 -333194278 981401345 220210697 859627524 46003591 -881915247 -451421200 -157316815 -228368713 -865132148 155101575 -463831139 181267562 349672316 305326480 -751563672 -780653565 104119089 -38950881 -838288425 -811921879 396814570 917275278 215978115 -542247744 760818888 -685286313 854791605 783769684 -715270307 -224448478 302847617 -746538525 -225288347 723299479 288963971 -386467648 532106671 197264362 865444663 31002226 93526726 -777475684 76471353 156513804 196283045 413801796 -297110276 316635921 558996616 -239975700 -404688161 -131707197 196744540 -457930705 939466659 -645406968 966183496 435523568 275106099 861425703 -929991679 245730284 64405932 -244312559 -102245263 549919440 722725892 -18105481 -846227316 42223736 -920511578 -193978590 269848882 336135653 -594702856 -305189739 392188719 -314140479 902487469 903434743 56389460 -87445833 -736920700 -718128730 -257686891 -595909125 305106428 388694968 760837299 -550879048 -224825543 31422796 282840246 307108409 -571562235 -710282980 616848720 -148638643 147779143 259183552 -625014421 870215980 548521505 35959061 -387447208 -887024929 -75522137 199001961 -250039985 157778202 -82970160 -7686637 697809208 -884994664 -128816830 633643408 -739157591 -657618509 28251871 -944320997 281627122 -228690413 169356824 -344847237 -248977203 862768912 38185480 -892357343 -515386729 117380063 -279434486 997757197 -472239616 -511629988 -485836675 581293296 -648254581 469100243 -26713694 -29006883 739150463 -398346374 -697611926 -649862969 784755964 569990929 386878685 692210729 -953988758 952580946 851721173 -230876402 741002341 29896607 357911666 955184948 -705330481 243564485 384583921 701216959 -855263878 -571266609 -826923899 -564594524 781434835 488573371 -409222595 965619024 -991259232 -848101383 -419821388 735041109 969030202 -676736805 -752136421 329162739 -820678908 611032225 -123883799 461288923 -576295850 -595679673 695446072 97346216 -193034509 711028852 -264418107 966071487 45453118 -934146821 -576454058 459184572 598758209 -73561478 -511500529 -370493925 140241785 -306593161 -662985349 353947026 -617832467 30844213 844168011 -178746989 81864495 -228493761 365231249 744621452 108135794 -131106130 856333903 -108240174 975744209 173341780 743477670 234452668 -237322883 72607724 814580511 881089473 626196328 747168435 720909443 895150468 127886950 738515964 918602891 -337869261 -118336748 -693922445 -163135021 546870881 410862683 -51351808 704495444 560603828 -263621503 379366407 -601159071 -485833829 535569937 395145995 -973579346 -110736999 -649588070 355675101 689232152 -74072306 -25278844 642669773 704500464 -844037338 340898875 -573022434 -509584047 -550157144 658535214 250496208 -683278334 588515618 700019876 -946301943 -49911569 24893626 -370555890 -638397624 131032616 837861310 743884198 548340294 28072892 656525551 -402475169 -304338138 98957003 295714624 241180031 -878339035 -413182781 639535554 -220854013 931645551 89616191 69192231 -95719409 -793715676 478003147 -106424566 -422995139 -680497020 747911897 -526023714 -569367584 416758156 -941937234 -9445976 17760117 352765799 723001645 178412379 -15371945 -726062250 -905589749 500014059 113519298 -581693080 -332767629 375488332 -154873332 -669264748 -144542132 -36641573 -78832728 808899222 -781208038 166737757 129966951 906880962 -541497764 489200317 -99736304 704161923 371942623 -734889849 -585297728 -274034484 238849659 -27376256 -739066838 436099742 550745454 950326003 -800472424 -288644054 -332584129 40339139 740885060 789920016 -916355467 254530393 -913284177 -297225836 -665429983 844018150 -462001352 -616403575 -726983761 -578015883 -657763613 729466403 -845214084 506637452 -439074127 -622878741 174129414 -525153331 -892326837 -252320197 -821668087 816804102 309748185 -400776148 -103696581 -52797570 999010548 972920673 -696277383 766694269 39667125 -652131897 445010427 235411964 -9079985 939043366 -732451042 -301921725 -515187792 938623354 791791866 -455874126 956435478 868681681 487070745 1771256 102998002 -243374273 -198382084 -848305457 427466199 256459403 482199388 959828887 991092610 -47539845 555120459 827393093 -938640453 258411212 -386428425 -709090081 -100077560 -727210652 450932999 -894172674 48397629 732867882 538762538 -592017489 359827529 287788936 -736712842 224130787 -164128574 -218995995 -787375645 17734648 -106893076 487095878 -699169167 -998830247 -811979101 -724151269 -503288207 36520633 -739712906 909426088 -872659964 430718935 720621093 -385383070 333605695 -160260230 -332997032 -305122586 -932685449 807372282 519778148 -474555276 -250763103 -926992500 920327825 645024759 25082105 -635890824 484478257 647817230 787642812 187193124 -562526889 -396910839 -465300667 884226101 624305216 212538725 -218847000 80935533 838046416 -994949627 470680164 -161507753 -959793580 -288383579 526508999 270917394 838667866 -252912464 -776937686 335461086 -817701273 94666519 144391399 961811855 61270727 533807129 -798657270 -361924616 865224142 -774028091 478224351 -956072375 -594635962 -608619354 597643667 -322666119 667822783 930361942 -448132896 -256705464 -518675876 -537345753 -358853945 543155507 -13633067 -451351609 167043576 -892340992 493670365 -555796465 181089506 -911331208 640294008 -674471226 524010229 -71826067 -307975414 362772891 289908571 -169246737 -259636643 184443961 800045038 199787879 166473080 -21843651 -777441001 -618435853 -243694092 26264306 692558505 859191722 558789031 -13076284 -985101122 -902186658 668227760 13521306 -223999994 -115763390 -101085030 985740099 -462013145 107507350 492682451 -872095959 -618233043 918788486 671962962 41855370 70912066 -600434423 132098525 -704185572 99333692 -900369355 712358076 835248048 335353367 -215155308 -500929810 -801781095 -718152584 -468790201 661675840 -865610927 293202644 43344947 192853427 952768155 385599458 -736403275 877942574 -367619868 -290564950 653074038 -544847928 -32365413 -448519210 -762788962 165080582 -146391642 249309983 326050074 -551249631 596413849 -944163130 -387109680 578040365 -843404202 -451788334 -693583933 -665326518 -102405364 -130949500 124732315 301170371 557031640 972025886 378906290 519080421 -823335757 -327805487 60041248 -341237833 -961093902 -886860840 722440605 204430073 943471781 835403492 389709339 -116922527 -661030816 -422712487 925851564 -758336023 -548082393 985255161 618403143 -377205909 836475607 -69735949 126486364 628690864 -492320663 222086074 -491867863 -680300932 -683297993 -842447561 426414610 -232778585 479299492 -539366907 242337034 -162215636 -11830302 -679416279 547168291 -987898649 -495917697 387903232 -509070436 -508679097 -581929882 -515560858 -536551231 480141344 -503597319 -12890480 795537290 536690696 537045337 -224186086 27597202 54949679 822363954 -157325542 109980881 -544114538 -928318243 -689315798 -120464577 -669203742 795060507 -809696394 602789511 236140433 -185497083 721783450 -399863871 -647319902 -932337788 -461425766 417584857 121712294 970112429 9417120 -806046259 -690576489 729944563 -389460026 515042311 376259533 512123252 -104420795 -983720358 786959284 -494172494 449096226 54200549 805792624 -694215015 -363826573 -36298992 -299653229 -709250073 -250213942 233056271 244852517 -322068427 342516944 -908973764 789404210 -28028468 -775160495 325771701 -236290614 361452484 -53656187 -684986317 759689929 359444837 -621676299 -468034253 -140651064 -881575850 157485356 504153482 -715783159 584570054 922311076 373900696 -698876438 -31748166 776687779 -711028708 -520515372 -723590684 -925815872 817145610 972681827 596453162 916467075 259123021 -256830651 84442974 625501893 239951366 -58298912 -36460207 -244801880 124540512 -953975674 446164 -680666290 -717579206 66448190 -84622444 -683797331 828894699 85292339 -447684400 11087564 567819415 -603616369 961150603 714838879 140811084 627387431 -205312616 -297391845 188686475 598794079 -15080578 264713761 883517038 295106130 -425526865 943392249 -952585134 -61153521 -962796036 -526510819 -137194176 -598299011 -976096052 764993101 -336228195 -136500024 296429275 865761375 -318447445 429023205 849764022 -457216307 751887662 696230694 -58533541 886555720 403891965 -602100864 -406551220 -974760521 -339638276 -210663026 862892758 -300237586 16221566 950522706 -983706595 -676002799 532795030 -173841042 -339602336 573583879 508301070 -920970758 -619026067 42243466 86933050 -466103276 -34464336 -928069579 -697762594 858936547 -55157283 -424105334 -245044667 148076912 -424507643 -84199168 657294562 -130559218 870497015 278486880 -332538177 -535210315 728638408 575380850 637522718 976337011 -343186260 -940060758 196047460 521912673 499276485 304063652 966492074 -282151876 454693604 -88557005 258027180 145200226 705447873 -775915208 -21427632 470204416 -238080496 -809322345 -653586138 -184025926 932069863 -30214816 629729200 -954889582 606693100 -363310724 968705962 555819766 726651486 142054767 -715165900 749539716 910823662 -643733600 432494327 -940652279 -472438180 656294728 554293437 -685675499 719797003 -66262680 -654147007 -559672812 387104649 332637365 -688887703 -427142010 -29023837 348756678 252888255 256351709 152736297 -319849580 388410514 961688971 -926706665 -533626509 -684242391 -530759802 -458277169 927761578 69632354 792541819 -474702382 -531305386 -979194354 379132501 -187686840 -950257311 -324424925 -537897801 793015459 543881432 626357323 -161245613 -900595240 654180350 -947747556 115478713 461647462 -276696292 -500583062 439003482 702309694 -253319680 276272074 596748908 256276470 -186133983 -549254702 282103219 458016227 664181085 -940180941 563293306 987743724 318470491 -539918136 -47510212 -516129270 806925364 349374330 261339996 -826362880 96577431 116308571 -754587059 249640882 -738277278 10063578 419831438 -387117080 801374242 482374001 986823713 -756672791 97199565 -790489116 -906997498 193297187 625306446 -398957653 776210419 -388622322 -254320702 -755220710 -752906845 478894506 -336689215 -845072578 -940149455 511106359 105528407 563122832 634280622 548490896 477216317 -728115481 51918325 686653973 888079240 -691196769 -777714428 384333626 797960782 190508927 -304639436 -771080469 623349788 -96539064 689971634 -538496366 999867705 -837898439 -657437672 -385067010 -258637316 78358657 568467635 411804585 36319204 -534202048 -792711149 -250810861 436728273 954967860 658741206 -689187487 -819433819 206362606 351348433 47239760 -979724023 -237404496 402168814 130932789 486489122 -485282899 464731110 -989893587 702248076 -351815027 -80653822 -926642382 721077696 -955020632 412419511 118277287 -468039685 893914483 897560878 -721302128 766012028 242290829 604187711 32473710 844807691 576995409 458574851 318019225 737034350 258258054 555160997 388598463 904466929 934435380 -126856733 309214192 355231256 -599281046 -213107047 775728378 142344354 -290119059 252360234 300964452 -488253616 -774216132 -141669656 270082738 4817755 -775691394 -986414060 292988099 -447189577 -901106022 -854597798 -590467941 781605523 397377778 -691178483 -652591816 -617760463 -886139131 160992821 -492289603 676747752 -328190884 93933115 948420892 582406726 -713232102 441482521 -699840582 -854411413 140284706 399949017 676905021 406116767 26536019 190352668 -197676742 518974172 -693523609 -707563232 -78004699 661985072 927717857 -285416273 -729611432 -645433454 -747353638 255354231 -601079264 -31515423 567833487 -663790712 455614015 807934159 558671959 -266812204 53379543 -996425246 811480230 174216341 658697852 980047358 904225483 226512531 -77787055 -680212883 82539727 396899097 -423224325 -290302960 -332278893 -646305440 612598577 -801643343 217550621 -273282526 437545298 79561620 119312453 111845925 197578744 -301003846 -671728518 -928568358 725361550 232358010 550503133 20240548 368950025 721894166 -447531660 -991327246 202789347 634219063 242851015 -100183335 -16991179 -670882933 608118438 134990535 -988958813 614029069 215002270 959683111 366688543 469828652 -770434098 -863248953 -524477257 -515150347 -861532782 65919605 537771055 565160164 153404399 510054475 266659307 -509100447 167012908 -157442233 -784447798 897434824 511609760 253083106 -800040950 -394276483 -560940923 -727954982 206395063 74228249 -571914397 93007578 637571980 131516863 -929312122 -452941821 -119930849 410315241 -879444102 -869803235 606490800 -702678159 -386190689 650475440 -730326008 664912588 748052393 -91539900 376379978 230482354 -392540786 -962378245 301276842 382928974 155880814 233584495 850563489 820072535 241521431 170041432 -500973523 -904108279 958450824 985881166 683832124 779067499 312884613 -53495624 218342613 296452809 116877581 -293537215 539520153 92059383 -143702803 653409947 -561622635 473461007 596688105 -487638965 291651452 134939221 632489518 653717062 808514628 508264336 853874331 494688030 -661133183 311472492 -220995324 -959441158 -401538606 910750582 745568634 962105255 960027928 -842513494 -758643246 -3988521 848784166 748440007 14301278 -208936154 346056065 442918533 -632738846 -407254091 -176113861 626045869 682014361 463310047 -159390858 448674973 -928734871 -658275079 -217879319 -60521025 -247510404 -682781549 278856861 58337845 685631550 -909985316 605472951 -864634046 -521211745 782636186 -389635993 232216301 -867664084 -528066778 -386168365 956025881 153597314 -546115222 -264635162 178997766 228044260 937233601 -859773531 -672756940 -537449102 145107777 -774672261 -443250789 -63410063 -380672764 -262378965 627230107 411267527 180162060 -76101674 -268546367 916631938 -48001052 -901635711 664268951 15219106 519933976 -118367079 -456238863 450029836 990014733 573277428 791709355 -700878703 -818558261 -220546116 350095438 -980559661 348068977 599220967 -43134419 161368422 444249921 -527403415 771916656 -766634213 -829976842 -515773051 -355991272 512105383 -186293752 -212222017 -723231212 -817945857 -357651845 -254816999 918928149 -944963349 943185886 -107796297 -413038697 -954380940 436404700 -618233529 -494399883 -808125986 898368767 831950065 -54598552 -100323208 927365913 513781402 -770581541 604884828 795199621 -65550143 -325779591 -514861383 -883274607 725119877 683821530 -170361927 -480896619 558848846 -737064247 225636968 485857589 -761050072 -769309886 -849298708 -732666867 63966637 326997816 327927935 350892788 -306704189 -147278458 -831645905 -412411746 245056437 -160848633 -627210488 -804085487 -770816208 188106114 -658170272 744113731 -515154156 -673496679 -357643973 -411975839 369126698 572491869 486286006 636306253 -171401010 -413014438 -542229244 212313921 -696821414 -201132283 -969194558 102725865 -928496016 -430028790 -748527469 -844034700 -781891416 -98368970 -616336875 833283754 607855870 666176176 451575213 -100398519 319434331 -57800687 148290454 223610166 472914050 -514511934 433874897 933099141 -879110176 -258751531 584993811 16884210 -28831457 -25888636 -812951607 -583679050 -249598443 -71035963 252113311 548249780 371216328 118382003 391794265 895604392 -291168749 892023004 -564850336 666860694 747865418 -546377316 -650782537 -888142746 706571595 -945933211 341221169 -286598799 -566015021 -73404244 311949923 886721977 -536373564 296669576 -528912601 -972120757 630462052 -935137730 750975010 129215331 238410226 64154327 970817869 -586479208 482688509 626721317 -50401826 699240757 -829136551 -667639381 606441273 931748133 -493652959 -964958724 336175023 267085849 777442874 39350477 -483156729 -266262690 254235310 597758015 -887514180 94221735 741162763 763064901 789597751 -820098124 -942616286 -693635084 -471505235 -417721867 -997880374 247531039 481871978 -118565422 574813915 -11351496 -723832143 659163105 -992279847 94746131 -249491656 340108329 -1662367 730549416 991702372 393058990 -881859136 427591914 168207660 -996285646 -962521550 -974017755 181989817 -512570697 784907696 -589331803 539938850 -467473051 709071193 671866942 532792043 541672335 -79323948 985832625 8311161 -291228989 765828209 -968828726 -600327701 340146736 -502415627 -59034866 695047399 537863667 769826072 783187241 789037759 87496240 -380760551 -587913217 696372722 913814532 32281487 568119080 -671442083 224823519 -526068110 -124354032 61431951 -328102156 -362079714 189685158 852482432 -833405548 572772483 -175269825 10337509 -503650602 -626857167 -988034033 381802374 993481499 300661385 -681034596 -87288915 -904751435 -736524594 -721293463 -530284207 719379350 486259539 13416544 222592188 214415738 270808076 -894829876 816647816 -129623143 450536381 207113102 985106715 -116826337 471232407 -234821193 144898771 796149465 -163562417 -189130535 255007770 591807400 -121427972 -699338531 -466058326 -658701181 -609169898 -186180806 910346797 -668127286 -395778585 502051352 -41783662 -736702047 -989627940 -244923589 461792290 -391398274 -424681736 100198421 -271111144 994563769 -293626670 -732759509 62063410 -343946313 244928443 -682704483 -313151335 106938234 -747804816 -750847258 231072695 844171525 -79864105 -884226293 -342336966 -98025738 -669817668 394384559 230593061 67493363 -150148555 -272455653 30513256 381603981 257298999 78108849 -890978028 244860899 182570362 796261484 -150310985 -852511634 252089919 285153076 605676480 614064932 183760952 -628423984 74439647 803394039 -744488877 853319652 -747145817 458411206 824634701 -308655880 -317731805 -261979238 79858621 471087862 -787244617 801926649 -612695848 603269604 -760378269 759071803 -787991717 967332055 340442999 -233987632 769478332 414561050 797653276 -375497875 849509739 748762648 -496216763 -610954613 -641215892 -543354789 -17103527 777539689 -425636645 -477753420 930310077 845791653 784030753 -56830952 804473559 92318570 542537487 -990364991 283323703 24787160 -9714101 -483200884 117978078 -574590528 -737203642 -39321517 -601663141 221151491 -979739004 -258024655 89546506 33280989 -803814386 -871764533 568792730 109950708 629418159 313639648 -828311705 706035824 -712651543 852749276 376822089 -451453530 336191579 477648001 -927510218 78980780 -116850203 -792335875 999469622 451958167 637550600 -599362502 813503555 339844566 -392624788 367283569 -625931111 503423136 152066029 -447046627 689746338 -654050511 -341586712 -277956419 -817739698 -597720361 -19254062 -566640850 -327538882 374031950 522529352 205024707 222465359 -709326469 518958627 814874065 -295087803 976614263 555269484 308617117 -505660181 640920928 835818456 -193786934 -448911339 40711118 437658332 817952012 -560210943 -134600099 628130225 570382687 -342059624 876325763 924894239 -387432586 162604301 913952211 -545695575 189836283 696705527 -807208834 -648413830 83076661 934660898 38339447 -446872147 -615485630 -109305085 -987296130 225667995 351293599 -211834580 183262145 250096286 -528592157 -328423899 56919323 -681030905 -907426259 27877156 571608717 624779133 -629594832 -258181583 104917837 -20953612 -396117445 635395901 902954008 870720895 280857318 665399580 -82798375 -851871411 -131021837 -659216673 -934961041 718021464 -334277325 -890465094 232535795 479581132 619786154 810755877 5873025 -666522029 326095321 -15181486 -477584458 267668023 -432584542 854908681 425967911 -695028821 -875264019 -251250488 -154542871 947369750 -340935644 636889143 424633418 223096703 -744460145 61105524 -746303676 841851958 656207754 -616840001 -305408028 970618839 534097318 -234218032 63105401 -142262590 294583244 243082974 567187205 311169122 -803415936 810430046 -258310358 508575517 902077741 -963799429 -560571307 581570132 973618662 830635404 440153943 267660287 -23673488 474570698 -748358116 138339960 885523980 646843198 958410872 456458109 -844664579 -511621433 873314217 733890547 47748152 280547052 150424555 -295966160 991831461 796592243 -748387042 329779417 160885268 -373203401 -863145668 -119035207 884780810 428596468 623792328 -220992552 516430772 655443157 748498113 421374042 792032861 -841056496 -712327348 -471675400 -530884208 566997332 893393317 -50524288 82596534 176021041 -710160 893148930 902147909 -129715108 -198076466 -511712174 996895379 167368697 -341553965 954117968 187871628 853029179 -818771182 893791394 708988528 -627794213 604538882 187641620 732187379 143232704 78407575 878372621 770563295 107429766 -30122673 74564956 -340249458 -694103120 -294520460 661517991 976629686 -703745125 575934530 552076550 -156649180 168757433 -32500019 690014100 15367671 -328078648 -180973699 774114182 -508602569 819515977 -114211140 242256593 -674950087 215054650 711237690 201206538 -628511975 278430822 855179381 897406886 294077554 -205079456 -729528408 -251729108 932668557 -474628444 -203904764 -577062615 -11219791 686363609 -964709020 25539812 195060677 -258821391 132381557 -880779530 -395945532 -795813750 403541698 -504688549 52918745 -283165000 -529439359 -824332008 50048469 -534373610 911247392 574047833 -353766319 -110643185 46124379 677517454 815453772 -209139891 -437150331 -545250475 647741317 -572485429 240158494 986051337 847013704 753168074 393123038 -623095205 -75126739 -797037124 -985256759 989270715 -397858379 400494181 694284856 -360943967 56672763 -421794323 -739689610 -282778379 756703294 84289680 -558235010 790692156 291061047 148954938 -615110290 757530479 -70264278 -966481437 -945111796 -567331483 355653438 -301809103 319625732 -375217436 237505520 458488607 323949378 -956255116 331586160 -362448872 -312564380 -792130250 -336869418 65981517 -582261095 -672764734 302905889 914821030 528414787 -425259806 -985589758 769037716 319174927 -747002425 827901743 749400361 -829341582 -724889172 176412648 -264930409 -198482769 -410693466 -342852052 -5156257 -29570421 860017252 -844970334 -31143570 -704502004 -36297585 579952193 48383329 831620 -689020975 732521495 -586339047 -518524957 -432078045 -161703807 -918697728 -352704605 334645498 907071990 -843711975 -605090576 298413452 -107509957 -258224061 -192085884 -649339941 276552268 509183617 467170985 33965089 -964772790 -972510120 982900557 537919865 -571069146 -840171161 735990053 17528119 114082153 -946227686 -300256551 998255447 377018510 680703336 286164105 997727066 97823930 191498377 852893197 -552734712 -48150671 970846426 -445834834 -168357860 -958453837 -293119309 603006720 -415733318 -962550192 -188152858 688538781 795050489 -545860295 -652454444 -841559816 -959616480 960353841 -102914732 459265930 -953046302 353318540 312047395 -9574635 -317169627 -669074487 -243058405 323719223 -579107176 -936511251 -198545161 44401261 -826437169 7829396 -43427677 411528757 930273561 483109806 -494484274 -505607936 56522324 -622027699 -385478639 -24182670 423856707 -990727666 437741969 701813104 779707477 -302675165 499593601 -524970650 -824428640 -542632402 -598023013 965440391 -910243060 -278800933 -948373510 264793333 510578043 -155625560 -253341656 628671329 -878091518 -42192874 340564504 -679570415 605496031 -567401718 855653810 627246084 21929773 391069553 13686823 746805467 628907492 50385362 852897508 245590241 681032894 -220018134 -111035951 -782288268 -157719959 -545741306 733862614 -938731821 -275065568 -20128485 -795316178 481524849 -655992101 587587627 431412974 -867805857 -936169284 199617153 596377300 503618070 4355802 177190018 391609916 -930776456 158513840 -977773591 869879857 -813740415 851224898 -313041503 583304144 333285624 -824894981 -901724224 -911418633 313475087 -812232883 956859017 -158598788 -498248490 -249954855 644326923 -707723231 595673177 138566436 447745934 -764478407 -263248764 795085103 596269033 392999634 434535824 -145346383 374130682 -823671050 303049012 261301545 527641760 -588917865 -595422849 644885757 987027621 -685533560 928445810 312083199 873440434 792425481 -884751935 476073224 457814663 81570138 926736561 892322511 738129606 -776887315 -500725192 789661106 -567252209 94746016 387920807 108037055 877124376 427495600 496225279 -669291252 -417369509 -559486917 707874442 22158957 -482677383 -714844939 -854468958 341927805 -973315561 -891395753 -741052885 -217327769 475930024 -836747385 -608868238 -4523638 -410976488 -42144668 -524896238 -683266135 773175949 200625475 600196408 733646373 -222687683 -672611789 516543465 -434165361 -910351108 -382049337 -823289503 -576931295 42207410 -643601822 926819516 492811676 876665814 591229391 -133693001 -971942678 -392089246 179107988 613029907 183786388 -565017037 -891861220 -575056154 -703922071 567252472 229856822 577697205 211744331 664684077 202693046 762067556 7890321 -389500451 51619130 -874559218 449636024 -839049464 -939763220 -846913628 699668172 894751112 448438576 966638955 227304137 -559883284 424730963 -246044411 -831348747 -828648424 470377129 856286098 -620236005 -460104405 -62229180 -956636172 611688245 648514667 390312372 -345316152 -243108776 374460872 -950064679 -891623083 -746374927 -201854038 202857095 577449786 -568121960 -902983642 86469650 303247570 -702587615 -311422452 910229822 133003289 174715414 333531495 957166321 849993097 858156657 -497816316 -627177934 210910981 -549105639 -41307008 728450599 -270215911 -140724194 -619552851 -431565356 -791106177 -970583786 -947902578 275372364 -344918170 -871617119 152243344 -547177653 224197015 534945338 -823716277 -660342575 -52125873 -502512892 -81617292 255047261 -627908900 376146436 -419565882 579655645 -721885769 470163869 -202125345 -98100773 636994060 -443202113 329545967 -109495736 -775460259 991518946 -805329001 -453859849 16603629 977354455 -976501910 -585745119 955675157 78942278 -618259655 174188982 995529870 -136257692 -208154673 667942533 370708575 419264089 -68255574 20998665 -197321473 656355739 -797969022 751750410 988107283 -325122796 -944842511 -518663906 -227698957 728540690 -959989546 -426842728 879451780 140165326 -428267834 485997996 562495345 -699424176 -38558933 -699782713 -101418222 -226669022 524143084 -214836655 -592607203 -663179930 176345088 119227193 980348577 -720249437 670729421 966298663 -248522648 592424633 -899141733 38461915 919862466 992467655 869818763 -246518886 -373873978 -769848161 415250976 342563446 -402597457 175795689 -784870020 -136072829 406873186 -320394399 993175467 -670757471 169534269 570250165 -995842016 -24154513 63258888 -510042746 283557846 36348524 125672735 -351257737 -67621370 -765197281 918788255 -611830399 949095873 -86171827 -116556062 806291646 395412905 -358640666 527186409 920686224 980127469 920992276 967518020 185518382 421846846 775812941 402231178 208116219 771904077 -273575262 254978217 -182914806 -507019013 -800192150 -343944634 -642184318 -622025245 89982628 -704000664 973548099 739974303 981732738 373580839 381886073 -369429098 64022634 698801340 585965392 -957910486 467655926 -820478078 -389818157 -389282697 904779684 758802491 -207459532 813717629 682638345 548579087 954102989 316888868 -50768296 -776864926 648363368 685402538 -232350694 -239720672 -827778124 -719340343 -385102587 42238053 947382498 -854205499 -386747684 139325886 162124667 -637666878 -876838691 99217045 330921209 487115869 902273436 544979548 76043217 267451531 -441785569 -481532728 -527886090 -705518065 470671130 -204312204 736569607 353324534 -891271907 582670590 755077466 -521680687 535176410 -560625734 953765295 872802686 -217260333 -27920517 959049667 -723321825 -984080873 387375455 -155283127 -232415615 663746080 -889170139 825767715 -758659739 899021069 -828527981 -820467637 534128862 881262744 -941238825 -707681459 -780983479 -574243399 19503011 882127056 354674351 -962934750 340528517 444896690 782069966 -716968053 -65476361 -550083599 -793068268 -259429326 -664593952 -963305391 36466344 972012241 152451148 573655275 -768432843 19623220 -86383576 266376449 895556555 -160719100 -318576655 293750186 -424976483 -545043313 -603395390 829860939 -98618071 -753703946 874013195 992750961 654005897 665661574 957873073 -806493745 -92261917 -433862862 -270122456 398454804 334461263 -944479129 -637640709 -329920964 -520825849 -597112662 523261524 -257095097 -12446911 -85471242 95699713 -26304868 -622863265 -215779073 -48218374 178045207 572279539 14362394 787032953 -930272488 382016550 704711693 247766606 -58623131 918617704 11605519 -9660316 -120942726 -448293560 -71918279 76070790 372892548 51124201 -438471271 349224554 73892089 734219539 -726848483 -657395216 -256707884 -650342824 789941679 534247670 -272288405 607522460 833998948 656545116 -658791713 -895574132 -770137267 -795583860 -685695669 465088847 208355003 325192535 -990122871 -139412631 -116305312 -570398605 339667314 -63442039 878242370 -956281698 -194206975 158540346 -571959777 996574949 61048048 666121474 -994791340 737175925 -447799597 -745776823 667662577 -416821011 572103087 963646942 -511603481 702190477 -721683411 -79541554 277338533 -919473446 137523588 -299406021 694918699 3494538 -214592123 77453377 -252850276 -301032940 -444434825 535190493 -381406677 -311506994 -941280191 -856308838 -838281010 -2831160 699000414 870483190 434854698 -621945502 659832329 467515 898406163 -52358664 927174999 -578417559 -252577834 425076307 839271540 820643264 574913104 489127605 -178191789 -193070230 -425253777 -403062360 497206388 -636034180 -693602402 -690399627 165890001 147972738 227177780 -69652261 884915807 -779104047 400632067 688357272 -278535212 -641206712 51562025 631285565 -420127744 -686766404 -800976891 -719029107 -396838977 15761186 -739849494 650669092 475496084 167755018 -697123911 165903428 968025012 -332808122 -11311037 59467218 -230371617 -785835994 -513484160 -959414343 -555202443 -30836944 -644955445 837375271 928318641 -677973989 -59246868 231708224 -157221396 -254264855 -472427521 -701888702 -382755814 -635883488 -456494860 -507435825 551235927 -854494917 -889193293 615265990 -306950678 -41258618 -254607606 311320769 43949314 208756154 702179790 331001464 -234448650 -789795133 693069974 -243145630 125890016 129595309 65202198 143733038 -415548772 237571314 309026603 663137320 701752333 -525440748 -844341100 499956208 -747908275 -561802062 -181983467 474006216 -370661127 897959747 -980263371 138587351 -647724301 -521804412 571386770 -376407306 -112289627 -20589837 -545522546 -777505981 -689586866 -82971436 380443305 670965966 -51725998 122606470 -563599700 -166181367 -999249540 -150468174 -127137957 -947494573 887184693 -873303584 151623335 741812232 -870142600 944402778 290597418 -626921564 -84530232 -386701290 767137299 554521395 991643023 870621335 -835013143 582625635 55705347 695549866 -106539994 -718620333 -878889895 -954450088 777626003 891513050 459067653 -923814537 629702779 271782748 944287981 -39583769 -78966617 675117158 537298435 452217798 168694102 691779957 724231501 -927119732 971774564 -253056133 -611496328 282509039 107969387 -702341638 296253934 -590267440 135069553 -404873983 -142660931 421214219 -870853083 -821690815 -258677144 -971989878 -837267749 362672902 -547588768 160880965 -265220719 -160555852 795255832 58387915 -603850294 -165771071 283617584 -127885520 -135028857 262574949 -33931929 -584365603 -235047832 -380812813 513908456 976119484 -88440347 -326493763 -293608587 -50942364 332748888 247431570 662417572 -694182316 -373605131 761909238 939166442 -936495143 311227017 -46811870 -484832233 -419703496 -171026678 552141332 529690909 -951853051 -746027908 869748851 -557270912 -49976683 -798386198 -42400943 624301261 -300981235 793700114 373394998 218339693 -966354021 977692369 329179240 -303930589 769559572 -909976070 328265313 -161136997 916443493 -15040523 -85409080 142795560 -184136611 -327177411 -89534219 641416434 383998263 646396751 565702959 -210331629 260605351 742108370 -916356435 379987414 953770534 -209569694 976801730 71857210 744015154 555208427 680446342 196691254 -488136288 -413412946 -817155575 -227608108 136629102 -236130994 178460212 366411848 376389771 487084946 -568365039 340271456 270684157 -934254355 -137540737 -210192435 262021046 -248997386 395824313 517900345 -451988930 822764864 -607255208 551136183 513225877 596775393 -157932639 994698847 -777440254 -855871062 425702592 -856863589 -795162785 -987870667 -113146845 819113148 672557944 254322275 -736955839 759020069 -658518151 154558004 863115821 -623979406 108643877 309753196 -222588313 864813899 960339094 668558208 -671854231 -674987768 807639842 772204769 797483209 -452433006 907519 -498886242 -901861286 -716415479 -199835892 226581499 -174022623 -252362418 439504448 -764383315 -587506638 589747178 -186186554 810795695 753718586 303181691 988391886 -933652608 -751079280 -223367716 774474049 -159711783 -408587459 -832202692 -787224154 758714165 -429703657 -644194704 -288880673 695324814 351745810 -276298553 -962203922 -199871218 388545704 -103638768 696496936 -313072785 306881631 -173086391 -928989002 298777528 -900489818 -967539869 -889775358 18724347 483955476 -728561955 23315799 842763572 -476672369 -460505948 975253118 -134032355 681354297 276825364 784244368 -450375739 76490655 -457385911 -510842154 -259782535 -352745383 -604005063 956321 -926575632 260273882 226874254 -236917241 -958806198 392193898 131170234 -136370152 844078980 151007586 -793688454 -323352634 372929830 -35446044 295706133 264459394 657570843 -993214246 410948252 161658754 243482746 871133050 216725535 376433069 483602536 142865368 -204926973 -92166584 466860036 -823914690 -58230936 -657944942 -215113084 -901419092 93342603 477909264 698600466 667016975 -643455326 921181130 -482393422 -912533003 -320700672 586787625 -637417133 300534335 11846318 -677027253 -450872367 174950516 741908939 485786570 953770346 616760606 448390501 373624516 -805565634 975289449 -584435010 -895070320 529541826 -696757825 12027045 -71717167 -197284230 156310550 -186429181 -541414513 684104749 -541002070 -248940497 867542109 660698838 -194902036 -432699432 -672742161 507261180 180418993 838572793 937388315 -625371555 547701274 -836472808 996521019 154890633 795693948 268101697 781523143 -511184333 380644814 686765381 -888643836 515849640 161384621 -370826700 -988625938 294382376 635892790 -55313270 305013544 625642963 -797384519 650603954 -834329865 693180245 610888474 -837098199 -111913566 -297313028 -629085888 250022177 -84030317 186146102 625422310 312852347 -330220363 -911832557 -401228389 -623040240 978597481 -804280542 225229543 239645180 11827833 389664934 -828428649 608057153 -516486007 228589500 -692970934 664966045 -41407823 -952625191 577360781 646452733 269166625 739312074 24199897 283654550 -350096994 35566149 -209045610 114103545 -8685417 841027681 777757835 -797296830 654212502 -16909320 463200453 -823500891 -247051553 107033612 -163146400 245218821 -376535991 -602966852 431200617 522996673 73952900 821745343 -566168017 -179543282 -501285173 721482519 566604713 -452704795 -392141578 -124389365 861320213 -596165289 -733875855 -2096585 -208882301 68236968 869755195 -121957984 291207274 -179920821 -719132851 13600993 869853215 394553687 -959782621 348503894 809850879 -59026622 -901334334 217922366 243966279 578233495 628091254 111813503 630190977 93322974 478176441 -491818579 -931042759 286143817 1718069 660854772 -159429473 361300556 182301438 -830439911 -88124293 -366733480 -1083945 -248560608 -473507680 453321662 -187967681 927087608 352396441 -828846285 615651702 118172132 -472211329 -285560609 526527990 146092730 221400672 -638940718 624280856 220913954 -387215825 542471165 -782004095 935009967 773503052 293557297 666257204 619970381 -856850550 45280387 -945940812 712908113 -886041136 -821180577 251559771 -230482919 -402405728 -24372564 87009593 92451179 664392726 906552167 623686985 -633892956 -930067424 -392211802 659078704 623305884 -776601857 168965272 294443861 -897291298 -580108804 698660733 -850719693 -691770600 969486539 -233524090 -869158782 -460524597 683886410 -631387388 -949320855 -966651953 813558409 193796703 61295275 -395166617 932410873 -277864203 296418252 630787777 -47824045 -574156413 -261198187 86604538 -461068786 45163847 -790098485 -747288424 -546733190 520414550 993107867 371064341 903972734 327278079 -181104760 795141238 911120340 945250030 -59244116 -130028897 -68503792 828240608 772885243 296409504 -775166221 -532298839 639851408 -244667923 312191290 480439301 -679987177 584461262 108590774 -291111098 94156081 570587462 468338334 442499227 677641500 -285465846 -246316842 -126183859 904329342 -660214592 -130865709 -641419145 -334859574 179082062 -430204921 -85421020 715525015 318992579 31627479 453376078 -328657832 -832936227 -50424660 -11492004 -580059377 -402502259 794511970 825729624 -996850748 -512763516 385881868 905020125 -859299716 -892747051 -245227149 146485785 403642230 298676168 -561938495 -723679677 -681902032 768206175 161318921 -404035899 873990566 471686473 770301482 -467077326 159338935 269964879 -609109693 904875776 -133159850 184147212 780286902 322835771 694084501 -195596707 -419781532 -39245979 -16123883 -949467103 -263769576 -388018335 -646710103 602505472 207945663 703826434 -411016072 -589488639 -366469925 714901557 129132216 -573481225 -966438764 -134992816 245693962 758539607 -492257056 -394934955 -281107434 -691337014 -382890595 -169787316 -716930413 -86763479 729097295 320580082 -882129368 589275946 246152399 -572850187 -312853518 547837762 602197603 547828626 723734250 354843979 992066655 321767517 551590546 449909014 440349941 717871758 -338828319 755748252 322885880 -750815544 -244070913 -785724736 -689180103 356431100 177204401 -1055747 -523356154 197509290 863431128 89990475 420810642 312905085 -693707864 -976074092 344780245 495898256 -2220448 308705645 -500615219 146624498 -979349061 -307693071 38153488 125430269 147023081 -260012773 155427525 705502313 957155461 -90134608 -497451931 -918822322 -458224337 -981095638 -982456685 -172239294 -65193759 -790401459 429842273 657734557 -240324616 -105844617 -818596955 -495462660 -13743048 389950839 -163113746 -455163710 64209907 -183601770 -798579474 -787630715 -76284865 51436503 -67515903 -970929762 662342877 -145204493 -204365860 557937791 967245145 643435456 -694355591 753614826 659734679 -90024504 947865331 283887136 -127747389 482174848 -669792749 794726259 -579768614 -827678353 -438196340 -815553750 -479441667 -824963394 28513664 297280591 -855210176 -858887795 394179559 -864281715 -299504340 -881842618 -926851900 4457028 267938685 -587293968 -413234180 -483272196 -253256844 368945231 679762821 411732180 459444269 -119493096 -911049017 -594601871 -488970007 368656739 -910728872 -772861168 -163667766 -236936798 284447890 845193928 -94395525 -818897345 562720827 -691383881 65863001 -610985638 746891704 601105099 -136265788 346516694 -404502969 628629922 684002576 3574430 -633789049 -140631085 -551622085 74236338 181499898 -777710433 -292194341 -768705855 107928549 200577425 750919782 -667356315 447283574 555807803 -679446826 537893001 -515585502 714086423 156095498 259386902 682795691 -294867244 441525279 105261528 667134629 -854245331 -453611042 346910193 797010009 -487830847 108933086 -70007387 -579628995 687801567 -275488247 285204669 461579825 -590003519 -502719822 -713722136 482574626 92436152 357729626 204119289 116560081 -466991699 131690410 656194376 672577533 -592637473 225832917 889088631 921748603 -795726176 -139944008 -341685970 -176033000 -140037142 544881484 -360054273 -633991272 -611419524 339835563 -69894529 -718872749 -970799993 34258385 -649855408 681376207 476164027 -655211106 -871730268 -368135036 267770840 -190231623 -985936054 608673057 466566769 -730375452 -890722583 755129308 -87201962 -697157426 -472301975 483502318 -575158885 -358663391 25752850 788066833 288673314 758903241 -57445873 -221384048 929446249 -744847750 254726495 621106065 -492132121 862202267 984569845 -525483537 893055965 398316130 477189625 660570017 26385947 -49147139 797252043 84211991 -422513495 -390867790 691499372 432913721 335169652 698028306 520983252 -837068183 610767491 -767546150 -227524322 -393819334 -921321574 -252394888 307082390 640212598 -671692006 -559585230 942011582 -817487925 -585452417 -276971939 -587075189 -551613129 793943420 -121978622 -594787148 -42944797 -590334839 886657059 -400969731 -23928856 783574910 -933937232 -863119707 445826195 509719369 -543998907 837393579 -474646115 -245477536 125048844 694493872 -298458460 -541312648 20004092 51781631 714368409 -274466318 551544306 557565128 713985721 -392648274 -260272591 -382814488 722955960 288649415 106479647 -36574128 955972792 734454117 -812420901 782494421 -164729879 -431053196 966212482 762741609 737795832 -402538429 904886911 56016522 -275368412 201168996 -610346391 -453077233 -626105298 109822682 576108099 -421858178 -939158731 -437202709 136282710 872340767 461389067 601494483 -893537195 14889224 -436216281 -59560393 553524921 -42326440 108407726 536842265 -910094241 40772610 -93371042 321901430 -886284289 692009841 685312840 724160681 -168672122 167993805 336892817 -698315753 -380795856 -923928801 69097054 -36449249 -890033065 846261494 -576769542 -729392534 -954863080 -838357988 393951579 -693070722 180120943 -17451306 192171040 540022907 800985480 -509606213 -275726267 -92283897 -33066380 -345280813 -251397886 -470085038 -178952877 -134644910 -494169216 -843294634 -478442308 208364649 -99989843 -908553791 700730353 106077914 -388123659 144098485 -370743365 -660434905 863258228 703160460 271786690 778351775 -191546189 -822434854 -135904642 -405589949 557044712 -121992385 -804177148 -385820256 713831504 631648360 182244771 -23668287 -928851999 474388964 423666976 411214117 -707775170 -773709851 -707034309 -743052588 -200128860 -311344909 -958845797 743101386 -648262767 -895414570 -12817766 983973478 520419066 -106380060 -276990982 -932145112 242016232 -720432273 114326578 -803098059 652319484 -378652218 63632336 -405022511 883391034 332181238 313877388 78441385 -844229514 -920326308 32211849 374587974 -76704610 229706400 397078294 -339559660 207248142 -177043001 336461207 394646551 365941423 388148125 -789200947 -115618936 -557833683 468514686 563772870 720382284 -64272515 534176199 292706902 -505103113 -588403621 -472358922 649411055 -483162780 542747257 -11537759 -156257719 570240343 -912315342 -321858909 -876324784 -772015323 -471097936 -15958907 -423453665 570322175 -487833279 361925672 -575972039 -580789160 -552996430 -703877395 390178332 844462101 -667008241 239486883 497821041 -210024096 287365234 909822657 -139019628 963134746 -76527368 405734618 230047357 -870042622 562779816 -127667344 -822881368 430292314 -245782097 -705801220 -678114059 -184471115 -281361566 87059014 -339447501 -51632328 -152228143 -310801873 -519893186 -898217166 -469048941 597681657 -990695888 747728362 -625299074 -382957689 -717493353 540856495 -800527057 672813568 -534645424 -168064146 -773028636 -804609375 -139956381 -474857566 263708200 99213073 -42574825 952189198 610111429 739739332 -180604393 385840178 -828168512 269436610 -436869848 -584394396 6934797 -656804891 152002901 -209917618 -719863543 -291945358 718769582 -587884934 -171119291 -913637850 -137978981 202482353 976454738 584059690 -870035868 757164454 -886997402 213816420 -523700548 682297375 503153254 682312992 662453524 -34126578 -54853871 -141611785 898020125 -980226019 -350893917 -267140532 256942286 -416735029 506863463 -767709686 863901762 -911204882 910318907 975674156 -541003342 135718941 -696132051 713216827 797006894 411670128 647089355 -500288075 790032288 -137648443 742176495 583497148 -53519368 188118615 -110850377 -972405812 509535979 -907820873 116365546 904488574 908739702 398080556 -207378195 513785579 -770246306 -720783571 586564224 183074882 -614919807 694869672 409208057 -405451849 293193039 -425947967 778615199 -654697307 727976550 554609543 100782442 14513504 -904723828 -212663216 -237351741 280203468 46063873 940848038 257522159 -725286194 -707748308 82949275 373111310 -770568480 -63131076 -974209649 -388695638 926961634 -171299646 940279021 404942419 660539914 309044567 317209859 -928675029 300331408 380975371 -317190725 688886208 617090701 -214947373 -986819026 -399332104 806143799 -187358646 -294963482 698379352 -439272481 86149299 -20832162 -677946993 -483385596 685097790 212281156 -852577599 -39944372 41214074 -139170564 518435779 -487396949 -114192886 475272293 -109778422 252860004 216039760 -901801140 -355487874 150293654 861977224 430784578 761610624 111859877 49645357 404688334 225189370 965438151 -313272881 398513641 -874255995 -859699122 505031408 -633536878 407985288 779173499 574034605 -769569496 -18362312 592357467 -892440398 690838279 254911672 -827464278 -615854804 789927620 -757360228 -704083028 -356911099 -340809461 -949125263 -938159246 -153673288 349194826 37754019 -568995856 430272980 961087795 -417105222 -588598185 570427758 742576396 -660075256 745850424 802995311 -215877126 -303830952 -789416438 707686691 834362621 -488723470 -679646389 669443880 563645161 519402913 663385573 803054887 -595179801 -933661433 906945190 -508654221 -493254458 -415364408 127494920 -654310169 -702295795 -725807043 -76892145 -953192879 456953957 875789468 -233724094 -991851089 646287456 977952715 334789248 783027514 815759255 -953104017 636858966 681194343 255551285 -600641580 -56041875 -989264768 501454833 902221503 671973954 22624273 926342680 -662823603 -919298148 -166021206 870793814 580326200 -888359574 -177197359 802686212 -436078470 918317003 818550619 -858845784 485404506 -52825412 884698321 260219116 -515921400 908646437 -738069897 310159307 -684391264 -763274338 -358921554 4444140 -723555104 103636463 -343228794 318195845 -338344303 379119099 -163903801 485775672 680301244 204528541 994291516 927703055 531889852 -74616091 -843414862 -933329953 650078275 853528988 416896508 599480628 78345748 294688493 -993539642 143903446 -563940051 154200132 -667478962 -44677246 723295433 564703881 -590757047 593188814 -227216982 830466001 -366417124 -544692453 955988034 629896639 340196152 -974629787 218870521 -765206816 -585974274 -735884670 -620222797 537899931 920572784 -610203541 987045260 459346956 951846357 -268618600 959029574 -481724421 -716795840 -347244806 -655412785 260562986 817881183 411403242 892986047 -996855303 -929973939 -598757245 -432854756 -670710900 -792257201 -550695113 810988231 -794907216 871554570 307503563 -859599978 379979053 -623812358 142299898 -221080282 148783 -172767061 158637013 -842313667 324321079 -23953596 378364442 -313046978 359209768 790385217 -168569365 -372017199 -871956443 848075838 983561656 214903692 538482753 505618046 797385769 320691481 -389432684 -687626015 -811357131 356619093 71184218 -733980196 984390386 717327334 -151938648 83146621 394591795 275996418 504294492 -771389005 756076563 522131010 605706888 -685649590 -992028192 654266479 -592186738 -992624650 462731413 -602370807 -259819032 -134945570 -322015498 -107451936 -930178498 789850630 616240752 590339011 635441696 -106357690 155019352 248666731 -304269830 618591245 -692887278 710670937 523040580 209197142 166208169 821926378 -328038010 625544184 278653690 -469305671 513905233 483841239 654534622 -552315021 608261872 -545250035 189572391 660608829 -799695434 997872410 -332489606 355273451 -479869527 438168828 802956705 -679055342 486154903 -527371875 -183967726 999249937 -423364255 721287715 307285734 41012067 -923030579 -599293380 277490151 458826370 -555573749 -327537729 -221846513 -560561208 340400584 683641014 -640000391 -689600266 105914758 -216384749 -447256376 266798329 42295745 -91259799 -173347980 776154973 695692978 361967578 885974373 -806457313 523026895 -893304414 -265025741 -708605130 -447420264 -985946749 13182916 469369750 214620684 -178610543 -845040874 -328218019 -99901857 -942499517 -2902971 -56500072 -88144508 -795906382 -893775974 -577638711 -59666833 517640424 680589852 -25699525 160193199 -137727353 434212047 -437501541 506892320 816334234 -256334715 984012587 108646565 700807467 608444981 -632342849 -48970535 -763799145 290189261 945219022 83383708 589782996 -958470808 565298011 -621384232 -273318276 -999771465 305373491 -86368701 58015806 -866982273 -942427704 816986229 -986272787 -196434062 6429142 -182396005 -611968570 61433968 -257084775 -393151906 -856307685 -732906004 -982686288 -589736743 -203076500 905783346 223066101 699374102 -979472596 -436964515 55887997 216262757 -81708029 -690883515 -598400270 482823463 429645214 702980063 -835252775 -384234822 -16591732 107894742 692497048 180785225 -343098666 691927343 -195358720 -451175023 993150300 -297009545 999082780 -790946520 -89306491 482987589 312517769 177843129 518497975 896732962 161192421 995613416 -840759859 -35208973 -71394315 564062389 -840996362 -768298831 990865241 -462261407 -646851870 623143825 -861144290 -679433530 923905869 777296086 -71502200 -32506418 279787239 -97637745 312500058 958743794 785472960 -841269873 -342246619 -662928060 518956427 -289590693 152500784 115414873 661434566 891010582 283462337 139460741 345288652 119768674 613311776 149671996 176070117 709263197 -177635399 321397938 990053260 -889686315 -878863139 355069697 -617088245 94094366 -65312455 566387317 248261840 -111562771 -429308123 725360622 -695486191 735192727 580739543 598966632 85765035 -725885241 369752314 274640011 -951354614 -747794994 509833971 320419951 585536644 153192744 175843840 -248898186 -266428431 242885726 904593787 -566836569 989785629 284460454 -120885248 -664582701 -125368451 845324391 -214823889 274704885 357665965 -424995989 -188659996 -350003095 89172607 810610384 -723601386 -94394389 -312228953 -175724520 45833945 395067148 -50296796 195291202 -885991091 612571005 403173938 -978829406 -602701381 -959393896 402674946 -527857435 -888888080 895621673 -324133826 -102675708 -192296548 114195702 506382004 -667814797 723966537 548648276 -508667715 -797477202 -709089764 -316099430 -923783074 -649658539 765094577 -493227635 275677116 287525508 -378488569 993501362 -828481447 -807277448 547068622 237368412 -981766017 266905948 -143215505 912368859 201410687 186377944 -973373184 634274511 173553629 363759780 -576434771 -515208657 -427742217 816205752 -581696072 -934971961 -562099225 134727439 384942967 937285604 -403191588 -478083711 -860370984 39206357 359677502 641853603 271586315 -931621530 -752975134 -609571321 127031704 624805511 -749175834 -975642568 86001449 875911089 392555651 -489274818 973965100 -593602254 295325524 309727371 -440339454 -33108265 645337537 -681330908 -734947070 988612044 980426236 501190606 -738570081 -852131266 46311133 -55059581 988738869 884877878 952695769 496245499 951396873 -879289017 70904010 374676656 -228136947 93115147 -220160736 656846553 -851545221 -470706263 -979825799 539248237 343214881 310069270 597613324 -635081232 232041118 -782808685 -584532446 -523031728 173769952 -41251093 -797342871 487764717 615933662 -378368247 904212877 65094273 997848562 -138583794 829796123 -889907992 -44661547 -478420987 -995952118 359454084 478395058 81968291 -875952799 218257794 486578821 -658350850 343326021 657644464 -586812295 457237501 -699269016 -847672601 373655466 -21501183 -682397822 -436347751 766537958 -160732299 126739262 878842133 -497337258 51099090 -643318488 -609806737 -696913113 964759799 864822315 -134755003 -358046527 128308429 866772123 -778857681 621166522 -604005354 -534777576 413089420 -196881386 -478756874 604828139 -333130496 -919850579 146425729 -694520709 743557553 -288132458 261034306 -422908565 -742569986 418164450 -902601960 318022734 367324898 -602346302 -116588237 890263381 343575708 -938693470 -444970845 90585544 -672364073 -323158067 418841291 -10595951 -690422815 926755284 31548876 -508305 -521155638 17214181 681884206 919480897 -528465417 -198055686 537281306 -909113239 119857019 -971116803 298262657 488827622 -964364404 -645627466 423728532 534874596 -606427256 654421482 821244383 -410086097 -78165115 -352629987 -693582725 -40254521 -594423498 733596246 -45698749 -580200459 716881544 -27200847 929515465 832075130 -569361531 -925740867 452836065 -47735313 74775544 437578464 187677581 242465730 541647867 24004974 863086290 761967668 -539535162 -605554572 -286796520 222395333 269062863 -324951631 198161468 -970296214 -33428525 171122177 -218218617 704945223 -655086090 945874200 57636427 -706106572 -814359675 457892187 -926743214 -477227537 -725418582 -991112653 -883257487 -872386549 -681483333 -153359850 439173943 930598452 -564038010 134935646 -513627350 -703701168 -254725560 -743279572 302630770 254485183 890267069 -44134965 937509518 263970968 -778298582 985380304 -398381566 432966779 -627550359 -579598189 -126012536 531106624 868186577 151771652 140139819 -622828946 22410182 570059987 528100163 -174535680 702478409 -186570847 269469104 759210182 -901677522 122319333 -272719273 -419744968 336712699 675417061 53236348 -200259162 -462616073 664821806 -84391088 -902702749 -966452347 -729461143 350051828 -155967562 853834096 947967448 -229003736 467479295 -534535314 -589355877 503498342 173409670 -903038428 320757522 134326017 730012542 399459343 -428561053 972216170 -151420866 -816169807 -946478504 110266300 -157986395 171629565 -460956661 -855048913 41335288 330197470 -156966392 18967889 545960628 928254672 -120889105 -615956340 -174870168 361724870 -837832623 -234820387 807404289 594543832 215982808 888323276 214903544 -113460208 656690377 91858431 649849865 -404128732 -93191409 -160905811 -133217646 713606639 -52872412 -263028169 602634056 -475013680 973836382 -507069042 704883109 -767289744 808583658 -434711503 429855217 -478035022 812332555 -898011301 904778416 476995979 536591769 -639175608 -417564280 -809950604 -942982488 184235814 -908686745 -679585356 -93125789 35088225 268443304 235587164 382860525 453187050 928125151 -275158153 -401257588 -493179620 219023260 -79356069 -101083261 -384694161 293922702 -388432395 -334628617 -406535021 832027649 794092296 -100068275 948778273 -384206464 -585207282 81334636 663353502 392540795 971869403 895875604 675074611 616540104 -568200324 279508157 -633520658 986998145 909574879 -776308892 -27466754 -144832768 643075267 34066104 791457993 -967772858 -830471823 -242608788 -989315084 -232825012 -833064810 -760668193 644504658 -888503831 -767056772 -617653437 -105019209 262955558 -978308395 -946426919 958604490 -62945051 667034434 -928676383 580950903 254001901 298947940 -868054422 98757591 924241431 -463034772 282231953 234138885 429088801 -910894055 -868764607 58615855 -406163800 143525331 -654422724 497806659 408055842 468237157 -244020373 976600653 535729851 242058378 549995772 -605631628 -130577577 373822566 950593196 186534468 842821696 283282751 809006765 981912558 647477952 -990139631 834338407 -88506370 -356297124 -918000767 922046314 -39508592 686231729 165019536 -686316526 418123234 -314828584 -477654184 -759878491 -933471864 502602068 -976780450 517943625 -705268038 -216194911 523674176 -550817040 832635827 827425264 902443123 374930519 621660280 816042926 -279623378 -727186723 -105295062 -401496592 -290349103 -303465390 439320836 -984525145 -125090042 -24401509 -20055655 322973169 -556519786 715915346 406202345 -818960907 351265331 -88991737 478238878 415075434 977767659 752875446 -213132729 -582682077 177539232 -34346131 809178138 -685303822 -214227962 -554384689 725442581 -170072357 -809599871 -628732808 976574657 728554376 733999832 -685589354 433013705 435792647 350913687 498525826 -746814016 761012806 -739280755 771222815 753047238 -708367250 987625157 -974043352 980449932 549405097 205675300 -953582301 624592663 995989567 850265147 -30984335 -27938165 -414861195 -324054170 941801084 -706896428 -989473808 614061852 599842694 -407528796 3898422 896330944 -157489581 -483501009 944173802 -742343315 620927916 -375587747 -341279738 -851892261 74216108 -447434053 255804854 833310871 -954004923 477800009 690515945 -887748898 -24048386 -191523501 398873213 242958311 133030645 -168556450 -367641157 -572856779 84776491 -37496260 -53541907 965343455 627474990 -410533043 963518168 -364391510 -203923444 910923989 503701354 244355355 836334671 899066811 922107557 -896479139 970368932 -622428794 -681530110 -143745699 1478899 932330475 -631999576 -279125947 629274272 80840193 -937557179 -750882017 -618542359 -815383682 -851981651 -25852461 -733195098 -359123609 -486674942 541014602 160084930 -205606163 214841683 -868100969 313676274 -773072828 487245683 973044055 575346147 373211319 368509012 -350093608 549149840 188379961 -949045082 644714988 -375301382 -69645514 893627906 791999108 -132193353 -385282940 -426369238 909538817 -638138520 -389158026 821900680 225299473 -890736745 410475256 773861259 349397851 743204695 -301957356 -659340780 424242960 868475006 -414331027 794576894 -115576108 -174907164 584156103 468767865 -800287414 -685372096 -566663550 20971595 -606099880 -792678767 137488787 -518195691 791610579 -767886101 -46428777 277588650 730966461 513072526 -317272055 -500798997 738107752 867464382 -824622297 680915292 152554662 238363372 -613878253 437548761 -482771570 729330061 885284283 -353125581 -994143340 656185903 185059797 588693839 314435203 -765056322 -306514235 -913402798 803501672 842759070 975951515 -664850247 350654053 -409839731 -874457100 470587114 266537502 595468100 -257720564 119745586 -286070252 678285723 805573161 205140527 -403666073 -124986536 -874179169 -640629922 -519504639 204622629 -404486841 334378041 878585377 -897098924 -759426736 502827635 -56567276 -989683529 -911593914 -776156074 -851101670 -947074036 -749176708 -724825704 895536958 225416710 655492408 395686210 364060452 -331062634 -752796387 -320637861 -74646394 -36392273 -461447270 756054025 -737211363 772089257 510168319 169127353 -768372716 930988305 261377496 782934559 463463394 -860317695 332432139 38721100 -181509265 223823588 284910044 281016022 -120975402 430700104 -541565214 948828946 -319603331 603033840 -862468332 911196795 -559591330 -218198623 660696636 -619812133 -333567638 785841060 -683216522 949280361 -356960522 -618149619 398935744 673280334 -703614637 -740283966 -541527944 -480558107 -503508212 732457795 254682019 493009864 -679182604 -764620972 -762114222 224523577 -183435883 -710517234 175508504 -352668783 -68055966 -971865485 907457204 -606892991 -204752201 660714397 174014064 -711535140 51359540 -960582832 66770667 448785490 -72831643 -630204412 -112402888 -826281781 400430430 -952432505 -164784134 937770691 -397560410 356683553 -296909709 -173035566 184094796 503413655 -576764768 877965441 -111349285 -129096433 988604668 397755651 930571234 524916921 190203635 -965317252 -496196773 278984580 250642881 693477224 -804025150 -86027446 567408424 -386284546 -393738211 -926614361 -399713489 853790492 326307077 -475797711 208908753 88454019 -347978278 -264606367 -369381013 -993615578 -39250731 -969938731 -413832628 680204045 -4689211 983866550 559698064 955342734 779163901 -28562900 127625027 -459668146 -609021960 -527557748 -527960364 -409908037 -341898296 653265022 -610237309 323041595 -537742430 -803880550 37932976 727119619 461774154 -588534773 291084003 -145241674 882090048 -416719765 -803469014 -32849358 -910060459 536338203 -621365638 5007701 711282625 393806963 383513495 -33476458 712506831 -876965066 -986783394 -359650126 -640519761 755888819 414141196 -568175045 287535460 767620067 447102007 337075315 -80265060 641128142 -63689334 589007841 -858982744 -756447097 -136319349 349004563 803424874 -560630839 -439884903 -368452450 -775167721 -942501454 -21870864 -215531282 383758140 -495194404 640077592 748062875 733330627 -235589135 -169780030 -502776062 449829216 -756696063 17977406 675562491 -773098459 -989383717 -626729365 112018793 -874649287 429929555 181656126 -544754380 -906813903 -729828160 -700948097 688295984 257278057 741399115 222734148 -483457134 -717390365 -47321261 317848024 526309921 -379888750 -637204826 759258508 -694051955 472976390 970966514 -853549865 -801433771 345843196 -584417748 -740748010 -645198456 -984410107 -696940452 565626759 151396920 371934895 219724868 -148672883 -894277853 874999733 -720777547 -26756693 -893948831 -554645502 -885630860 663584527 -797789546 -523328118 -974801391 382532120 977106362 -986827247 -715365656 534885163 366019988 -65288498 -25446441 122347115 487822136 985468284 -953662002 -894839624 2229392 826685278 527470371 162098981 670887420 -293803738 452573417 -173019358 565703763 550882261 751150804 144670386 751688832 -931676707 -425363963 -440028742 964170426 -331553771 172503523 975027938 643289456 675198705 948951366 426490182 198338 799236189 723456871 -919853516 -464825709 472221515 590437800 -983911801 -720604371 171494394 -46466215 803116535 -455086841 597372884 -163439617 818767130 -262684633 122857025 49705774 153866166 -254573979 361759322 -488813134 545452371 960516662 180028112 -837662749 -268079327 -794409012 -353508901 77368455 -279118663 -574801548 820679840 -875456718 473925824 -321534813 -666263041 -42274135 -117620121 -833084063 838229108 -145000939 62613283 387906563 383083609 99586201 -297459972 -382995761 404765541 889155224 -207513187 -810370401 -109402026 648017699 -165937413 -806285314 318605375 133102841 -601195509 -922130137 -650303261 37609513 -745972877 -136017520 595781416 152986997 897960732 -736737047 121687241 -514364731 381651213 -100075987 -472453144 -92207836 -698880025 745178381 -785550221 983991615 -995387825 -737885671 976365360 -289684826 972582891 -723793004 589957495 -253377925 157386666 348478617 472676815 567628825 897586266 -916722638 887420789 290645155 125339295 208935202 -99302407 224355375 384196122 882312136 -879919505 209455933 550843833 269022776 -215951131 423629623 -930543739 798217055 -288238298 -870371140 -342598994 134384261 -309099377 755667658 155991461 146519198 -18919909 -257176322 425840357 776803685 -548413486 337215495 886769192 -989268426 -348085821 182850125 461900477 -661200687 577196720 -998018624 -544220535 -87983239 278290743 961952873 -415478560 287053994 -263184801 62679804 -630861064 -134718339 180866317 -159534808 -648647888 425654726 621216588 -360294635 -658493023 -74838159 910378258 18057523 83280242 258552779 30483119 -346557228 918692966 -392368484 -566884425 -403912829 696449291 24745943 -920834968 -227890588 -917791361 635277159 852144645 -530947924 -112287989 -570444472 426334468 -536866166 -647362524 980053771 -803509544 -976260512 -714120477 -225082761 473320325 96839813 -864060355 728418560 -813814591 -274790434 -260509761 -23838495 -922378593 -410508124 -93691159 -548123519 -61692875 -120274680 188795333 -551391259 607855927 20148851 -584163643 621904374 -499395834 -960901810 -615460538 -504372476 113486254 390898671 -361531123 -873088905 -697311598 -285821298 747526431 -836073789 139583334 96005233 46258746 906845706 -320557664 -61492443 -876067366 -343918554 695790388 321241475 -572766745 403774921 -646351318 676196681 164752856 -743004320 -33878829 572765816 -869663112 968790811 -282085798 -503629699 473566090 67135925 -272763776 -71214071 486776794 -46881480 -163512924 -472768598 -115847135 892603112 629951334 -327439554 628221554 -80363340 -107567895 592437140 937930136 -597329043 -250082675 -976333996 -646572696 722263407 -939014037 -489803985 289060410 -947301816 644333817 -3419032 -920802904 982190520 887309482 -835953313 328239284 -197791942 -142369972 485749942 293349121 -779278733 76508259 386223717 -86954541 -57645252 412492771 -919541183 -501980151 -84067932 -322340393 80830439 468775447 49116402 729393838 -171538494 375870394 712318789 331612310 -148347362 -671193763 -892965830 -282260514 860442525 -692671907 682047762 -872597254 -500902508 502178494 902240223 -69048739 -20708265 411152912 713625804 193907957 244364329 -522738952 -48040832 -598462243 -691409705 401958787 -450074749 -955733779 -649545772 -326272428 519558707 889687522 762622414 954716634 238643428 465271254 -858257737 176504151 940516918 928928832 -684191648 -644062881 -872338662 -248149179 -137980669 951248845 35312233 690706936 632201595 -722868552 956937748 427689140 -537638025 -857860632 -391788950 107575009 830985443 -565278581 841892509 -677281796 -128697198 -214921121 972524231 524745077 -721433608 31785028 683769378 952950930 -26710609 -79587694 237462494 -3036967 -383022 -505367389 59976095 610400932 -76875868 343212616 -762989497 674338062 -58272449 834874655 -349372609 278793285 -493908622 721424120 991158863 -307042151 780949879 -408049790 20732975 797008118 -771189517 859007408 231597598 -796150710 -250768988 506875022 932777991 -140524504 -233059667 90798460 67370497 186864494 526157495 654113749 798074476 -11888046 -712241170 875379377 693629036 -604223349 481935926 -692374103 -569664107 427146088 -114114000 246267121 -90240373 513731663 674239998 -278365341 24063412 263587959 855216048 -121256031 -991583276 -629690702 -333917975 683399889 548907557 455582069 -259076443 -51762452 -445959318 365808659 130161892 -983150112 -454338069 -459823679 89366700 -572918852 -126060570 707183373 668844959 -43734215 375128057 586166014 348473284 -658976324 419663189 -266766492 -154095024 591135011 -638039163 436559382 -102381665 885253531 -522223817 -632502369 903559909 28386536 -132745949 879447244 962914393 -670355807 -502717289 -287086414 -646091886 -51817074 -807130358 698251019 99006930 201962900 972738839 798757786 926570824 394697010 813442818 87677868 112314210 -191512851 -838950003 344168343 -223817059 -211948562 -457908589 -827864155 535731151 -129070898 958537129 -318585024 -949047818 676494591 -826167178 -842207794 -120587970 892309713 106281777 -81381729 818708449 -126656103 142091065 -68065766 -669608821 -926324470 274247663 -417206155 1609996 -899489017 46686214 748995161 762069126 421776262 667848279 834430152 275541332 537558483 26450162 14645327 -708669440 426620133 762149620 -392314863 929748070 -137764278 761533596 475564696 692050844 601007899 488629865 848295422 -83664106 590775929 933475286 431363253 43328614 -833974640 -224575438 161653815 -181225251 376363815 -200118224 207886281 -697974293 -989779800 -933986838 -54603208 807432089 -821760440 342011670 987383296 987119736 -519840784 370730909 -69826597 -664544880 385217583 973977539 -725415486 -558912236 124567385 443815833 907744516 904991375 -396014119 717936771 432921827 -172696556 -182494185 9493022 -756174663 -558130354 -547121070 681954837 870525988 -713262451 -395681475 573195868 1516065 -985474224 -118216591 -915436543 -121196352 -106995290 -13508309 -421281095 900349012 -981499984 904308804 -12979402 456271820 982640684 -141837794 -745681063 -367450095 -185192101 -895479346 849160127 91421336 541854358 730866187 -418918533 314123603 -864870571 -489604957 -603844133 -253382249 141155040 870149327 132980811 374931620 -505012838 639717298 -121027611 -360412633 -464667249 302278820 -49354259 -947253702 -372203933 530158320 -224195861 -585871174 663417889 108714812 -862567078 -956250299 842936944 487050343 -17650764 172053876 682999879 915471544 -131683252 948967595 -768973230 -105651284 375922455 -500744950 984615308 -820974836 -148310973 637228679 -277231224 449443414 -334544834 -465207467 372404004 309875341 -428086523 -173450431 -167492215 -821326206 714434455 297997148 172785593 900514751 314838148 166524136 597554794 -893580118 212678756 854282979 -114965040 390258529 -287857572 -709330171 -342967357 273216998 -605923872 327896851 -512524301 -552366695 -543707349 447085446 -688058893 -825113633 104183881 659995820 162207989 61698837 30221071 588456994 257737875 20806523 916119939 133804567 -521626346 897117301 790964878 928932072 166047814 -372514961 -138625221 -17698907 -666877975 -281611869 74860408 233991741 700501092 -60934444 -691155288 43445816 -868746841 470326907 645553014 789305377 960575911 900973551 -872280363 226640128 -497703742 738904997 32875873 -397405317 691000898 553167605 878470391 -319656382 303220156 527292567 625676319 -764110475 -62455726 -194149140 222929877 655404555 -873621041 342428342 1104331 829970303 -399360647 790096466 328173640 -395086841 201299171 812438953 98605733 968747037 915190243 -154531280 -243506999 182098897 965381375 512257865 -899574336 -638295225 484774587 554097503 369189749 -617251732 530261530 -251319127 334593549 909257830 -336663563 591796141 -706128737 428019548 -283015960 -303664561 -396549855 459924132 -185829174 -815639279 -877887515 -31042250 -982960350 231513560 886085830 620489850 794591623 -23328593 -838198751 515241500 -266449262 -738817117 -773295651 -416287763 64222136 799408820 598568553 468092922 653791560 -817020149 -891647462 -673807205 709372417 968250637 383762333 583593488 466431202 584069083 383104983 927527231 -781802203 -917600961 -364631820 -393901623 -672222156 -339751059 321365318 -454982053 460750935 124474222 -92517945 804243240 -898384779 -555040764 -392606385 120819185 118094925 -940796643 986519889 -865116276 838586195 -155480499 313701885 315450973 -522477812 -721739714 544608553 -989212105 636937824 -303307379 -187017414 531692221 110875633 878236783 -537977673 850812071 -968529286 138639281 -614487600 -110911230 -285119060 -440322952 -47658257 -877483219 -830627097 679707200 966963574 -964312377 -201783197 -464983087 129918224 742100819 -950636876 -520361075 -812180048 -392904724 -486511988 -292706427 395780367 -156228609 -639832168 -81891076 432853332 -990060415 596027435 -199407152 -865680377 -398965680 -397893281 200483616 538857426 -814658743 -396508231 -920027378 -780731802 -635159701 407034579 921964705 279918060 15831502 614500125 -595511235 -560540707 243634882 -363891445 -58619289 -470422336 -448465224 -141511075 -587447352 547436614 -691787383 75502280 -844327662 -946590020 -234459928 544494903 -964916078 -260323430 236375986 -551704788 983730025 -988571276 -201861793 745503905 866370516 4645088 200984882 516114959 -170225070 -604322920 -86191347 -166887585 -736171510 -527987160 -868119153 -964106656 -810168535 -708461670 114684178 878984356 534019894 276756972 -160236342 -20878360 199050346 460269386 -267334300 -35356725 152135521 524066458 -171118332 -197476924 -417664897 -376541302 -69003850 -646524345 -668534588 328101707 93708501 116738096 -450347962 -359138418 -785835744 265406803 -366382737 -484886069 -314132297 -235882687 339531218 312841781 681473770 -638206334 -690300869 579701674 -915897871 -521237343 -455298240 -986832514 -377105508 511919929 159124797 -833446002 -116442748 -54289487 834356522 139865111 946847881 -913400477 -229247471 -481532130 245104613 -675102799 186697824 -490510522 757974331 -782125634 184074876 -290653128 -142845703 218286086 -621456941 957113511 -947933563 12453146 -601346228 981412794 294092050 -616341942 -835266717 -326518890 -209091694 -263446497 647659238 -900747777 -302139119 417532904 733903506 300137538 -508588555 964261713 865727773 -87903342 -869491452 679939511 182095670 588612078 -357809714 290455157 321133294 -377158187 -965914270 446717099 -504389002 -786579626 -648528506 951475167 592705244 88883070 502197652 -336364858 -648488535 985069945 54733562 -441352204 -684431510 756823538 813653384 -594451219 -458427573 -791827228 -464731341 -306087923 -382124677 676854234 821800760 -935818792 469035863 -293700832 -985352362 759431400 335035315 114645915 -376335371 810702272 -550781421 529846115 -423051316 -725173114 -388386020 700636657 404681742 -70291827 821372293 -862347214 785553438 571693565 147295470 773744922 -155218366 378708728 -845740726 276915569 -479871966 -847954111 -391758019 -900169254 252508367 -829929446 373075279 -54978891 649999877 762972754 -880411251 539138301 38597170 210268081 -868742841 555950662 193157064 30137661 407977049 845860634 857417053 100980700 32014113 -15986322 728365563 -72819720 -32940583 -230680819 401700692 14023549 733060095 17803101 -225032192 -760544519 22572349 -293330066 55903815 -244109559 -622550939 -543051968 -922667469 81933466 82541314 -108868666 150357976 696037110 -285240245 -614057207 -640636172 248152311 -327863571 324072909 345164157 -512747791 -444698908 -81265606 -269428444 -693862405 621560734 -883503469 855514481 -636073035 -506755029 -354450124 -375279971 -673662478 -583302187 279708968 786096204 607547886 -386082958 405776021 -875359513 -666546167 -260228627 939944151 36756219 -42180034 614117426 832936017 -234322703 653492826 -662567464 406714045 511473421 445407469 758052880 893942691 -526812451 -467766936 -250506535 771186480 -888044154 223738264 103345477 -898996585 -18024254 -212130814 992845289 -40362065 84377294 -106800510 718402800 -520531232 783151803 1001420 111493334 309411832 -59307472 -197151343 290514772 184979944 331808983 -501099879 379007539 399453288 931250118 920207288 810607321 929526790 -41340926 -791555174 285797256 203796823 -445752930 227977731 947299963 530656436 -873716937 140935141 -829750797 -88535619 769188840 -172953659 -696451498 -691592561 902293848 -650686318 -685744812 -366149490 -245359881 641059625 -227526407 -727901004 543856252 549663651 -110276349 -282570086 593170280 306234412 987636021 104925593 670895146 681670634 -438269775 -556283172 -654169756 -642137328 -632962586 403198807 -978175602 -183901949 -497025542 399014621 -853210237 -7293944 -703474698 -631281469 822489313 552835221 -425280613 433801681 39005039 -180241363 739640657 -101210853 709265204 982423221 28281907 775781932 -34694819 953016865 711731765 -182162228 -301921381 836829276 261788392 -464930538 176013528 824807121 -143990359 979386319 -430793043 670161001 -651266739 692184279 714433143 -542894163 -855748563 682452168 -477324219 -623820160 756686521 -226844887 728565620 -80700928 -819858865 880552758 -60404903 639620712 -518989948 883924824 -409045945 -723576696 -99096319 -474128784 -710996892 -562520050 -352166745 -913883655 -590138375 -514526415 684490808 686251762 643515191 324380421 -7039397 -485833376 -57270172 -89788921 716989766 91916414 -413348380 -816921880 29610410 -230433054 972464103 -437734815 4445701 239575871 33753012 724602252 718944110 212967055 -996065619 -414760862 -679950097 223166686 -409386386 616879752 356097641 -677572662 -309269570 -874709752 -679695070 -789306823 495330893 301581213 226101395 -812526985 462088906 527073491 645262405 667700099 399901699 -65179762 843959381 -273891569 -255207142 109866832 -107861612 -282923567 762245701 743715922 403777502 -738962606 990053668 -187744425 469613168 607125581 792758639 -202001459 552350126 -405669373 -412773789 -238261954 920988523 -50391378 377435157 45089402 -594368489 550282876 -418518193 253501936 412240650 172397309 -403214469 -85606814 875932324 648543544 -783266503 -726376781 -993707009 -189206347 466914460 136507476 -73977889 -323105699 -818301974 206208665 -522756958 -361884232 304381521 -301503453 -105949079 612267331 371606609 625644346 -916597872 507105150 -288415130 779932897 -657551568 843145545 -419469886 740209570 569915068 -175503361 311705986 -93905241 -286025789 -949665625 895648614 873025267 658130036 -309204396 -605971155 -223533332 993559493 -364609167 -765684316 -683671916 -671920645 -849042562 760011752 -929560278 337564352 -184186509 606623422 833339910 639872986 195633722 -856579401 917577046 -549550119 302209831 971042629 -63105743 509476702 -965837746 935705551 209484331 249564050 -783434393 502142034 -950176349 989705469 -744496692 389692 726198586 -43077161 -145505883 -460948290 487475333 -801907744 -632242143 -313686088 929124592 -708644603 -576358972 892640272 -101401208 -425144026 -352964971 -881696021 824563853 638769689 -754682553 -393231521 -804405814 -777210873 178574429 -592538271 126932015 199567913 -764176456 -169812696 505839401 -167122850 639826450 -440409688 608426525 -995264262 911799456 557154663 977718064 464448491 -477912730 -659194273 373136211 557380002 -531754401 -311923151 689441885 -282660921 107079388 545423147 -509863421 -445406003 -381856879 -63806761 -343729013 979650707 -688914942 -35352642 -472871720 128380553 317209336 562952492 -136124249 756529382 -761327345 -473998143 -514965556 -764584107 211918837 -61860947 -505283500 -340869459 275216867 -210122359 446383341 855189533 178803371 -9638980 -348768268 155621388 884317575 472686663 141061834 578841788 -782763806 865131379 -351557944 636801952 709899640 -630247845 -406251064 -511180047 617269586 920438699 -117084482 567656094 35037465 -411540187 -584291591 -421882336 -208473866 250192414 21765671 636871939 63251342 -379973412 701336260 346795179 105372083 -891259543 210782650 -9575900 -746599432 421171362 211448596 -350438679 -875098643 589145 -662053372 -339334824 -475370619 363994392 -547541634 -752680831 481653630 811544983 180432952 -341230395 761569834 834529989 -162298020 984289269 198280980 -954264124 447990220 -474318974 -10129563 368335339 -502947199 -977865576 -377022230 -804499132 265103983 -475706468 930424834 -867910164 680256218 204326812 -748857034 631331917 981731543 -886802681 268607530 -299377742 21173305 173874028 921797425 498267023 627118134 250456777 -8427042 190606881 -984129011 -93163235 -612458610 -520137515 768022178 -46801834 -415382411 -17295237 -143741994 261701605 572532915 -351280494 -391624985 484632936 -527749794 343279430 612069225 -126854546 828448901 461596314 -245877538 -397044735 470796844 917257647 -659103513 955378370 -73224406 384418274 -309782843 419196349 484352737 -269828732 -929423588 -707846577 602952211 297962343 -144262550 411701860 579902603 62847405 171018514 327451803 306198835 -130043685 820612271 -601977530 765032590 -288205865 419306892 -222251047 44160231 -324881541 -473208406 898399054 -924983252 -121765070 -875668941 -727077259 -688099803 547065817 -777863077 -546771658 -201537853 -133922629 -160307491 88625167 -561871293 843691734 -622598698 275137616 52636459 304289880 -274319025 525251947 -510661368 357794393 -903218452 315609232 235892376 131762386 -851297868 -603017331 -567660380 -593561171 447497741 -655600157 828673108 881215595 641106864 -321160906 533660048 -29148831 878857295 -900375470 657597989 -670289799 -612855868 422338513 748153384 -134635423 804648268 724784258 96935377 9134496 -930528411 1100708 -134335009 853142920 15862121 494725909 -306875206 922782192 -309806781 41220394 132272107 172844585 757429455 -853832081 205802996 -624116737 749771323 -364494703 146212754 55780180 -946256072 788381963 -351468698 12815640 -643116075 476389110 77948976 189577102 237383089 152599344 494007540 626921344 -297313764 -129244847 475671676 396740121 932974294 -884764501 -192360535 -83765693 -802016391 -513687863 873919471 600671244 879735727 -772608320 -799414255 105628072 723039153 -834025117 -797737917 -828454874 504576943 329392140 -667070585 749916778 255713818 -546154062 39170349 800492557 348966181 444744926 798775800 79408365 -240604092 -519798975 563124711 -56525807 -818850075 -329390613 -823221743 573325056 -579087301 758517822 102843060 -19995473 455434864 916980109 779258293 551381313 -358609163 -66590696 515425343 402432046 306911094 382415901 98343922 -479045776 99235874 145945341 464790472 929657267 610404974 926575984 165430538 230407592 -792259002 869102741 -968917396 -631715477 860888159 -498415696 -362288028 567350273 -400098214 10759187 525553691 802963404 -480770358 -292567443 -635749242 -714733019 -274288266 503632170 -832420392 -63814376 -217235186 -30614047 613374984 880649394 -358563037 864784660 -204780313 -918877890 -573019711 513683379 921950607 -915063786 309470126 -256722718 429275790 -307750458 40701861 -521090758 -600117029 328005928 -906180806 -257939207 685761328 304691662 984244232 822085031 367532919 566567542 -309876422 68859716 -430967851 -788445725 -336883483 391294676 438768269 -626338366 -134392010 -557612139 -597044081 998215340 -408980202 -317533685 -75724768 -830216907 -910695890 464917911 836357912 -496327422 627014241 571742035 23300298 323844175 -244821332 167309712 54406199 -128168414 -77377038 -202367507 204652916 396060167 721817267 145278852 54403673 -890148322 984868239 -134204259 660738673 430043481 -70955076 746806795 930987477 -164564865 -384623481 -795609219 575220638 705445498 629667038 195352724 -733675746 846998704 250359221 -167088486 -310200360 -564435323 -695117626 397688203 860982410 716522289 -835157046 699614390 859944801 800165388 976240266 -276399190 -879139800 708637862 -538764923 -584393022 -687599032 936292205 -906480631 200944604 -300176827 148305350 -819929472 -610657927 637087767 -688819735 123771055 337100543 290028581 51972616 -179935566 -218888492 449102640 212412785 -889117911 252962796 -436371524 826173604 -901393939 219260206 -855814010 -812627177 -397251256 -723837329 -745423484 -256965329 692099235 -751343360 -901468169 -316491769 800460024 -309756039 345832074 -630607653 265764870 -595748739 879377128 -343148823 -14159628 758987726 -134821227 11325696 984462131 -648288879 151442037 -984184996 -956115654 -745287298 -684143366 501250116 519496122 -837859495 -145747422 299271722 109856196 642486270 792309557 904481356 -343914231 771403928 188339598 396887440 -53454987 919589625 -503775005 -339978154 -269543157 -228195317 835597229 667180936 276113796 -575927171 667011489 926370623 224027555 -385944888 501955883 463422074 -616740979 -759572088 310015844 99708156 558653804 -922515883 983725065 806483610 921243462 -517344933 -788541421 743020263 -605811549 -915716890 -526892501 -68730761 79038484 -842577056 290494002 -906417586 -829231227 349375420 -571334842 -47148598 409650081 -300372209 -613362779 313006976 -35379152 56379478 340801893 -586072673 789867541 505656187 702763935 597474806 851552776 -763562580 -46995527 540999975 -784752096 780347111 -540066575 -835811378 -497691050 -752686150 568371523 412761502 -941790753 689486303 -884738965 719185352 -748342598 107254885 608369719 774855884 -727387704 391087889 -217533266 -673824179 -909586910 398761525 271900038 -914460337 -452482120 467774457 -649132626 -443661818 35654422 -839558227 443640201 553768969 535990873 558813559 804551626 436287158 -180266005 -91776729 939998365 464010883 939673190 -112569365 -824055768 676041223 -147915380 276815424 276711136 -40419523 -585863081 -873484128 387387590 659552705 269767813 -852166346 -317515792 -660520461 487194935 -622645527 582381599 944438934 294531633 776740025 -150238200 -29557226 903058036 253244437 -137637883 -225126082 -944721346 -412262284 -808277067 506502246 -431779669 -546708557 -531731274 141682450 -920465466 -430229718 640643752 239680006 974584145 -669219135 -616851236 -28398223 332911281 -801335968 -13935866 -37412438 588270936 531161732 763174571 -967331715 -215437932 156703358 942187803 -266667773 -427593250 -332978103 -676812358 300201616 -598405160 412601672 -10431304 341852446 -209722459 -858759978 -996141736 386988618 654811510 -116264906 66860206 -837122614 607730178 579744112 975114820 -843724608 -306368706 638805449 812955553 -389617649 -566562072 88808145 686140813 227932164 -248081678 -104641814 526807239 847998952 -211258958 813051143 361244463 318022110 -730287075 -139988376 438645846 -706484580 -181685822 -141970350 467109465 -564718238 532194525 614320694 -513640695 966255908 -88488360 751663591 -835607387 -653085122 -489440879 294614336 360673993 -579706492 864483332 359439964 -631272832 504905404 441052407 -180774739 363062813 -272535385 662031085 442533504 211458274 76116285 -486265938 2315059 996346079 419110098 -323938638 -583310112 729424099 -809126871 -854018250 35814590 230046207 816076504 -596743998 -580184474 -876887409 -64695093 -729691358 683170167 464369711 210442643 -652696389 -630563826 -937160267 269621017 672414689 40282707 784536577 -729503269 841404890 -676762908 -173059767 -163895623 501913116 982979214 -305041569 711950720 286239410 -304829223 -215027007 -972053226 439970693 -177464939 40026798 -996061414 -124460594 -599031866 73785160 583788091 -604469644 -439028091 668014562 -456651837 -628235478 608600233 -22288964 -733695240 238618110 645425661 483268797 818227581 -554059564 753727382 593529585 406353050 -958634091 -690916517 400893107 -125051589 -51540342 -7741802 393304839 -649217151 -672316489 380514813 306643976 -457972589 -810153023 -788139739 -242297129 273135704 -823778082 308221944 234597858 186939140 -793327832 434730426 699491602 282940861 -15621770 274708335 -675085561 -946215336 -556183192 -429350133 833661287 925323869 -860416412 469275648 389820869 -246764715 -285778835 -958933554 -102831916 -980045094 220715251 676558566 -260610042 -463374552 552712885 47197085 -242182548 -716738468 -611166809 -766042594 -48911601 896653271 540367810 709250669 -376466634 -786213826 147376459 991937355 887198470 933019797 -324868370 -978329834 210767915 -219997816 901478292 202167986 -421463850 -21073986 -158450358 375759041 -576615513 -401313369 -335233903 -628382623 -112956426 588473577 -650906704 346754766 -597906864 -665568185 -264046661 596079540 -650233084 -671696100 -254179274 -175649753 -301433123 -510027033 -534404663 -957093270 -956236286 -766318657 -131092366 385902144 -741943907 534197811 447337907 -782405771 -731073494 -148616160 285568631 515421437 -91668335 -457891083 -576919425 926948209 -138399622 -768593794 -791561598 863909433 255729945 -686835334 -301865695 -242275642 813432418 -367629594 -893082594 -545179657 -869706585 931534432 576347970 454098487 -120090317 -379006705 -644131702 540045574 297849 56585716 282254978 188334338 -122409037 -43576442 -921954725 -141537937 184805081 185952643 -717217700 401992141 -183989743 921668603 -624375537 598587100 623209554 404223499 558216183 -437641749 841643249 189698964 -724250489 972715424 -978796671 -261561992 -508552133 -568908127 146098436 -581889222 602324931 949899474 -315481032 637940462 21189897 -907481372 -692387355 -639336372 248877277 761987110 -215558076 -56743731 840885569 731315397 -786943998 453771046 -205464432 -36226625 713804672 290325495 -152930343 471594035 467522146 521748777 -254184147 -937446403 179458282 -529268145 -331755355 346542641 -703289235 68574805 252239109 409807015 843496430 -273664474 442555101 -478712544 143994233 718187699 -884205095 -681333043 -373325732 -276464396 -432858472 295571378 91131250 -234820900 556419564 -692538835 -492055989 548307811 829260733 -930113963 389303448 903708903 -826094676 322163533 251763534 51523331 886779887 -430253384 -389698284 -358357753 -807964565 -411189767 -737927024 -233185225 523179519 -116838571 -507998183 875164406 746514805 965487526 -132573918 616848142 -571307807 -63610409 -951099632 408825024 -372794084 -780488134 -794880632 -37307234 -655586158 -563358170 -990713130 -463924150 -897089300 -679366470 -302682776 -673974363 -593891867 -308513796 936487042 -256355227 34287555 -378344482 -447468581 -34799961 817700333 224300406 -813942676 552325391 926829525 401842164 621777590 229925968 681383923 27042598 -480030377 -495826223 -139931782 902911212 -960064974 -297829321 -97026897 -518665327 -661964675 -762903558 872222142 -311672964 -642828065 840872075 50072590 -410405173 169925361 385562484 66755080 644695552 733830081 795915026 198884372 -199535750 -16042686 334824052 251538543 -136095035 -867906968 190213851 749142484 -691227636 -484053966 952312486 752380394 395268419 -936617976 895779312 584450619 -185607067 952912046 633679741 -421169192 625375472 360332742 356361171 -170236208 -187430119 -83039610 -47663367 798548157 -742918298 -217271787 371038206 376610375 -643728758 -436404686 -332219213 -15864824 377542553 -611609049 929459248 -851941433 991240530 517410206 -882361126 803241409 781250144 -166240816 72310045 -889284451 764048642 -319172713 404889276 -457009690 -223896443 808170716 645334815 641687750 112436084 -4828786 -477621395 797310327 704635586 422854903 470449156 -789248013 -947840706 108967793 -159024206 280300319 800463809 543815679 668232020 29412531 524421331 848758682 -601124759 578558060 461974784 799406759 112058644 350127214 50259662 -817834873 686259625 826532741 -977522803 29722748 -383303171 -456852668 -350198692 -569935447 556671291 -85972776 811145726 -961421442 -726037796 -897581898 349623124 989727295 283094448 -147474255 325982572 121850544 262414487 62352441 -463205286 -58808608 -929191858 -236222454 -198234203 -540693754 -873829260 813491594 -690280379 805006114 -969083113 73671331 665129427 704000574 -808407018 -910793145 -764878361 924390752 -612875835 406280627 -288864039 -153108100 499172965 369188538 -937164509 858752833 -472945146 382991505 394099911 -488898332 -799749627 378028233 -285552966 623917494 -468035005 29866973 608538664 -482486055 -472613867 -537645333 671076019 215680014 431690991 -695827748 695458174 -881205641 865357422 -542615287 -206607249 -26577512 -25471085 -646952765 -226295279 196753069 714211587 -730961288 384510601 41907398 -220903499 -718943673 758256386 424138170 -789296770 -506532543 -129259668 570629010 -220802252 -510235671 490405278 696359824 -958511338 822138059 263325392 987994278 -119693079 543586880 881092943 87150131 985133290 790423914 -194327400 -960155734 79120081 421782296 -549535007 739662674 -578385672 -607793198 954230688 -835808221 201960063 130209146 280765552 -713273302 671744867 -962280630 -997912398 450540938 924626825 474044964 251603343 -566713259 -918354653 -847302768 339492206 -338202473 328516496 -876197003 -441009631 29980795 -431297017 772211491 187686770 129738942 -817585718 -798612782 557870543 761950662 -44857680 370114462 379517986 -922070546 996047535 -752415822 -457876908 -93573900 86589006 -229352281 -659915142 149381629 -779657293 -416140851 836014062 809690852 572729361 589904317 343405960 560320444 -147024877 697711780 649485575 942709740 477365139 -489188231 301127923 -928837633 -619595746 -663169700 513705333 -862748557 -963467466 78987800 -947058589 -368673226 -315417999 3685757 433821542 -534578757 -167234559 -641962521 951237812 -758644604 475657154 361622696 -618174686 -789565795 809001280 976432086 361408564 271251356 687375637 -462425989 -833363371 876738981 -830414961 -743588892 932615009 70695070 700929353 -340434607 -985449233 838667874 -846526337 438738895 155296352 114925390 581998578 593904284 -430754651 404733610 -644970166 -15268805 295762613 488674246 -318747028 249193813 186091470 -572823060 908320549 -159891531 -48733639 -286997051 -321042220 100087382 -942080622 882696207 -556813206 177729493 985710287 -768979626 154112003 749890401 958086357 480714239 -658961871 -819453098 714226382 47748060 -854001635 -597179808 948295384 250135285 492079945 206354857 -431586308 343636819 -476693019 -675929091 321500092 -794917545 145915160 -59788544 -234354853 -221977068 374942549 216581717 55116188 14148761 -266756644 -383832564 163573760 -195395975 756883724 -272863857 -389541076 -916385255 829342012 -158941564 -246487988 493842543 -719323497 402619620 6533625 30162837 -768503476 594139291 -585228417 -552377700 -616837672 553133604 218951067 -197653954 139494703 -983299493 -43253994 -744737328 -667687436 -82135816 906885000 105344448 -218375247 -645565870 197262219 -897351125 333544470 761248183 969802 776290618 -863354301 -558427137 -270134613 775490598 757865323 -885183924 -254524109 405330288 -586701975 -893338420 -84623480 -844625558 366013210 954640071 226317934 -682421286 698765570 247675722 -882158941 -47101876 -774056436 -476962815 330551822 -198869381 -776413509 -15478480 -588986963 335468535 -479420921 -903344270 -964119131 39619378 443259985 -42654416 -828898068 -103270410 235448325 -66097657 -113022938 -554106141 -123257913 -731822746 709470194 -4893167 330000027 -728106838 607258417 -190857698 -803969951 950165309 -390818945 761309792 -350814974 996975974 -866657834 -689826446 -754480462 -821585289 -314759771 -586550599 726488182 784550433 -256762691 549065991 941592563 -520895343 -204865548 925969160 398576736 991692087 -96572781 -915302104 873344426 597441567 -150920258 -174315388 -133877507 598122713 887388787 273133282 -398839549 -872460755 -678948169 -766654037 -374678531 345264181 -942865755 863453619 384274273 927909502 -881235037 -570920959 -216317738 340062251 739892918 -736471632 -863778014 -547300401 -17929915 283826612 -78961572 316734386 -74178367 964479419 612872004 -919128796 542778036 -990501502 -499866859 999717608 -116557091 -634808597 101843082 -491877182 -588784136 257036643 475820441 159507212 986773618 -539583812 -879937363 219681359 -211119889 -451296537 135935885 236147256 -908252414 -387537882 -600626208 -540835230 -49267050 996228105 -427188617 -469626231 -588898038 570109905 112520581 -875857602 -685974193 100476689 351526030 -893042905 180858100 345341348 300982681 -447484820 -877892901 -540438466 142959351 230403600 -596247616 -410342591 128763365 863485481 920816499 519829376 -628607889 430188739 -653305329 -414727590 -790304709 -698702697 316183159 -167200729 796146219 82645792 -365706266 960092028 74712257 25169221 -310243539 -657796391 -992800232 -420884048 588846953 217073944 -420638752 -743074136 72978836 296577594 -322708531 -152248881 337235640 165216183 -32886106 -746313663 138409222 -761877243 391414883 900901462 -791111514 174688771 808601562 604604963 -268566589 773342231 -858125796 581851869 421371829 790551039 556499043 812210551 653031384 -522416782 528821404 324091076 244716957 86602886 -805095805 232363 611713259 140027203 740714977 241596311 -36564279 -240638999 856221473 797349527 357842474 -646956041 -892953026 -786108477 588615043 631551403 -282916548 43098691 471410489 -627940848 -658342385 -325116020 194528844 231044159 872636136 -8285777 -195346519 980666070 -899617468 -362516260 -460191055 -725974321 785445182 587329054 -572524807 658405146 676974293 -995860692 -809769562 668337674 -740915442 -863426672 -853061122 175037375 351670877 -464838722 451060241 -880823258 -623151878 -5762238 590456977 -406057792 -124276361 12736344 910511953 509248236 406159807 -556407820 -308426801 156063274 953720659 868583874 -229616898 -900883185 979942732 -659147861 701647008 296498074 414893967 -877887915 324340418 77181852 73429377 -950750184 -123626532 492435722 -394512670 964542977 -924689735 738518010 -474557898 100817288 885085166 159835801 426831489 -246691944 82500247 -723162245 -783640251 -172623864 951130192 65735338 373503916 876002554 -448255564 592345935 19250345 678710429 184874365 -456550041 828795484 -326183848 -144955248 387265694 -89248837 -562600488 -229530955 -716959699 314679213 313034539 -99978590 147354970 -299714817 -962262342 -220211114 -656882562 -378113903 724350022 -97445587 114626154 -290307041 243442842 -539944807 -40004741 -536880571 632953147 159118790 962645831 -94361389 70862697 586634685 879574819 -553520017 -537555566 847751223 579169086 81792090 252331937 138828298 -451869491 830814287 299281233 -339123135 -997411579 -309893472 -235777689 -956983374 -721326041 -78751369 -564069195 -464905795 -355052990 -608839085 -793031263 -964136115 -339096669 631561407 554988058 732251900 12931587 808527004 60435020 -291748307 754965624 203536544 16576011 -405928789 -273253244 -989967114 -582076399 -580566710 -149864610 -239327082 -452533650 -286752495 964715318 741828392 -288886524 306530737 686204441 -135750125 -245097903 335264835 -165126717 167022972 293412896 -490010400 -649437394 757442831 -899980145 -662350110 383471307 -704350805 -89001194 -964896211 359488363 -248760027 319983508 -652800063 672664855 -441392064 310657883 249409900 285374284 904349746 299354088 841626989 776663749 -949529060 452265879 357694120 967748270 761568069 708819187 837161920 -456414668 776848218 -204142090 30837312 805305936 95373854 -565951217 -566528454 778795528 -305601031 -411319060 -228955803 375099074 -375504961 186240720 383243619 810727527 -749175325 -250725784 -474223697 -777205925 -575076410 164074785 -527516173 -214351224 327793817 423908502 -928185863 608018752 -937223495 -436780187 -198847327 671970430 -478397635 -437697358 -463581487 -336970584 -82225039 -731190601 939964630 571095156 -777827575 -384946084 -803470136 -751393342 -340124990 871927483 72902156 -632272690 739461379 -489169133 -221473757 258018130 642093 -852353820 692272864 559889942 -672442769 -975290299 822840879 -572306699 -698459850 -822894467 -867262189 -135320978 -396300398 260129007 -909196560 -408084675 -129649736 50509360 21797625 224343912 -508008548 -517080587 -345145635 676768138 -616824487 -38874329 -66542951 -663419177 -325563574 -106275074 297059509 620964447 349388829 -872151838 324430659 -24383548 -895982332 -939889445 606964588 -424823335 827273734 -857851328 367548328 784030173 908474237 452536866 399217569 -28403450 -629460109 -35984404 96685204 -322270717 -30210842 -544969975 -830797951 435414303 -143142595 698684977 -177061426 547819023 125622449 947995196 -727691212 -768713525 -721128556 -993664729 -363703374 634764393 -230067707 840551556 633245134 -485102843 -179527613 -578100030 992671482 -760792615 430302797 430241541 -336615097 807762476 390288104 534890827 -29359198 -702389183 -352559394 -538262327 209909171 880763638 -352786751 23063376 664309138 -595747909 -493648246 -162302915 127181044 189368775 946154142 -670607229 -140151188 971300622 765797285 759774713 758017211 -593666497 732647347 834340513 -164262422 819618413 -469138775 186360269 102704316 527180724 212232936 173008824 700473588 824313118 843597027 869081664 -449834255 642778666 487989933 -857209231 -512871490 -565394470 -827354140 -914062122 -258136621 -332018795 -506978259 538428541 -403013414 -720423968 967342299 -482182295 214254179 582881814 -656877382 -837085505 -562894844 -509876843 -572946558 -555764817 44490310 311811122 26558752 41603774 921697073 293066234 699235531 -924581237 -533635569 -857780200 23885469 344750463 885400277 -583990907 48882501 860184322 -987668083 429618937 660854153 -35089608 252241207 999558037 -192370150 -136352303 -440761044 617100104 -421773489 387518226 -257970681 737487662 790495729 544241370 105627181 236205227 464397926 498705583 879105826 6429480 993490700 394962820 22002229 367721850 -457737639 916594197 693440891 616260827 72118951 956076863 -779730295 -376621440 -425293909 -65385804 479604744 788180066 -37251530 -157798085 -628013333 -811346665 721338664 -809435252 -509617085 -771869560 -395880523 -175275017 -307434883 921688490 668875373 -962968814 896688013 -722398065 -952057032 -286093991 241193327 874768841 224077411 109737999 -229211889 -54272632 -360272242 -426667594 907264935 -251003045 878669650 339760759 280130935 22480249 -239051177 941511044 149375739 -690737219 255872183 -168672795 803041953 476910951 -172258606 997637593 -140709823 485667818 -461250326 -601239560 299554507 148230408 -785569715 -629921829 -115519109 483489270 358965375 853491254 -613078673 55349444 -502653560 894388975 180742795 -787832962 506791905 -685327327 -643603227 558212864 -302087937 -223154821 -792493595 -912006323 -846364478 -718406032 637274759 -919141124 325187225 850108218 649553183 -961510068 505368335 -955279591 732815331 847919808 -119576534 -195689258 -518804349 -250621020 789065879 890523083 -939476638 -921577395 -330747013 103457135 -596048917 276704153 767880133 180729390 967685041 198631848 -201062258 -246882684 -670499289 704941509 -160485878 48524087 -53069108 672027219 221058219 -712176389 -964532930 126474483 -639465376 -457857053 496740514 -371798088 -884654820 351861062 779448949 274864551 -307091072 202614342 635160031 772315278 -361291010 -808007219 -145728115 437515635 -635257601 -212746909 796276264 -469536312 -125051058 -814658981 81407204 -990038554 41618293 295712264 -345765134 442429142 109088780 -264945128 870064755 -370896213 -990026602 -220725877 -248087500 182140571 470650738 -768113072 171279488 -129719967 -54110337 979400581 845967061 59402005 -787310962 778690923 -280353918 481538751 -30534124 279034532 -509743741 409325937 826941727 -597629796 -785557340 -928397018 -425499888 -139358658 56215123 -661591951 -355836833 -123680805 -103395197 -361342699 -678589852 -678505053 16375801 -75430857 -953568921 -421226172 936842711 -82859197 447383407 -736560135 -416905900 206734239 -926346286 -933409225 -233297453 770312542 246750816 285496322 821163251 -375836277 -798381069 135933941 -741236693 1808764 -368239598 -753504710 -173157794 120211093 511068607 81710618 879024071 -897286680 -41367745 -532341087 -977072196 -586013449 -368167946 889417143 62873954 229833381 939046054 87186125 -520034776 903194452 -351312236 512304668 -311859451 44844801 -647090023 -409685581 605388588 401836820 -123842988 621645203 -228958740 -264457925 -146138595 -548110759 155913115 -481053656 896072395 147894557 -905063675 218269464 424370336 335032984 379538536 196277351 590577135 -176356887 786760898 -595364018 616222883 481641492 -410743145 548989861 700934377 754497379 -985505605 119069962 -335473384 -291582292 253384016 -600846538 -861480104 -373199164 625715622 -964968518 -689239542 1926014 -487744880 469021234 -322677026 759778706 453382042 823222160 894723743 -421537126 891454834 144539760 -437296088 690938263 -775050280 -933753329 -445360393 -269223355 -278416786 -395706575 250394568 563052937 -308471837 815990867 -873612958 -123929251 -807904007 503722625 521166205 -958440208 -570283133 -484564176 -996999546 28989708 20512861 689651382 -895249863 699185722 -458420142 43668257 551960177 298708039 -184721151 42226103 -469189374 -10010346 501943837 370417201 833941604 178046365 -72413438 274412429 263553126 735605806 -187290179 697862211 -929999049 274235488 18348668 -484140600 -186411479 -701936300 -537526430 772633485 294787979 685353095 -95981179 522902318 -461277216 251052108 -885369145 260897624 759663753 -689639236 594158503 -785610368 -192593743 698594485 -630690458 448359833 -838449071 -996101725 265796081 62586424 -281322113 627083845 -65821087 318575376 65547469 -183354822 11571868 648192285 -6577516 -643289675 -987159209 359869516 -434614556 -237332509 -577583753 454558657 530127907 711460180 323647959 -6913697 62004694 -501125924 -847766680 440096302 680499578 542769980 -513534592 -149547556 906003983 548105706 -421032097 -898970341 11487752 341305002 325853432 909176055 -605807232 47040047 759361246 649343958 -492633783 -723013533 -713874790 785692503 991773524 273757740 502758144 -307835592 -646906201 644894325 708767876 -491839307 -212419703 -642337877 -821528042 -886711795 723468661 -793567116 737981178 -52565216 -125086884 -524252563 -20012281 158533852 -531321129 -674704057 -911247827 371875717 -733188252 415324984 551082210 -534429208 793255933 -622808543 -504129131 -766747466 -673730068 -741808496 -467782090 -57502930 470054994 -145930996 -932310638 816895283 -469172552 773863487 -403264494 466445016 21798321 -162770377 -175277189 70552591 734946105 -558107391 354939042 461207568 995436735 -593271936 515947299 711033661 329060628 154018138 -38321124 -896052858 851399867 -147229851 865502170 581786745 528740359 255707180 529410618 44756055 -453098699 631332185 537039659 413654141 222402503 666500143 536848060 769341616 -618476319 179436577 330676434 314841023 280211072 -797530431 -363430677 -688424868 -168673947 -133786912 -934837054 -349303295 171423632 -576131526 815209207 920499742 483881684 -874548608 238668891 -535249288 235057326 505726732 892617380 -324731491 779975796 923501904 -119859808 364114041 -351199627 -856461117 -446323536 274731150 77845302 -644665152 -771421947 -124412926 820928847 767511929 862664279 652083023 -187522876 -341665310 152118296 106362939 -212523077 -860820028 164371786 -330971640 502542987 -10245490 844285285 -191451576 369787298 -349664775 -902031410 131532486 -638500055 -809521098 525623403 298094907 561670487 -645582373 -500949855 -83135942 443690998 -885835422 -289313740 -486982186 -676741902 -581611041 300979793 920053816 -936873445 670542942 -522960567 517172076 641062703 868655286 463329844 408195257 -458734032 994153979 -426519290 -938236094 -264634850 677635549 429383956 330402193 -146233557 -292355011 -764366245 -537909567 -991661239 748359064 372718505 -222842167 634765357 424145829 -137385767 -997572372 193696767 876235403 -13321269 -221429138 -968332647 833646946 407314963 -122946411 386969086 452415321 -984587745 -460950469 -990764479 557890095 919733629 63390329 377819484 368866664 -59325980 -750666486 120847312 407811791 -818648722 -534933049 461796826 397402817 36104374 -296077589 -152875559 -819620418 316655345 -436437493 757102161 106587881 711046538 -321102512 -596842681 -422368218 132181950 -135244940 -260342061 -136005190 211468950 -98617640 323672378 -90883891 -207042377 -171684296 475855090 715769761 -75662268 -328315415 317599227 772049134 688128502 -403023989 -765328031 -37538552 726506473 -566945829 709749405 285359323 738454454 -289405315 102734320 523214730 -718712491 329550379 -388481086 165876414 -447051409 -410752865 305155266 -501329987 277886324 558402106 597207630 733700336 -632103672 665187493 876262032 -169801980 -831072458 915670276 312694200 -729910682 418469956 228554245 722634223 -305097335 400345389 135368617 497398976 771697929 712994371 -641942320 -391586856 -542779612 -868477122 238184712 -340337217 943578478 -169910638 -312083691 235742076 -677009116 648532892 -758242918 -251408528 -338699771 -537023606 -320148967 200577555 253772165 857885433 614727371 -402734972 -95636644 583889332 872522863 156712460 705596827 -382002163 49226090 -490746718 449916388 296787573 -468259206 -765613688 -927245990 962058950 644211520 44120827 982574650 701618451 -922326159 788705780 202921354 488740878 -235458609 608966582 -953675220 -127191493 -420555631 29336596 388484483 -413292843 -118851929 31444057 -870159302 -575671167 742136546 884120585 477493594 -194956624 -91681926 -535274569 951184038 477290218 209144386 578931862 -792107482 703307993 -958051945 234516319 274390124 -197188056 636581099 349322185 965884440 59733248 -471927837 198481128 -199909374 -460653373 -124087765 673205755 110956548 -584097609 -973581286 672732714 -958976979 -476006093 77866429 -176072649 -173027932 -447976064 -223902518 564525389 -584294142 -669274297 868141727 -174072076 62539309 129357740 815419450 -21011764 -409868409 683908768 301833062 -824833329 986771812 629703909 -712072561 -35704408 -556314111 428807355 -366892058 -592786699 736140791 402585845 -582526926 522942732 789651474 786797506 756067748 -664613197 955796481 -645690717 -69607618 240103264 -200330192 -33502653 -615373893 533539420 -814000536 770260826 -409208436 41324514 -577146545 225852459 229498508 434711050 -575937372 833261104 -571982628 -6035306 884467235 403853006 -932206957 -463394139 603232221 -945334564 491739875 -404557589 -947609129 47685311 747615285 -453624283 662675956 -141491832 -75480067 -132254124 991698292 564539897 500969500 390320086 -393274810 -621745508 -504486336 -148245709 -738126117 943350044 523194673 370589916 -138231795 -998355777 225503419 814189403 -707911762 434097061 905449150 38718604 -349492099 91149933 -414973158 226881718 -682112291 216857014 656736041 -587868268 -551950638 476257198 -563968021 93502728 371062979 -178510237 -214032783 -30129595 -78089844 280957933 -777190027 880359242 343892820 66537526 633270396 -209074743 -968609311 981276076 350719977 780514873 -5807101 -488638623 -673097521 871360709 -44729334 118164320 -159719548 312940678 -695626362 -47846078 621449877 -882991750 380811703 377302860 186206925 -719112768 -800056274 252983421 -749767115 -862085788 -854500680 329554062 -797260271 478587416 -912162652 692998451 78095167 -494835769 -785262184 -45635308 936734558 -684049690 -22578586 -505628484 950980352 366294818 664039174 -390644513 -13452168 89933852 536196378 -123700255 -896578605 -460563175 389330938 134398522 561661418 -148623000 -284832090 364327089 563855946 -283270151 489412156 -568534567 -790481435 145094287 -611812064 -210261625 693616963 -827436850 -344950144 -691069629 -909342380 -121898367 -764033662 385364404 -158106820 866448783 342309550 -720370759 -223096313 -928130666 -155819804 925646051 674096939 602739423 996641907 791377756 415801967 -218395695 -544565774 -119989670 817466565 -889664393 502066244 -598580045 620196574 939803185 -214307971 -670036440 -354427986 -341024702 687394997 -302810935 453048351 392643381 834750672 934357128 151212430 -438908243 -784939691 -289889876 -244278941 782922961 -910898433 -909161065 -441114844 -607608040 -31339685 -925569742 -449905363 -38979623 -623606480 -938006292 -678996329 -473023471 -77256194 -630330936 -817118591 -954196692 -736937033 766588816 -858749082 -533957505 154422339 -874611760 -418791421 -175351275 -599623394 740473844 588472092 -123245486 -551234626 -963832578 926108636 902569850 -628452082 854265669 -513809790 -471522988 832700734 -157589549 334732246 846696003 -654867111 703346013 -435574396 -291083629 720426084 -760057406 900376919 737161103 820578883 -775223343 -655674522 -105300030 993204667 -808509943 481277579 -368991871 588306749 -597990521 -11461153 685632364 439564819 -337044228 -663720380 -544176407 651153455 -265987104 992826040 582007634 114840008 -692544999 827119700 -611686617 369338692 -56884544 -426931051 830090398 996631911 671460359 -154367961 -960496455 -383233084 525574478 32344329 -89422913 -179451335 25379532 -276235061 -806484455 29323009 738417522 -618562960 -40025009 -743899020 367338731 -632310443 344296489 -989954890 -197551485 8596722 -407961570 579754188 -459088988 475353913 271309160 609211234 598226873 -161181570 -799563903 661512486 737767100 486059353 -780989105 -950541289 -852249184 -304868644 970699756 46173541 -984815471 -197692616 788909029 240912666 353888880 963721781 117254878 784529133 -22797042 -347675239 553287486 -68595142 322377997 -24850511 600527816 -492260476 -870352440 -726715593 706785220 -260252989 -928661432 -670511031 -342175442 -94418845 567461094 823229860 -454962361 -336967896 684514562 903195758 693803847 -465720049 -962338550 250498364 -950539282 524953301 -902327613 441490767 220239601 622763103 -281690897 665970639 -246959163 884839993 -715988887 58225379 -318736015 445316111 -184377826 -80325141 -109671973 725017419 -988178445 -606373166 292898122 -486237432 -657401359 -709833907 868343785 76940946 -651334930 -667015723 -252274269 -162152870 144085274 -219889587 -285204472 -411177013 -902730685 643454215 -740930991 -692237478 569278123 -987993870 -159710863 442487895 116250271 626071713 570595489 -282541111 -779133362 -94786935 -341925766 -587413931 405060324 -548224578 -284286999 -777711693 962820739 -245453640 -209418194 -679663580 -43203190 -459948649 996812110 376080951 910756309 1574089 -861092641 -350206368 -113750395 -251197609 -926371126 -15333764 927984458 -257042797 396598214 -160437966 663261134 483753128 314481109 600267903 846173155 458513685 -880331851 975705620 -922975247 -585831515 -34078652 311936973 -84337844 -655332373 -211959802 210420074 245668355 3133754 561728906 337083588 408600615 377775588 189415497 138818783 -853967458 -607078907 -147744531 104842377 -192785490 321357999 -125875627 -379975978 280100276 -536827282 -2604424 14630505 -792222307 774404480 -424856581 -348384569 7166391 -683476337 126493902 340176959 172694473 313505612 -856284390 303951608 -940538705 891955357 -696061138 475745281 -19113121 910113321 890116955 560259117 82113380 -622620590 -26216830 894158104 -404366542 -987455291 -143274312 -740049852 -47741263 826713353 -297928659 573692960 -71288382 460972494 739262919 986258565 771754157 712551776 540367279 248157769 -599035022 442739632 725043784 381643859 -510739387 -797742873 36345849 -239007484 -168432201 955379579 869786893 998180681 257934224 255274213 -809637371 -774990142 -917333479 578291612 177359097 -883634093 484619549 -68184174 490663276 193595120 -993983363 775633762 458985357 637406008 -775149982 -130583281 -864087203 -94305320 -740485573 359713680 -310320239 -663254037 638856067 805946991 770841791 417726914 -491186155 393956206 79991690 396652807 -231969721 148659708 -779190211 379501970 -94408572 296297127 -808952571 -233713827 -642747889 410610858 428930818 -411760737 329396050 -85881897 -233426060 -689586218 -81750567 -928024702 400275727 324024391 736044133 716428891 -200505666 -63311280 767113577 -364909787 -431777115 216778184 -101671392 -598842500 -698610927 -538112964 751995113 747014629 54744946 -241170867 -749068967 -666278991 -333159204 278806419 -258408887 694077875 879714849 -579936489 693899180 506258488 524605320 -243427801 519117346 -158693297 -923507926 182839416 709303127 -609633973 684017145 -44986035 -201992497 340272243 265366000 222008393 501810568 -663770358 -36490791 -388459024 -507457841 427086879 811783067 65511772 909579435 -523498406 813295048 -587807067 794947175 -543976247 -209329425 -123282598 828466909 646057627 -415803767 -990337943 831846294 92722274 -999827768 -394391452 406455814 -713519353 -842835090 -232915565 538373101 121703258 -879848848 -80604747 -352204705 -132728050 10245363 243583125 796276128 -996081323 331632973 976057531 -645847900 506382274 -195154727 -846462188 -144083038 -72549896 618376845 -970662249 658265521 -301547614 260938044 91381277 270143224 -702043239 900042545 -409831518 55138330 144824989 183217445 -863386885 -746923373 132553150 953854121 -599953976 452714236 -684203620 890523988 -587632011 -730107318 -411346806 380660608 704117722 -308606797 905558511 149913767 619279142 -945542291 15687596 -569869951 -436867155 649062605 5837023 569116575 -197770451 -676209750 -500904302 -183271315 -143800028 300271424 -371616831 172225059 -994211058 181870282 -259615418 658817824 43448444 -724566807 824628531 -180620285 -138181147 379426037 -786761144 544662669 264773431 893891738 -125479468 -141987100 492642017 320606573 -314894712 -167273662 -655764597 762183156 15289714 -434106257 699049668 -521909397 526796467 259962980 -606258848 -782985923 356682294 290023793 244036235 -177271493 -25169362 381234692 198676417 -358827290 -686484325 552929135 685633241 391875632 -612076338 -787530369 -886884079 -170583657 -834350852 318092555 -394485118 -368244981 530520534 -25483647 -441058455 640713691 90821145 664498190 -773841593 634669148 -425113225 123214467 -145404926 -384824679 507682983 807670796 -342859029 -631954650 -248566796 -145574374 602866280 -592562918 -617408949 -713906387 113868514 68593512 -319000629 -896025683 43409113 933801641 869277775 506726658 800798559 -472830685 384960520 -496481249 -306411111 668475027 -701841485 -954853800 596052267 -6678602 123949019 -533179068 -246101112 771953514 773721335 -846032883 36109288 -155646367 399016404 540372031 -749734039 217795136 -873195841 -887142661 99876013 -328887849 -498114882 -342193649 -898501069 -311319344 956369027 -843479584 322481591 762616818 -709870183 -556727989 803502776 175797236 -868856453 995410616 687097854 -393148189 -793861761 -856705221 -737171075 -704645893 644874699 -340263956 -847649285 278795434 649029123 717673981 241096228 193019999 -848747202 478171426 -4987604 61077249 -655844011 924479147 876480883 -677388015 392338740 226195172 475710999 -859396868 321787221 -579332511 -455538503 894573524 -549403853 -759536101 1268692 102917639 -299521467 306297956 764538990 -717898314 -24160414 493100294 159280366 -321684891 -78115635 514301253 -270984268 971055630 482190485 -563306328 -452286932 -267219250 -964276952 -822336270 -880387582 -353902341 516226582 540172820 240846003 -940070596 -43755727 -976966879 -255968317 995460762 939694386 -561828250 388729789 299072384 -185067964 -220877272 404896196 659327941 -652673277 471852063 -317745683 223529281 6886691 -576306772 89645456 152811638 -813901807 726938096 73980993 -721864185 -425598462 -730768791 832324021 177906714 315074146 886791222 13522403 593622418 26900143 429426569 488447552 -111215305 784056491 -286565483 259162947 -47030485 -321778541 63955312 642463642 518202135 920542447 696402712 139778672 -52622847 634649605 -329489345 -8780175 -236654718 790666236 -764285273 -703719400 597078101 -899453985 716789125 507189416 349410450 -305040827 754082462 -898096922 -315632009 -648638211 590070352 -46305563 933204195 -555358 382292955 845029984 -129573489 -362310151 873951684 600933434 -734607348 -943043531 -363637533 -614685953 798735346 341292663 -707428547 473440633 -507293258 -629230133 146954055 -138473804 -103075984 -568589451 -463520826 553305000 516202845 -462356904 -488519454 552476500 -500610554 991188099 586622625 906128668 166064175 -170068166 487938718 -267229737 570095901 365947935 -37407376 -796162918 -211619177 -257598398 -349090618 -682974559 -375919288 -794679071 -992349011 -206145212 -49118535 -992053909 -361121158 -941448574 -948813472 966178539 166271669 308074607 956886050 -726930921 -973380689 385737361 -142984326 680581894 93092795 843162804 314269288 228410461 -526146377 -961191668 -584926580 -591225854 774418112 -758988666 830712442 27993872 643004444 509763274 396501711 -609220588 584804583 -521148779 -18962444 -426292044 734786949 -640103642 521379372 67856585 294084859 -31073016 346204382 -31402145 -12459684 -751940077 -306739960 -83649386 792680959 -862176784 885153585 530595574 -719362189 831462424 -512563342 -171839207 103287509 940041894 866837938 -539013058 988341833 -584745385 -406432414 -107736964 -335428031 669064878 843534859 673364555 383255634 461231755 -567255440 132415253 -610032488 975804409 -998582536 -457098160 427585312 -763215324 319112764 -729253728 408644578 -362478678 134517864 -469190055 217048694 -521986532 -587733923 -525141802 23806435 -540153862 985708411 -530041906 311870545 -381328745 974270681 920595044 -915753391 174847953 238903101 -524661490 719057075 478614923 385757480 -372144441 96867299 991245621 -166374396 -344480010 -325612654 729104009 597827237 -895181883 281042794 548234240 523073716 -909068825 -86285968 -434114988 454024997 -364781480 381667754 603857238 -828719353 -65516185 364998934 -918698306 -447432519 373593340 632909470 348944048 -558058286 -551901536 243981441 548636322 -826070810 -521605066 828387498 -863144054 -309477021 845528438 -919486604 -442628102 570590555 -801669940 -522236308 -448841756 338511283 559727049 -133163418 682568337 -971630344 -186156949 -202742845 979417655 -467669973 -825417708 701387856 -204329844 -431515640 130398666 -246136234 158231374 -612032992 690879412 150151145 -682356935 -742666970 -345736097 -460049935 415231083 940525550 48707540 891134676 199058933 -958377317 334852844 586008567 694470170 -75123267 282064638 -578977983 499381414 408810063 172400470 -118010383 -201910226 -907083321 282192069 -957509630 -512496161 527174404 65431457 753343964 578501474 -506450832 800815371 -981980850 -672688329 991096871 -610520678 -636029906 -295061466 337570245 -24808009 392421485 -128108188 -806028036 -430209073 -594672856 -803771104 775293652 -735699530 705425857 -60088220 145844841 -621513268 -588806176 -946038305 -560509432 -727069186 -17241180 -260430581 398279583 460516875 -889074337 199110087 -719182777 -512054438 -921431585 -800226625 -384898 635407104 -189310937 -453224772 -234406426 -861205931 -479955375 -726642784 -713237549 -96077433 554345367 -250957858 53402586 14356964 922671505 171526876 997200676 -40837498 -350208568 -16156012 175163593 279028472 183288001 -8178294 -615534783 328100698 -911691201 923331754 691868484 216960781 -901717780 -133349260 35516474 350775294 53052696 -271713591 -960653210 -287661739 -548152979 -262158310 -880863807 -868488142 -124646883 586977464 750832503 983253855 -964254367 -333290170 -640867104 -637926684 -183132713 -35562796 -817725807 111975317 844299896 706702513 -714513284 209369028 249902455 -403312223 50644178 234751360 -434933242 686528466 -518568591 499927968 881117784 620691151 -323457952 -489365392 859323210 -171168108 -728940289 11865907 -106533992 211922517 749465690 641099626 349726781 -374661278 209699910 -451163866 900500251 -575257676 -751716584 -194892279 -659835384 -312725618 -759835344 -596414640 -941336398 -682417097 333556760 -461090644 -897881503 -534397417 236386470 748775254 -842019508 107547053 -938147932 -759164087 -187015663 75427492 -909974626 388548231 -497353381 686809305 13651796 -878439391 -703990297 762054883 -699116959 -3242093 655484798 -133307114 415171098 -741014523 388862129 225862706 162200807 -122993719 824003259 870239070 -435435413 669027891 658389562 -547997021 -428351191 -934974665 599035643 257197883 350196230 616343085 313087550 -610596523 290277505 705500744 806281808 676706906 721836123 305709963 721617109 -156236538 -607270037 -195893967 -37006813 -204643053 -571187719 -392699235 -428155483 904516616 725090554 -463318849 228538460 -290403 -891684780 157299051 608739205 521617314 160061700 -53833303 631936011 471741277 -917391103 301458392 634423152 528975624 -742452764 -475671447 -308251392 60742193 -579568011 682174384 516603644 502700757 957177136 958075275 -824215944 243646215 967077326 -408974415 -94569949 -747880597 769838175 756966878 954718103 -783682602 965049724 -554841870 -907243091 683495395 594333961 -169745165 959828813 -426628345 796685835 968538008 -36682776 -619580793 869691116 -631421860 -5975038 969657190 807798107 157005117 785958040 459826879 -984856311 -164851534 -155072523 -319856252 944461733 -275920536 -148795771 -355217296 -583862009 895695152 -823813628 -178288854 -548994156 -242353454 -399703069 -911675994 -532088890 801026450 284222688 148102687 -640274535 -170245252 -329928482 -491675015 90331493 484078837 -984456567 -382098058 -483643231 922663829 819745130 4701957 -26040198 641921546 -616754983 -970166866 -293168816 -843045402 367266417 827422617 -244882751 249483481 -922693639 -465382849 -594953210 57150024 114673561 -553151852 -879870647 -811618710 -794768856 565365811 -901855857 -773778348 -889550793 -295451430 39856241 -413676600 -646405973 4052056 -184338614 770504806 -400030450 -11381842 -679565481 328399320 53276276 -817822823 -393524352 -916538705 -195056680 -749180322 -442961896 -521654968 85754030 221391720 -427340028 -998087195 -862526244 671682476 645960080 188445152 -284211407 -12031709 567361552 952393436 -493553877 -180977867 -159938455 -840090684 566339385 -119015153 916908647 518821114 383319370 630657908 -665384581 950050103 91863312 677487126 653780304 210308165 654187513 711640727 -816584086 -139211523 375275678 -23097716 940679093 40541697 -945251080 -360605632 69957766 998943391 252788217 543572464 733546285 395426397 418246009 -73655102 764462364 919114733 -460751577 69756774 -647492854 974370343 -377407988 516881493 815334261 -940390912 152855736 406578887 623748718 -147757759 867693515 -673715438 -308564219 2419951 366533729 -655837032 -294743782 -994824732 948953114 24627467 -98763315 -80237497 330563806 -906560832 -990450240 -385938470 878801933 667121486 -425951841 864723873 -716387519 581075102 943547199 -969702566 164816299 279668574 204475308 875679873 -121258097 542721252 -711865707 -483199888 -418160586 -727893298 187550390 467175529 94324017 975603539 736671767 -226032074 -937997905 -980075450 -382909797 -908063783 -466215007 -38960710 -583490359 817330003 -156725483 151654077 511837051 -256532464 -807158519 521892116 790112554 -971638536 -623061987 -387630823 -968992061 320672778 920134200 816390404 564590446 803830119 695367315 -631722078 -276689929 402582294 -255616800 -794512268 -834985689 -716967384 172791908 90458347 588000622 -976677623 -543515961 -483422463 -992684494 -313389466 -930703243 -499194018 38676200 -83607425 -544274011 -359305523 9870591 654023851 850433287 -460705458 -778035802 -313899883 -169379081 -494786112 -599086385 -649520473 607522744 -426305918 651004055 -31345876 537242533 79748732 -954684183 470308185 -996677082 829807614 -438805728 166193758 -301831038 -268388416 -791985934 -100184244 797701286 -931327986 714555400 179766342 -45633106 505370192 910260193 -287499448 134532202 676225891 -208587925 -531407123 942193926 453027487 270728118 -736042426 91581683 -907204984 123819991 -159739465 -6654417 839016062 125039728 -310503562 588986076 695553317 934336222 401018941 961832872 597549448 -234773760 482519180 794035147 -711371237 886917828 -75651965 -898968505 -684289885 170228784 -176144363 -60571965 -703686547 -897560381 -775013482 349924042 805335298 -260332845 863065322 401999474 854061051 898479728 -669749849 -861628633 -577075657 -543630172 -218471888 707744014 8378818 -848905476 -190494043 -871329222 379321495 252185167 409591398 716277016 622927609 547566355 53369082 651742878 -714653532 522769459 458801435 -572694359 -704856732 -705046764 331656851 -841035794 902224396 -652655465 -731219251 -379029776 866824408 -3443596 657821073 -741212336 528658799 855562920 -611036891 540828632 -648560059 739378542 -925028182 858264131 218998741 10562975 199524892 505186381 562087282 736143672 821355807 -578247595 -855337084 958934615 -465871796 806721344 -856052248 -498871530 100287987 797584271 907987299 328017749 -419153107 -777676448 -826832697 498047273 849118382 -741397944 -433341293 804770974 -737477878 -680995935 560188279 910570572 -124982466 278266535 -426075882 567390801 -221138446 -719634819 483215847 -621759251 -701304790 -368331227 -103551232 933546978 133484166 -417939255 902655894 -969503295 316732273 41454974 20271380 120110445 -91989743 -56782106 854868880 -313914782 -590498776 -412481712 130938537 -281897613 -251444254 -353573596 424922767 79840936 -632509065 366189830 -748661908 600166501 -661811690 713103159 -398900563 574063673 818965867 -54521520 -352371713 -49631584 -937162286 -83223058 43317780 901194822 -443329111 452941968 -480766971 692207774 29923510 -796341157 -342051560 -695987065 -502181545 -854773364 -796978161 -720207325 727286358 443700683 131070578 -236195443 -416840803 600700378 -18458018 725713845 524808512 776132963 141673080 788146195 -612117998 -21733856 -263829353 -976380834 624918970 636962307 806065010 -953365399 -86131080 -753320572 -861673966 -555473507 821202478 469957444 -941634361 -936046834 971834212 235306299 707027478 883579978 -809903195 -854111797 -836825372 993976391 830135692 307091810 -148918856 -51005383 148670212 -141028369 3178606 -125978687 539286937 -768787068 -222287408 -838219319 -979585554 -922336298 -861993797 19765356 116611257 220674411 83045740 264402674 -791397440 516734611 -363903404 534787019 850161298 587498488 -734120625 903811447 -568366884 -426986446 -177862095 -886943975 -319691839 -19658006 -350490304 -650761219 602762988 -942798143 968857979 -275023995 -782280678 -251867473 316856840 689537559 -977673517 -772857950 590396407 -289107002 -920321376 574346529 774702333 257602482 -191166003 215583692 129850365 -845227850 -385024046 216732301 -159246662 -778595352 850741493 136507450 809607687 428198137 525236498 -143226449 919448021 596699066 326582665 -116616168 281894349 -748966834 -996941343 -890496313 803557421 506100873 -140538051 -701986422 380630378 -360098225 35218386 -688812111 -380196967 150751008 927811672 -210230176 -500640130 119327626 -132872699 984282869 71797347 672708818 112725384 220133205 254108792 -973003131 -296641150 478272731 254401270 -246069049 44354126 -235897528 919358225 945837515 -712658984 772733792 -361146322 373101693 457323600 -460142593 -549684298 -891963635 -620857058 -324097731 50450264 -37424736 -268490294 243215547 893598498 -554926319 529156112 -301047290 -381413695 987511153 -826274471 297711930 813942806 800102769 -14961413 -752003741 804432272 899303188 807978 -166061822 -346280090 -886760777 740672928 -820747395 -658849807 695940445 -69496548 -170697064 -242404407 850788368 482720438 243779780 901431924 -464184309 329314807 908373948 562667912 783881899 427855238 784862057 -405554288 -879868543 -565246685 -611678174 527624643 79838492 54262347 -827924760 -276092903 525057172 481542918 -271315366 208907013 -937547925 -192364062 -949421828 694538460 -654424315 605424729 -503684313 -477532252 -585216174 199034455 505191531 7734503 -135887346 -778330122 -643120261 -557460038 676858748 -226225898 569938620 -78126747 311246637 873653067 141056895 692850232 75578927 -4732730 703075808 384611807 -286931157 -889676161 96990773 -215894518 857391871 455060883 -445129359 -813732105 -910583123 327914411 577802007 877208629 -185488145 468761922 247778067 -550197505 651383071 -652344124 679671804 604489049 -197964679 339222341 970236984 -30147803 -232388237 98948999 -566777369 -537541739 -982131222 224734673 842475408 -726357086 50669545 -311235771 140991771 -715363674 -898613818 -802433913 -578170076 -370270006 -954779525 43326736 -547259041 34277245 847406072 -783102167 316297821 -3645750 291360943 629701095 -721012620 361237996 2996021 -963118271 659144837 354655614 -931403266 -194515834 699416954 481616116 -345737514 -503820346 -99882721 -318754365 23600890 -406009351 825448912 -214995543 405691404 345918504 391717116 678603713 -138163492 -263186645 154482491 534910143 549239772 -868611244 -572010956 117695176 -87007355 286121477 419618077 57053070 64445522 -956563812 -246363058 -784325320 268514351 -176190817 444184453 -287964905 -33809448 -1284381 -777503934 577570173 -148260567 -38408786 916825157 562266000 590380005 -566517104 349739340 -882980368 -221037808 -817098993 -323033570 856159152 560937197 -823414244 -115725332 -489440412 -690594095 633552734 -415712947 87624881 -511253264 345476677 715433131 -264116925 -554491143 372309868 -31830540 20979506 687130076 -657009215 421707337 -552049965 60632697 -826804378 254737769 159798445 -847332645 768794645 -853630469 594366118 -979120412 724238939 -956600880 459368532 -174214865 517371472 564209396 605434001 107445132 599553429 292025814 172196025 -276200364 409163898 -726947295 -667782915 -926499840 -514239146 -899521 649148784 438081563 -175933 259632080 -507101363 700308927 -915062724 650953671 981920512 1490713 -108024149 -431901777 -477258704 600115493 880845633 -677606689 77248235 178365512 -186343817 777544636 -165444119 -87608515 982895443 -454094077 870695716 62846586 -238383622 -434882904 -447796124 803075919 405798761 650875203 -263517203 -591916783 -747642313 990906842 -648406657 278538735 757942109 146021951 52322162 506515687 426399051 444360700 94352645 324219924 612297038 882865056 -658819684 87294707 -76842842 -408738379 788216315 -467595708 -638520725 526456768 175197058 145564908 211916039 -467237401 -518575888 -280253036 606764621 -400958122 -648914784 -99474910 -486405847 268523666 327825519 316463324 521941926 -523479708 559745440 -721575519 -32407307 -581722106 -660243908 -653239724 929512668 -571511480 352858622 -413978608 401152499 611010656 -648147139 -785588609 610493646 -477346700 -572681516 -950668326 432636862 688642513 -583258272 641966758 -88218447 597841001 231825140 835883141 491199241 -64485158 -617088346 231868455 -970137808 304748313 -473004650 -597822763 -216126128 704325338 390664357 -581532024 -992189856 -72758609 103602038 832382771 132877823 -633959964 -881520756 -188934983 448885701 852071018 -82822800 -617846758 613226856 -858381124 -713246669 -447835894 -542698136 791291149 790532519 -962970460 704214148 156130441 537878160 487604388 195966777 810984424 869109931 664358955 -555257855 -740711444 -406937119 629699877 -730747638 746755014 -461139352 -538599186 173005770 -910665869 376366251 -400902877 -487014625 -518235301 -577597713 -942190840 574445723 641990637 195528145 885062770 -174551247 134361311 -396605365 -40176592 -853998917 578360916 -598075108 460153815 137492289 -131482944 656811509 -540196453 -140954156 696338486 767681792 -619061852 -763675230 725292144 -54310490 -397086111 422235047 -33091561 515879045 -293458289 -261139089 279228934 253448728 718741378 -462775102 660397650 453251503 -437034417 260707657 -327856646 123888718 547726800 170814883 462444086 -719594555 20931847 -418559541 790049492 -679913834 -481695885 -963885151 863006504 -824088020 -849327752 344741254 937041150 -378243447 -820715642 641156941 372536801 -525204651 -290494494 759540369 -390890106 -820361605 -987588271 -163600370 470305025 428172429 -416791804 -325892329 831621329 148446643 315575205 983920934 682955119 -396830358 -356596224 260042055 874274588 474390150 -277022899 -389560854 -35170706 808643509 -156414438 888385624 -773939482 -898151237 -170419051 -277898816 78654538 -985573697 901144030 -34351003 -59760088 -109396420 -58909729 -82582133 938480422 -789048122 -57846782 -542528734 261494566 -41531917 818794683 910884097 112824216 408774204 -313652773 -820233870 11596297 602284111 570307039 800518713 842799234 327696471 -962888232 949447289 -109294850 793658438 -687411921 -586749909 -116796253 -110418913 -921275016 388304032 420807163 151508640 316210823 -776922005 388519782 599508588 -832898667 882436411 -176696817 481360713 111376352 557652293 -98812862 710254361 661600298 -981529766 598180083 -235209377 134120518 -964273091 323816033 263557977 -129441933 80486511 -403385941 61044862 -404928039 -114652992 800399135 681135450 305628283 -745281448 -89723224 -106498085 -825730327 807422095 -972565217 287691173 103395093 -788604994 714255649 -602979989 451649039 187236932 -576980487 -414167181 -349546622 -340044339 -283432283 455172349 977224100 854650568 343360263 535040708 225221363 -522933737 176339046 433106605 -328812101 -678601062 -512901700 -545536375 -20284578 -896026692 -70962021 483697310 -997169303 -932720331 -810678745 -62978321 205626940 466149302 -459116426 968868646 -726463402 -896094969 452604962 726824466 393062338 -399887438 456933695 638482646 -768982085 411079848 112277821 -823823308 13327610 148668904 470400310 -486853284 951110071 -323892220 -168618397 -559492937 552278356 -978442178 864207600 221172601 -107097751 173251238 486781958 694853208 266173236 469147170 346985032 943747229 -537661141 -88392192 532373232 -63962166 735676925 -287382428 -137694913 -846365861 5328640 872754999 -849033545 864990841 -966074521 -327952296 895607601 818658518 389170098 539333325 -764777686 -376639286 -164922438 -402659383 7574090 -338485342 616805486 720292464 222019619 804924980 816420428 -981029533 -62046938 971152706 -184388102 -354638293 497966319 -651592357 -823553626 -574779085 -490263148 509041321 -476486287 -239559372 -853966390 -813033163 -795856068 -262302618 -572984410 659997548 166260646 -391095301 -466146714 347170133 261804647 -543045850 -93355921 -411898400 759602475 -101439302 984922855 124709223 588728040 244206989 221215759 171967433 -424341058 532319240 -541566155 -665022662 -917775524 -3938012 -736111336 -52480421 -697988281 449725498 -497833653 -251945219 -370650134 -230286841 264745066 -38120429 -872587871 776027059 -998902890 983755725 -32620782 290752725 -35229903 428363808 -150125636 102935406 169740560 816467817 -904010878 -192916424 822730474 -768481172 38579369 49461695 95663332 464384830 574972117 -11712112 248994273 -136448543 957975253 849533545 -762524744 -160539686 -824411015 -647221530 -311093848 486216761 -514547396 207476241 -121190896 -944201499 -475186644 -593150200 -162693902 248169277 -651163548 116317895 -948567555 128903146 -755091259 481506754 492223230 848014146 699791122 -623092499 -94444680 992176992 -886807757 -106211409 861930644 547575589 -755205154 -882012498 970486695 -412000621 25298276 424833672 841678944 821030561 -17166605 -476866953 519892785 -628759300 903617829 980578493 -77690058 -762249296 -553162683 -82704324 523128837 -721739919 740163088 600895602 741760076 249889084 9769816 -69312888 -632116699 -171760139 311009600 336102370 -698094938 806263828 393000461 689999040 -748098325 35975185 -411951121 97520 202029802 -835864042 -297712485 248275535 311398563 763888750 -226274657 -54233847 -763374199 693270706 -3437557 593908507 731448601 223526678 -529798170 -90389851 -800807511 539116805 -538651086 -357951126 -617278056 -728194340 -804532548 615200344 -945485631 -901058234 -271409813 820445368 -248856196 -13413364 867967899 -372230503 775218429 -307388297 478485812 -514601959 623156734 -379929732 898893942 -852835299 -979420043 582763171 -955745734 -522159682 486935616 -460095764 158034248 -760618626 928716629 817783097 -123853790 911656 350888868 -564826768 -844866280 601156818 -593850794 -503853897 510210203 503642294 -38661901 517274545 -127790039 927725649 -93191729 -5797499 787070035 -694747370 646551763 952142460 -456920905 226031034 472908419 -23431786 909004722 488184833 372057171 -36014918 582635985 993157815 538363069 -251577089
