97
208387 358304 866763 129897 137750 415080 601961 93580 418572 959877 811396 689471 153042 303135 415621 418258 351674 502240 449458 94162 25934 544596 993676 220076 21165 888628 772717 181477 86795 257260 687576 337619 124928 694943 329400 886021 919129 674750 717007 698206 324606 225310 961479 368015 458654 859271 870917 101461 358460 669483 309370 478856 305679 773153 401008 530495 537082 520458 729961 795299 931955 680862 157157 592249 937277 285906 44736 835842 759973 669575 628084 434305 26499 351803 772388 429940 541602 601693 991424 820126 331421 631367 484705 899053 208845 656707 365176 972363 591542 74386 108934 107759 308804 927073 329648 261952 376720
