688
741810 686580 602791 957110 528784 905968 140685 908091 123793 354867 313095 132220 201895 694802 436835 440891 880372 365135 897313 598452 744842 284450 514478 425594 999432 592142 500267 218923 34221 562221 900780 746870 526430 8301 926539 892338 525217 645830 77516 721099 811979 593448 906427 582042 417760 586789 372857 12031 585845 325549 164670 457680 69940 794297 680175 116898 964295 138275 944470 376844 454690 118344 734626 442171 208070 853260 111439 952942 129588 865147 128477 951666 761714 239317 222693 642829 761550 196180 702079 202144 630224 457734 374452 305458 988927 456622 906536 63216 685319 945492 680994 729676 690394 819876 285831 280847 408399 173991 879297 364090 889736 296221 150135 198771 246861 892236 849163 386959 366840 987856 242899 948331 442864 82164 830733 890056 659230 712608 588469 365386 709619 243641 962928 315134 513016 540219 887622 862848 224778 533831 476561 132264 254235 530539 737455 100687 748867 563780 428060 538174 301810 180036 464814 823434 50465 727048 854186 995590 64247 186777 502469 655586 553730 659784 396003 504927 704997 58294 657879 877627 187059 658668 800936 924557 990341 979527 709000 331128 295578 803880 802544 758355 708815 155194 308518 501433 328767 520357 50896 722528 518400 719504 371127 645077 832294 628641 27745 662956 968632 81766 659041 105006 697348 847078 930208 647070 199753 863887 977260 18421 79711 492210 630127 241684 196817 278322 45039 792507 149706 514545 795234 39093 698549 597306 58000 974262 245412 300408 925710 609986 848317 590486 947255 873174 597074 422355 393156 743818 814888 266417 226080 887964 242512 174975 41682 503197 643227 23020 611240 121520 734856 822950 748657 663320 394369 469476 136796 327474 950811 636659 330381 379492 327959 198326 82061 886571 515552 628767 922990 99251 771375 591400 284791 768680 746321 753114 767948 861914 315815 751742 758303 309366 289748 296581 852404 657898 114751 500660 234907 444062 448064 858738 274941 512549 965791 971230 174597 636707 497726 599521 430953 616873 540234 817889 626008 692096 589674 270971 854062 824040 746084 200793 48361 456416 982 582418 207718 417739 152415 221684 59614 187524 770097 487386 805019 800576 386154 698705 531070 795040 59116 281751 939096 857674 239869 57111 179156 197072 2772 908043 117127 419521 941486 913240 226554 497150 571665 114016 473544 389914 983829 196187 39046 275065 722943 34401 276062 679788 663514 87281 554220 219000 787933 35087 962075 658972 316496 699075 65412 608505 315901 553913 669545 893896 14549 975894 942735 157485 443701 713454 723624 784072 523236 10822 577191 651579 311699 332215 331711 123450 539092 522605 223776 172805 347404 928428 758931 72851 418410 274885 92995 953966 48304 437971 247563 696854 56476 274365 224187 230954 211079 308053 189284 289185 675988 55447 860251 886347 883962 810014 323577 645195 262155 261467 253378 397022 890020 316888 34682 55700 836982 868105 18749 470849 278651 206577 858002 662217 862501 125343 388245 929020 625088 680281 67586 977101 121282 773699 107550 468655 246148 268120 244619 985912 538051 324792 842909 727615 907544 614409 101837 501449 974145 545704 836305 231459 132547 916467 840334 544309 996272 28132 165186 503667 359767 782784 992569 358371 804303 971556 122093 711154 589789 163968 946542 747203 619493 350460 915702 665286 905780 873430 134827 962593 14158 214562 133637 583890 584793 685299 296549 257542 241543 51901 921058 328181 409108 193975 302124 980128 624042 956957 776090 569163 130514 524618 492517 610827 954037 796481 21511 983806 144504 735382 880311 793491 663664 884135 178718 353042 265953 633419 299863 843701 147159 940790 788510 756070 94042 602841 830091 875408 267353 13205 893491 896730 158974 849148 950316 693759 817747 70580 56112 450256 675410 787026 307257 838238 410781 845109 927489 882461 43462 811844 899003 543379 729606 708997 209925 572157 814190 976113 607741 872114 540379 986590 146781 485118 539334 169417 426268 674181 389099 621214 584699 236798 35892 151369 585337 456439 677822 751845 697035 58922 309168 199987 399307 722038 68405 623869 796368 217737 719894 517419 543275 699013 123474 220170 336170 886069 69357 748682 756495 117994 967097 37561 671153 904772 729797 916815 652384 369678 176337 245765 30454 643881 630873 182606 607211 699251 894136 448421 392719 537014 209351 295102 887810 628495 570860 635784 168838 563687 985046 322444 270337 352113 277377 885872 215307 136396 310883 710780 79771 950733 189896 527809 537385 802558 481216 765345 238362 273020 114377 801728 427764 118278 441298 814459 694669 76278 873988 765261 570298 78565 943164 678451 953388 102052 755586 905722 599869 312611 210780 712995 250010 260755 187716 370754 569013 598834 339534 435476 958335 999770 620390 538342 118227 3108
