390
139499 960948 266090 301833 890555 552587 974945 771333 779175 339884 366032 390040 743105 793356 420255 887800 798192 558043 870601 548731 909014 524668 891628 542223 141888 440904 968974 21929 530587 177359 72017 717146 468176 220811 392766 90927 337816 751372 122978 308627 468236 293318 800537 916410 728045 433791 90597 277386 791387 628935 141928 167228 234316 171878 749881 483823 972886 509985 472551 969715 66145 811000 238551 734012 726116 865715 533392 629803 699304 221153 211158 966894 588575 730047 603389 131996 948051 521089 510929 586752 794587 10541 658564 427584 591201 91450 954370 226299 163251 576389 352259 951894 830415 632023 133912 576070 716099 684272 216510 732257 931283 64976 86606 498281 181317 246012 212199 172268 674034 349315 449647 200221 141733 633691 710677 810961 574323 19962 5980 684595 616861 134014 77134 699066 690313 471634 361267 625467 873616 165608 289100 500704 784394 939525 776391 126129 194722 856182 672700 967333 832156 409196 937705 569298 285991 295688 813432 479787 976004 571621 281377 533769 385675 245260 725279 27215 536786 106173 226564 437334 863227 317576 353372 516405 936729 86919 907061 217200 488322 477549 528279 631949 268692 463758 786876 783998 306009 269761 770193 729333 980136 404847 706138 962560 739671 778718 807205 678850 487783 854402 617561 556329 75330 797870 492913 452350 998206 916851 338912 457448 952416 974237 391946 334172 762134 302948 70219 235238 26747 892489 836864 971672 722525 461987 858717 916214 470138 359919 548394 367239 673278 433118 600570 766463 122130 486415 964954 413929 941079 534391 3414 590026 934965 959964 383301 92032 716099 694786 297773 245469 827470 758188 751455 312833 666801 208767 124979 785757 166538 254270 313486 671447 364915 136872 513341 147939 681281 397118 186199 543212 509155 947790 807907 582390 361349 717558 869396 197679 886860 467882 59594 712069 756100 728041 241187 246281 907430 255643 904438 392263 898997 649608 96233 232471 552710 207329 630687 595949 1068 458780 260249 49220 900217 674895 544069 987748 906886 146707 405856 469020 790157 100825 239188 586722 624692 674621 668286 750825 197883 249906 217706 223261 912756 641559 243822 239397 554813 810393 315659 964421 190320 565228 845487 154927 314310 375950 551343 358057 625299 816534 893857 319164 398663 35262 810513 358061 535553 828085 553419 589305 173492 211003 76614 818273 369084 907801 773463 255073 913741 398514 520898 427880 271825 954251 434145 399268 602450 102814 928765 433501 420727 984827 499123 917655 296567 225879 384703 823722 290958 775097 590209 271396 222475 508880 950782 347400 313968 976001 82628 630228 442516 441682 730301 854901 965843 858227 266991 381906 605378 789467
