508
39938 807613 145311 63811 923873 709400 771775 914632 773910 840983 411418 142705 823436 440260 649604 689274 670737 478190 182606 11210 312546 863337 657525 972263 884997 494292 219586 718753 230240 818519 80209 473354 312265 319436 389809 937865 480273 763592 468084 259166 350679 530805 225322 252772 430699 126048 485206 389006 385323 963351 291628 864213 240764 490801 485669 646112 459733 569787 51420 540399 754616 952040 717163 628543 678904 525729 515002 816121 301457 557926 929429 480891 190950 902727 880555 887171 867343 786543 167424 86060 305017 752462 482011 415427 43680 114432 951466 532671 242164 43064 833572 19329 87469 445266 919877 865635 540733 713143 895900 119900 647373 342894 767704 682947 61861 86097 965974 425925 769474 558125 427300 945044 11521 643275 741506 256324 559358 244391 877115 961812 109402 247219 872813 922091 709427 576940 614700 773671 463332 926669 807882 105979 375836 34288 296530 735605 985998 584622 143146 856691 793813 513122 478882 508527 61134 388964 745790 84706 415564 440485 86422 920683 426396 487489 254511 595742 684419 571325 492581 349813 704412 480597 716568 174520 941107 43640 843261 604066 141722 479717 86318 296771 16148 806892 63506 290940 393997 802419 18125 17272 826423 93356 269621 737610 831871 417228 19326 786464 450698 956195 77900 440583 217673 698862 347115 976857 510048 200823 477961 731221 148664 553292 75517 529910 487731 762010 206802 374515 2471 461325 595201 235340 811751 463212 255445 153527 851623 964197 753525 600995 291682 985514 867419 188860 297887 521610 362521 386361 519461 890714 216223 372096 605231 28823 274810 395541 680172 658138 882871 950142 761531 192486 123594 465934 261303 199861 357103 227079 44127 912282 476066 751944 737736 69364 558996 476985 858924 612083 361325 351849 554757 871395 130764 235527 987709 76094 574104 397357 328146 598750 681199 582494 164028 578786 594426 969120 828715 2282 836275 299275 23809 101608 305893 967363 817536 381445 806999 439311 163724 367789 724555 34199 361393 774857 561353 965076 389568 997502 494343 544010 426286 618290 9925 147505 421588 74244 219671 163674 469710 750261 938097 511038 401059 300798 285853 229570 311312 770674 535001 340030 65331 512186 279943 592651 620015 645556 34300 920901 111084 461531 672725 953096 234451 81128 825853 297679 5641 695648 748142 607764 578297 661460 243837 340349 777831 742092 337904 308208 569509 451144 768071 940321 876012 182718 86487 470994 483877 733925 566739 565721 430943 744957 402584 461512 380193 959754 121526 270228 299491 571132 575949 110185 156707 151426 230666 358959 817890 184895 453892 152344 854831 233266 912710 675366 110414 777127 252858 779849 449358 226432 540781 345652 149609 587593 330395 666670 928010 198828 639997 121979 111558 977428 722568 292812 391779 540357 623031 44150 803389 401564 658702 894924 340894 391079 42662 387671 66248 143825 231712 580350 938638 827023 195431 867760 542552 807594 382990 961110 124695 650538 161001 757160 58434 74285 603489 164674 849407 32176 31574 791760 811700 136519 651492 920918 213869 614750 307535 284256 723736 466175 837218 238472 680011 9211 312927 252059 892277 913637 555683 638724 335412 127385 593012 632959 446589 600437 794523 154601 339186 324052 90346 582184 818333 516558 557755 716741 984688 551711 203601 146277 646226 517680 43321 437035 108952 859750 981033 196956 660934 801891 339750 178088 460244 310907 493 395714 917371 892240 780573 768500 951441 225292 81607 523596 146514 441972 316272 962810
