668
66588 835525 956601 897134 848558 339460 817606 304748 292919 228040 204669 764306 467462 975186 747834 697923 164528 753254 227078 999517 540667 558001 649152 463149 185157 835756 647032 918874 472650 874617 153332 84642 721954 334251 863269 451983 267734 599096 157082 594759 977060 245653 814233 726597 494992 704680 737314 106327 526015 461743 152048 333701 636134 71700 832678 500948 933477 887525 792763 234522 78942 857346 919559 137417 702708 229849 884628 890275 785825 972847 764443 548170 240478 316506 111278 252486 459591 999641 8282 945942 597996 984796 829520 711591 208690 293390 736365 832872 483910 267612 621582 263239 23905 890718 207516 900470 937262 775186 567046 741319 255507 480243 372025 718547 628252 26743 220594 673084 51291 774158 957237 80535 459994 176978 317274 527258 472090 742827 645422 198363 837771 341387 740981 526706 899202 706192 292201 217814 737114 684522 442245 789554 489631 852181 661798 299989 589534 960242 490008 561233 756224 448805 291837 612508 410695 287905 138719 772834 56046 381435 115902 276755 185183 122227 336931 761171 142035 463810 488300 879117 101241 951352 23654 777940 897115 328575 670133 416700 247068 59568 488998 557614 848086 953945 774889 991316 810521 491212 90526 195241 265505 859331 892012 553260 730509 882591 604445 325882 981403 46696 971069 790421 156111 826444 446979 87513 612155 375162 735976 879649 905585 753178 739127 806015 37520 592550 828838 751562 173475 227310 762222 394992 589196 244854 140149 178898 273026 750079 536669 225047 736232 838618 212440 492381 545493 23176 66089 7495 918069 362500 9586 308208 836227 244742 511162 688777 615729 53983 271065 895717 729551 417785 475258 860721 76025 611225 853164 332051 107195 556445 29508 403291 878674 690893 202493 976503 480711 707696 727920 336849 427766 188730 464004 321291 455583 139274 475247 640439 228606 231773 385295 351970 143746 211989 869513 260587 279498 158470 339768 285290 443114 761502 419707 392773 35952 344187 688396 953554 644857 634362 998395 986047 478951 734193 58755 184434 424637 298384 323016 846364 457556 884279 673455 818657 642750 504338 710626 724185 547663 339547 731301 582962 418928 939622 81099 26445 413349 298417 197816 345997 405195 334396 592033 143159 172178 504307 473410 26214 784975 683755 504797 619988 819286 821409 77843 433614 637479 3165 873419 886459 657374 946284 712723 263651 433162 872846 264518 569268 574611 316997 5646 140159 755235 564272 317479 735404 156474 978979 656383 903417 412262 767695 449740 350698 385334 594128 363586 544624 838721 514927 127431 640706 215487 416622 806980 320485 872988 223492 387450 777354 480810 239005 778450 423594 330469 537149 259848 214800 516309 157762 361694 795151 823153 300339 167160 904857 930168 672315 673793 313589 697036 861217 205894 968489 523065 610024 400999 296890 849414 628757 488825 537438 474326 59493 664537 987967 864050 214829 761126 16153 852888 634847 490452 224233 400034 363209 676660 807039 967154 275615 904747 744991 480081 605915 212049 462812 318320 312978 588380 356997 369272 556622 443181 114859 156523 310791 516612 76378 454271 294441 521681 245306 726382 38229 797741 838417 292202 614213 244004 123485 858106 291785 330224 773456 628271 266996 122495 836030 718377 541189 76536 812758 32280 770425 768187 556693 126831 788599 236587 589582 245478 512800 265516 588768 110744 195798 633932 578886 586912 653341 737755 32760 202690 410198 792353 656321 387989 898459 980427 11183 937047 259203 854535 645802 491463 932544 365416 391981 611578 225083 279683 887344 418047 898096 712478 302416 226094 977712 890600 112061 294550 917412 151543 685982 590452 541064 82792 903842 482512 557474 940899 852108 191574 708841 76057 795477 120188 142401 936278 574204 432387 87159 294740 150022 296709 513018 894257 193281 249068 441062 327226 492101 528585 365203 921985 616376 571304 632685 955213 289212 574802 757019 345281 252768 477802 659938 269265 248886 233582 153738 333753 292905 510249 694604 678127 263480 133259 927297 837462 846272 957768 996540 224077 826476 337799 369924 704679 679015 987470 598370 151514 673659 493215 686907 684037 732308 176673 480318 560543 149669 718606 141208 717334 399710 463264 725483 28063 439516 226180 553633 246694 586925 841712 630491 867820 705672 673791 78398 217929 646397 337684 146244 380050 179954 214500 682942 20306 373916 1838 966037 537607 52804 235453 747266 914045 326729 413298 72540 177252 986660 562675 975065 37367 922701 613163 110701 999725 858122 85643 719957 446673 308853 397027 304592 403532 518066 274004 440630 765097 717242 643368 684529 112950 415423 995554 509707 907868 405060
