422
998978 999733 987530 998068 989763 985900 978343 978788 986158 944795 956977 984452 934559 967958 929660 940129 897056 922561 915673 925205 879885 800802 927915 883440 984142 872662 835448 948374 964869 673839 892628 932624 751323 826195 749465 921087 896969 792449 908262 828939 824622 856929 856550 795803 696386 915815 839975 865299 832283 833806 975155 784021 657860 675660 754283 586832 858759 950855 931867 626245 629151 864248 744269 784372 919737 576973 725559 733133 798589 603922 438018 798184 764813 804028 748156 678797 746600 702918 831016 809745 767032 763706 823025 832934 822189 833995 767744 747646 447651 677304 531094 768860 874366 707553 755893 475153 826986 764388 743516 832549 824952 742427 932847 701728 779316 435080 467218 168402 507019 509760 724464 509398 540726 284783 698646 425936 754078 884923 453187 591377 417799 506797 312002 476910 745892 620492 467600 699779 733696 869466 793340 564936 250824 704338 714361 603036 673390 198582 722816 512675 553248 377477 299034 733610 724072 419648 746971 640105 681181 251021 186415 665047 379386 584257 402532 668621 636112 433028 342264 761875 453517 563680 764668 311666 406151 691677 679577 700833 684215 623472 812862 553066 796954 642773 356020 659376 455918 363664 254802 568716 515119 278527 347035 432886 428266 496054 840703 689788 472098 580195 487567 286492 438881 593472 661491 751429 563562 448543 391603 335516 342093 653727 778307 351620 358153 572886 542771 682865 291960 586112 543051 169350 264051 26793 311724 59251 139521 41032 460966 206341 39857 14555 238427 133664 196589 358399 170835 164701 263571 649369 459287 305432 179525 578311 418300 565221 508492 409726 111305 84286 76583 219405 384185 92866 213389 277675 219983 307450 456210 439046 721826 364022 285730 181812 56316 457883 279463 606894 174252 461980 621284 370710 310021 534237 328755 71583 24091 596816 191400 629479 228029 433837 232168 598801 9946 75709 146441 687824 185371 127359 390372 259533 494274 314158 157481 234682 7144 484028 305257 168170 622525 360355 132246 208766 356878 394172 405836 85722 197368 125030 65811 32237 90023 120910 525087 139165 228785 415680 373028 379007 1040 41854 511508 304448 132681 280799 192887 319087 319172 609994 94307 26851 80960 307202 465500 649918 677950 85530 115155 272594 258672 636487 675587 531154 627720 97431 119488 525404 395007 546306 85496 126978 307582 496179 189662 670273 315094 436649 599558 312895 202049 142290 162261 281172 419318 89101 152278 19247 9234 550690 282121 457251 80447 269095 175816 320045 196304 287831 14338 246878 415033 349883 354193 395030 593970 239373 134570 382725 415569 100252 82117 423372 426415 233279 247882 65235 412901 346974 148485 12478 575197 99822 721476 403588 290417 11038 283460 73840 161643 68380 109581 24437 61673 540777 489897 722462 529355 149099 67663 71486 228220 568980 451662 486770 424459 325836 230055 32625 135125 452756 162125 43260
