469
997514 999957 993664 997003 996854 992257 967151 996715 963683 993124 972374 981382 983724 911948 961235 956755 974725 941496 943983 979170 992361 949202 937153 968571 968904 974595 949179 904446 849700 957780 911123 902701 934651 917704 967754 740510 727186 935653 883158 886230 905956 889295 989836 889890 914227 903687 773594 883127 950015 961828 952961 971078 954807 916406 774637 849239 648675 825785 719422 908903 758210 790832 839649 860005 559252 917354 750977 848567 873008 945399 756907 732935 704353 660887 693931 887273 854538 767497 735644 868740 883648 827520 785644 856715 853006 862285 941238 806666 761212 893028 774284 826446 828121 663567 449620 725585 740794 717295 941031 857629 883745 898448 905196 934966 897298 933965 916724 839993 705904 681484 630690 782236 761184 595095 521391 630432 473285 694170 503252 776145 758479 475466 737054 698219 726613 834823 811731 597898 485302 521655 194494 899793 606851 642759 450088 564479 617175 827060 682800 708891 904690 671505 542195 570378 538132 600246 449005 266429 430632 635955 617175 811351 627931 375348 439808 434048 764321 496627 734949 673906 565576 193123 755678 521205 740345 269532 684522 826702 508666 393221 726898 700980 665158 939758 813234 660051 741458 263285 338151 641249 790643 619316 769306 668005 744858 680047 360719 444062 537730 419178 221358 722770 553475 381141 652624 608455 637259 794316 661053 732609 534514 730714 859033 817911 643542 820774 884805 833617 641982 572520 726442 779421 614897 647093 759216 782090 631983 424954 302294 243962 545031 191654 328341 772941 679851 657710 526441 435731 379211 474062 321551 438195 392975 442494 54852 276820 624578 107766 295124 629763 302608 31471 147646 94121 200929 308750 669088 273544 131326 18440 353314 662455 434864 334074 530749 448956 14910 410463 333393 452444 83959 97971 51381 339071 30293 109616 566766 139885 90013 129102 329633 93638 298387 456625 165686 488261 24818 569346 527360 329736 675234 446611 641813 569145 596606 443261 531208 539825 133611 145700 507486 286648 197918 244748 252739 110934 248654 46792 169221 69300 489434 109458 135948 274621 89285 576613 214665 194891 226728 3120 261850 56784 43116 693255 308255 109013 372831 296054 503011 97224 423376 168925 467900 67133 88901 638420 610700 277351 492522 373815 346156 95727 26520 558861 231062 126024 821183 49338 94972 79086 143717 670198 19199 305603 615442 475511 263476 463122 779459 614401 201857 211951 217008 172937 20035 178911 59615 315855 47887 187039 29872 86963 400550 287784 19957 194354 85133 468840 538157 293782 710711 616080 23297 300230 137147 288640 367715 442654 289501 108248 325353 46708 28922 446275 220615 38773 418997 100254 217835 135838 566459 132486 461714 474767 319800 526135 48143 512617 263230 403457 382039 236614 501172 197672 469994 405151 7280 516331 609834 353118 5657 169419 718437 354682 106789 72632 298320 567204 226288 466099 471550 418068 358446 234727 593823 155791 354526 157107 464900 604098 336516 546233 193758 102528 262599 68890 346755 83444 189524 138533 176156 272184 211120 36367 166625 258396 286971 528121 136999 405526 219486 515306 59335 5978 25603 213571 199098 376171 190556 112316 199431 216043 311554 320733 311711 174074 135340 363595 276763
