328
990850 999840 998217 981800 989528 985628 978987 976268 980796 987816 973738 916604 972752 940586 967598 974895 973322 933778 971739 952772 894622 959115 946063 884759 915119 965326 964679 828379 873090 902313 955817 966464 899977 891135 653134 875323 881578 898951 955906 846873 850305 835095 829940 951869 854105 795257 903858 840410 874503 802733 848578 959196 818571 656721 809908 562153 727818 772040 596105 477571 547138 772269 929434 944934 922162 760268 865643 887173 768849 462859 534296 751131 777506 778911 849331 831606 525412 755488 777627 817734 629476 572461 848087 818793 386281 434978 178391 353382 506573 429884 635954 528518 725224 866126 501881 677261 657551 731810 731025 634115 485690 726693 440656 640933 580228 781846 457160 398271 425523 731120 770244 328291 417243 682033 539938 574679 581413 546179 561843 218632 455375 243724 484334 384543 710082 641133 831503 910285 659889 806445 822422 616927 275259 734741 740893 240373 606161 498314 558300 398340 402419 182199 413119 208806 195417 536849 320925 590086 253099 545659 756555 501830 483709 512489 480757 712891 435776 690308 729309 742447 727817 363133 429697 323722 21374 240743 833222 372231 102056 125138 70502 317083 219151 147636 22034 214532 41062 170076 355099 106661 26648 489943 384701 193642 120133 537698 203606 246615 570263 190846 424485 543753 663524 332643 633089 270804 2348 693800 30734 319463 206115 77388 470209 581058 118073 35078 123961 79503 350349 161227 502616 692352 146626 185030 346962 76488 355609 276645 65787 352697 621803 750009 108695 179893 72454 305597 352156 186270 253631 387958 315672 295410 544280 478343 566811 239303 263980 271537 226814 151914 87086 375597 265408 171601 234418 111692 405150 66644 134608 589180 693538 475734 294707 537834 828163 721290 611411 7961 46021 6886 437985 612875 698859 86524 468010 175001 205645 222914 18548 711287 296611 216423 1958 265513 512597 422092 409703 464089 557822 84124 191498 321934 58398 75062 145050 253111 408422 101017 133488 119183 137251 78474 350962 247178 189762 75764 125454 28075 193853 543501 249144 529404 696597 88073 484475 334777 29246 326663 256635 408770 478342 191902 349904 275133 338473 593926 222735 684892 451285 335166 588292 434847 512711 2666 147816 304842 22933 122592
