787
998913 999246 999016 993479 994521 995504 992573 980983 976948 989663 994381 989376 964949 986784 987366 968411 974983 956709 946087 953855 981671 971668 991621 957320 988506 944052 954487 876664 985880 897508 954136 957263 964564 946886 871359 954243 955936 898089 933946 922549 952018 980031 965305 944918 923333 975056 877033 914352 881302 758745 856629 868371 821324 948777 944743 875998 871493 953001 961990 864670 893845 922714 952407 924201 888287 956623 936022 917168 869292 801678 826744 794463 898893 944581 952095 812828 831466 862317 904126 790802 906097 923962 789874 871285 917080 835653 919661 944418 888285 787958 903523 919545 901624 817586 856318 898728 880496 879193 877412 757094 710425 776918 656713 780572 850678 508980 625468 938731 902517 928706 735959 686759 768161 792562 720750 736090 856346 818366 890481 843800 704315 757235 749021 899179 667451 891846 950191 638698 560185 852892 830401 938428 717258 919944 804304 803619 628222 656968 733364 778051 761455 708622 608255 676106 784030 879968 879956 943498 935629 760753 873209 740277 788995 753060 678141 651113 812409 826038 745378 496826 565269 832830 674293 574512 771248 720740 714280 675295 620635 865496 855193 828501 752365 623168 894589 836149 815796 782573 733369 545176 757233 847738 815895 638499 650770 896913 599928 721179 781152 787543 749445 818509 866304 832479 631009 759996 690521 673110 385221 620217 541408 650553 545909 656285 174313 502925 489315 756536 760489 311726 326621 131891 400077 495991 586922 326065 519004 680327 886920 112848 897547 159046 518967 626593 482569 456297 407025 367257 381185 499190 686193 549758 700355 759215 667523 358027 664196 805624 453417 837876 469112 664699 544907 661392 726653 678016 202056 471678 368117 601699 445744 745516 866061 785408 456611 517528 627975 433898 557872 458745 443677 479637 396777 624610 794470 668681 688508 763037 457911 388314 784896 461261 668713 613538 300966 557641 384269 723845 674503 696136 374847 758554 670080 619083 597727 582229 549728 673003 537198 288723 425096 481745 510581 575258 572883 855357 635981 589333 523021 450518 538397 641642 854454 522740 477097 499269 414944 405581 610846 516203 575339 338956 518140 467987 306126 703978 528545 726217 695664 187109 430149 398757 442871 540447 534698 430701 439641 506210 544540 620097 256983 569941 573527 634184 525116 494881 313870 385451 471365 375787 848511 451908 516205 729316 528726 672724 719961 559904 77526 545821 614687 815984 679936 649048 782914 298074 608854 623490 330806 524447 478003 506798 501036 799344 778430 483307 776935 520660 558903 548194 630269 249310 672650 299152 137130 625320 521770 510352 753572 732144 175545 691084 490155 769485 590180 830894 860900 734736 665820 205516 480533 329940 647930 577446 333850 148264 304867 252234 334188 607876 442233 242762 284327 327164 310585 366743 216366 613081 209300 40725 120721 8067 354813 53574 87501 402161 410010 28453 440676 65327 248489 298138 27339 92580 114271 128542 306048 323363 397913 471720 69370 285930 160616 160457 175212 92837 61092 844560 698565 87574 101689 846904 547970 48400 158604 347753 235741 280453 623242 263699 423556 403163 448537 45702 192063 14439 256677 146657 312809 395877 259841 414153 449571 175643 521527 30465 173918 145586 501412 120029 53390 51371 333048 488520 606042 429860 663738 34316 405186 56798 319997 272020 153486 319396 11339 277439 27408 314342 428195 127644 640998 246594 334855 155388 199008 8822 226087 165744 318073 19671 11799 441264 249496 146943 272661 612210 24481 357277 722171 42785 45734 150191 377955 330386 458041 338836 328473 392972 442852 353810 331955 296140 429953 209055 130397 280671 293088 443643 154447 481377 451547 362315 127872 334571 308406 70030 411518 89678 384217 214206 116305 367952 605445 428208 186885 349737 80891 195157 272911 281644 38626 398869 39255 38686 270879 143207 637937 5540 438242 478483 623272 162309 99226 164834 1412 624723 247973 36875 200669 282799 40417 147646 269900 257212 218359 437315 350420 443214 428060 75643 168960 315567 20931 267657 134624 119767 288056 140577 383285 72209 111457 603308 445134 150976 117182 342230 78491 18557 47445 221902 74033 485846 16537 569010 218366 231390 777251 253288 193587 460098 258692 196691 342616 2553 378317 67048 188889 495257 461294 205095 184781 391916 395309 27206 257025 78238 267880 223942 449560 139634 230943 292657 328452 243862 289363 326266 341563 576837 559708 6536 4303 3923 360983 135765 32862 227280 426045 259567 194098 440145 329901 231914 223339 311304 183435 180655 209762 186247 203472 337660 285387 57094 138999 468654 493043 139986 553458 475245 630545 391562 332652 416484 309734 168048 227824 169875 331256 360982 152427 8858 254663 814433 797118 214334 302208 494592 207206 711053 234994 347428 517985 183537 10371 242291 421402 171396 69579 29721 71369 251314 226285 409403 136172 133119 786005 311643 8701 233498 396505 230130 262336 168995 199397 434927 314622 300843 3027 217582 33561 131641 244838 120346 474841 84755 24247 382541 299307 476638 610870 21023 613231 370860 238473 10991 274646 171535 211936 350057 514276 379394 51018 223929 375528 170220 17015 396326 578043 52503 34613 86825 135945 570384 177615 234275 466955 191112 76755 655375 244544 110375 365718 163028 16425 450422 83291 260371 67438 614247 327364 396302 180785 532488 73980 483969 461562 311211 663443 112516 506168 35404 69015 119562 146994 50930 148524 124192 150145
