922
998878 999933 998062 996994 995875 996964 997595 989894 992050 974754 985804 994817 985781 996001 984449 974841 951975 984252 986986 935914 968770 985181 980469 983951 993940 968102 981809 949873 896146 984207 982361 968870 885092 951569 950333 952133 983240 976213 956076 917147 932689 965841 877368 984539 971343 892962 938753 968761 934557 859599 973465 882826 955561 979651 941828 946918 932973 856640 862651 964800 939411 980112 896958 777418 757837 857081 762194 925630 909705 884465 826279 934528 935653 964459 964368 951005 960757 932357 936661 862599 903958 902207 796400 747504 922957 834101 868986 925198 919693 885270 919997 827397 843400 887097 906391 926712 943885 888544 834552 781243 784682 923589 967308 807803 855825 924715 917554 978322 924187 853244 783372 851891 945515 877829 873878 848043 706555 831681 685605 953506 745832 928343 937036 977424 651833 873344 755629 730274 752029 756691 693173 842429 692421 661931 555882 578486 921730 891301 824652 800454 864925 811015 752263 637533 774136 933516 868198 604109 709432 921678 904937 920679 942325 668110 958066 893311 932154 598198 832947 840104 850433 842213 862748 783982 776674 789093 630130 680446 641032 815777 772438 730583 711261 735408 850053 696249 697575 802463 882920 881448 710311 837422 825707 760467 720821 646385 771613 874156 786339 873970 753747 764839 746924 793768 900868 868244 617424 692953 774873 664353 779504 653593 674103 776778 766194 833158 932051 676821 665356 737006 640919 831712 861424 712569 832777 764797 823171 837926 822337 547352 715344 782051 477026 772709 653249 929658 730470 874571 866814 639536 783094 504354 817938 599812 686854 549293 396260 609349 550089 931389 941938 732247 583458 843859 731630 190568 904211 960859 826579 460643 382040 767803 373337 655967 715701 317929 728510 709164 750638 487679 436857 476204 292575 647321 715939 97128 447178 143123 642918 445941 503368 487406 535943 899017 875580 672821 681940 569602 539885 791852 253980 846112 621458 753259 756429 751121 512661 102994 147550 478830 560748 875093 857372 772451 730909 547052 580040 516266 588668 438575 853380 758213 642754 907096 871377 531307 624643 407595 404146 862672 784274 540017 758583 913777 673310 433700 323290 762008 352447 804231 753471 773240 507484 620066 664677 228071 669456 626088 773035 578503 470813 509181 682522 547249 535033 641255 214059 469493 365172 780953 782754 399920 607377 523770 484598 544561 685967 313260 561970 387181 818370 571579 695683 495595 693729 790672 656048 378023 645475 355267 213280 530834 536392 697846 828871 787090 688374 746397 703780 701662 666564 573463 235430 712442 267069 803479 721853 517755 735994 872893 293756 207597 648643 406819 546756 703260 325855 392318 517225 829202 830158 753566 418172 301629 412761 469215 511758 708054 703096 413962 97960 630007 528083 639734 381286 603199 645522 240233 700727 689916 751361 700239 785356 814965 648873 253622 619871 587716 519030 646979 400869 546019 298362 830032 458771 732974 725567 627695 393554 792470 798442 444184 514114 768432 680778 785579 468427 684442 516123 543558 536873 550200 542318 732771 626103 229851 253277 587269 611840 332616 618656 915992 845116 391400 257078 673445 648817 668097 205950 604852 390713 688479 625856 436596 363202 112557 744614 71863 366417 12742 125504 367197 247681 300388 355207 555628 593970 224333 404730 125042 781086 575071 321267 244357 654721 414212 3352 267980 811214 203765 130056 23210 107060 598392 670242 564977 491653 456821 286446 362066 182805 227221 245573 208214 300848 286470 37234 258931 203801 531744 327537 167785 66152 345019 137321 105571 100715 342744 360451 148634 110237 95749 308327 157599 95666 98902 187694 512746 491385 380433 100300 53997 78580 117154 225480 121556 68830 567007 531087 239064 159251 165460 204373 410165 67109 527804 446224 823301 868178 805572 71506 205603 177471 342396 343819 125401 171302 79507 450664 600441 159293 33559 215243 510189 309602 1731 421827 639705 154944 495660 140766 680772 546924 171795 141563 41694 59529 70426 122933 362558 205390 77384 258910 488177 207532 141983 578338 236907 92368 464947 549319 264289 241639 529355 78530 113784 46572 177796 402193 391801 331907 281137 131412 579111 662303 84858 526340 881944 900155 466594 716008 365891 5857 519401 458692 73832 107449 183389 370446 821712 5149 720057 266387 272181 185458 65438 327009 151673 448809 313212 668669 363249 69871 297186 245302 198869 242967 249278 222669 484630 309520 540105 541807 439703 279984 153158 148083 273317 285628 400676 300051 112615 81255 512150 319474 479545 168989 96166 163401 331565 351500 118239 78243 493056 141719 420441 175228 60340 388844 343862 375169 434596 342693 41498 113069 150423 163331 46937 199820 106068 191417 251262 2984 374483 328000 548265 23995 455147 384880 266477 2057 273863 112259 213303 129149 242976 88823 518893 489697 379451 371812 235850 462455 563785 43285 248174 332421 108803 215954 354869 670408 531949 526812 30874 102829 271370 27186 466693 470545 37776 297115 82246 64039 245568 519945 446618 225718 654343 413525 99036 544532 485901 402449 200117 32766 723647 3613 76068 182213 66556 469104 508682 446498 115745 493062 148673 41361 623958 236315 74301 158191 132633 570316 49111 531416 452119 388985 400319 575785 106642 50588 169767 181952 67317 6118 625284 326206 13822 322936 342310 313604 160600 636865 260272 175614 25849 201032 193209 506364 408951 505457 677098 445664 341227 391003 88472 412427 87888 227732 351442 12528 463639 332768 330831 317977 672030 323930 548272 513832 26388 374927 86838 53890 383495 354689 188025 524137 442267 132482 183495 197838 256998 458174 619469 111352 35551 35962 395294 37100 181638 46905 115150 467465 285935 417557 615930 166924 737017 249837 413030 402880 120889 62309 608406 300192 561761 437457 46740 359179 41839 326319 56428 81697 241549 226505 138036 55792 341419 823477 174664 29002 62325 70295 158129 722951 319886 76925 161739 340253 257537 416404 617591 472123 14584 442986 312551 303027 403030 294550 152277 217203 747589 258129 411811 34683 458401 418678 58862 67107 71523 276257 425736 93239 449987 448808 85236 321983 147064 26810 61402 608595 160611 36857 44789 207121 69333 87061 360620 148955 139759 50821 243288 82232 319013 327555 29094 549554 13747 168907 186275 148944 279333 218689 230000 578222 105868 114646 62770 189193 597469 142401 44311
