779
995459 998534 990664 991738 995382 971225 959525 986898 980257 992964 980428 946442 970766 942199 955909 971527 952768 968495 973776 991021 978904 965431 980273 881066 923627 926498 873895 889920 926136 908646 915742 961266 931255 856249 947957 898561 967413 920286 941446 976056 912301 971744 958407 959333 798070 958680 845979 876366 876724 901011 896083 917893 893848 759407 756477 877862 880625 832692 766126 867610 895595 880607 895933 954756 936824 791932 891483 775238 834593 876421 826469 778045 846235 965694 885053 913379 887371 912612 876746 915184 875011 819594 568734 926057 944011 942073 914069 859357 883024 756864 772415 856678 903885 826627 822756 840373 792796 828229 855906 764539 742165 818073 877980 836184 759184 833993 522597 658462 750016 709777 724326 672738 856182 824383 652497 448355 664203 574180 765895 525227 826789 885602 890313 824446 835400 864600 745266 923891 841820 936117 673005 731005 752936 272252 483436 725375 713396 801013 636086 729803 873371 809242 817715 743236 610898 686612 822619 835976 754658 824890 876532 825337 838597 878479 775588 731891 782048 734782 645605 771253 851451 788756 846328 594175 683500 534031 492311 883115 880855 942082 938020 873055 868355 849354 852072 669559 856149 871857 505498 655354 701944 635965 721782 815959 849496 843136 839464 507749 816827 751409 797458 630595 813523 780079 390520 823447 407879 730228 407648 640805 591155 267709 583632 740045 710227 649153 387901 433122 275821 280622 641289 714833 298678 451003 435513 275636 536471 236958 660001 553669 482202 83941 623931 501174 449983 503708 722356 823797 727291 423687 354717 436365 384765 555409 479536 428298 225779 383227 368258 219965 282141 756986 308225 815535 599231 732629 326971 726452 646714 578473 513772 632584 662099 709392 508429 645938 790086 521546 614655 841395 365779 115775 650823 647567 600857 492428 676962 261548 249345 427555 358679 550228 406809 301561 561990 440157 744758 296090 178455 670468 601092 665458 714000 661785 528397 807474 646707 616564 628232 474647 551351 425510 613112 673402 399179 740535 482173 664218 447247 696610 581199 473740 694455 783191 750683 693503 738572 367886 744371 689790 675364 434283 473410 699679 581781 694242 702433 458738 621194 516375 494211 599857 561493 637543 611374 733982 827361 433032 262796 612146 413296 489892 302029 465795 441770 866356 658456 743359 747124 850540 911660 722914 606842 771484 771347 767832 665028 560227 838498 687181 842655 572986 460395 428389 473534 737194 584056 430708 459205 486916 538246 577827 214060 505666 459384 357553 646750 458430 535706 656708 831293 660132 842067 683486 673038 443792 495277 734883 702714 521104 661396 645525 458295 595721 455283 559532 412475 479618 630548 177611 67799 809099 279796 282993 129499 165124 314551 35829 212120 169735 548826 6838 23791 183936 9754 541550 561979 87141 433673 522515 165239 34662 646359 251506 321897 26721 180417 3663 138366 243083 225918 298732 77118 150436 243665 252590 69738 38192 18941 192498 35221 39779 117434 333269 400110 190970 200446 243877 596108 529659 52506 362812 417232 79654 74406 123760 609849 224597 380437 365449 46125 88993 74800 422086 212026 382807 284863 81715 102700 6392 75689 175348 93765 228953 28909 320433 228775 202232 7278 313721 460652 403340 272952 31536 27953 119906 271620 321279 175398 175133 8136 152381 72761 163411 680762 119581 218311 9543 510738 509579 492148 423228 260181 48670 13892 470692 79254 587602 387971 12480 545012 202649 327556 458002 537660 637201 503364 644850 109479 379905 112900 247082 48229 268202 702972 113207 26989 20846 238558 230814 116956 103897 4891 97467 55159 397532 445816 485282 631078 16238 363736 324072 302378 566894 595768 85273 83738 225325 238209 270801 392634 111656 159131 122891 529805 175161 64953 111138 179289 510180 361454 328431 365074 74544 15833 82185 184012 142172 62674 127232 191345 517896 568821 8946 544967 259251 545321 69442 437403 374790 27790 332822 614099 550793 228120 421505 159884 317402 195192 278909 222295 348928 260382 216065 347697 370695 357034 179236 374635 348066 342736 521238 614179 385498 290381 635647 471465 97186 236870 440634 388075 30052 499545 338078 121759 656528 656088 345766 438469 154125 267209 660978 256536 526726 164897 203223 96851 526730 149131 493741 54237 172731 427810 200128 214746 240657 383273 503593 8656 561437 92503 163278 385749 384645 687861 65102 87168 93554 474451 17634 498653 7938 364676 290363 16573 432498 62926 404527 428501 298437 148256 376825 301392 378977 289258 424398 111379 242786 158014 66803 336042 82009 209546 296763 243617 247828 111257 257564 77710 252287 165060 534363 43352 388469 56760 18816 441838 429621 336977 573215 595024 77261 733077 471314 198617 584015 19166 474929 149673 46360 192224 196846 78034 268487 629740 239535 466941 257552 242518 513447 577999 22273 71823 287479 557746 298054 272006 422967 284097 257319 18123 491546 454631 227679 510294 347403 107948 175930 276984 133945 325237 290133 195096 156283 358044 88697 60621 154795 12484 422415 148851 270283 195775 559336 279071 94768 49581 530722 30440 494110 452911 789324 55434 53498 348985 164924 64539 236410 14682 552835 378353 244871 10963 302193 228252 531186 123665 646520 128254 318840 127940 523166 89651 291838 423803 390613 393518 260793 497288 437118 192935 463247 451765 248983 390052 130113 312222 545649 189965
