433
998616 999515 992563 989854 983709 978878 987109 987160 977774 982766 970531 975304 962071 947072 945990 965575 952803 967230 957527 954138 974024 956271 954940 967056 970583 957717 941651 849169 839782 908841 926632 937915 919053 866143 718052 917907 920369 753443 953624 906918 716342 953570 826090 917818 932046 926917 832308 884221 893790 829115 940660 939113 776778 745103 865941 465442 652441 528772 525664 830553 905322 858378 921565 913867 849725 901558 675135 808166 721224 715072 539129 733444 882194 911358 878075 650356 729027 875919 912874 684336 798832 659060 597810 944900 942099 711497 773755 905591 916687 787080 854500 861587 723119 808062 769702 872684 630137 823651 786406 695609 744292 902777 901364 837296 781829 764509 768826 731050 648904 659883 699084 329635 326712 407012 642907 324646 392567 326303 376822 785864 805202 784629 849957 778718 231096 912419 627164 623948 678525 612461 695079 847953 650469 279805 549801 402731 476650 137697 682960 162162 653850 345486 521893 513781 586858 725738 642121 816801 684496 830549 792206 272827 384536 361477 500481 693532 567555 875900 437421 537491 459955 591539 748241 409794 594296 536466 590920 801921 716079 448688 902966 574967 252752 576930 671189 809342 652216 724794 868552 553518 653584 749214 337704 765353 816467 573614 485810 303073 576726 272937 764829 714617 194531 388576 606716 643289 750520 602445 505816 690308 651541 702442 400032 879153 574411 561648 381954 324619 750685 231040 440578 515213 695360 338339 753316 586199 592542 192124 109552 262649 8695 681659 658855 295 324847 90055 271655 159801 124176 429420 519303 176971 96896 337818 125936 281640 52457 205783 12279 638106 285486 673769 380832 268796 478399 129560 185129 368010 6932 67145 74086 658918 374194 207734 588760 29316 211256 25920 206081 117520 451472 578663 445654 166289 415960 125861 136877 219487 99441 179749 107916 325442 263252 459406 300653 12363 8375 36416 624460 143670 23214 297042 462734 230439 181920 392227 243443 37694 38117 465910 68623 186525 708134 27239 419912 722919 628075 511066 652692 6994 780014 191157 345911 253823 19532 4865 233550 199731 325438 219581 166493 128452 97150 146689 78125 373874 376984 418587 37254 525964 74594 47930 453570 169205 413082 395262 161639 152145 272076 141845 88313 48465 344804 338405 470728 353920 442427 583223 519790 98664 134708 662954 50198 350950 289113 93711 86230 288468 530444 6040 634709 713117 499836 603926 325964 83825 457950 458406 386603 102845 361487 241508 618592 120469 188508 191682 228306 238195 732505 649582 266375 485153 313253 379753 158081 214013 183993 430207 528072 150659 206405 659428 700663 698865 422924 136291 151619 78849 348589 537794 35313 330346 93946 228932 618968 66450 294635 500877 66791 372315 150768 650622 487430 661744 592498 211931 353736 375072 668086 342120 351795 282519 285399 329590 53366 152230 252437 335491 107154 47679 185874 299828 189797 28439 45776 621120 631460 331637 257393 98039 5202 190737 7689
