284
985751 993828 983997 957520 985343 978252 982300 921652 953285 929523 952133 944059 978162 885131 916948 905001 907217 921796 933091 915580 894869 950254 931380 817021 848791 930815 933234 870739 844619 907673 884624 896370 826296 889937 885498 892874 891881 839121 864855 708220 780438 722788 685749 729300 890383 733808 749791 788391 741178 697275 766566 923607 810435 854271 814210 649774 739890 801518 822539 489729 854219 881603 881053 562532 760467 820303 803348 669689 888376 834518 303857 780930 833578 716314 566106 552847 787411 605448 209014 403677 546137 642786 749624 581955 646767 413351 124289 689643 469510 801854 786932 336584 263966 538967 679966 785931 632180 629955 698618 563681 592350 678566 503939 737538 788901 505811 766354 762963 790053 348612 674512 572256 625840 576792 672415 661369 622772 678395 526547 93060 296714 620772 412507 335547 740848 445278 305437 423032 169958 299967 464073 333632 487122 742733 795989 578022 533803 774261 855356 375025 621120 290114 55249 233440 24203 631484 765311 560126 558719 310370 350619 537429 442302 203440 548481 376559 57521 152114 33754 266063 381431 444208 544126 641794 508279 661455 658687 416673 255822 374799 318817 315939 320201 78910 67313 309702 225182 264965 386244 781093 14706 623713 319587 73306 146013 206316 150115 171681 458861 679172 617209 460814 473814 411306 429366 189720 130766 62704 315789 431332 115457 216473 301922 373774 518039 367539 89061 62401 492148 177367 663858 99199 37121 81556 613443 207308 288589 231187 147733 115011 219959 380785 351650 269275 322583 386676 222875 158544 90733 190867 339663 597741 76562 592050 284575 577201 579623 52342 300009 27417 87367 117657 251261 89203 475746 403023 304209 201491 334963 97075 397522 8583 282803 146589 431 385244 321292 79412 154346 139967 140974 11313 213735 168078 89111 479613 436064 217695 276876 4104 450136 280202 524055 395159 512191 285232 415198 215685 396990 208024 146033 49718 552260 71744
