955
997274 998999 998855 996076 994467 992852 998100 993710 985851 992794 988880 984575 988974 994424 997848 993474 989153 971194 982059 970575 985801 968524 984826 978229 975578 971243 965344 968461 981020 992988 997586 987568 988820 987179 955860 873082 950971 974872 980072 964508 943136 974809 970743 967904 954424 964994 968685 959522 968699 969573 970187 967429 964477 933869 949788 851220 965321 897854 936970 991047 944748 928986 965678 966621 955277 922288 988747 854954 969769 849221 900217 861751 798305 900579 886054 956960 907281 969090 889552 869955 917821 877385 932011 917131 940213 941043 874907 807372 920302 943253 860018 944269 954978 881381 961298 852087 928739 920074 955137 936944 903935 962842 903862 942331 906130 955448 911756 932800 840450 946312 935708 716904 844341 925954 844318 736029 863889 877082 911462 897980 988079 618897 903872 721565 838131 819608 911469 962873 947166 877515 779615 836406 916822 772082 984695 832513 686619 948072 969670 597253 832295 795903 771911 825889 820158 670640 643022 859461 813176 748481 839592 925637 934301 646753 858764 918606 841755 486605 887093 633778 827969 844380 867376 854610 807873 929326 823221 915001 766384 760936 903641 769959 891584 734807 751589 731378 676235 702332 694833 791554 741273 721636 758633 814494 881121 928592 863684 854967 838080 777875 796051 759922 724410 872305 882481 898787 897006 880405 597168 904581 686754 893773 835301 869134 929784 902543 757894 852478 819413 857477 590383 865638 806717 706579 892529 774475 819974 768764 737373 918372 779370 725887 770013 694742 359623 758277 772603 873698 755089 751944 728754 724925 716370 823885 753582 707728 726075 906811 787411 662880 871421 611665 898039 163489 460163 398309 757750 420523 305385 657378 335349 581301 698129 796963 660044 953475 826349 857088 444693 200096 504498 561770 624849 275457 435647 794169 650317 704759 493251 868575 964898 446204 814591 375273 385793 780917 790464 846565 607780 424763 587628 711462 692140 755131 411410 669745 718728 674218 767335 556750 698390 546656 555732 522463 497109 748646 461567 691022 304319 628033 158312 242412 687265 722085 614774 872916 745545 527473 433633 698482 835319 655206 792734 609020 525746 272557 264014 506126 762772 327071 614266 249534 805527 825325 750789 523376 812789 450820 784805 657605 742556 745074 849968 622803 442785 552164 879586 460926 747292 717971 515137 616168 699213 586367 755436 637770 611240 586843 615529 742542 550000 633412 387825 520613 563237 505590 416954 562433 579199 655293 748546 216631 317804 504078 450894 458007 571267 376185 418442 869339 549359 736215 903573 763866 809376 807045 780102 731298 731001 722263 554943 376569 634183 703692 620210 600634 711040 842209 783886 850010 782967 721838 885251 786251 626521 806670 519238 595932 433494 698288 870798 625828 578478 786275 387287 615162 786359 868941 695138 520860 729782 718612 792591 662361 751367 724782 716209 798158 795963 417430 662091 522638 377293 847971 794749 572176 600814 634836 603481 848652 539831 641085 676328 756110 616969 653281 498513 719066 431184 853744 347099 765257 694493 599119 712936 432895 387066 473434 387687 250605 277971 672100 622027 656394 638882 816951 643806 719969 275369 709637 740598 646869 704263 545666 314994 601090 567896 593001 769592 535357 645795 598673 203572 226011 598513 799341 530740 59466 617516 564162 63410 529486 272354 469402 601554 105964 586254 57716 134635 361640 249195 91842 2546 542215 722428 1164 378800 118519 15942 413715 337539 239807 239318 539449 562327 468129 431537 275276 308196 460053 630482 908306 166817 576035 724489 602290 159384 88566 348904 155421 187112 89663 37247 451750 361847 499754 53154 224578 61112 302736 431816 117413 370376 174671 275870 528911 396827 137636 375755 721179 21645 445289 869531 253959 100024 270343 482709 129476 5523 352503 354898 303622 623049 737255 673562 693183 817930 119057 569563 366572 285089 394783 194456 384724 526981 151407 626194 384271 154909 63280 61734 144715 121074 525225 680202 149559 583452 478621 107463 356483 285444 304529 308615 254108 530684 502586 284985 399755 117792 84241 247214 344249 566611 340318 411634 507388 419484 258170 209422 537551 173919 7118 107530 202006 63840 642711 494536 111825 552518 64753 129443 26083 443366 49712 514700 520101 522558 353175 289811 162421 388873 175498 625281 322479 230561 613102 603766 135146 272151 510780 444479 100119 44488 95170 58706 290161 9435 224079 739748 185268 201361 402301 197796 40874 232353 317929 309285 644238 583539 485018 536684 72233 435271 484275 698787 302581 68333 605867 299491 199035 8050 471680 592443 259559 153705 338479 175824 295996 522159 341727 307462 324873 228611 40032 89620 31455 252296 38172 251144 496468 268201 492254 360838 602648 135104 308978 209287 462834 342417 733695 345144 288057 564260 291519 348689 148730 23340 370159 12463 503262 281153 46149 273123 622240 160275 221153 86373 120852 147699 241804 270362 462604 466204 303752 150487 81637 532489 326865 401041 205715 641644 193139 106612 26561 65390 293632 162091 195938 133383 106852 444534 109293 148786 528548 112150 249643 16553 382518 45222 510963 591538 168369 14357 123718 219935 488509 383829 56943 142425 728629 345900 397931 613757 177372 201411 563094 580397 58795 267734 717353 689215 299485 55946 56324 319663 32241 230533 53716 50298 225628 172378 178404 332678 643073 520151 557288 666186 555351 410677 232160 105957 186485 553404 223253 28323 459655 34227 747441 4275 388637 276771 600275 430622 11146 354802 411947 510616 121871 373570 62468 117012 722041 201028 286073 48980 90428 263934 262452 446641 160704 115323 478077 90638 721906 654625 464869 268112 390566 181562 181498 381353 695579 322646 713261 544398 94601 334853 141514 591628 489543 498976 516078 354483 193047 446848 555513 133585 122649 444064 31747 227438 308047 376442 177179 478202 296263 276183 787217 794625 21414 20353 453185 101363 519761 262889 501626 632909 167648 498590 767707 269919 28000 307205 633448 175298 168614 184680 555494 563710 471687 293981 634746 651964 54537 311758 413075 588569 179177 45157 557911 758929 303741 25352 520846 688768 518735 70041 458054 57385 566643 66383 171884 68068 186304 340062 366347 411031 143139 167111 218477 40228 145613 161116 221 579511 543625 27412 531121 567539 448230 25175 342972 330802 371377 335480 221477 248224 172670 8234 103126 516570 502241 182289 95671 401074 18925 595074 299680 45940 233882 85031 348846 440485 261301 75179 68802 312069 600405 117616 176284 527735 278705 554335 317906 394277 87411 180150 91242 31685 85982 255462 239448 791353 15026 492408
