547
999524 999613 992376 986746 992656 971496 979311 982692 963901 983306 972200 875106 962007 966911 956826 981121 929536 901717 960806 823314 974732 966659 949075 834776 869145 928825 956062 890554 943251 956272 907908 971911 951907 902998 771148 884155 865655 863562 906469 799916 796785 895068 964678 924820 949380 933734 883269 585962 766018 869116 773200 869951 754641 925865 895214 862846 839986 896055 918799 895057 904449 798547 854637 885177 909707 906865 802931 875174 815795 770084 760484 865922 761641 652152 796880 737831 859885 800819 665761 675852 782192 646408 786581 835368 891824 927895 884023 918248 910092 740000 782989 593628 746249 452089 829975 575787 490459 666781 649506 717125 864326 761579 601379 780879 739454 649206 548809 840556 842584 846267 888833 842376 695816 817211 710683 684029 637304 861685 892116 857477 830608 849704 798957 681246 499296 686615 753325 666249 863502 858174 611886 860135 899465 734805 771538 396185 510830 669022 622525 651500 442776 381434 752260 826206 627819 745427 574302 428792 418795 570426 643792 422575 527266 392383 843285 722157 601824 664366 588350 668724 481580 617721 772188 542359 262090 530335 689331 407446 632912 863439 819983 917050 740458 485418 312877 443136 518566 480853 858740 716015 490037 771534 449438 425629 527664 645554 621251 252359 328024 694984 811701 314639 509159 286565 438735 475840 385766 579113 543224 589784 538299 657837 551331 572537 528364 429380 550123 728505 756369 285847 328703 585573 581815 334882 435265 481535 807143 731167 688029 840005 846137 654488 843323 708061 664649 545722 475671 511175 714269 592100 313525 574295 572055 608925 348084 811741 513628 690885 802441 675561 345739 404646 651748 389834 823061 503363 671242 475205 546270 245675 490640 611903 631698 513707 728544 539765 585108 716338 619553 728465 484003 185643 298262 728013 605093 551171 550409 584330 351461 427141 723100 278433 201172 110195 122972 149892 213810 468407 497989 561537 379855 54512 431939 340119 138945 585253 572400 598224 178427 467381 149446 108911 625622 487436 248777 208934 241089 266197 240269 142094 129987 332415 254998 165305 140893 512323 292742 315002 328532 364906 226272 330163 408324 174048 361252 321920 622232 411292 315179 446316 132048 361810 130933 234605 6468 725586 24737 350122 285540 121091 1791 424676 123982 131807 375077 103098 378411 297855 597142 565178 803678 434714 235844 293784 533278 355784 209205 280144 16159 162934 193303 198414 113829 257625 59784 114750 257814 420167 238529 320305 8766 183979 317081 570813 125204 354178 346067 275826 381770 78578 107696 573173 384773 138786 391574 230889 63922 208376 268189 391981 365755 11629 803718 42658 124194 480909 86275 60888 103249 94299 94252 90027 48131 228829 241140 71224 571348 218249 76012 389158 434080 428408 269311 145834 369935 470287 339948 438696 548561 441064 112122 74729 173752 195841 275968 59459 501505 734432 385593 99386 204848 173004 193921 438502 237016 304322 165547 40110 3010 176167 299550 98070 161146 416726 714472 92507 423821 641817 513748 688745 200940 447118 658656 511425 32274 120698 4951 627732 337686 37711 42421 216683 83536 269505 355921 238969 82647 581429 673311 140246 567742 131195 179469 135687 24040 32017 220690 462161 240888 284459 224952 596518 222642 342024 187238 363694 238468 665872 579645 407927 261780 277610 138205 244570 244288 563917 651271 108874 58308 479580 587029 87536 159687 190878 390244 121922 177771 152081 300640 104921 197983 161411 118328 217933 66787 468290 589567 137568 239863 373965 81115 422034 193723 513224 345517 481043 274534 259641 413677 374339 643917 2885 476669 124794 5867 151707 22207 551247 674899 309766 355568 261463 8106 182441 99304 383300 167378 99448 176426 171653 93601 327549 418657 101993 96210 71767 163410
