7727
999848 999960 999531 998094 999731 998392 998362 997356 997349 999405 997483 995170 997655 997813 995844 993451 995902 996176 997340 997295 997842 993636 994950 993478 992798 997489 993904 997478 996443 994901 990568 992709 992918 992673 995068 995829 984565 991020 997044 993659 992579 992957 995639 993459 977688 993340 989062 988395 993349 989662 991455 992783 996827 989955 993069 996816 997331 994653 994692 983090 980726 983742 989305 975226 979670 988171 983076 987525 988618 990518 993820 981510 995093 957707 979912 986172 942631 986908 993817 992591 944274 992036 985008 991853 985052 987484 990430 992872 990204 970754 975646 976252 983736 985316 985937 960625 959845 970374 987469 983485 988526 976181 987098 990681 985208 996584 994391 964536 989612 985492 990886 965952 971194 971647 992657 990879 990421 989501 990958 977508 953890 960279 958886 923549 972799 988964 944852 955549 960327 963379 977900 915439 954969 979893 928175 979694 969917 943274 984887 976615 982874 992353 985811 937319 942834 986477 970152 938258 936754 973455 967585 964980 981636 904792 901064 965752 968160 982992 989305 988202 988933 927575 938984 986244 988052 967945 964375 950618 966652 977116 973263 983762 930194 984410 960471 977430 966613 984514 979715 969176 970245 968084 972833 972774 970258 956279 975331 953126 975398 984323 974442 952344 924156 957455 954707 969643 955215 977328 964654 976407 965753 986993 981118 967438 969190 963320 968963 980460 972180 983299 975135 990438 995996 992738 984038 951399 952495 988367 973853 980001 982171 965726 983188 947096 935571 969795 921906 954795 970964 986834 968174 970715 979845 949291 984152 971903 977165 989830 970377 974809 970964 816758 924997 958548 911381 955558 954276 874784 902618 946433 847799 870154 974923 943050 918686 916773 927969 954889 914466 958367 958369 964681 973578 905946 861223 911778 914062 976208 952608 923320 853978 945611 975773 894640 961473 913582 940046 942558 958336 963790 954577 939698 952057 964661 917093 984954 978040 918551 896267 896112 911611 957389 985411 953826 866568 928845 916109 902176 885254 767985 972337 900113 930967 939956 925110 919168 980403 903608 828391 844913 868558 944493 964585 915621 967679 972654 973610 955857 862419 934019 983015 944637 969039 872669 860871 892216 862383 966597 974264 930398 942486 956583 918896 958031 856237 942932 941739 890807 941577 925346 954030 904803 967840 918765 964637 893972 925546 977724 971910 893221 930478 942556 962589 957180 950774 959406 983706 961933 973522 968347 923312 949408 933405 962881 936172 970496 957010 938814 966897 936397 901429 948850 913686 971121 892644 927872 943238 947012 935154 969344 979939 968008 962308 909512 927187 902569 881881 897136 902831 877075 947588 935022 937654 953145 922019 964835 969102 951250 957893 975046 967535 911371 896649 983361 982323 964193 949294 959761 942027 949798 944261 941686 955541 931352 966213 884789 940009 908418 960053 967752 956091 955644 951672 983605 899996 913987 951635 975993 976746 926004 947460 905137 927834 943696 947258 926667 941727 969322 966951 978251 948560 962870 909863 942051 960392 959194 973316 935099 933303 931999 871616 959498 937795 890042 901578 938150 953747 932416 929995 979809 972358 903154 879741 970626 967945 959989 946921 945319 944306 983084 977684 931692 962301 934319 975061 970073 968685 969248 866239 943520 956028 922546 949799 695316 768069 916230 800674 772861 933337 658449 858826 864573 861568 917568 896227 853627 752675 871248 782629 878435 944531 784018 818935 735356 859033 905200 955326 823353 921133 698815 914303 893684 914938 600304 871824 953550 935996 851252 907275 895593 937573 906772 902023 949261 962004 973509 938142 901454 886614 830604 842657 901213 710040 874066 863189 909694 971998 951519 859172 899978 921131 782580 736953 893179 787671 917971 943453 787707 856213 921753 916038 902322 857095 932791 893930 902630 856495 916268 941445 941273 863705 949038 935272 841171 935348 746560 902765 943050 925123 879591 855550 974514 959343 802576 797950 868286 916680 816823 829742 742725 863291 864117 876582 924922 917023 968103 929408 704849 769280 685196 783181 927171 855931 821055 875327 874997 723908 761622 854837 746987 655647 753801 967534 831633 867287 882189 878657 919792 896878 906339 905806 901764 894126 936871 967561 814876 856236 796968 746375 700043 805902 842060 761342 827464 800302 912844 879523 827123 799960 964517 966829 892018 941431 781706 965767 946055 916397 781389 774498 925278 906867 928840 958812 807718 870845 840675 885074 820049 836193 860210 819482 891906 885967 841745 827639 965660 951828 957101 876860 898718 927590 911715 926973 923966 943961 806591 595009 763762 843171 815553 836191 882214 900961 921055 917139 871694 815478 877624 901017 878272 837474 941655 925268 795450 875508 876136 859532 915684 916713 934332 961472 807819 801631 869642 917746 901833 895393 905578 963462 771352 844509 919391 904782 915807 924563 939954 892313 894291 844882 920302 945811 924753 954731 976987 932377 952998 947657 936513 917315 910505 964873 768518 877024 852658 855653 896632 927467 948464 955486 911667 756551 960436 863862 898394 850036 897580 912645 943475 955261 860051 933995 863432 854884 930837 948591 909123 742715 963380 967558 838640 854513 904325 922633 926313 931596 765017 866402 930478 928125 927960 962656 904865 967540 960027 957996 891034 912485 882091 871923 907933 895188 859474 796052 820682 804959 846579 780960 842868 886259 862262 847101 941321 946995 919285 819343 906263 875732 871906 844250 903054 809527 920545 956674 958879 950930 807370 902799 916748 927688 876852 673648 962900 853937 795013 908800 864067 875499 963328 948991 897087 694563 961010 958672 860483 824799 906891 932458 898724 924177 885594 907090 855362 772395 868833 844214 856505 892689 888613 814008 924225 936267 831839 714619 882575 910366 874158 881944 942181 948968 867799 875023 892697 950069 948754 908456 835012 931423 793880 978665 786906 897987 894066 853290 933883 695498 834185 926055 900413 962629 872417 903918 858390 894282 712929 871980 901536 792253 934286 890397 931681 719952 869710 922462 804743 865705 845417 953249 859584 961552 940639 864144 919007 919798 930502 917089 853981 902533 894626 929447 889205 932010 918018 915965 925952 939503 915571 926000 834944 906684 832005 927651 852400 844419 929284 885282 902080 911849 886999 699259 868591 865863 903810 917993 923887 848847 901232 921187 766117 920813 961629 933335 911991 961436 758105 887788 869657 728294 920479 969216 947305 963589 936221 883919 760591 944967 833756 570012 914451 928444 956912 938188 934068 965741 820448 922721 873369 864173 928569 784109 681200 735846 827404 966012 935018 900273 963477 854966 804526 770733 930011 848806 863018 856015 870621 787583 396564 704086 630090 686315 697850 746771 800903 878328 757830 713216 680438 721021 836237 902395 448723 637796 787928 787272 862171 845678 833439 800700 819849 910692 604718 687828 816677 652026 579026 749090 741638 772419 635798 670017 668388 705616 902463 758184 728864 758490 789130 705307 583804 704982 629382 821305 817705 766790 722879 756827 648535 808001 882500 825509 638816 635746 770253 882713 680591 675284 707906 906930 526829 542322 785292 527248 517952 615300 808439 787827 684746 826972 747025 837028 774079 876691 905925 709159 883702 751021 712413 734422 895005 791468 956717 853197 873338 851579 865579 936102 545986 894210 836609 741783 801347 756083 760152 819920 747861 603178 683105 681455 716895 776353 554872 779204 902485 808487 966640 940407 933600 642757 605348 824792 796282 894135 908138 779663 620396 603937 665916 553299 846183 820009 744785 717780 827040 518706 760149 920885 677655 555909 739911 778783 844261 765012 884604 812863 753109 898292 730296 770401 820663 817581 862828 814777 852672 782059 485353 721516 845869 857820 756524 757647 910570 917920 757623 819024 918287 587943 927252 788520 796602 833584 699737 559307 740432 726613 837762 846433 756749 875233 809030 888240 732436 670019 698688 814557 962108 711572 683736 786220 725224 721956 704233 582407 747165 855707 857205 741391 788943 666845 788370 716282 729684 640671 749617 827158 573598 627807 818071 605140 749638 919964 912222 863188 710573 885343 832534 887114 482402 672959 761840 699733 595258 648590 764513 579944 796963 857992 840397 460814 810898 659454 815617 717489 757150 871132 696448 666700 756888 742386 708475 841542 746483 681794 647258 607659 659224 586365 854326 728815 652270 650528 764764 650321 872911 640163 744805 623348 813103 779363 830931 855259 759183 861129 872092 833554 761110 765375 740652 703326 895207 812125 665965 933940 725696 776557 759417 838960 778264 778271 637843 657572 692294 436000 795644 672668 748949 811661 571380 760412 827376 710900 790809 690441 724780 796168 739718 704682 783140 730621 766520 707216 801735 955895 946628 799763 849846 703639 857879 910421 721044 740979 907786 950245 932293 729017 703309 889969 774773 615465 604102 672901 703800 873399 839776 883332 786220 916924 883869 943845 659030 766681 758726 817670 821182 808250 866239 854194 738204 744489 780454 803650 797141 688014 785111 816927 856384 868341 862476 865785 807342 653983 782907 805423 878672 800079 566113 535771 702396 674226 797985 791387 761702 606110 591835 830712 845758 910479 830570 920989 870307 920759 665079 855323 730212 682948 588045 406309 735505 759696 830597 684978 681152 546074 632420 827259 825869 823278 725262 847347 818197 879507 840887 850504 798500 868768 651358 762345 823496 833016 853950 537837 877997 718511 792180 562044 845169 902934 871437 844815 535223 610602 733865 813954 767409 869848 796991 833191 859644 852827 871542 838372 890680 865496 881896 953084 802091 670284 720026 727886 714994 770051 526752 665941 775889 822972 695842 805651 693788 864798 627118 909148 713820 770970 767606 772925 663223 622502 629553 897493 846010 843926 661987 741524 886179 842544 888670 755528 852587 490442 708188 475421 613665 817077 866874 800393 919518 800548 911882 786598 590173 929990 889482 645229 889030 933476 917563 901355 413903 916391 691873 509029 868024 875810 623033 806820 730091 671260 859480 786449 390653 783929 841775 783177 834762 740031 905815 829724 814278 808017 815102 815973 497657 839795 712288 503379 803327 833070 803006 778691 881550 758164 712383 747960 827366 775106 875988 906452 737979 936282 952601 919620 738500 831938 803589 558992 673901 759835 841641 724443 914816 849218 946312 919824 895352 838764 648029 577028 918172 915580 771963 908424 817304 786666 638925 587402 876549 669881 880591 543515 808864 762888 798051 847199 569801 618115 775152 731284 909285 851028 910057 781896 728304 839606 585303 725747 870401 803001 950809 871438 948873 884908 945637 741470 830597 673882 823075 740378 842503 784064 598386 856171 904015 899385 488728 865347 650133 720714 795696 672309 574970 781933 549384 801794 658407 807014 684163 754739 794211 736623 779429 879345 781949 752570 825415 747721 835697 769734 859345 921173 823462 663665 755470 298215 897927 875092 865685 803290 685571 863187 699369 805032 746572 768240 763480 752688 801139 892203 783765 888490 716592 904422 724584 882819 778253 792664 810043 891845 866872 910772 702967 680210 865652 812844 670486 523227 656033 923764 755198 794631 789447 511378 827712 880404 790795 747894 787825 771199 834242 897358 936234 944353 892060 856294 550670 678525 941632 769555 764186 774871 650453 481987 720116 703857 893052 879849 866865 845707 876218 713711 867825 825166 882075 717396 774227 794082 847107 683332 691447 761819 838504 786201 797986 727242 834034 826641 752743 625481 749379 624816 412727 812661 689390 816485 891271 767052 776761 626011 677449 703527 796164 832529 904956 796798 638913 758593 748334 706493 821493 579790 801530 625878 600466 828371 867447 836457 704594 833956 921706 865318 852833 855549 906292 718686 787704 468579 666667 915459 672457 788157 946547 920274 688593 707675 791241 781635 405032 888388 847200 769438 752068 869414 639729 656262 813295 815932 916637 848647 799898 599448 925627 945302 834834 719759 695328 702688 815327 756307 715066 877701 658210 564552 548373 782262 602675 889040 521566 708114 901863 832745 815994 782226 690359 929401 571624 717366 534333 721098 871549 804583 739767 801903 743726 828280 844174 838233 926843 742004 783446 637049 887528 705470 811810 800728 807027 801113 808728 910193 802923 911650 809510 741425 910927 855948 838637 797522 870936 790805 689498 712173 873850 637045 768313 832394 816747 897131 809345 839880 904182 842234 553352 683208 919343 805870 784139 544532 694131 897599 631303 487955 889009 746394 594030 824583 612067 745824 849739 801284 797855 553325 896882 776679 687395 730051 837600 764261 838379 907715 739097 864182 534330 622537 643839 754386 756669 815038 892091 847411 909195 782620 839314 856759 665756 783945 647805 757073 875628 843385 710243 605402 796991 726243 880404 911576 846503 722279 860322 834193 952615 884434 724032 663913 885925 852060 632374 736490 569136 726894 762539 895309 880393 966298 697616 781384 846270 815245 613574 914633 713588 838542 702818 561562 833416 940503 540388 741096 506823 486965 416720 890681 919211 773807 901517 879287 921683 917494 691946 802348 890624 864171 635079 757503 873225 886862 621189 586493 823272 849361 872918 852755 731546 751000 634281 621083 723993 716541 649286 655204 819909 687630 810780 921780 865054 871224 849540 865017 842471 805532 678043 792621 752824 684859 886928 901597 754873 751579 819872 683158 840289 584416 795739 508128 444710 670513 354958 185503 392285 699118 450362 588827 654387 651448 500048 361934 637460 548305 396528 495871 356897 559825 471912 636846 422305 610506 638500 561242 679122 636071 784721 597277 281972 809639 431276 382983 508608 429655 759860 383408 524232 421781 653826 546890 673360 790408 831844 736323 104774 682697 706040 799812 704717 505744 269954 269333 623417 485673 520910 586624 392627 338357 212266 521881 294206 440019 632066 740907 473534 527289 563377 560204 620833 188580 563210 398149 644234 295130 812976 590651 541326 751840 715017 246778 753640 374588 539266 770012 482206 600761 163800 560430 402746 544395 537533 251195 691455 725717 566751 807121 524629 264722 671063 201096 602924 550193 618508 545612 789272 775184 821336 509750 749922 795679 621522 478831 494977 508608 692969 578554 843276 410326 545139 549727 404780 556406 694898 476542 867554 585832 422359 414785 470568 495877 284033 294864 498029 499500 435680 390770 472504 290287 764954 795324 518696 457613 609536 465807 606647 733152 730541 574997 758614 546150 234147 283327 359572 513387 659233 828084 667559 360169 592443 720163 378390 681761 674993 676129 706383 480765 790284 606604 585874 606968 915185 428784 485461 563700 532443 772474 588425 812715 648997 417273 661420 790021 394397 399660 530299 869557 687538 459781 617605 413460 450589 725464 587070 502890 726888 738155 734842 681859 738645 569996 211695 293835 491745 616452 555079 577681 620321 630595 342353 694849 388434 396340 341378 573523 867794 614579 416528 576047 835656 189155 891872 875356 562718 500035 501768 526951 172737 427512 774729 754603 518742 737984 457728 753058 843511 872466 223466 564066 451165 512983 600830 252897 277071 435269 405667 311773 412058 745553 729222 771070 34088 366278 492843 657255 144508 690198 514618 374628 472919 653028 809815 863802 572111 539099 403727 528891 680173 667984 476310 689957 564979 783936 740711 338390 529543 666889 492399 414803 484583 377358 844252 245856 523656 663948 624687 582709 808188 801729 796787 570731 645866 622071 457015 618306 750795 852330 708287 696400 460712 463709 572191 373477 697412 432339 772044 429645 585274 674178 703819 574453 563143 899993 754800 684976 564021 418976 538702 687936 626024 848403 265190 424571 920436 817627 638214 779599 680893 739543 761999 686213 580141 639746 420602 511312 724532 529504 407838 444974 722236 464704 799171 789580 752007 550371 863705 741474 413226 569640 674303 665741 555854 523030 512879 588599 358051 497635 662754 738899 914702 685173 362848 401191 451983 643062 606709 783648 723398 683355 480037 467211 642104 512672 397448 350807 448901 715861 850101 785834 604972 716967 611978 526783 787443 472621 613566 256054 382536 774337 554251 404970 710487 635691 575430 568633 739006 512396 686840 821922 466712 452615 552380 275208 703736 541200 373254 550804 530300 731104 668111 581141 429732 573571 746859 784392 637036 410149 824518 416996 687624 579456 519649 587152 198435 453516 650602 527931 723343 539896 178301 464003 432064 385663 559427 610044 351636 744786 427383 556554 393061 601972 633251 368180 620922 509882 127742 389698 789014 773035 645015 502801 661896 531394 622803 513850 734088 458291 844071 635129 533401 654006 558181 289810 637874 749057 554487 518118 658655 600471 584181 514258 376319 697474 498565 507995 561876 378314 547432 449103 507492 417392 511231 568188 574087 647860 348150 585675 591488 548431 170049 544278 710196 465574 427950 559315 699010 721484 475863 351120 719905 711406 419034 510866 431388 719557 519064 716218 319722 811333 296211 717411 496088 638281 788741 596930 333877 508231 344375 780351 702118 723426 414563 637235 681635 708279 552794 696428 774875 692802 613657 302647 383820 643308 768768 673712 645391 672716 752478 684361 729828 631206 592523 537114 650408 635700 545612 669401 536801 610824 398167 651921 691377 459134 359052 355514 597442 673495 653228 477255 694149 514028 427335 219158 361095 301531 418872 754098 805528 600536 631471 438086 739788 228032 193000 500598 672027 693899 556982 236316 576577 374110 449380 349777 757494 252685 465103 609057 584733 572881 614729 528301 667364 702363 950309 529895 850281 452519 593359 526365 654226 703125 518647 294060 689409 742510 569676 401993 706521 708751 282346 685481 535316 604069 912022 752007 799304 837676 553278 552889 676828 266489 312456 820974 533435 673842 529232 576259 540403 549617 621252 383591 675411 688448 743092 639371 461555 684683 656772 720734 679773 767407 864724 856699 360864 608224 712655 770941 584583 594767 522256 748763 633818 294106 550695 556695 781460 797067 598603 686283 852558 753021 490547 267463 488675 621532 223303 610101 509989 751213 429377 498434 739120 269155 469736 455603 586124 676480 802850 608574 433090 311045 481807 616238 597810 444838 764471 756712 613341 719257 605139 559911 432983 545504 355484 442577 556307 638185 614933 785529 250453 275629 523113 517027 508074 666805 400524 611184 611960 418876 491288 469739 411543 694544 255896 250767 488298 443295 615168 817232 720629 743964 890554 697425 469292 712013 908650 860252 717794 388450 283978 887556 336720 544608 818295 566813 623669 672600 570307 607646 438969 420888 339702 190918 633079 412286 694426 391509 564306 549103 564907 311422 464747 489290 372634 421355 371832 556199 457900 772946 594887 656487 578725 785206 394746 716579 773473 697902 689420 704316 736141 702946 640850 761647 749741 816469 782294 656736 836190 707935 647817 637693 751384 530849 710059 803545 435790 694408 699794 696467 149466 185654 803076 378467 691460 432425 332543 759556 182550 546829 615839 734814 785354 844209 788523 859602 450822 689378 216785 450775 508111 441752 703956 244850 605672 451704 524472 732277 313250 63840 564339 375650 576481 621061 437642 819113 550760 636607 669383 842362 658227 728922 583188 879946 512582 768325 633792 624861 912952 635493 280494 637933 617028 593958 465315 564923 488632 495332 550769 545467 90974 581477 386200 496501 266321 581965 701196 512895 787871 724759 395503 614321 547681 417988 653354 258989 687074 377836 451829 439142 523062 526137 550071 589280 762404 435657 727717 740839 561717 469966 643081 511542 245716 292701 448341 604861 743846 885989 822302 656639 474999 623776 614916 549636 419828 632605 855482 829303 634041 719198 803142 580122 631098 541960 552387 599378 261116 426276 570756 518089 366074 431662 552632 597862 758939 751247 803877 641961 418519 474016 623470 811234 716543 695118 794724 518101 423554 651426 298502 569761 626643 730561 253631 883155 626734 193335 793604 771474 791413 785213 824148 895805 729308 788600 177062 295760 602059 760501 335336 627855 368541 360663 677790 815614 813395 471653 523182 608549 712454 603743 480050 585488 480084 559958 712200 679156 499595 384520 315293 3432 757587 347867 498273 541595 765406 698318 437655 813056 414351 637172 729476 895686 377745 726168 757235 736342 784788 745304 574023 664174 618282 306283 428411 458199 688623 698650 584681 541940 442827 467102 750356 407392 461423 418970 382241 783367 467831 632208 879711 456908 209640 593603 232737 673238 437305 422792 757926 826484 741939 768870 512400 736030 647411 628082 544292 498180 774124 926207 860025 899938 662199 598814 415377 640431 757045 749093 671055 396964 469294 476344 423226 523350 639400 709030 378213 725013 639980 509260 792645 846623 616837 749659 702084 629528 906165 485249 796302 575933 710116 762779 463041 306559 292166 443707 729132 503450 280383 911162 355887 527348 569996 661007 733427 642208 311773 497329 493224 629617 386794 359426 790678 815031 635962 660306 295493 825598 474172 493792 710417 757942 701024 590824 513849 699658 749156 355359 420747 378736 283418 602344 719793 661156 715538 593973 672040 887064 348541 603462 702708 714736 332208 491954 686363 653776 385915 635149 541299 506641 710228 570874 535455 602028 613701 735857 881398 390903 618346 655547 924067 944728 650150 824927 476401 922065 279698 126871 557987 346853 347053 215993 791928 513691 470574 654004 775473 747733 524819 669047 301768 475842 249736 770302 635270 688869 720941 454314 361014 326172 849835 822276 382332 175201 691827 494298 231045 536536 670340 633540 496822 451820 741616 474210 467808 505148 714698 677744 235935 632586 724725 627832 596317 594890 715451 131690 501179 613182 397005 477049 684741 349198 597084 598627 766204 726464 583003 408048 398195 671438 616281 705135 458206 591555 458382 275652 809082 742837 835528 769736 751841 800728 543461 642146 268706 598598 287708 233254 601151 825453 584370 644362 820738 820335 272420 521093 664527 330119 780594 574266 315648 588238 660291 656014 417640 664817 707107 625761 586224 654733 693935 561401 723272 754702 818343 442561 618867 438486 556813 572802 265010 579631 660236 886267 719273 608911 324390 862395 768171 290555 659575 714290 760669 781444 658895 655647 644315 313991 898403 869414 590174 680892 345870 579154 460780 587540 796234 649421 619202 650976 411277 510126 436554 333171 660215 798917 507576 696561 364801 665590 426818 426523 433828 488792 767805 683327 857671 589842 681372 641324 530359 598559 414547 693719 625028 177235 691904 656584 740536 797441 652640 605728 765207 477499 851982 650955 464831 620577 506625 276019 563642 647575 889302 459333 482596 645278 666766 356379 405238 732922 533427 537431 364288 414256 528517 703971 643720 381519 214055 779010 770997 848232 704228 307042 598964 645484 212844 524108 280578 518951 824504 646565 725224 809186 706200 732077 551244 584788 655402 767998 782471 621038 815748 817898 650499 579402 545987 679165 477302 242047 734604 501830 231727 651574 522616 176539 452290 647546 356806 616213 651356 741173 642908 581087 605780 599123 732939 354568 316080 586077 203459 297215 264077 744757 666715 274247 642381 813687 548323 650729 623976 489210 241709 361254 572390 560252 447114 591534 349079 354091 472209 478425 816088 379181 480603 776112 377355 688235 475418 493448 648741 698162 447987 514727 600653 496844 818233 352653 326955 478921 318027 515102 526883 364248 489665 418032 549653 796157 704208 849570 276751 680718 550904 509375 518169 772344 911591 521883 705077 184970 730318 643847 679341 783177 818492 705963 343849 395689 572198 766033 432540 312865 384358 413853 760449 263883 590851 589469 508684 410943 714299 801635 563805 608102 647182 683849 604104 463520 779147 323978 379735 471250 393137 403097 702052 769683 358849 817411 692306 714027 710800 702024 538917 499565 604194 634917 515849 443384 239743 780108 786419 575051 827186 893014 591360 606754 676085 714148 488290 591054 706785 593798 825433 426694 693948 682907 544761 599153 614739 532786 696876 612520 655863 485686 429331 565570 401360 683793 767579 466914 152937 359650 465768 172434 469341 509563 677941 318572 486276 555189 813555 786828 439127 476587 680038 587048 831356 538831 686876 793181 263715 537174 497937 508075 220207 483277 557779 862438 249754 484743 471425 668305 514466 530773 635783 623610 666195 772655 698601 716109 440509 703478 496897 697852 349135 707929 740383 786891 565122 786255 691753 391789 555531 884278 599049 696787 771004 231277 315068 428981 590080 505827 634840 521336 419329 577875 510901 484156 758838 684103 707714 302080 777626 209100 492401 838176 784435 516947 761823 376119 287333 509218 584019 263575 907693 808356 774030 826194 773010 820139 771156 615928 707447 833341 625049 764851 253725 632473 144684 515030 717609 489517 631428 563607 469741 558681 408399 516590 789743 769501 860752 839972 768610 661535 735034 725973 790409 434973 653517 810542 277175 548460 540574 373157 870786 891716 506202 504284 377320 783813 457489 220559 579152 499390 703484 608538 622111 339336 400504 147777 743143 670892 587980 471045 470813 470666 550049 813368 362797 464390 160035 281439 539425 280174 777800 758096 756251 633360 492191 222299 893266 857945 494007 315321 451258 566118 464492 671246 541656 466037 69691 490602 601905 458722 846478 788487 645948 650362 631750 657875 517162 443539 615227 608393 619880 590913 601047 659543 597423 683566 468036 576577 702790 579442 600270 787504 837786 679391 769137 705590 823426 595782 597328 172485 442878 560625 495735 755628 244448 436086 675385 691009 859085 865583 818320 639862 643092 705090 501971 337066 745455 648286 642367 639694 832861 832578 719770 731897 491633 634608 705701 544165 795924 860229 666049 670583 833898 790770 743734 809329 294694 552079 645338 383263 734069 445375 500253 851088 430158 625680 335915 728355 516796 516596 692917 616768 662382 548617 771697 799184 545291 616526 901885 694251 528824 581929 586344 182071 364662 601696 726025 647283 598431 569538 760511 773806 553027 655063 822114 789333 685301 597869 405054 555522 451774 787569 772384 910700 432105 405335 731032 702511 282452 415368 399369 280438 352500 388989 320823 671317 631477 481303 678026 635484 669851 772614 792191 668709 676090 760653 783223 423887 586690 648793 738209 800981 831914 269421 803279 844471 603309 536403 451135 403562 570935 475393 790490 606083 445664 590757 494413 535130 496512 405140 582703 831291 520719 710064 520341 796105 669889 559375 647300 263183 598917 368951 192581 535539 577091 721047 117504 408701 395596 410229 650986 634861 803976 809502 649834 540658 185129 405734 655412 815330 495282 852547 868953 777618 555134 589332 358348 462723 545347 726468 798214 704362 660547 407532 661878 493208 701478 585543 499587 530984 718874 796949 689093 640432 695012 721682 611811 734579 669984 673272 275686 501442 800977 769457 565813 554687 633819 791740 430682 427141 359533 339850 598281 623289 243632 73961 16686 151973 89995 281132 328557 610688 289142 398573 341685 104495 96334 234317 561301 630039 14328 195389 9271 234859 394043 280240 18767 455087 203825 24088 267849 417422 123694 123245 472460 210637 288616 173991 501207 94969 401818 106992 219427 475370 82306 91948 550302 383665 508893 653802 292572 287533 307964 654182 19272 117622 258907 152733 135269 3096 93433 170118 323495 17472 76891 97387 243960 411938 107567 455722 173639 205414 222441 232794 415792 402450 428942 148447 175143 282088 379713 277042 289911 356368 6201 84086 416255 375804 21919 87648 376987 293400 90742 91512 692527 608664 20502 470156 303087 81969 210184 166492 207621 122665 8181 62374 28285 295722 348062 419403 432857 293932 128303 392614 167223 103901 66934 28731 335249 262038 238168 232833 319434 328171 427868 452564 302035 565994 116776 385067 198919 174631 510689 485486 307445 269638 193015 141456 146906 9849 556120 90456 172583 205777 427479 499549 284455 104353 351397 322084 482077 466256 263291 217864 556540 212771 611389 137465 161103 241493 421318 442231 363522 4303 162956 416482 576198 36147 363570 386045 152156 191113 52512 76735 217696 106216 326757 123396 122589 263827 101210 175041 72916 8799 268440 638768 722161 144392 158657 77720 531323 527414 524293 299550 92689 163404 372222 186520 107603 196471 424213 189386 392214 208584 51339 493491 146839 341490 427433 244119 315039 506669 158297 118392 434979 345900 569973 660891 683638 414953 494759 141418 180521 285376 421047 10307 384505 238479 22250 400906 542438 78033 556821 820251 330231 130421 64123 505215 34924 33132 93679 167635 482413 289085 86158 540198 292036 127191 77928 774318 454236 176893 263026 231168 244665 206697 336880 351675 121441 410244 228111 81498 231587 35850 327814 236614 142667 23313 396155 102272 294200 10522 61576 384026 51234 60973 511767 30936 338256 233315 20074 106671 298136 129181 200912 309466 318985 117066 441887 91584 568433 635758 219290 292076 452690 419138 601449 288768 366406 468666 207296 184410 212321 47556 62851 317219 505691 178733 384869 162726 17892 332154 358178 61828 244729 176651 172287 176741 325653 691956 103654 108774 156991 414614 257037 627184 614134 159080 185458 564835 329151 232712 774052 589975 245523 171398 15607 282553 372274 317348 822708 357756 392712 348456 48432 117187 436691 553910 192453 491813 234717 741495 244734 395248 786268 699117 567682 39236 259836 237611 108610 532790 231875 41453 286128 330102 108443 3222 147183 444613 375706 736370 237885 401663 72217 332992 507945 53796 172740 77573 62072 405848 148862 19339 389335 242026 401385 474085 220246 296943 116160 537693 357200 34041 291520 501268 669576 132786 385594 467616 58007 199723 22923 60252 412504 303037 363397 241481 17043 308828 347400 360251 395838 233124 240287 370281 55134 73327 361458 544957 256237 340894 196435 115734 236205 201783 396859 15724 342686 607800 22039 574253 174547 235879 336564 139449 727925 549603 159663 187936 583495 135679 843960 436282 272989 536898 57106 269755 331103 201960 220366 16381 104816 92047 242428 424856 454148 466085 241592 664874 435250 436735 419867 259634 95859 308652 313011 38157 533844 362944 584270 286481 15741 63667 487633 328998 363058 360252 445298 356253 297545 172906 191132 35318 222702 210509 390841 39624 152778 24978 189311 116349 364432 305747 183345 510799 347852 529474 512922 334015 9894 12257 154402 39591 234751 426501 418857 196364 127296 50846 27837 396111 197359 396175 358503 303134 237876 417417 319840 449014 83626 653183 793734 532291 398475 178074 315132 343934 295921 87806 499543 422607 486537 647353 615945 121836 80737 33882 644397 130000 64522 543107 696257 121063 710670 194917 301023 16329 441742 158545 579749 630458 88459 105417 403909 407945 213433 465275 219669 61420 669401 147118 206277 223531 164608 290873 467007 277350 121677 300450 253152 525028 534244 152287 779101 12927 391262 170339 338683 215325 134576 601949 7715 434586 214399 262675 284421 64815 731776 620166 148685 766879 482959 307378 52421 407918 113053 217380 12044 413046 346955 337179 197109 36187 493839 663322 426750 201348 385749 487436 107900 254077 444320 56341 199674 114646 270239 77514 486120 48679 236632 1111 312183 119548 159849 624871 347595 450681 211164 78820 258503 107737 225941 323609 263617 584457 80304 222281 763362 51958 58296 106596 397570 207919 324891 361868 147384 124126 176474 367821 70759 705851 59145 403996 227376 363526 615290 490398 282961 290825 66975 344009 203379 406797 373418 143591 398834 215417 204943 455261 259352 387103 31762 56199 322737 22414 347044 224743 227584 411174 114609 92042 331150 272606 39835 386002 193692 85348 90321 732413 139974 331235 136028 251442 457046 438463 440611 198796 84277 46112 164842 88476 428486 442554 11130 376586 431008 515650 256081 245438 49844 204706 76964 34206 371189 526692 221836 595541 583630 413148 3226 91641 140561 331517 258092 404084 535123 423250 136987 180812 93115 465402 448651 151406 418390 405987 449721 297745 150573 104959 205565 516298 208216 50568 284095 275359 205348 198892 387597 38069 449840 446442 87928 72969 600169 20733 213971 278344 451229 174142 496054 267684 388362 462573 750907 434352 154870 218044 306886 351107 218667 246214 165256 306209 423156 341266 337877 142776 307877 217193 475564 186056 334092 21612 414336 413619 45069 16283 316470 283989 6439 124418 254695 327900 148486 192399 216720 330492 335468 307458 200833 248987 246207 128175 576558 235382 112041 531146 79398 280591 67984 256644 522712 442141 271245 715846 233024 640793 47154 209071 420464 387340 475086 459023 459696 712962 240858 193827 364446 45399 27743 306306 307672 109827 396901 237237 645729 273185 262360 128847 332129 326958 37020 412723 97419 26578 43740 334914 630705 194968 194969 128161 62713 222278 441248 212056 172056 91522 186868 28287 333111 15168 122117 170836 488339 454489 70762 151072 179269 33270 495376 465122 273891 364880 555040 172464 128301 282553 374981 412335 271603 461651 103193 169338 425139 234659 128057 443461 54927 62097 263769 301202 653024 709844 723190 407320 404364 429777 82994 424265 339446 554219 471552 269410 457519 280546 418063 134810 144783 733167 360250 249429 623966 576962 438843 80403 297819 262463 602242 355264 459778 325845 248244 148963 11917 559803 602079 499391 501915 3940 488657 116469 204159 540469 473641 486558 247182 220276 164771 288284 328672 92504 481987 35399 322967 444950 292938 111138 496478 23855 69492 351033 502771 295122 335508 358014 106116 163293 192345 145092 206761 243645 287428 561204 54879 570255 244469 192995 175054 96163 49792 97864 268102 2682 120517 194679 97713 21975 387288 116561 60955 428147 28815 221512 57525 137840 209520 62844 500162 406817 658456 336930 30186 38292 286480 117043 551336 330904 579041 308285 114123 309084 303028 178677 307702 303484 11257 358838 436892 453779 304560 113208 3662 88099 57068 281001 286752 166598 121686 505117 140012 68306 378729 201787 529211 160565 348802 145930 162699 107709 122236 241058 342429 314844 327677 228317 225633 445102 341552 650659 306034 389435 159595 433396 344338 538061 599048 608451 187863 450910 66582 462925 578590 372666 616432 26045 406773 534037 33521 83631 64139 180161 348846 458402 251778 431023 147190 192784 591692 83025 433634 418227 407365 513809 548526 149177 39565 613780 455718 361000 175616 98975 460342 511275 83752 568840 91210 53605 259333 529430 459898 416183 431459 450822 435697 67287 16743 177519 513674 284164 394256 120691 322064 310815 83183 53478 83258 75567 487140 519184 385897 195182 95339 575652 360639 172509 378603 441828 434954 455169 118916 423374 29553 198345 69669 130453 160871 287786 56109 130154 621048 489979 429237 670935 277019 331182 486292 562716 368812 420449 30099 397525 77384 193809 11833 53272 433270 180541 173082 252611 296329 417418 13798 310414 122487 225494 50004 389222 331561 180825 19807 281572 258842 254655 720086 632182 215981 47921 47732 294044 249936 301789 286050 168474 433422 209646 224457 392103 314895 210305 197396 38455 501415 364339 938776 74362 294082 157095 151081 740968 45158 366122 411126 60801 253043 123410 118626 583084 93677 556676 10713 1033 66207 179212 622725 384442 531996 365998 317850 102396 320761 209572 377937 358023 147239 41785 254619 196132 681633 472447 239896 487480 67839 504338 530878 10846 387078 328270 503282 782795 294932 375483 466993 315840 155564 36803 241712 458269 127805 234540 151051 236469 21753 743926 14461 222919 434156 55811 247877 86912 444227 241034 234812 451704 368447 219668 568394 526185 341624 342360 51712 347511 271095 173660 631844 610175 621336 127842 427447 208668 518864 575237 148931 110885 417646 655827 76990 426345 501215 623483 543793 688900 45224 156522 288966 302569 248745 517107 281385 387266 708055 39726 14778 456186 140050 506830 481031 259593 115863 589152 461597 171306 199283 121555 25641 357587 380223 166790 193408 422185 431075 58559 127382 305944 645718 308332 665640 208091 416394 267522 461292 280656 49362 245843 346456 476975 332573 37342 28534 154671 34240 429100 208511 496167 747724 373789 183081 303912 468853 84253 128076 517297 132204 30781 316842 256928 208851 127910 344054 490136 34624 381679 724638 590447 331703 553248 252626 197265 190327 129125 243907 463327 300922 419173 486864 421211 11476 258211 425026 442952 731620 279151 539644 255107 362534 463656 209738 291146 50136 179941 226822 203465 537579 76804 226865 228022 373415 156267 25581 275703 456299 394259 50496 205470 212072 473662 67040 38042 136612 77440 481170 119391 458592 23776 290097 426355 390470 634893 122294 205686 155913 586390 28310 583896 13887 116508 479999 56488 304944 299712 92119 26354 20546 670178 54573 213540 95163 213257 201809 291187 384627 29372 572412 599257 100184 575735 601990 195560 698208 298792 423625 274272 163345 477251 302125 86573 42904 89026 872686 756285 583266 2535 307030 452412 280602 350897 35935 145566 372758 592105 331197 15891 428775 132292 188812 217826 11919 405737 241415 463201 52213 117478 380794 565526 597709 351748 224002 22990 221005 64994 48124 168204 128665 36022 313773 267709 28664 29175 513865 217291 329179 152904 448490 351162 444035 511444 461751 365497 260499 14995 230751 121054 462364 68560 8440 154179 287712 23928 161875 193101 514616 318088 209201 424382 543932 242726 461876 12808 430677 635724 231421 413346 565510 229077 180365 233894 316128 277550 27433 214278 626746 624898 46242 137478 206542 528093 724353 596966 226821 515875 492654 253477 339038 614094 665255 465403 559648 554445 542041 73353 437574 490454 299815 415954 33919 522516 319840 390337 382201 69658 490399 576925 352823 155505 494119 596660 700476 648446 298440 163091 427537 19292 614121 506259 566447 152827 53148 123591 181725 44062 457654 310790 326888 108683 111348 8906 198212 152082 117602 116475 613959 27112 68375 139548 85030 407174 420583 421760 518839 621753 78620 498129 259038 24143 577884 691373 812404 545134 226503 72075 611403 533871 165979 57422 249544 172715 127363 197966 191521 46606 18996 691345 113987 18109 470038 25797 99782 27798 384160 180368 454188 521531 250676 67286 40435 48892 470488 170677 20935 175821 481126 573756 501259 278404 270892 414046 715285 692419 507502 514057 323890 431001 256250 2874 487638 481817 116656 302865 30599 624774 487053 33837 326605 71782 507303 259470 25738 459288 39639 18180 293105 433229 262275 565675 6966 218453 24352 240295 305271 111065 239846 484411 418711 177774 447972 93142 506193 220076 250469 55163 63674 67025 236986 189449 482556 105427 78350 16013 214921 167852 272309 300472 269688 422675 175543 53411 397930 438087 548834 5777 148362 115170 164104 738175 136474 521684 21397 259077 226747 114771 89235 7431 6859 240444 394927 396449 170177 41556 72317 629680 198285 237296 294697 16217 95620 298509 355726 490435 456232 337456 334831 389602 188135 511995 488418 455214 280674 100287 535207 710254 567939 555726 528571 328814 250924 230466 65774 104039 376328 110178 153974 119540 84487 235379 385706 383798 6297 365946 470605 695402 716221 651088 554723 67298 85844 647546 61681 333231 492663 538408 269916 387696 406397 204111 56218 311990 177133 556987 764768 64972 199878 501499 341292 399982 396035 62875 418476 388551 534918 445821 168031 56894 123002 500263 169411 160694 417025 114845 119239 118799 301099 172987 488435 6113 324925 399113 317643 88115 374720 262630 482975 253201 326636 360957 402735 663753 310222 526751 463995 10336 420190 384105 271714 34233 379917 98765 228833 254777 470222 115613 24855 599658 483701 649628 429077 123065 20790 227266 268523 104764 511817 540560 237996 109759 99513 142840 235212 38989 627128 3733 127757 98522 486242 453400 581274 153694 70073 189048 737263 19534 74605 428758 616644 372014 537405 487242 655092 358295 776671 634809 397704 673937 275832 373365 119865 18890 8958 99827 37814 366482 741198 596302 330841 183908 215183 488682 109766 265865 282830 132929 505783 243581 562419 369733 27421 772085 123036 33236 215002 52243 545174 331834 109000 166018 523322 460759 337142 20534 119270 31334 457383 203878 31806 358217 710716 417885 592794 21182 204109 161786 251839 242880 12592 72664 2071 3229 174085 59506 273510 104372 443518 32520 97118 378246 374736 535951 382445 465666 358897 250933 691375 579670 232045 350757 154852 323328 721886 700047 889157 551300 321469 152353 328251 508264 299863 253183 346375 164837 133114 13699 284625 367632 74957 328843 112533 237730 102381 570003 165982 89352 297093 228840 129424 189805 617134 16862 72119 680627 281148 424537 383186 223142 246797 55596 294881 61822 40732 350990 307804 363686 412182 163083 113797 146960 262076 28721 725298 137669 5509 254696 308375 562668 89871 81524 7026 272666 175931 185392 68697 437589 2882 156236 490212 596346 10878 273371 172400 127140 420986 99743 43856 64168 108770 316536 278971 178939 172959 224057 506334 52070 308695 6558 248174 499155 218304 162314 27562 309357 449366 124118 102336 151489 108853 598854 871519 417466 623198 59006 299257 443190 329758 163769 249714 185063 165458 725883 390194 139868 280640 212681 339576 391644 399336 443378 31243 274210 106642 259146 84797 87304 469042 627497 351985 473151 88556 93664 663712 296388 161776 550037 79764 127421 673615 488436 348167 578241 215850 42747 123809 273928 661600 274399 550321 282960 239114 506169 288769 109938 304909 721747 168704 455862 328356 386234 676835 395101 199878 59564 125797 287394 284079 35834 380856 230221 218472 193670 149176 113278 141921 62110 748550 261777 267189 156471 8066 162776 54506 275729 287319 156748 42789 573956 478308 423753 38843 189234 106391 152768 269537 29866 278137 412573 214477 77299 77128 136768 668301 76811 93008 637543 502691 260082 70917 398327 101078 240556 800633 298632 364325 406496 28421 368774 235839 582152 159955 154934 13182 38379 237919 400563 228527 16406 113693 87161 122272 199075 32765 278791 82869 403508 319904 269756 100781 129192 131922 209 428220 469614 648554 609412 603047 697520 79832 270772 497318 670987 198400 152798 134478 223937 505038 397708 199079 386306 266974 399302 253084 21136 357751 444983 623116 418059 536443 441810 271805 329053 228894 175604 224941 63093 448262 296949 340386 129560 385848 223513 238389 328841 265723 251598 400202 474216 155788 590124 804285 438275 157635 264721 546712 607697 314413 328847 907849 141690 556216 136150 536208 382455 662921 192250 102509 159339 855560 432873 162690 162827 9897 59348 123020 441693 42876 130004 270977 118818 127080 92161 190305 159059 462433 210617 198455 224990 36432 186478 525038 48460 89344 666599 490636 222475 56012 504514 105822 42210 423105 363963 155190 188048 62539 219769 494432 525767 397979 676908 13 678499 250979 424550 138634 334068 310109 17417 658129 343174 609312 309364 357396 8968 28141 80762 84692 680503 288007 26925 196567 117908 424914 298252 467410 190474 72670 561460 78520 70033 334745 29121 476971 677285 180476 393878 301815 211994 309643 4064 235175 102692 429029 290352 103884 159831 183415 556107 31354 142498 297589 450663 296564 34166 414887 136178 559985 130371 65143 74419 343072 91218 280444 353486 99461 357109 61487 9345 312570 575494 463 338057 207555 444327 462820 79205 681681 593885 708225 537812 537941 56569 305491 134679 22411 42854 86219 88105 264539 527813 691878 302815 435330 31941 239115 512972 455124 190574 68407 42021 777230 94625 669563 324472 341286 382824 589137 567494 462355 114390 737774 289956 454298 8321 552105 641590 80447 109336 361357 370026 134276 34004 102934 39060 439928 465373 577851 642496 111457 315630 266606 245173 506974 309898 105134 176476 105804 175634 123254 47129 239086 645586 23435 2292 119357 360753 327652 246724 132316 259998 7584 275383 74428 337031 642266 177705 25401 283658 623424 314670 29447 54102 116983 407754 149266 426416 593399 610202 149409 190063 90349 475140 132518 375846 538421 635746 370681 104244 322771 49102 301208 98080 79436 318725 529970 498662 35854 269195 147923 96963 126873 234571 447996 110194 862363 131475 188843 132384 545337 299697 138809 246354 760308 772335 253314 757177 16452 264294 352741 508109 493608 87256 721758 140519 187712 360778 71417 249345 266295 360132 202427 540655 248484 69136 110086 842146 438364 358495 126105 74446 449117 428421 222210 105521 101695 479032 137083 345491 330901 346360 331169 96877 432112 566749 161363 391700 603945 252651 288864 165632 447772 315004 340053 245040 273238 3868 49655 533679 32820 293126 323626 73773 3886 68872 4133 120053 142687 480460 225077 202157 351012 14528 416418 178934 381827 291777 274717 264413 543377 613070 748927 495242 2823 577352 405228 162865 346779 541498 61936 199839 178906 469430 101268 39187 538514 529065 131327 623835 140643 50429 524492 263817 478034 11180 497164 685732 608179 715518 454604 128512 409036 64405 258251 87602 361727 446275 322115 136017 90904 588213 410777 58528 165266 398439 338360 278554 112019 74086 492062 72731 594337 159096 754409 121134 107630 55584 185107 401100 327654 116884 9577 256720 251030 231419 162697 25799 306531 427420 332702 295417 296513 428246 347448 363259 363815 392745 520070 245718 247221 501958 152919 468238 345525 281355 186424 160248 2513 419170 740132 297294 1086 764157 486272 280722 160899 240108 517671 557854 66881 106102 140833 62755 81887 272586 119721 124614 345466 357996 443391 393085 218083 285953 585574 209337 402128 434590 193300 673591 167724 504281 176546 425813 23640 274114 407495 102046 451619 576812 14827 502133 145804 181427 687753 362643 698179 170454 365225 349661 77601 504789 462032 209871 379928 340590 163849 394729 211949 136298 60041 500306 46526 132861 121169 133186 353757 207903 481247 325136 47246 41910 232717 408061 165054 73694 28768 121690 435690 309481 434720 597241 659621 458754 14173 601448 578333 548508 400160 443360 500161 200203 114271 314493 104075 206289 208274 67087 557267 299477 23669 167974 279457 68188 115440 51228 19780 623966 127860 19770 203748 178284 628839 100510 746588 294184 64439 132562 284356 281456 7050 5170 416976 70065 1999 95645 166136 41096 442278 175055 559712 408102 24359 185449 13106 177054 191984 317586 261956 281372 425618 109279 445517 455341 658577 636 305623 247906 432343 156450 737842 690715 264639 137818 27313 397711 270137 321531 318230 120736 187349 80659 691919 437527 183056 273807 38438 6951 193992 194907 292359 439249 153338 411698 329931 338909 115146 108154 457119 313286 215267 247392 391749 353205 81340 23476 240465 177007 59034 291187 190022 326192 468157 28600 789519 515114 558747 448504 323460 535931 72946 155275 215399 151539 96487 474724 275832 436327 115306 223077 685688 630273 351188 542659 56291 436054 693483 94304 80518 77092 224688 188005 540943 615747 296071 292482 31499 181272 638928 247607 471228 54404 26261 246158 279867 75460 490189 10485 514569 286286 312629 235600 1542 205308 344941 323856 181435 298031 286355 456298 18383 179121 314784 405859 250048 571116 298800 83184 10895 384367 40414 43139 10674 35557 460362 397435 545513 201219 316291 262356 550205 446394 117468 80877 159225 186314 586421 685722 5778 167487 371516 106091 417057 383903 10755 258848 247097 334965 335771 218370 437388 639473 343047 159402 533048 344295 83764 191783 453632 339443 96779 254131 552716 590038 454174 329649 362639 466958 474575 545451 472187 118870 191390 187551 328530 304811 111057 202561 262140 109915 6046 135957 313803 432479 359260 30775 673759 197661 663 496596 97331 108152 431329 287451 279132 407247 267491 365937 382766 161591 341022 15060 18817 86558 420746 619920 224448 355515 578425 326993 549667 570830 142787 424339 540623 435891 432517 611606 89247 277826 625971 602012 542579 401843 544738 601028 417100 263064 185854 87919 324800 144140 123548 297696 610528 666703 207656 476032 426068 55173 105148 57479 102502 217868 366881 440771 12319 11052 384742 227054 444617 299349 417338 196948 166833 171045 429132 295463 82821 480753 740250 483992 712327 243152 288646 65160 135244 99977 300225 208688 251741 315721 502659 196448 284042 28008 431951 7795 55442 428279 158532 163836 17954 299806 148689 218426 145150 121761 76292 201292 465579 110433 515585 429127 772228 4102 128714 84500 417624 357135 212287 142709 417534 228903 261364 7529 311666 364044 206298 567439 19860 489193 423962 203776 387111 641955 494633 312133 683799 124654 20815 25988 178393 521782 239688 249743 441526 231493 155235 12105 634592 212910 92764 553674 43247 590625 284050 564242 535362 48965 143590 442745 28219 36703 202474 545480 99097 598874 414780 450624 570972 606294 156451 736912 204879 172257 211558 235079 78565 135576 403871 414551 158473 28872 434403 113889 71231 102560 150115 80982 534692 318243 317844 449891 435317 39748 445541 633826 377881 314416 139551 578829 288574 60712 484380 259559 45255 52462 345195 102728 33042 755645 742224 753548 33702 249466 515958 503387 71145 334428 191191 80276 20055 348826 138066 475023 8545 191070 61664 504977 49023 309447 667107 431743 814180 431570 606504 492325 46238 509469 154350 315709 162107 329456 643176 567438 426638 215579 252137 46974 589659 760916 135711 240160 354036 561010 33747 63520 440312 449466 107657 357722 131555 66288 421654 499253 28293 71173 383188 243271 33602 245915 130984 165637 466556 122766 222627 431043 434734 684525 305917 306146 434842 538908 300265 224950 165470 499843 641330 93581 232051 448774 577259 236783 150891 24012 163255 102804 221343 642662 241601 252734 22264 37540 255847 133270 340970 63965 166800 561432 48157 761293 195576 405769 296665 239078 294730 298212 114891 549841 427403 14135 19500 120638 149269 124398 390976 338243 378510 204345 253919 545120 235558 399669 28926 103998 291856 202951 36731 137252 528098 374020 58452 607955 289868 471333 355998 443573 338374 143819 349537 120145 491255 35109 253150 172783 142447 266157 141345 461908 44219 156202 61037 153941 293469 517958 209660 67661 171697 663603 118192 32234 701200 140976 415132 328862 491502 313189 190482 161894 98314 734253 177623 222462 95399 321635 38436 110195 450259 56998 396506 473438 312012 432536 370294 635141 54194 156333 411688 331412 61432 6932 475986 361802 149104 112695 306162 272253 298399 438483 216746 21790 137414 299851 197225 448227 363720 329153 76822 502418 284354 70839 352088 33654 47104 156638 408982 699 434035 260151 138850 87560 177120 44477 124962 637592 355340 378204 98656 590523 200251 70496 99154 549411 429685 350450 465083 120500 352866 234919 277707 237000 645476 402288 165264 574552 10275 337759 457477 403259 619526 216215 60455 336918 351593 359221 36518 25660 429026 435863 122960 167113 51506 183958 6617 684744 71455 106810 184711 80990 486942 452586 411479 531935 43773 789590 772778 80340 235433 567019 421363 82352 436365 456157 186609 144925 212790 391896 242515 5605 362064 14964 537649 5008 199503 360662 572274 42773 612268 21849 204575 430335 668759 478540 611659 62897 283886 315255 201754 460598 353808 348879 113318 313177 78294 460738 316677 736289 546126 422922 96185 562088 466590 143939 516075 634424 481569 217403 801117 364660 40724 105034 236937 305499 149728 290347 188411 265882 588209 258550 221453 336999 265993 262157 488130 92381 169692 40207 69872 117162 109784 123699 431022 81437 59357 222676 200220 286723 154779 158449 568305 507204 193434 230558 166313 528850 571019 201290 443354 274830 475432 306221 394031 554851 781306 550743 219776 631634 55451 339432 215473 576188 82469 9488 18751 42208 179431 330007 361833 336824 39268 643143 10799 238727 171834 557613 410249 486966 70453 295553 223903 480158 282003 52335 91895 223972 167026 44836 120257 47656 578934 355931 176477 311333 216625 16528 444959 245863 259770 37628 480757 105471 89016 451697 126418 178875 334198 38360 378543 169570 150549 412260 348063 43111 25921 187159 56126 97800 342456 248935 130952 231444 56246 347832 8568 60397 9339 234086 615809 664952 104494 389408 457222 360480 497435 209136 28935 40849 425474 412149 231025 81400 212464 480732 350507 205994 448315 114140 84066 155547 11794 708559 82143 104315 182035 535256 512616 596246 349093 254931 182808 797905 556377 43633 66045 260858 506962 656464 301042 446298 38455 579429 27689 195873 89452 273227 57605 111472 281937 558123 220822 330429 163666 292410 177645 603777 144793 337139 204200 221964 299986 224693 264956 37761 6423 449237 260372 17660 444261 16989 667706 658580 181671 344201 110285 272472 2327 50200 39565 178904 398534 664561 224185 272886 358637 127768 89108 169914 236503 528433 88379 179228 47313 101082 222450 50274 381875 369427 512361 27356 87312 66534 397618 329095 324409 122035 228940 376670 504564 543698 219642 71087 370987 529566 688077 685044 440276 315445 64645 125490 107602 154565 292869 244764 528630 384752 484906 383713 383304 1603 679388 76462 15994 752385 125570 473646 176365 518904 377072 528041 84161 306931 366282 288677 235716 451561 528312 551103 114959 56653 65044 322152 535152 622122 31444 349381 146809 655269 193993 10832 699071 449793 29958 129534 486723 386535 250982 176619 211133 351562 785584 355478 288561 411473 79512 99861 439612 234668 40516 514474 340578 285149 273131 213743 523158 462378 284601 267303 101231 233292 81307 332495 26172 115866 716997 583641 386780 64683 292082 449444 472325 51486 225133 608305 46651 149781 242664 241822 340405 53689 270165 241592 532327 78705 457878 322297
