9161
999645 999755 999715 999486 999236 999627 999223 998510 999350 998898 999013 999162 998883 999073 999170 998400 997744 998757 999256 997886 998494 998066 993297 996197 994510 998598 998700 993356 997566 996221 995984 993442 996592 996980 993008 997978 998692 997816 998035 990690 993510 995494 997796 988360 997036 993184 992200 992424 995404 992337 986397 992283 992291 995698 997807 991507 987563 993116 995881 985895 994450 986190 993108 988874 985184 994568 995980 992568 996719 985166 990360 992005 989247 994816 991556 992639 997235 994486 990712 984160 988452 987366 989051 994502 988883 984006 997536 982279 983436 952307 995727 985151 991699 991768 983579 991941 987691 992316 995150 986027 991577 969200 986134 987075 987269 970486 989620 968928 995105 994325 985976 990068 987653 987171 985882 980265 989490 995235 991283 959676 962642 993865 994330 979975 983992 992827 990748 981667 987278 982480 984219 993293 990509 995191 995162 986878 977424 985409 979307 977107 980200 981488 975821 945996 968957 987359 923361 983752 932750 989417 934294 986066 987561 959291 993564 933933 967612 988313 972279 975800 977374 964104 987809 959315 938156 983418 971338 981086 970041 971071 983713 975160 982465 990261 991760 945913 954977 974033 977605 936956 935483 993028 957114 954491 979593 990747 980119 988310 949390 980144 980404 968439 978585 966096 973768 975092 968124 994317 964823 969381 974644 984055 982671 952488 968412 978040 975766 952526 974781 980726 969107 957396 969263 978774 973991 954745 958621 957991 987347 980262 990861 977659 976908 977668 970016 966207 985967 983706 963658 971919 983437 962017 976948 959365 982774 955258 943786 962049 982566 951883 952963 951911 954118 957875 962447 978581 960689 921781 970462 960311 961935 982827 981384 988312 953270 978711 963296 976806 983010 967979 977500 979243 971521 971256 992922 986359 965986 961924 981062 984202 994798 957661 967089 930564 976696 983088 972981 971251 972474 970246 964461 960652 968506 968669 975648 960102 971532 891197 896841 940516 891986 938569 975058 879210 917113 967558 966524 921875 917965 961123 979743 907799 885154 981172 976993 977812 954751 935657 947214 985972 913553 930756 920910 951512 944023 959838 957281 912512 934504 917496 926000 967852 976286 942945 910385 953836 984003 943702 951561 913483 902601 971388 927912 965513 970084 960037 944037 942880 940415 952112 933550 970259 965370 966135 950327 943549 945482 921166 974872 967542 907940 916582 859135 920547 950591 964094 897302 966203 974318 874660 915164 903435 889768 954074 895408 922456 942546 915141 940939 959190 870159 983787 980438 963571 969479 926798 975423 934028 931291 980010 957261 976884 964336 932312 856336 977695 974901 953195 945883 952781 956680 965946 947092 953487 963795 954085 954505 952775 940017 968037 966572 965090 965402 970231 979585 967834 950045 941045 909070 952653 923889 931465 955415 917998 972683 938070 879966 966038 968633 963945 896196 964977 871393 948214 954360 918058 941986 965273 957449 971878 963758 938398 911970 927395 915034 951433 814572 983263 978236 975776 978984 916499 941727 956881 974477 898014 933608 965864 955636 918139 954028 902724 942287 961288 949467 978782 983486 944954 938715 910907 960826 967809 929149 840321 960587 969170 974970 930088 956256 968528 946659 952561 873885 942766 926614 948458 926770 977348 971688 909612 900365 952749 897263 925742 927411 897107 923815 954837 903477 959395 949046 953944 959952 922796 952355 895878 915420 922335 970452 906740 939036 955842 936061 963679 974063 978522 973728 961788 957881 945041 897266 963933 916747 937280 950446 945351 970717 979357 915599 890945 953287 964993 956140 942215 952837 924136 941507 953798 932042 976476 985996 951552 983303 927979 934735 948162 953105 979886 936807 974295 976904 973369 963488 948294 955465 962542 937334 923322 907432 965636 909941 975392 882345 971446 948753 951150 956497 959535 935656 930591 907882 961030 941748 953847 929943 936212 954664 953300 953450 961279 863075 950947 873102 801128 966314 855398 852986 882485 859952 936183 922903 874112 871006 932924 880046 897663 954693 807173 858857 850116 788593 965182 928217 958331 881708 901052 916611 792388 883134 959599 920334 917149 926869 889026 882782 876917 860741 971266 855654 801968 924839 967560 861918 877532 822644 908463 903650 915147 942796 934054 962611 788079 807712 790668 896422 836405 843777 917719 749929 922932 915742 947933 869157 901330 942049 691260 892777 800560 903777 781186 844214 721508 853412 967594 967207 972519 962049 942551 927576 872305 895271 950495 673945 954219 927833 925180 939446 928153 919808 830302 896380 900410 829776 812584 900632 865894 887020 963171 930394 851912 890517 856349 872556 788954 914479 919772 892686 921143 908799 840883 915013 886850 916153 904239 953339 963444 811619 924493 953656 914405 798365 821310 865140 940622 918681 789311 813947 941089 828948 953186 928316 765188 833403 902994 875018 742396 799637 825616 829359 935286 905176 883695 944045 890104 890752 937671 916452 708605 811973 827391 870733 833723 854062 782126 902250 868309 708947 834415 886109 808944 845021 857760 916201 841869 924446 911499 834963 873688 886957 930376 954498 796066 792892 966449 844077 839102 962655 940422 953278 961909 892380 895138 892437 960113 909679 899723 876675 906374 669941 921070 945240 946090 858777 924619 976432 892128 825981 872559 887970 711984 815644 918637 964516 854290 839346 849807 936767 910110 751766 868264 948555 833223 935419 846889 929245 906913 902801 943024 917369 901781 889984 890971 901317 889680 940087 830150 916653 826861 894810 845727 906302 944084 944300 959022 901744 804228 934761 879324 940352 878340 970627 965697 724674 805490 949109 869679 932736 903186 896069 951391 935176 892143 919239 926418 913658 902737 915143 916372 817014 968902 951867 926884 779526 859569 859288 958108 962300 968281 956624 941610 944812 894048 829193 597395 959654 826566 840685 926592 857638 916192 944753 804192 888753 818171 867886 957497 926749 936771 937636 883448 842647 926635 941385 937182 922486 898537 864362 886504 852888 699351 702149 937790 878535 771402 704993 982778 937349 839042 924710 910413 947649 911290 920618 887511 897658 935020 898597 894133 896626 873646 840149 876889 800634 793939 884728 963663 864202 834173 838962 829332 854361 928936 950126 891996 878360 920285 882822 911574 918315 943520 946168 886732 957291 931253 942742 941815 927846 905810 938391 749208 803041 906806 777792 955951 900538 834361 870819 825026 820345 918594 936687 936540 963121 937508 951102 878093 855927 908056 911286 804004 938249 920485 911056 925273 875429 862552 807901 891341 938687 874902 922056 673289 900195 814841 827904 949856 936943 951656 947104 754646 906048 871406 854064 945727 895242 774750 810033 914575 919686 841299 779895 857382 752466 912600 826558 879200 866447 897652 740307 943666 865636 897309 893663 840825 953283 943901 952665 774843 771922 924935 914895 881265 674135 806116 908640 869518 912845 944496 887063 905586 902281 910153 861782 943424 787138 934022 884983 942998 899707 901678 937995 840311 872847 943117 958967 888682 787364 947426 935752 901605 898241 860209 869197 959916 828308 895313 882577 933932 814042 938344 719881 857375 912820 902714 930045 911770 957352 886985 778452 872095 864208 804015 764437 887587 906397 910977 926161 845382 897087 926670 871285 695975 821282 895101 905795 877491 914378 856420 924323 895454 948897 926397 970936 946104 943895 917918 930895 922469 752385 754834 767716 928203 857284 894565 874469 912136 960433 927976 822838 967702 959883 967803 943250 951155 861908 790661 903745 942844 933239 951039 911722 865066 794849 913949 929703 883827 918453 900865 851516 915233 873397 683840 811254 915176 804699 838186 863379 909968 950070 903453 909556 926879 911064 951215 913638 897620 894855 870138 918582 919466 876812 904235 882639 951084 883421 916010 869499 903519 752103 886899 926565 769114 884149 908851 933495 937186 779613 848535 893993 960926 889963 795560 779341 906307 915113 745854 661531 731244 707020 663088 801655 656532 779824 746307 828239 706028 828777 828765 598401 822675 811608 582856 912589 609875 852781 761954 765252 841545 834531 793918 777039 889598 747663 811940 909884 639122 696823 849839 825723 776192 439496 729698 546840 810132 902084 885331 889283 943092 935579 861685 789462 855847 845391 639677 821712 780539 764097 823096 865987 647939 679578 911121 902118 848905 908272 828211 821509 864326 843093 724830 865088 760995 858529 716961 733545 847406 861448 676836 457072 710812 785132 593275 875768 537485 804067 715681 721248 807185 744358 593528 816396 840125 891316 775949 723807 902104 831456 934131 921366 897741 923453 931989 844774 720187 767091 775450 783562 684985 709863 610205 815469 786528 805583 793257 814461 916009 827037 475563 545262 869954 887829 901467 736322 900669 760374 858929 593361 706761 788778 520157 875787 632447 571941 710631 508912 743204 530011 710628 686101 601185 612641 622825 782176 602101 558990 839736 746873 857762 941307 705856 917255 949606 819988 770198 899656 770187 843644 916291 848584 723203 773866 846450 891359 930283 941697 571010 518437 888980 909702 869597 919849 916323 781036 894781 895168 906247 746609 738064 880603 450217 816741 823544 796706 848150 795156 688012 770508 656059 651828 841863 798226 848982 562679 675089 800561 929718 828690 748633 658378 838574 536706 725439 802831 848581 675028 802011 740320 768180 670404 900723 744507 825048 803345 761940 892191 866155 636400 732140 850583 690763 776136 718404 742224 808984 864130 793334 709043 860215 839637 934448 893551 692654 897660 664326 296517 796648 795020 851751 947059 708587 899403 703767 773494 774945 663331 762457 849700 852473 725360 768869 755700 662124 648070 596421 759401 798916 911381 533512 691962 888504 798340 806429 895944 622783 748387 657283 795979 563268 676729 779381 792798 727002 724575 557431 650065 706892 776605 704981 755669 885163 703341 828501 838953 808878 732592 745907 749928 827969 795543 836846 846826 937215 793976 880071 854213 562689 700073 735612 643266 761842 747678 739516 717463 797371 747363 753731 686774 769387 680358 421611 894735 661860 803005 481577 688095 816807 656899 587655 828407 739315 566652 746320 818711 781107 641688 893913 866821 697489 807115 802469 847321 792386 893935 802070 658760 706449 681442 804932 453834 906516 742321 887954 948335 706633 772931 664491 776959 899027 773998 763373 805487 820827 652605 839148 885316 936552 757849 952048 849601 822344 930805 739210 861270 804324 782349 656340 794710 901658 883812 906501 907072 698233 876658 842407 795657 882865 834915 634096 628243 778941 792305 831215 897575 723256 926751 828500 680291 877958 846094 896075 946635 768315 717179 768129 598247 871837 722969 771837 643171 656687 704523 647322 769096 762441 772606 464365 539579 364211 854006 737323 662803 797057 828685 905680 674608 743307 782825 656694 568983 787080 454020 815986 855593 662240 693325 756586 802832 737884 767895 879755 850731 871360 807428 823066 713988 856674 702381 879435 675113 687276 899721 862894 789438 818782 794989 554206 746849 784259 830432 778182 599608 784390 674964 853156 835820 761515 577668 800358 571327 732008 696508 882000 701554 848729 705987 887127 913567 909219 898916 593708 866011 783593 769397 923409 726741 833084 841507 869509 618200 666890 603907 933646 612874 939719 905311 634009 383063 621285 720299 536305 918111 761973 802829 465358 800512 707537 767916 831406 804413 936388 901021 836567 863668 724638 844810 606593 859550 802637 898988 903391 899273 683277 846011 870391 912522 899265 771257 797040 816003 938966 908482 679757 749644 887284 785732 747505 669294 750796 845527 789163 844703 850157 867928 899741 419053 964714 952772 926369 794206 924014 933368 857354 697807 634331 801586 773592 768638 511382 540389 820792 750053 803088 776541 815553 576509 577738 747034 684725 627542 902427 825574 922294 863628 771250 756484 628437 880396 733592 797240 647521 795504 941123 823573 624872 754185 906923 725977 866591 756350 851541 810854 708344 822484 800745 727010 907309 884530 433252 903935 748555 650396 890300 637536 551213 848087 791733 737897 850523 841496 650849 690751 597021 537366 901942 571489 769425 771728 751028 654612 590654 674651 949035 928996 918086 901107 695082 677416 915008 846245 707821 866513 740127 920520 750705 798477 879021 896794 730275 859116 883576 809859 463464 692827 814873 881921 800763 834773 757218 827574 872309 718990 543035 766812 857346 856037 785794 724429 720150 715647 784606 872277 924743 923465 832155 854559 792146 569853 836134 764548 825745 734916 833308 639886 755508 802797 824531 728200 830807 770996 841167 837452 727918 844072 837229 706602 902595 771433 764444 802649 831454 851994 620624 902025 716902 584549 815996 956140 923517 895078 909613 937085 897208 918349 615038 540090 889512 864071 927205 915752 651397 714865 768942 685040 726074 810834 775183 775381 806699 771375 890199 866998 685851 827465 752284 690747 796587 742132 428819 581464 871286 878813 895306 826402 744843 806719 928992 799908 887795 937366 739405 759915 774322 788963 496935 828292 740477 693625 900155 795152 661345 802660 783335 787775 888066 875392 613888 670228 889618 847913 808589 772361 803305 667348 686200 629883 845366 835899 753552 928603 812739 785912 798273 726070 660121 480015 852801 698107 675813 702213 679681 716272 855386 898468 575793 910193 847125 777650 848623 710062 700828 712156 647055 541065 670063 734279 730889 542823 506091 849318 857616 802325 705629 660540 799601 786887 821669 909384 834480 852469 820128 778227 755564 734488 769487 856499 685796 650106 687297 897896 808937 721119 686350 741982 801669 733015 838448 843785 738098 667103 912405 858675 717512 827645 793439 710160 695175 886720 777016 788846 478524 778610 913989 725610 724788 824400 531723 622836 654230 714768 586688 921579 898366 761534 866809 826261 603031 615070 801816 664320 806542 872830 857795 863154 861935 781784 805949 885255 836137 840003 766077 893050 544165 741536 857132 849653 496758 849733 847562 827431 787019 470026 923914 782491 814479 855816 764447 866576 887893 792501 821097 722964 935241 787832 785168 728317 864548 687387 828011 545334 834516 877754 659868 872139 692455 686281 585217 800939 933752 750853 748562 763799 726972 730604 784392 694653 774236 628169 904795 884417 800384 710912 884753 668083 575869 707449 911325 906969 676500 572331 929934 888833 696037 695940 853907 783583 795719 808972 852361 814344 719129 904505 878288 763960 689973 896970 838819 782018 761414 758437 840738 774327 657014 821343 780268 792561 670455 442910 845206 846934 821588 823690 651842 781992 882161 909854 812107 748907 795430 737501 807833 811930 864237 600825 690900 589940 611171 784986 719995 848373 873319 894103 762230 534103 900222 897734 711042 839406 679665 877338 771685 887048 825090 801840 636294 691047 720346 920753 841044 925033 481511 577560 881077 647749 883227 546421 772359 568921 507739 650876 745664 671052 626478 634190 792044 896607 754526 840121 856965 564647 538751 678221 846680 899790 937334 701557 896797 424046 729525 662664 685304 850333 790262 582657 947239 957901 750186 882443 926259 822425 705669 708975 661635 787098 742800 853274 914463 928040 904399 545163 916780 945851 845145 790818 671431 656530 780900 718172 912391 885441 895461 842196 531260 866811 832553 823885 788818 752983 827001 841613 741200 518777 832049 842842 498581 663384 790378 634493 670829 895107 706462 678517 716761 818548 630457 691194 909584 641080 884106 879246 818511 877805 804185 808205 901121 892826 893111 873458 814953 949280 863718 784604 703175 827663 885402 812312 762417 759596 789814 721671 905829 899482 631387 758905 898639 826482 843908 736494 763888 775750 859399 776309 757481 748040 857959 620119 885094 851323 522751 598212 834244 791604 855473 756926 532723 753776 866375 716478 888624 850025 662854 757688 745222 912462 673931 613808 807380 553994 786457 816948 904783 934870 552672 881128 631980 725219 768360 763508 633127 888760 694277 835649 382636 604384 515002 627139 540816 200277 558389 637194 622748 628733 742069 591092 541585 557716 290214 685899 350408 701755 749732 778629 670395 511577 636962 748938 784800 701258 494549 562569 770185 594051 787227 643984 421763 534498 804399 847770 591426 453674 805157 787976 722157 609733 666143 436092 459715 438831 628783 748784 406472 701075 515605 709718 819758 806010 685267 365621 703988 778766 849351 450112 612089 577887 520301 683380 485896 614419 390606 825272 406914 468441 309861 423750 290668 710400 145722 134421 519147 787100 623423 650691 525026 641230 575326 567208 636764 690034 832247 762858 784310 572679 742852 527790 848206 753250 812116 722068 397412 545127 805826 610851 704042 470508 656237 597686 236017 469521 462513 354083 589320 491438 584488 633793 345622 733907 849268 898995 833710 757864 814995 371945 522141 763121 704971 768323 633196 566525 773597 789132 719796 521562 681130 367930 752228 460797 557857 593217 446112 530543 416988 649509 755811 589553 543821 705731 403178 672115 338420 444562 527997 528756 540530 407127 234816 192229 769156 584209 341046 320979 801129 739734 712919 514881 653416 609800 417333 649638 170530 337122 523290 290238 799204 318004 635523 569672 496034 643247 743767 654406 636152 656882 888454 617146 666184 790617 375009 509761 799584 430461 584634 668235 905734 715265 889033 820999 793333 747187 509779 325844 521282 716213 742568 651191 313724 609161 462271 304189 423714 554065 498233 503646 196167 598977 579060 663457 447115 129227 783057 785756 718619 667615 717417 567981 549711 448031 232941 77171 239846 375380 488549 533312 832323 807290 476545 612822 589026 652196 734088 459879 655657 502535 465458 205208 345976 420020 399151 605050 677453 450318 279839 457069 855092 871550 518284 260382 303125 151114 707265 370912 178433 488123 612461 735910 487930 318470 647892 664850 489965 426375 567979 566566 603802 214382 353124 460039 731011 534258 342767 476634 292805 381443 641474 566316 578435 595597 784156 736952 897257 895152 386535 608586 896792 742883 475691 895703 673814 719226 635417 760347 824682 886737 465237 755328 713740 609232 823511 646049 740556 567507 440917 526354 654257 700672 393884 265968 752652 680737 707007 396766 559725 832632 320858 433482 446767 164791 667585 751900 706770 854770 848328 524907 745674 589858 517510 913229 639724 592309 886368 389343 345633 721543 775457 835384 390412 351547 641115 202152 475232 865414 101732 331540 808180 675639 786763 449303 755472 736272 787528 442451 446449 749589 587522 671085 759989 527375 338088 376303 544673 573420 726214 234465 708709 689536 621188 685745 429622 489462 628026 655002 205798 305711 554770 194561 717991 506385 602559 439018 500599 657551 752772 499519 488030 397068 445614 555810 771653 733412 749651 434504 198162 650715 457336 669817 638806 362798 693551 768031 538998 604526 522783 804166 655130 638290 810547 268320 532347 719766 654437 415967 846497 757486 736762 531381 625170 388852 530834 599162 712024 601515 688509 680043 436788 451786 512889 527884 189230 286254 321638 492499 168593 837162 593276 766719 463102 417429 630390 654901 728202 742015 712316 859596 673510 760027 406087 645570 825594 682971 406214 315777 88975 144020 183807 769367 761145 780418 588854 694995 489469 659535 351350 241152 173766 412417 447175 677440 701785 726584 511223 748584 389173 642692 635754 753212 472711 497527 192424 773404 315046 556062 706601 736563 730440 736370 400391 648451 406892 498587 560343 264239 681062 643405 651032 582594 608917 671215 258012 495107 606386 540961 818781 538955 784639 684286 803123 444605 774523 776414 310953 428724 691936 600440 592394 601309 682430 268100 438648 486917 479478 445473 564808 728727 722545 782079 513717 691742 717388 384362 77587 348793 413833 496383 677682 618573 523497 537671 675746 402552 732834 547331 718328 582607 620908 381983 361747 500173 380215 623342 531566 637368 525109 572152 727444 485018 650276 435379 312010 662045 676215 536554 666490 749195 734933 745662 579049 851434 670014 762989 417127 799440 817504 610765 432469 320150 246786 694643 713744 634298 587692 539454 748743 442546 447029 360877 467534 300140 335465 351525 492649 796913 667001 461226 464689 666894 380376 567948 761182 716911 209020 520501 387332 344408 580436 222407 645965 558271 451154 734604 109372 375808 369918 575900 710301 730445 570186 192993 459573 365446 696714 640595 628428 712296 483862 271131 370293 706872 801275 597770 346843 283399 388765 395222 887344 215695 809673 854050 505297 687456 780457 736666 798084 524592 788986 203719 759321 508594 850378 836877 575811 312839 637294 575779 544738 489797 482401 584695 447425 405920 289953 446804 744217 621652 715237 440489 110572 689138 732311 823247 624441 411354 732073 645484 447306 578427 619545 422329 491713 435192 673185 564196 449234 752736 790839 696824 775240 758356 322840 593975 405781 742885 824453 795065 881202 605548 736806 673224 803314 334159 493038 395263 154229 592568 862273 822032 386086 656492 830811 277159 741258 658832 694654 637036 617367 652726 411622 709401 793654 869517 873846 462325 877052 791175 475217 729998 396898 462132 515007 874512 561823 724550 187744 438166 819340 533895 601917 631113 622640 356518 389434 451637 170630 707822 686767 611914 808940 757819 814649 364599 560556 633435 868146 908945 490066 808797 365280 460946 293673 693003 422499 798317 851862 579957 555226 816332 716798 691399 631777 595908 740164 666329 294513 498206 569906 554962 565867 608571 528790 656494 308400 606473 574026 485294 425568 538888 635548 636528 763474 482321 484700 675437 641712 406334 285110 371138 519160 509101 351885 264156 827976 670778 461730 690727 650085 205915 421348 706054 577277 573391 665406 780159 651199 579746 463304 594420 623764 769007 629740 415548 194446 444274 693367 639373 448662 285455 400359 795796 792047 521842 580889 625763 447668 446666 466320 513249 788854 647182 727832 654410 577408 610218 732365 504818 797525 551625 797365 869032 448136 612918 643935 813608 81062 434346 690765 389661 689309 652122 701660 268768 316466 644040 488846 589544 497081 804183 673527 862203 645232 372123 591602 725325 720718 614196 218037 543417 562952 415827 643997 396102 561849 762943 621344 620628 271221 487941 560086 694061 646761 346396 420554 721739 480428 636128 569509 207974 541370 565286 751809 544449 445548 350639 628743 642962 645138 432316 865643 878817 581199 564303 721437 846577 626550 187404 664134 557506 858586 888038 800873 709268 881296 458713 554121 547562 821158 551647 561358 273269 439566 431893 165076 817074 558633 704430 449142 768578 469250 366584 798187 602487 591237 278693 530526 640898 521137 373826 870756 825644 588466 515136 156148 914845 899331 787226 200145 529981 349810 357237 493003 446631 628956 675369 408022 355489 529455 761435 582749 719458 250794 405241 361116 402355 736079 734038 549658 357066 727904 767508 470970 782164 373041 523457 915608 905571 629956 722588 708761 744412 694410 410265 371887 439993 774773 805850 411132 500842 389785 533590 786450 664595 659759 855742 895834 814121 793790 317041 353694 399328 790477 731807 462919 778732 878004 646395 552404 495356 704648 596938 521672 695000 764288 592357 509083 813845 715185 793970 636782 626411 745264 684299 872373 803357 348617 525414 246694 573041 625520 204797 402018 417215 536293 725650 719717 698480 167599 747230 746461 691840 546510 738133 579549 741970 336284 376179 948397 711461 860913 927590 730465 407343 749392 362725 885649 632852 587600 612896 540227 806257 470369 643411 566408 624949 484041 591459 690163 707467 553322 722835 442606 380532 229590 456732 745753 726669 716121 473025 452909 636473 694781 753039 750318 536164 526280 377255 408500 374667 628771 456324 504106 640519 277888 541405 706607 424197 607851 261921 720176 789903 361921 555432 679438 431144 678675 563504 443341 475899 728404 353159 724444 584921 769529 213653 393804 611142 790397 656834 589460 753980 553655 748507 306771 507135 235642 503619 619247 489026 637725 695947 841589 770710 361527 553204 666969 771241 623467 546020 576353 600080 687402 502779 511495 717100 453275 470084 718302 864037 356327 799503 244461 424483 686534 692254 693401 572727 516867 634746 854589 726610 633378 494017 335021 333272 617521 776119 675458 370477 606165 503490 570354 682815 707865 537661 280066 512306 441428 298377 551721 293191 453601 462554 843738 819135 410451 271796 731927 768117 540224 393873 654251 416229 613726 567727 518434 298805 642683 667242 912089 902490 127610 426414 855269 248211 479278 524121 501626 388229 585288 481619 713097 733697 503624 786611 530425 580215 460610 609665 542543 478834 900840 745614 576619 688278 586247 687667 484683 98946 693413 776363 673237 584679 580323 451872 651612 839944 744237 775013 340079 354457 592806 658331 678595 197969 807218 582046 696561 679081 508819 655273 721684 683634 722136 814543 846184 377824 591698 509633 267989 513103 235846 536887 796248 471720 774076 775356 694568 507009 434599 263129 510599 322074 631952 369405 706506 731188 729380 604095 610575 861291 592313 527653 554212 641813 758908 783656 779582 620248 344804 231345 831354 391631 346916 431080 635120 655444 733972 724085 330606 693643 544766 242764 709792 684054 640781 643025 568910 218232 722068 636478 317095 661719 728392 751340 568611 819989 235166 658943 444338 300607 304387 596665 766407 735043 666567 635868 718264 255194 301763 196735 697434 609428 691873 500572 778391 622656 400944 563837 599838 304668 744362 440630 487992 650276 376914 292181 626041 519173 892820 721648 848510 891708 658261 317888 888670 902910 651586 861932 182164 849163 401477 473797 561576 594994 412180 281470 860360 770473 811355 459929 545454 543177 474418 698100 630466 492524 636252 696444 604697 752639 683362 216422 702719 683226 467335 491894 641515 360388 697216 742469 370100 582664 673401 447609 551535 843003 785740 788236 480647 613658 786989 712717 452998 660593 305639 339989 429231 633774 334777 358811 418765 317821 502880 530077 678701 654312 532692 752444 449440 608008 752547 366699 666560 638554 671172 460925 731029 893839 556335 569681 808618 505168 847331 872457 434376 543975 507996 460957 755689 687419 352180 590593 480783 286862 298346 467060 575262 671142 363006 462760 509249 609074 785352 577164 593026 383347 506837 722313 766639 751164 747595 776077 736671 640434 618725 874389 486687 445667 666442 667995 518233 695972 667653 589399 807982 747231 407153 731837 748562 638260 445402 618847 312122 463562 629824 222063 777967 549157 777771 668567 617856 392104 695992 781173 738063 505117 457194 349832 682078 722045 527880 256707 558885 142507 320275 437626 767571 826979 590830 677098 659365 637804 432940 473146 435122 236752 650224 667900 509016 574845 699308 796964 303762 495387 592876 180431 544103 693133 185780 668227 713561 492177 366269 575352 403971 680853 473957 560390 537949 205769 283229 418396 639042 625553 531284 612621 655237 673005 449771 463373 438294 400971 791570 737333 828273 812300 454369 742271 543133 448863 396148 107654 634543 739115 488149 682286 799044 803335 758834 695919 706084 499400 764551 466073 649715 806416 208605 669564 366018 285052 445184 479414 609682 164108 508768 608016 447559 497796 304950 589602 678221 534251 822786 186383 782200 351013 575570 551276 264849 672174 632872 558278 656556 296811 484819 489836 704833 383266 660938 496866 526407 195238 645922 582176 565171 342998 745786 808217 676459 458189 770048 307454 397237 663365 257968 441114 640510 592419 710853 777545 589614 761988 607978 612414 436756 151728 688946 586445 800405 877455 714599 638621 639902 594502 702308 502029 521908 427307 540515 63736 397627 415493 379630 541064 582277 410815 775136 740222 737454 686845 552494 593937 712486 682504 742194 586147 482142 545817 465175 405698 689109 381409 647734 462730 637116 638409 804199 617576 455530 782583 626271 241378 569816 633186 711062 409087 722977 611361 621106 745299 672758 703039 565345 527852 461484 585628 438498 499871 452858 513552 635459 658023 743632 824382 669641 771207 397063 466780 625583 767659 423156 635103 366535 322006 303803 782542 212619 465388 825897 740079 772177 761591 536023 519335 572304 620991 613848 763380 663602 833779 713757 647985 394097 704378 687407 678116 657985 661207 921616 471474 636139 466981 707641 505878 595351 689440 548656 698781 254946 350145 782574 491675 432096 308567 817520 808822 494621 773762 581738 516015 238187 267065 404048 528528 352479 547874 485975 541508 262642 677115 925101 645397 679553 721407 408612 725359 741270 624043 569790 325799 541012 329239 622418 690249 607999 609511 600105 770577 342293 484829 883729 669289 451038 882925 95881 607087 494698 420824 348168 177988 510237 620959 351373 571655 693754 655785 454518 679224 488837 819497 649287 405167 219491 409472 659357 924788 310505 702992 449676 534155 421188 635201 698951 839602 708828 751711 729312 737624 638944 477484 452355 824838 251387 351294 527524 661428 815312 881840 657212 396199 677442 632519 683784 556428 614403 780026 632347 530763 709228 667943 478664 404184 614144 524470 489623 730830 382224 562589 508310 621229 560195 820228 744625 478182 488533 630710 561026 318398 328471 425018 701446 694511 182076 715439 420877 812067 698871 312246 511936 619172 486333 364052 798546 475130 715531 643753 653625 618670 171643 722124 788048 753142 294143 673116 672906 645661 357782 808205 707976 527940 509674 217481 470874 666498 566721 587408 451512 607234 739116 776182 667532 412446 830602 682669 462270 723148 835200 644580 543346 525829 250785 468692 491266 639548 721900 890627 532994 278199 838147 818286 211143 483059 445625 844390 644791 258963 871963 855811 805869 758237 703953 731254 573176 371499 565942 652973 484693 713088 604420 788753 691403 771596 921483 546520 271750 455543 451434 269539 482011 677078 79944 245617 845984 399561 332833 149729 744082 659043 502994 86565 426546 292902 632271 452320 644236 681991 568741 551271 459772 210851 388044 518836 782163 627765 446034 845500 571030 487673 645175 729438 397646 535949 443668 237365 381727 282090 629621 502258 284101 714635 699081 672632 768761 935080 598516 198055 597354 683525 245806 367980 468995 243134 194194 573110 674865 452904 587454 622020 479017 662333 488382 579380 700594 873196 860524 928712 495835 543350 523445 609477 688559 666762 258900 427762 343742 632348 343102 344687 652794 599192 756041 675800 300173 706940 742253 851124 683283 865021 832529 874253 768930 847307 327545 477927 670238 765579 853524 902145 472213 704184 529326 694345 538160 622625 266113 449444 762086 695591 318796 599536 423573 739694 202326 193698 694375 436653 790472 710692 530501 465483 768604 562451 771275 804272 388724 757815 711890 566183 512684 730540 494046 538082 818742 675142 265827 420580 416086 176071 572746 673919 822625 380206 327737 371966 492624 660442 620673 678905 516970 612594 370770 648332 495594 477263 456198 545323 468533 553024 303348 361503 490393 792006 597922 486814 271500 652063 755623 776115 623882 559139 659318 530748 480372 818231 364721 615069 848740 876962 614502 509994 728691 682000 801183 617028 397573 604746 733742 789389 677050 126427 615943 746539 370545 605341 600017 855476 445934 229785 697479 513999 769296 546079 836605 453601 795575 726279 537316 481735 665543 703804 590636 603863 536525 598312 703751 875694 873475 723287 387017 491046 706869 259234 821416 833492 664468 344387 822189 732789 703149 602572 146504 481506 720311 710379 511132 849960 765318 506431 135586 508141 521321 702161 603499 774623 325588 585846 716137 629717 541603 255951 498072 339674 332438 248020 459787 514816 678346 646103 518525 670948 625765 674035 345327 177350 368793 599256 668948 546811 485137 637830 458368 345817 456312 414930 657962 363928 360624 362737 325411 697112 764036 810965 411868 539802 402904 551831 588510 640068 471697 553502 778264 468223 473627 713621 471834 732007 917204 526486 266950 374253 535202 831796 424820 511082 715516 723001 488245 80751 723363 613786 523184 491491 841656 861634 515973 228197 509683 107890 268543 53565 572751 132436 490203 188589 247299 435506 328835 133610 61519 50984 367736 55608 228459 331430 65382 620272 326017 156365 190341 722141 259458 544940 199044 158583 496385 530706 50714 275702 374145 594670 76811 130827 185838 369245 443272 587503 214045 742681 455495 138199 416219 161732 586552 146539 16729 672640 589135 256909 132510 439069 337772 137933 105321 202791 127455 555605 405959 90613 763275 168346 142448 556138 99886 205092 330768 515507 522565 63658 657442 148529 254201 242218 65294 418424 105878 359928 400262 382809 61082 332765 442165 124170 661250 325468 122433 278006 51907 355384 246913 74385 86993 238566 221202 473284 55796 269826 339992 127537 192635 353540 622135 395307 577651 292694 98868 69169 411252 391222 69110 34900 1414 572895 432243 78639 502471 707939 441012 23765 348608 45441 428667 524966 450340 293645 192169 357383 123969 198016 322263 586214 36587 61401 824001 518996 98689 83475 183073 48623 264901 202407 283579 252050 199083 194842 291404 578538 119916 50923 49263 6969 397976 123977 173351 60219 88039 177764 362663 368132 154022 25211 152148 91716 573817 46143 232074 233317 59144 218144 439576 668135 503103 624151 339580 614889 252765 358135 366999 405028 344918 199205 291873 184715 571930 182672 648032 709275 612639 374678 330243 225983 320822 183421 499375 491645 586670 407287 168830 380883 561130 221167 418372 88253 417708 89046 155962 264065 76072 114673 11468 120896 313358 310025 217583 251493 13125 185587 153345 171426 165709 212981 170483 472755 26563 137138 689268 153473 110518 817364 466223 108599 414480 300667 104280 562457 660346 142399 323872 23428 179113 105050 365760 182364 105534 568999 2444 387799 615784 221229 145780 329049 713922 520266 41259 371914 610673 518079 54834 59282 158800 317512 284457 169261 165400 297111 227060 254041 104865 523050 248800 163776 279360 441815 345168 380500 237284 324652 306134 626865 96389 273435 78989 383528 368361 379044 667923 559377 262847 183422 458624 360477 292933 39418 37893 317816 223982 286235 49048 389077 250593 481858 160367 209975 228614 17203 75072 86574 717692 762692 211988 85928 162435 29630 276346 125871 513624 405702 559021 548966 26296 298297 38136 147001 445312 340874 103963 492800 138024 9589 549179 559527 96386 110653 82999 259459 356612 146598 208913 180444 730507 583597 44671 159795 160848 366541 12757 65276 215577 236519 252696 600971 265654 145159 211988 311873 404973 191311 616849 411419 821050 459424 405490 66904 16331 216868 577794 745243 20661 29588 293724 215863 161181 758482 314414 289058 121096 214765 535888 136311 485597 654605 120132 651254 883413 171578 372748 737436 292312 583307 132654 186753 165961 138738 306191 78522 84359 224652 42578 148849 557133 495649 130430 148464 39141 260797 162840 69259 413029 5935 143164 96854 100650 126853 268400 350970 78192 180037 323789 368416 87048 39824 461793 496341 104419 402000 217196 543187 28347 421625 97517 119285 604856 474335 181069 557346 651881 221928 313386 445749 393817 49701 33519 112220 511678 359707 447105 94412 157957 124770 39543 38707 142195 80648 212631 240452 425952 206596 379924 281519 258992 412742 650160 574286 411134 441511 273374 83612 129617 454355 374913 129220 589639 94928 176482 225903 153632 202032 191417 331989 428740 288786 34937 197837 169557 20527 122748 94948 20050 390993 269772 473316 502410 66156 74433 392431 275840 8709 88768 418410 257363 274358 346382 676138 219083 18699 215984 128841 282186 48922 84213 147486 531369 571160 31909 148437 5499 42619 381166 329594 27040 493952 317986 484011 332582 297231 197496 297445 190832 378747 24113 469042 407850 45570 19211 131202 64520 557109 272993 77485 109214 502273 72374 29486 338616 282610 299910 238767 248314 334256 502950 100929 322576 105631 156780 356877 271242 67410 312118 227210 566170 19880 371861 172869 514525 146924 197200 84050 697157 680383 572369 225878 228018 525769 203300 677187 87002 333527 352677 215280 743041 572531 677863 447395 292423 270196 245105 405351 327235 34605 614973 239818 146519 377483 13402 348634 536279 592655 531581 431684 200364 428253 573492 457022 155596 106089 179686 134566 136395 740221 420845 434577 494922 542403 332302 389724 260939 281726 470546 465127 207658 324439 330786 265509 57021 392703 50973 20759 641522 390904 57637 142221 288026 315613 241518 393239 198931 366810 378487 694226 176169 105442 45146 418700 141624 379544 44801 110140 111636 560231 402624 578140 443409 32206 572422 374332 373291 471556 333590 30146 231737 213006 157628 74770 278853 304861 797838 412195 19828 466438 88357 530754 126630 826587 246234 23262 259138 146960 321651 534241 146747 590441 95150 169999 169350 40640 298920 222880 587033 139969 179455 171436 385979 432745 397771 558498 39899 87146 225010 183447 20262 307390 332288 277525 615937 94542 329688 145538 128056 199083 727326 585660 441939 6722 171342 65655 388307 122742 278775 19355 507332 268359 12451 181648 629487 537535 292690 5683 334812 168962 41027 108621 420570 366030 458286 190917 7608 262543 172414 39818 16315 656533 318817 469930 352962 372686 292259 7254 184023 344090 419835 182110 111094 91269 481082 540807 94117 21879 191728 302837 465242 335708 103437 157314 712104 615160 55689 261192 212742 514864 65315 12495 95631 392911 125132 383146 614149 621346 352554 265160 306430 375308 160957 361383 164966 185708 215871 171523 348868 602733 252450 64759 584 747439 116554 309317 81583 117905 535475 468350 124468 237270 619303 299805 266845 207688 198932 152073 439799 80949 65904 606176 530686 403230 46693 368648 146274 430512 272187 583870 304210 592324 231523 381477 791722 59482 55311 240730 302156 394677 178302 28738 570871 108842 184215 279931 300361 517822 318488 591434 335618 93819 13599 58041 520081 582256 225867 168163 157053 448479 127359 368050 51569 567825 257900 210680 26276 87599 116563 511205 99161 277663 407739 255928 376776 468931 204494 401611 167977 37441 183812 237991 288133 54971 174692 132046 10379 81398 607093 44822 316504 280409 667717 725156 428661 118141 97182 212858 488588 452025 322371 627946 56849 642723 142922 391157 581742 72692 457339 728326 138278 42403 612090 293198 76768 24414 641761 561315 734309 528450 180058 292435 335521 78133 105190 45102 72504 80410 67563 59477 29063 129672 765970 19462 45572 152234 573404 748180 466956 183181 183654 98317 153204 194162 284742 399958 37511 221001 1842 161954 68354 82423 97534 358787 335654 162625 262930 29713 379510 245028 236115 622425 192471 2473 23940 295589 117121 378301 392770 570793 255163 356076 146866 118213 365546 354742 368284 409961 39333 88479 111882 41596 36783 115094 16603 357657 659183 553679 347529 206147 100794 286509 41768 17109 333023 283477 576741 30730 210296 213826 371661 404140 434042 408027 233409 106220 573100 39859 151207 298897 422961 147739 257035 72079 542583 493140 306400 439598 44294 203481 36552 344654 91301 248199 462283 279687 160441 293673 315107 354069 412013 310967 286554 533336 310618 116787 293602 65851 535570 718660 237203 658614 190864 154597 391244 351124 303772 68812 272997 360651 104867 333878 365537 338741 589105 558691 101334 210399 137389 363194 127541 388808 3016 160787 4865 365844 155248 408141 29535 476556 719449 483962 396384 392937 450246 14608 210461 265305 473263 543729 79487 107667 23538 27254 38447 221118 297438 330803 735 230586 665207 34859 533868 40711 100153 61727 130496 375094 166082 209090 51671 88262 79112 232728 268175 163998 521724 357896 112421 342036 253012 358375 10540 195259 325411 330890 122607 422450 301098 320248 404976 47250 225032 507651 178507 74911 348696 354667 353361 151585 199779 313539 476942 228011 439733 446242 111828 400318 297484 40879 290371 552026 513594 630159 342442 404864 128319 560752 226201 70745 90846 309848 463884 215655 430297 126857 404809 13422 157046 110162 683096 18061 11399 75490 175801 428632 452121 158281 364688 158882 400663 240909 186964 32970 42974 50002 132294 191856 581857 401805 436122 473636 460590 360901 304022 63190 105282 248908 133892 29129 371186 33389 91469 106201 178386 24088 53237 151526 200507 299655 216919 202760 392464 190090 349348 507113 169520 480045 260940 186440 383250 356112 503971 117238 26527 233191 397549 218764 745947 405230 528195 261744 118090 70310 219531 283137 86018 196548 89135 181835 130971 483602 118013 110997 165151 607701 325866 249287 20711 371374 550274 315826 105364 60561 335297 232135 67733 9666 155318 113074 491649 503183 551652 371171 565242 233950 22500 62866 123436 333123 17750 40994 177463 567826 485783 380425 616854 226557 484634 33826 203238 369703 248889 253762 207778 194943 252503 686611 332184 584079 513637 564592 48758 6658 91685 250356 188646 103568 280725 361517 20674 671014 74694 37948 390319 657657 502546 630123 348596 76679 272501 87453 746426 74196 439536 656861 552304 234392 370320 302006 785884 451259 185758 199283 325829 59273 162238 374165 509798 162015 497513 778250 517902 500041 209104 18598 550278 114638 322387 55719 57144 257452 367040 269457 415443 469847 571548 128054 54062 386398 108765 332442 262974 74372 48015 344614 420225 363111 555438 341576 439460 471408 185842 110884 43538 7412 31663 350431 696298 366787 469911 431002 5107 153949 190595 314152 37261 588960 70030 48512 428248 354176 103771 199502 158502 127487 408833 414438 373479 378948 343794 336753 15989 580445 319970 345484 431366 331177 251712 37575 146106 472464 131536 58764 663993 471682 188825 731271 76825 54478 50114 256076 291880 361601 537977 168925 561904 744295 362074 227495 341464 228992 41704 58129 512264 655167 496145 155921 585907 65371 331713 196619 248072 427681 151722 110448 50737 24277 561745 148019 767507 76903 56454 390263 343498 220878 307834 210059 175896 333705 81424 175288 152122 76328 399700 194501 67557 22374 276980 131112 47814 69236 180288 597338 161994 348912 264326 453532 383047 274936 134688 174355 837373 479223 51774 53980 288129 722666 536399 455153 139367 356292 484275 656866 84557 213902 217087 336413 118055 324218 863266 56345 297734 106679 15456 491852 75041 76088 2597 147841 236511 457496 299628 412307 498069 232020 143378 187241 480674 211421 241171 129983 385908 388544 283791 42743 10164 124110 281637 245525 390057 238882 44149 475653 2926 255622 27081 40467 773870 585609 352423 356463 324398 222164 492036 290136 56528 114410 297744 885213 246568 262187 632568 681391 195613 51056 294021 286283 146894 38282 306253 344581 282879 404445 171747 43691 476460 301075 154152 168440 454133 221793 420722 619964 703107 660909 212998 14097 225300 450331 153451 324700 392031 26645 377240 97265 219950 170150 236871 99911 361585 283872 40272 60493 530355 134641 522853 375052 289568 498254 301544 434530 230311 281057 53149 389403 553733 160377 483305 397636 382013 115505 470754 305848 311326 280800 298473 86588 140043 658295 5793 280308 79972 16492 130415 344115 206388 188166 28784 53115 25935 11537 331041 6896 68612 317677 100313 308343 179352 24240 163253 41403 780247 106364 515454 602047 423233 189471 105861 472774 243672 375880 78684 32208 334225 416856 327117 502503 343765 31650 95885 294107 638025 65061 263974 605754 606052 476959 186899 255124 398899 222763 449057 314420 340674 389082 113020 519570 102961 5165 36527 331566 116808 82941 66352 307081 617508 506570 583111 387396 382389 329007 282322 215130 150502 212407 707204 421128 239990 473361 486265 419450 172648 304661 333434 415398 281360 55670 69587 5465 131721 417455 201856 172368 106245 322465 129711 598724 579929 413646 636877 465969 306545 341809 260384 485839 267298 149423 468968 5342 682244 50163 3540 117247 199161 517293 583626 859776 99581 54485 22545 440725 6880 152464 8666 581740 11614 13563 363708 383239 133307 524630 124209 280296 84125 327409 184020 10150 289396 519035 244327 168265 14369 57570 371154 74344 180332 4570 570906 267558 267225 430444 783235 590694 367245 349943 777472 226326 428522 572163 133933 349433 33316 518553 491579 204183 653085 471925 343259 222295 200622 57880 238965 310521 39969 123659 23005 46518 420177 44529 264701 20757 430595 170215 109376 149426 621158 76562 20865 448162 179350 79381 130611 456212 459550 139849 266298 523427 51113 307150 222546 240303 244388 374631 679095 75804 114675 69678 201481 622411 116240 65460 120424 21419 152337 185170 141869 279276 248333 565372 483946 486166 434189 30865 9367 276858 180724 17850 61086 377492 312195 188517 45269 404506 187200 58373 26600 242168 473003 32942 522441 169640 677788 450065 126017 374776 110001 254152 73998 33528 510643 290705 250835 104529 717070 678501 719132 552913 443507 587142 585495 595587 450342 223078 182807 244924 46221 390888 113228 267893 47186 591526 225850 84425 472609 312859 265490 184710 211877 363683 207117 401944 55633 59060 46436 430449 548044 216533 229951 413357 345011 198583 469673 530406 142779 56306 95784 226586 531473 625137 499817 479418 513526 218757 218198 136227 433345 11963 299451 332349 452369 218701 260828 188093 796353 246546 784596 501394 427597 125021 284743 276888 143239 49610 879586 60766 787277 632256 613008 403970 108407 193038 288524 143470 94338 207810 244455 95286 41895 183926 400928 385705 387190 58759 334376 278949 148450 261054 157688 180408 83099 438400 524377 661812 455325 148085 128424 307628 15537 227728 204888 321790 26300 240951 249761 140379 49302 191606 687910 369993 127548 54351 85120 271345 451510 275450 160672 558270 157565 354115 720896 445086 73108 160327 56915 279358 217878 4964 390632 127194 433596 263229 720208 339935 635248 33356 304035 369450 220696 362629 57628 292917 287086 121283 301811 139842 711815 328211 326362 44794 93877 21428 278937 416043 34364 6318 211225 298037 718370 744671 262876 4699 190754 73347 214553 726754 359928 503046 446613 695159 394261 328634 155265 178220 158241 306172 388808 80347 261413 287793 215356 135333 128811 61816 402215 464345 434811 333650 602327 310849 351157 2321 167461 474964 584776 644190 370852 216977 54857 74772 566079 661436 595572 664219 220528 35723 217120 79318 686207 730248 51630 188613 406677 341743 538901 424755 488620 426632 323748 219483 377927 672563 530996 599895 207492 564844 238167 80833 139647 382452 62534 132247 319484 464569 445628 449019 118570 105139 250028 10476 302104 287473 215560 427995 564221 421947 681334 712856 681730 235314 121098 57526 295104 348532 384286 285644 355790 537814 313078 166028 186551 458240 195556 498716 140119 457868 13611 335751 313451 64467 500760 382850 215607 355536 353851 328878 45644 658205 61310 223376 347000 312181 655313 41336 261599 348003 532880 46292 563590 344246 499229 300476 476776 143642 36003 311650 20811 667515 171860 324774 267474 131090 238254 265221 77526 443610 475178 229140 30950 578480 399617 543840 133977 615548 361485 437114 460293 137939 270895 94622 289326 14823 159917 214259 233421 387733 166992 488334 595151 545748 306736 359128 204347 448035 420109 309203 613065 451531 92248 458626 740843 495874 107448 705542 245053 175439 223163 9993 234999 172230 39777 382670 173890 48332 363362 563325 452811 385801 259784 166505 634656 496174 28428 10377 470459 471729 553619 698327 16689 49914 93031 127428 184843 203218 13811 193504 174236 64576 340322 239087 374736 361934 481691 221422 361266 191096 5158 130957 237461 168951 133547 110175 330109 261375 20959 694282 139880 127928 117683 313128 476205 83623 659453 682507 59588 79949 277994 154557 367025 292888 754114 731491 524567 603293 347237 405684 179982 347876 325965 324012 575983 677373 206346 278427 237027 72536 139724 28803 427205 413424 159068 566685 287329 168107 53973 167207 655535 598691 519583 557329 196479 503411 159010 87634 95375 164263 614937 110222 643253 263671 226724 210430 166288 2747 428678 403678 462818 450494 214020 91965 111076 227573 24027 398202 269826 323237 291310 423342 156727 436881 483812 349222 832248 364574 81219 207965 206522 190211 124230 177613 294449 264264 416713 269568 258697 586412 578351 66971 414033 30453 23305 17 548904 453594 731612 225912 394220 230924 320798 508831 218097 388633 115610 240953 148028 164144 546717 109213 74677 143149 420802 155698 65873 238564 39003 291122 397173 375322 214946 35372 426746 275143 41573 279032 347137 107750 277471 160102 203073 204804 373609 366747 65442 71262 399362 242009 52078 126926 379280 304509 226582 433891 617797 753147 605711 705279 214273 369985 3888 50698 131551 118653 558996 659488 337912 408493 120780 232082 242918 338502 25587 231581 159506 191557 189294 464451 107045 247314 8814 114381 417015 59501 457398 135296 411522 744812 218108 313345 5640 24300 424745 381417 251669 351310 236852 173604 358775 455463 414858 167167 111819 319535 19254 50667 344133 309048 378483 475338 710714 85324 199419 304075 76256 295247 216616 413699 318358 133553 217677 432716 300651 2372 110096 496983 291562 398690 450957 418724 372619 235804 14585 412649 310404 326493 155028 394139 8903 60793 618232 58743 363015 276386 59482 18036 231986 475033 324604 705533 106056 268290 574562 343361 276322 47171 270183 314233 608832 30870 110493 465736 125094 31785 168324 659197 148228 279438 318730 183845 374802 156261 20152 38848 266162 557654 107866 62042 560043 45709 459286 495311 328693 634281 245516 282892 361047 255152 426887 283352 399320 528289 612395 17899 380413 85796 445461 41173 711629 790151 143557 55976 223883 450746 308823 415778 254516 59564 288932 351571 150478 202375 29097 460976 385415 361378 355448 123281 126038 114376 589475 659293 133000 620632 285542 373546 301355 358030 14693 176631 192493 228785 98412 24803 107502 137387 139985 51863 405472 243898 66608 494474 458191 96303 105027 586940 228628 427363 522096 577 76606 205306 418214 295654 281496 96466 391724 511438 521309 392363 144425 375573 577174 267880 244377 343346 267401 78283 82110 14362 408747 826924 155825 365600 91444 248123 300892 98492 566195 365658 149879 465186 535387 565491 426849 665621 94407 212597 122865 191591 398382 435029 163587 165354 444 60902 360111 151278 255223 166244 432674 592068 544447 234249 189931 202846 118610 518196 372882 212023 141171 187534 507455 28681 509841 448975 175363 688251 383375 508042 729209 500624 159729 58164 172531 457730 419707 349704 268600 242421 221097 43360 430035 127384 711332 88770 225262 530914 227577 665013 104798 320711 544413 193839 193363 150463 79301 82027 141980 114586 53173 141867 373269 345734 380247 637301 106974 99011 345967 76333 137364 26635 326101 145684 71205 321179 172403 168170 243133 120886 407110 1668 297643 185659 65233 84856 308314 467065 151544 147894 269568 63155 465245 441395 275009 247875 826867 579144 47640 85040 205698 658059 376431 866247 579777 170742 177986 160465 412898 477361 362585 419846 602538 622646 835493 269475 10764 119183 830906 7543 158860 235407 433989 208574 237716 231760 69733 371125 361757 298692 46788 145054 243843 850327 492089 606251 200563 485568 52901 16083 371693 33286 73769 176356 23404 28801 264171 171916 481767 553960 146365 318860 571249 390723 596015 683220 153213 385702 208137 27259 500691 188395 105578 13471 438960 123102 166060 119912 286118 151034 205809 159662 62795 201813 41585 314566 321228 1191 337833 263953 178881 18519 529991 311508 36693 257433 61245 341916 138636 246681 742925 727865 763320 467555 666353 509075 11156 47105 344158 365918 162337 573814 654131 656057 309072 258540 651857 351442 170729 219543 232747 330227 356612 76552 369900 563009 107484 9195 23423 58668 394939 8590 288000 269259 203658 51758 405152 385629 354116 23656 325643 32015 236533 420106 270739 455607 126076 71382 552786 324562 358410 4526 255728 216654 197492 376321 333774 426607 135074 392797 384436 361625 278878 433958 346551 474608 123664 141404 417597 192389 506919 134880 34578 363436 329719 418403 787711 604197 128631 63557 16544 11917 297759 150743 350678 154615 309904 673199 135890 677773 330587 173217 146243 542645 104448 20561 131395 83611 13906 152750 344300 83702 513459 122229 326669 590760 339706 30390 423966 398941 307970 375222 167962 66244 206829 27046 152856 228793 367737 422632 365901 213226 194821 158944 566695 605094 89525 597578 30417 53686 611231 619815 668408 187169 524628 643431 33954 562070 449811 461071 805451 430031 187332 183351 197828 12529 65392 6109 172576 114768 332271 217101 90308 564341 430522 104397 179764 392640 389350 401421 42928 332082 77064 55076 104084 249308 132616 492915 59939 94768 311805 334373 49918 193288 115966 91758 51320 326659 150885 63751 165842 25406 387534 567369 71952 448255 683163 621046 506725 262390 494946 68075 82355 64856 326306 665823 295531 608768 662495 726236 80572 241224 282398 309409 80262 240153 241040 548570 394334 538632 324528 66650 185235 170741 489112 444313 69694 22548 88645 89011 377941 408720 202251 533070 339539 352499 150939 374408 436818 587626 127071 583957 561506 567457 52889 55363 384032 113679 66441 318443 96842 216055 627947 174308 241675 342296 8174 369623 462120 523365 14282 5987 565811 638251 85432 121015 263644 274414 136783 511242 106218 71659 481746 20171 76245 676457 71196 67875 438861 108962 321543 205279 148302 438436 137300 198556 126148 67025 56333 369057 93868 340059 132919 452986 86226 287566 284387 393196 169862 20238 266113 24611 291621 40595 182771 213289 58753 117980 458109 480526 371544 10212 78957 230921 69598 215525 16498 19072 77909 440747 395349 227963 293915 236414 32103 121444 257890 281614 650634 752070 585698 114341 67992 254162 621225 175456 64910 192391 271904 256388 119864 199533 105352 101319 526843 156706 583847 575923 12863 336367 319436 100075 62780 503524 634783 370869 427798 218754 585763 307648 495114 612270 218506 132471 500296 402463 316249 332609 377003 630466 425429 291684 179028 40202 524736 558438 25372 332725 32573 111267 434913 94063 333616 59258 359740 118546 159605 118936 260455 446590 190449 54196 443880 206858 279263 279182 84794 12287 583667 136633 493879 417621 434687 284714 750642 551299 83208 25697 418528 26404 200078 97487 407028 503539 388033 384396 3634 260872 311546 560061 171432 297162 326566 8245 630842 421972 135163 248133 325399 21693 314841 387906 121466 419655 260596 263819 375288 122191 239289 457679 15147 378799 125193 191501 34872 52043 327103 134762 169072 534443 91142 103866 99093 458927 313832 598340 586764 49575 105916 207304 651081 473063 289388 9787 95168 244833 182187 191061 236173 103199 208763 95872 287688 429592 127213 145983 464153 703076 370648 585277 68845 479791 573983 37294 117991 47300 471035 278450 131773 77587 24855 91384 136117 257077 384053 522 192962 309687 846976 796696 128719 25894 41922 290897 380849 585260 410526 465609 197980 239523 477105 309171 255056 264724 363915 384737 449438 27835 49233 6183 207225 319707 166620 20340 339306 158306 272521 408022 344948 415345 212579 190713 484915 509801 739233 305848 123365 301497 634706 49778 354325 246768 456297 485312 334475 274664 341133 104952 513260 102195 26112 54454 304637 423937 344408 165303 145573 273497 362865 130585 82878 178339 304145 150642 268311 520797 256766 122002 80542 354601 159066 280213 420515 608199 61238 90672 174039 191225 243398 293049 35272 590584 199626 3429 169209 192608 204831 431077 465764 95762 290061 255959 291851 44126 560332 212428 570197 40859 406884 639663 402430 668175 35606 253924 447742 279708 306468 24684 451617 218415 421481 537680 391738 425704 187534 201698 314114 66090 344693 116967 80462 39312 17562 538973 205869 615528 811713 661608 103684 348848 623105 622507 11457 222157 452034 462994 49857 161557 592443 230671 61240 412822 74739 116717 197056 143288 13571 104007 93529 264348 344245 296542 153462 204693 265843 430484 817903 559030 143797 639360 573810 104257 310153 684739 220163 313776 375228 305004 42757 382222 182451 502029 107811 6787 253428 757043 315975 557757 283448 583186 279515 678504 535113 514464 285232 29861 67885 290026 53519 196039 84498 185064 590770 174839 212450 657169 837990 230965 37708 449610 188158 505198 415281 303824 670342 590765 434116 195189 561988 514127 360299 222887 238009 250103 300044 435913 77588 64321 174117 285849 311221 501280 363561 10660 392156 381255 192041 95788 160049 727912 636412 402369 149039 116916 697331 286041 30222 555136 391499 182133 148454 73885 205302 170227 333341 210989 372685 400184 48883 137959 96303 224945 61402 416419 381573 107491 17112 41292 192752 471587 46085 144706 488108 635406 422272 473622 394494 636370 391198 283167 163827 420151 69211 398132 459034 491466 308712 55958 118041 58610 471079 97915 194801 253662 146633 522028 437527 21459 229757 360400 344203 208220 444771 462293 118160 666184 341221 53662 110364 307463 632819 417852 96168 282314 32282 314885 770966 479132 20352 58650 333718 453490 21153 299813 206659 376143 55379 307727 69022 139993 295609 127382 561160 210039 66673 330848 19926 448297 253690 688397 10876 418982 35433 98450 136758 180965 379384 328374 806988 232418 333754 282821 391063 1348 161450 166653 253433 194019 480350 399131 846824 394421 26181 304616 423266 657728 241248 114650 90952 27656 59742 187400 189799 176793 80319 9121 166076 220664 428960 608549 689126 218696 24217 117966 114426 122051 225425 19278 142802 150163 197622 323464 438283 761051 19618 59423 309840 145421 100528 247937 85883 52244 496565 462197 360837 521549 339256 636429 156980 250646 511121 537306 452395 177570 4201 623874 45758 238717 312619 126659 335408 685123 210922 70701 163059 351867 479064 138038 214218 552339 216331 129985 304284 20444 40124 424121 100008 110013 319725 205734 443894 23805 149936 306939 50719 369324 194944 404656 466050 106848 139091 542451 397821 94970 185301 81933 270368 443572 162736 115294 506004 63199 249635 39321 104720 269871 107517 173470 233051 209702 86334 562413 152800 694446 27568 51817 226131 541891 85686 302959 13126 363423 548874 164299 144430 31432 38607 112558 488475 301931 328212 176731 14345 236255 206888 690928 301479 89696 680104 252101 109974 391073 165119 195153 145792 197963 150864 120829 192612 191209 427725 447688 170109 531214 127009 83766 101964 520444 356583 493302 101740 419882 40076 4685 129534 701654 16810 39104 353626 9361 161299 184323 27555 136208 129507 195409 186186 400352 21671 484542 380522 560622 405512 264402 433373 353219 714874 728162 476323 155371 442117 506915 374658 216377 380959 608282 37512 1967 323269 135585 407617 596452 425412 446751 415187 226798 255283 459221 384333 33034 194170 143608 213582 10113 3357 179096 248978 577887 204891 480829 641348 789426 101581 302046 168463 220115 571548 8036 110828 11571 159244 33556 402002 273287 128300 326488 19555 284966 167606 413101 170233 91492 284816 607466 653002 313509 688258 416890 123411 7470 269637 699359 510630 531509 407288 476613 100002 173701 386381 386738 638475 304682 97144 451485 41930 546185 157088 339186 524366 45837 29140 207732 76513 552489 835180 823256 236310 132732 24446 137708 38017 402058 181279 193104 207013 229646 372038 248335 289272 140618 16116 39624 97856 93777 487367 708983 143459 6114 200800 236716 109960 31849 725941 121624 343039 413511 268708 87781 43760 33382 189830 154363 66507 94364 538619 548344 82695 124954 287925 529919 70390 535333 421153 475615 530495 461580 79667 317533 49809 194785 93425 273412 195918 32854 670108 178815 517962 600018 322483 186279 709404 700837 306244 499129 152280 305433 433947 437893 54353 468048 276968 225842 249967 67538 163631 393695 210568 84377 2537 168001 225623 279883 604199 346989 204081 419850 127507 32833 608095 474490 3755 527831 386605 476304 385751 194416 148059 906349 301639 185253 103506 72816 176230 180318 69123 504291 84859 71224 319246 357292 288368 440101 852 183786 87449 153030 354581 185280 247909 42662 141955 76813 72470 169045 158513 428839 468182 215717 6325 68329 176185 291976 465748 39821 302386 353775 363313 657355 421884 496640 480788 919467 232507 494649 326588 236325 380883 411271 553350 212810 542504 108575 140359 228644 231917 200779 335373 163010 19912 238587 268474 42063 306174 107542 123965 271291 44032 346776 158666 31361 116723 717682 323165 518041 13577 8274 688112 452302 56154 512808 558060 404747 623534 325080 719298 834495 125626 130448 310160 407018 39282 462690 87022 167264 241428 322197 169381 426284 132679 201922 587608 183834 27861 59808 34591 696 422512 73308 270278 294240 297183 397052 230753 539166 37139 67142 68870 265697 222203 75334 416485 235693 406833 756605 506644 248077 41666 233983 140790 544357 126455 414951 409517 396160 152895 153150 151188 67024 343713 266354 385619 268112 165491 423027 559890 475987 236780 446935 108219 279514 398630 278091 177561 529805 582278 543381 176387 234587 285459 223510 632440 664876 362897 169666 301796 82326 310158 107510 1456 642748 371150 469850 96956 136263 392696 695202 486422 648646 185811 123565 19780 118581 103216 221019 67501 12606 503538 13837 579659 309601 795 190685 276682 245610 251947 267161 44809 145350 444282 137083 577097 138562 133329 8774 84326 469411 209032 63204 458855 74686 112450 206408 509972 529872 195035 169088 3290 272373 117352 396973 224053 427616 258532 5371 209535 67976 36589 56593 257069 64683 395284 141013 630623 18950 280285 589218 393602 375210 205699 98908 209501 70360 710034 310669 52956 347243 513877 83556 60308 554611 550331 655179 259276 530079 204447 84210 716332 179361 239410 116519 476594 337613 86542 451499 447757 499415 542485 516801 218308 101318 103275 406180 181799 30182 442858 623693 147742 113280 262386 363254 401380 171761 645414 583326 540396 786034 323915 188146 98965 36286 134867 83817 621260 370677 236353 266651 329070 406935 449494 350591 89178 621686 411888 129245 81704 51091 443160 19509 452202 168652 421604 681024 311466 334964 454731 767333 409869 340708 251164 607313 359746 216273 365105 503099 424180 419931 588505 507296 635642 96798 441177 587268 295497 109136 163509 503519 214179 514088 680759 668394 415797 46733 531544 58012 86664 290100 277671 143048 100214 254599 212093 617934 148707 163054 508616 675297 795918 260333 638003 258269 314853 274534 456160 232798 418094 125633 629165 653142 296126 376120 45887 93567 478499 48400 317990 440332 520374 688786 213189 321592 667077 755225 674459 415041 493366 274562 89047 60587 350552 483357 137286 184743 608366 553972 253603 410567 92122 496667 212143 212759 547670 207959 283213 181944 622781 51336 255098 169800 42702 222215 445612 229046 262264 301709 303204 267716 165882 137479 443031 415817 275792 451779 534814 375705 99823 280137 326339 139232 552730 81496 456627 53166 245355 131594 323957 218309 87 125359 102678 1073 166813 261267 80048 514802 85980 92443 212775 15878 316124 248059 324472 66186 303937 66211 248828 232435 409320 260255 583637 633242 317465 307150 58284 126986 194173 59721 140580 283107 632144 169587 115653 687336 623343 429306 273393 242765 224233 123402 40497 333503 399499 13606 416690 384016 53368 566464 337177 295843 298626 426697 313887 221605 69101 427446 1964 356748 603453 457487 111320 310539 679359 386833 100868 60160 140432 221406 6171 209266 297029 50730 165767 485516 147760 101624 398000 11685 415076 367703 681232 201252 17997 346426 176585 120889 1103 72773 686402 391431 200111 582005 355004 483352 428895 251837 496643 267808 101705 302468 452118 130325
