6455
999872 999947 999161 998908 999860 998733 999135 998838 997980 999134 999173 998522 998201 998923 993273 998199 998421 995623 997080 996424 998091 998940 996423 998421 994672 997180 994231 998533 988624 981204 982448 996164 994755 997632 984801 994929 991438 996827 992724 995034 980792 995033 996101 992004 994956 992378 993442 996351 996427 991075 993861 994045 984822 977134 970950 993542 997070 982191 982012 975715 981055 972481 981622 986278 987688 974785 982220 988110 994382 975626 976960 992085 981646 990523 988372 994894 996126 983895 989596 994339 991121 962309 969106 990458 982907 994701 984531 984572 990028 990590 972839 991760 990943 993149 991159 987839 993577 986433 994571 986647 985040 986663 993005 979087 966900 976178 984658 968589 961214 967371 969976 972292 951181 994943 988895 978710 975518 978860 975234 937181 965826 976604 932563 940226 942651 972506 971951 985602 982304 970999 981554 958525 940955 975748 946055 975025 964804 951409 964745 971144 974824 964036 937313 989057 960253 981255 977978 980129 983648 978133 981503 991788 980494 993020 947879 979756 967890 947115 989232 959539 971465 980406 950475 957067 951900 954572 967871 984020 982149 956956 958256 994596 978166 963137 984259 982249 978779 961588 979518 980085 988861 970256 959042 974745 991507 986705 984068 945861 992972 988635 936572 980084 965207 990315 978253 979879 956067 993926 969553 984558 941822 956253 945673 974129 981212 975435 984817 971336 970630 937325 965806 966113 968600 958490 982201 940543 925080 960446 895807 889122 945876 913740 911884 954427 907750 935434 924557 990474 880846 986065 971591 950187 965177 931235 974212 891722 971162 969962 876097 931369 887545 905803 961949 918924 975208 911259 930216 911952 936212 940062 935299 939599 958888 835352 928571 966960 964361 975487 945571 959715 922391 951029 968475 907320 945725 924292 913736 975201 881582 931461 939643 970243 914182 924605 933815 948174 913278 958752 944339 969199 958537 966861 955118 935900 940016 929354 912825 908382 963563 917926 957996 926875 954343 939442 954854 952899 944855 961206 972323 912499 938468 932739 975942 988752 970918 967459 897059 975485 989571 938539 903932 958978 835586 887796 953354 925527 926138 965926 980951 921145 955489 891165 948695 962782 979516 920738 940551 932900 884210 909482 914333 949173 913800 945601 966014 977120 946935 946333 885051 886950 944432 947158 954925 984490 945335 938270 936046 960553 860158 966024 903156 969926 981295 925727 944952 957657 957594 930524 972700 953611 954542 971605 985329 962962 945924 941946 945801 951550 971743 983281 954563 977591 968997 970194 980302 823013 944564 971110 938026 950424 951133 919886 920991 968035 949741 958914 948938 954352 974790 915744 940249 954046 965202 935390 935659 978001 965454 938589 932931 968428 950463 864331 905449 911592 946863 889829 933955 840331 937576 950175 875206 973555 924615 902821 977294 960710 894549 799583 814537 815474 918205 908905 959962 867501 925832 833979 927413 904359 916724 975454 972061 923623 895240 864957 863974 898797 939331 765352 833284 853341 854791 930804 944279 899417 908236 883732 892258 929835 949312 878910 899110 887876 907666 899301 858511 954824 983072 730893 865076 974276 839705 968946 863221 930951 936687 847829 769058 902939 925708 866758 872772 887536 825299 870300 858130 875425 963120 843799 767076 813094 744091 826911 847725 878436 834685 922782 862535 834788 911892 952243 962840 880881 876453 738441 880915 892528 898943 934179 765260 915905 878208 925671 798058 864098 927314 914270 899379 823750 798106 810514 874201 943400 860682 877516 943825 965851 952113 924494 904341 847187 861376 782930 906420 947528 939687 953093 866658 862184 884751 829844 855650 906868 837506 886833 836553 934832 783984 814157 855220 891258 902124 918433 938079 736927 952264 901359 913433 823355 919520 915898 802862 930819 857518 858302 875541 896855 951986 857764 882203 958249 894283 907748 949141 961433 950108 786632 921223 900044 932609 862265 856313 868999 801212 851222 797354 865609 863305 897809 917746 839067 909862 871550 936435 921218 913169 918130 925761 874488 860110 934533 749528 836994 810151 934402 913568 857832 950805 921686 963828 862321 863684 751432 898098 810798 634504 962826 893601 961050 984026 862874 966602 818677 814277 798541 811127 903315 955331 933862 874477 870270 849047 901346 713433 952298 945326 817189 820000 879581 815348 933703 892968 904700 902351 871552 883934 917503 889085 846243 923689 883113 914929 892446 900079 791613 890518 899720 921741 902028 891126 947359 956360 894192 866695 717829 933370 791919 930868 789136 502290 881459 762396 906911 913444 903844 947031 905896 830597 932135 893365 951082 963462 934183 962772 929464 902620 889225 832875 808840 867826 849398 864941 767351 914261 945638 946720 880500 885441 882112 900982 911299 832729 932406 808868 869750 934778 951561 947849 809713 854841 900348 964437 788226 885718 932417 801625 951154 918419 845306 841399 840935 835241 927747 848656 727362 848913 888449 885225 943926 905215 947128 884825 933208 861798 956666 963449 947326 895927 948998 887721 925522 828869 925154 910209 905980 872193 950852 730948 926595 918060 947847 925635 914747 863902 976125 923824 943573 907076 881971 900028 960915 853421 736329 738613 921568 839371 959238 853953 888698 873236 832866 770448 939163 707323 912218 879458 856281 881406 957703 965504 912610 924983 917546 949548 841058 925469 945087 896202 791136 921123 812750 898410 791882 926621 944652 953476 874544 899647 823924 855634 917462 870952 791133 963522 859712 959059 923889 786402 920721 700214 965065 839344 932161 903413 859630 861103 793477 877272 798170 484728 877084 792409 871562 661295 931278 708058 686802 679268 928401 816838 636282 920636 797898 869699 783934 751782 763292 801711 796333 750039 869781 931214 924446 683137 717047 840045 778557 731531 727860 766880 636682 810895 856831 710912 827169 616402 951424 712152 848398 862559 747390 916111 805006 765160 762483 904400 819062 843753 799245 884048 966563 967426 841339 933879 853566 912002 787530 777741 816705 821895 719463 853687 701910 777899 836361 904388 561898 591576 686944 825951 583697 498483 570478 681198 910615 793120 882035 769906 812503 817640 811946 829240 711222 806480 861237 470447 635769 805795 720609 764923 858568 861368 853261 669176 840739 766744 808820 623229 827568 805567 851413 743317 939965 902207 798704 833058 703362 484859 805810 339619 472868 779283 813568 734064 882447 693673 785137 862965 807840 766746 775800 677403 763090 811114 731620 429753 880142 698927 790153 690994 732731 724495 872256 864140 870472 771252 656855 745237 767544 868856 765420 552182 783870 607032 761365 920601 742300 815918 722345 576404 663892 783409 580215 741806 635367 822837 831712 835638 793061 836612 776007 832248 908168 781608 860622 734557 822058 821282 695036 905510 845298 912525 742544 732323 860291 737190 724731 789154 672590 714492 268097 834941 848537 858110 862226 794462 854176 923134 569480 686591 905353 853588 784793 863746 784719 819314 634224 513726 684159 627040 708042 809150 834549 685445 844309 819448 687383 623761 747001 635601 807024 558679 734896 857430 910152 891921 625222 857595 873002 855726 569291 877902 844413 963562 847777 934259 634520 511894 857625 817738 837539 789839 711393 851983 697721 724115 878309 697865 330378 918997 905164 910527 921032 742807 764182 783656 699456 726087 771723 830197 579358 770356 782516 657861 691047 787842 598986 562209 861930 606939 799143 659952 825858 845401 596155 667361 759305 764285 759988 824350 772977 870741 738504 893572 846019 742021 831146 739336 667485 512332 948522 854496 810599 691689 884425 731980 721898 759473 813708 893332 859524 874275 780315 763412 882692 646597 656917 811339 677621 674356 846532 854208 891367 876816 775001 827726 711237 789843 705814 780255 940390 900353 805956 863638 868315 686488 800731 824604 940602 933858 940981 853938 704867 464704 856455 499933 739189 588715 834172 745730 698808 726416 762735 772111 650340 774066 765274 662286 730754 847402 621126 787300 814728 778590 859965 756396 878593 768064 880286 857260 835935 785864 897630 851926 612819 705978 929158 923002 890893 573187 883359 903612 894375 889840 841002 553224 682767 747301 755046 799243 745410 855779 455804 473486 686176 689939 664915 708248 922872 803910 843818 847891 726448 812318 801624 560031 728682 894348 953877 923764 807410 567119 756893 812260 677602 612059 665220 768705 663592 785817 539283 499256 847008 880256 804511 855344 907096 919081 829025 924457 713824 843853 705020 897404 761300 818123 691802 748053 698713 623407 583555 757929 890383 778600 954528 899938 641343 775144 743774 798275 855949 830226 832661 726629 707625 606258 503648 692696 901696 926545 848301 897501 597703 809949 759640 819477 755603 661435 812944 801592 897839 833879 857007 652189 840475 781316 684429 714990 793070 806856 878566 790694 614773 797224 845456 758511 752161 801708 884385 858199 551930 793025 533818 884830 771847 699489 889472 743218 623483 783227 850015 876477 796921 838458 905385 857691 817984 879762 873894 873298 780846 792036 766836 948872 655897 667006 679561 831679 536810 693145 847541 831369 728940 774853 844681 415924 781492 691826 448191 497827 812331 723920 682729 670033 905621 743836 831186 631403 890511 896612 918354 556894 904927 867302 717709 669645 869025 902285 697044 829137 922886 832218 878229 962840 735718 836833 879749 878695 916120 914845 776793 762245 790558 886521 673008 666017 741693 766425 844992 778325 707902 831636 749587 811456 546094 703431 904074 766351 838699 849431 923324 923059 681137 700772 883009 841176 849759 727171 884552 802246 737064 660766 660371 827965 830742 798953 784169 648980 771847 842549 927256 920421 944890 902317 796053 882653 662591 486925 797542 597884 836506 827057 895598 842269 781562 727713 805372 877951 837340 844354 580495 767829 854703 585193 738754 887667 715460 786856 691897 802263 462256 702973 709886 766108 883863 809278 763315 687452 678963 569486 649775 823844 874314 803631 831069 859791 848228 864827 835926 738785 935068 885780 680744 563012 724545 780278 796052 694052 698277 951844 946805 568445 616776 675966 859773 471770 917072 769477 749393 770477 717341 641597 759800 808522 905660 817285 653934 806395 839174 903888 654918 750954 543891 757542 562081 609461 852690 785181 637447 858443 891431 824697 895921 900215 899511 814081 769554 843233 916548 706517 729269 814058 903383 851536 717662 897086 779006 754851 851592 778341 658721 960690 792894 810271 618377 698672 697801 716761 809399 714315 707263 796731 660201 927701 631580 824153 862438 768177 838290 635804 540414 772663 746529 617332 785106 847694 703013 699745 862265 826967 829765 828958 845765 770699 751811 847662 906687 937072 697713 859363 739924 759267 912418 841973 810227 848673 793517 793231 815793 798019 668072 470544 783945 871798 874450 785119 679486 690890 761998 916843 739021 738014 890355 854634 504380 786130 904676 844037 771953 777014 789326 953370 686747 670280 760409 781279 736936 799709 710038 820222 891992 788233 789456 798684 598891 526775 599043 922881 842553 840461 841464 878001 798702 823286 515906 762250 619977 778817 690733 368594 777394 932848 759220 522753 704181 820561 897926 765235 835034 841244 824249 801053 601217 784310 509668 801519 787118 361312 484479 462448 825232 866088 593059 393758 502773 758646 433190 553667 690814 603734 225254 634353 454974 456197 669021 671327 739819 927489 421826 652669 347125 545892 913844 313475 353411 670306 593240 625485 782521 722171 564562 680940 383784 717232 641657 769645 739262 271831 738489 624137 526963 336943 686652 692539 852487 352813 510063 637095 706635 648287 475146 762572 709269 758797 624050 712662 607116 614545 530924 703480 239621 550674 280522 751739 609680 744169 518125 330584 546802 691514 481053 212356 939227 676504 690385 642455 628763 547255 705268 593052 598004 710029 375358 473793 155603 319164 741077 637664 487672 311610 473833 841863 811677 661440 755839 267082 790642 487012 687743 518989 671402 870261 399641 376530 578894 796716 373685 884183 615110 776670 868148 836081 761242 613632 355302 557841 773280 488429 694891 800912 608038 652880 603271 815424 349639 414480 698399 367091 793631 523967 364745 617119 474706 526438 404600 326557 581175 677115 633289 597465 523220 562659 441682 404158 301915 253980 567828 543341 865027 883242 423757 579295 229787 629440 761513 630541 295036 250761 661340 251581 456774 691503 808916 574461 458009 490698 744899 805534 811561 675740 341132 266456 600229 304618 518971 353534 617800 693251 249092 748799 666080 607864 619439 801842 421699 754877 466833 664617 525053 775798 373767 434306 461657 452364 502294 341075 767736 799123 713566 737411 850932 780861 722150 491187 784677 604275 477390 401771 664608 457392 773650 715790 532758 621527 434221 461805 537130 790133 149528 274824 387798 240556 181654 504085 604881 813419 610698 610713 800261 730081 259079 609565 564228 394471 605481 463652 747094 695895 727524 673329 236796 757874 629586 487651 725800 660862 641998 773787 354767 605384 400324 299372 423676 706598 688263 281938 757065 709585 669745 544005 677538 565058 619980 233062 380677 491599 465129 825048 403838 678323 234194 535209 438255 614241 678435 374628 478430 402809 615724 502185 699039 614714 486330 386643 245251 606229 131200 503311 663888 227103 537490 911574 526036 656019 284165 798315 492645 655829 554403 492830 543616 596452 624532 627045 411691 335944 707033 651498 235621 378326 618790 648614 644842 613319 627578 809182 777971 422552 308124 467069 538946 342669 718326 589109 853056 706531 599696 591127 752245 326107 574632 580850 612726 375651 726423 792118 496030 616271 830569 790821 820605 728874 883101 904958 404651 267608 651473 611972 685504 435876 475312 493983 280658 320028 618715 699173 479475 653674 395620 652416 166414 210795 580136 553387 807846 697449 656652 424108 756673 643990 537689 777471 790160 716160 678546 609135 439511 365140 195530 481043 815910 837145 780109 586835 573695 687314 775996 771777 557894 618584 784307 510844 497306 531394 343319 510061 397459 632383 430499 455076 633742 659729 636735 789179 466568 748947 524268 522630 432143 836640 669876 345080 371036 671017 551541 246672 515272 474703 625205 133777 454589 425964 323150 537295 367209 344167 581989 672117 898687 542650 742781 610623 481227 441313 834887 746769 340019 602851 641911 696357 507265 551253 338303 764811 643222 810590 173918 917727 489768 578825 584891 926490 477619 524442 300008 478090 652311 856923 623673 808279 508305 834463 647281 712703 397837 464206 542551 712444 563425 672831 207502 575137 703218 751443 558983 598075 319059 309370 845697 910299 465856 771717 111933 734836 885530 852534 557520 719079 687212 700795 393049 773558 672924 455725 715577 658675 281008 629338 825978 794431 454949 566650 432235 508175 679126 624224 568418 425732 665261 685078 703745 683640 491468 369200 281866 456786 474066 834946 387214 356241 586596 658482 451597 647602 768328 567986 481215 305325 578378 411970 273039 500761 557499 751878 622898 415560 553552 687113 768891 656339 694570 753747 442797 845157 372501 452235 497436 747613 736665 656257 469711 579676 521983 486053 735800 652740 388451 461250 458079 360920 793346 867095 176548 589128 585193 492341 639800 565584 441040 817374 721034 406480 643333 311994 583237 693391 602084 703130 835588 417392 415766 589598 865912 635088 461380 750525 716747 591077 852621 700758 569910 524825 429514 375170 789242 774704 573357 405088 580046 585542 667171 547742 575053 761886 803504 319648 779542 685643 732531 740407 748338 676969 688807 524636 264112 671173 656003 678897 699722 721934 751255 337287 675364 781192 788489 329262 821309 533472 462650 633633 619440 567597 223123 653235 510982 430002 929129 591504 881199 915592 365908 731666 512729 784499 607957 642630 121872 406598 620714 702118 252671 491467 562374 572459 541605 452681 290545 713067 681287 257135 644125 586927 676418 493253 230620 756745 695162 380949 596311 524761 711399 688825 740779 696169 482883 364398 501996 627836 540020 717777 569023 532051 766612 755378 272298 768793 702545 747688 441308 776832 339604 680382 823503 778639 536959 421573 797895 799801 788806 763953 550541 782050 710911 705972 830684 600278 823794 790032 319112 461246 575533 688010 830978 808309 777377 725811 566551 431296 550848 272650 592678 846073 747257 778280 893675 839209 872954 271015 462236 776619 216021 536177 540861 482754 507007 683294 709159 501022 425087 727963 708711 598697 758671 448397 350620 328051 195909 454946 471668 356877 610730 652880 148584 249873 477746 578943 600763 558936 769212 559365 540985 766164 778031 794566 161078 398502 611618 713421 516363 387994 520666 245607 707685 710981 620154 711479 879565 725599 851156 651991 446555 662220 211878 519712 387288 669287 655396 736402 477243 506326 240690 611998 640462 657717 429025 556482 623289 611861 624964 590651 532224 388435 458139 454756 737761 711196 374674 474603 719946 591201 702935 739797 488072 341579 837975 912713 709798 684493 708067 692409 615758 685966 520087 755251 362370 635625 505537 260926 587382 281661 459688 449861 343009 678958 647793 693268 210250 668708 249923 414182 563704 253639 429032 732957 422272 504308 446618 563872 645867 767216 437145 656581 395208 287527 637762 395828 636311 647153 784635 671895 688247 456766 782405 392285 616054 640218 489888 712417 535836 409573 477467 433581 368484 476033 624626 671015 777431 663877 810895 712549 680464 668397 785856 452135 537381 273697 764728 773263 558424 657791 751409 805084 553250 260292 467251 449830 596694 546051 770668 579473 604063 887091 803872 324068 795316 755203 480743 588416 558658 770398 566486 210308 652166 633346 597147 503856 439188 651969 782574 408220 793456 871964 328942 658272 369137 173681 540589 791402 503670 806957 583393 542448 586941 457180 737708 794454 449948 796294 841140 653175 344680 419909 638749 511467 523659 462410 608262 525976 640636 663276 562865 699097 570407 811341 509266 646459 498128 542662 694330 566839 828643 600568 643438 517218 682143 334702 631524 617112 901665 596782 474280 624265 183150 731927 467080 794341 647957 812710 680445 728072 715166 605956 561692 730494 646269 764797 717131 923830 413107 601319 479817 546872 637155 381896 539878 739561 183868 215547 348984 427655 721591 388916 472941 432463 510397 691082 694618 771961 800577 776284 412869 387570 600292 596724 527627 186387 367432 243731 417287 380008 700586 603861 695511 690303 507574 555095 624853 603759 861959 600341 544787 464509 803814 744510 579323 372790 772899 288604 653703 846775 116565 750971 406251 291973 533160 861903 483518 419215 660120 703901 619923 633706 768212 298259 857229 650461 600157 618759 428154 568707 647852 574081 698708 744535 620573 840668 935119 759412 666612 586582 448537 693015 784170 878599 735913 855085 288069 380940 658667 818063 669764 652332 537782 725619 694538 529273 582342 671994 582405 591370 626086 645466 505961 622192 314048 687804 728508 630599 159565 749204 591684 570083 600945 693106 286324 538352 738156 652730 331458 506668 265055 261983 633355 516910 715806 619755 616011 369560 338826 231369 828009 743952 515351 888120 572379 665966 672913 599765 706969 403118 813988 834718 746324 758355 670737 305796 656496 644562 698888 634569 313707 571828 509071 565720 359406 306241 801721 791021 724421 503348 623425 218359 684789 623454 458087 320915 288644 354988 234894 563894 790304 909665 501399 915999 937263 506790 845474 186442 212459 663247 852365 729993 630586 648135 365412 481894 638582 586003 534861 241933 568405 341080 712488 739472 391284 517172 263203 784034 434241 480314 526386 537387 415085 617039 485402 818654 825886 784575 477239 299234 355532 136882 751988 436257 757869 694197 436986 470991 662145 496461 833274 321303 652202 600233 750890 469270 533058 337240 710570 753481 383006 220583 573437 293403 664667 513488 548811 757664 867568 272317 798819 796478 466411 696011 454461 591936 558586 438894 529645 524785 471436 284229 719315 792298 807901 658263 675883 612488 804926 706978 848008 590276 397614 820742 822410 789651 430602 648379 426246 299771 869028 434662 754450 486727 649997 439106 321730 525037 618170 123193 522631 665137 611846 792926 378912 692578 597633 545126 842702 769864 759255 876322 270146 337489 457413 463971 547278 508475 805946 586976 405185 384938 776150 884289 478869 673940 571716 527465 514149 380443 709006 676596 640292 400248 672295 497518 617886 165939 428151 883419 816328 663062 605389 542393 548678 361675 528245 394186 397941 750606 365183 277819 639997 529556 283228 499666 736673 609020 511258 332470 592111 369060 497541 617667 716709 427956 402187 584795 743745 801359 682684 810814 635610 532508 878451 394811 169826 605831 742647 881076 800843 416408 543213 670814 199626 335732 732368 868224 641419 386372 215260 524610 595489 783658 377175 741325 648541 824592 380501 383426 763338 798370 688412 618243 154965 566193 616672 285298 771004 647076 527593 587080 341105 476441 765238 677355 773236 569178 445157 529045 591053 679318 332073 485549 624764 327912 780942 529437 697988 599576 363777 408232 699959 618000 505672 645754 578526 885458 593881 595766 656143 535332 502589 561509 401400 645358 574758 401786 262536 449768 305362 493395 618833 596749 506938 690963 607009 266948 706837 680344 842444 541195 641932 556087 666003 460959 608861 565033 479484 769778 621920 649127 701926 713491 814041 834645 484135 570189 630432 590096 335404 472062 329357 898918 875528 923525 360612 603192 487034 761599 542371 647426 683871 364989 382407 858448 721333 554228 732176 389406 593133 513113 749382 513676 721182 722662 651602 637907 757765 671974 612390 327591 106712 306866 470769 755546 533422 724798 713740 370243 694751 338610 661536 406332 632006 389918 422077 558837 709203 817872 658954 687556 668939 518078 328792 545747 546392 660857 233445 433940 385165 265644 759218 751111 258491 791859 644221 690728 574155 460145 774799 724652 830401 745654 578885 657769 299461 440201 738325 605551 558156 675508 701320 368521 770081 398935 694200 688149 646561 608398 862071 627461 620691 549702 637057 621993 756396 639811 567273 405532 431548 411716 292206 556395 884808 599300 620210 574875 494276 556859 498625 770551 855385 811492 630291 603247 536133 394253 283072 296988 598743 576011 517451 476795 523558 721806 478230 646277 330330 363555 668006 453117 440831 844152 357497 667421 493638 320538 477676 632101 473897 645480 760851 849521 632381 626574 435328 732173 455514 728091 768187 520126 621990 638533 558210 487341 328680 705738 48675 275024 571075 594998 272013 737295 127987 29798 362268 304602 447032 287148 682142 9310 778634 421274 210961 263677 204557 243328 29125 271606 574299 231308 347303 224894 362897 117688 587408 116679 314189 516255 108476 126820 68607 54260 444471 29389 23961 46076 476693 75456 68964 483199 341900 242448 582465 674604 61328 381248 259163 245615 119166 330965 322098 268692 623770 331465 25617 279010 257514 118255 472583 270898 347341 404835 137084 469662 286498 233018 116260 645934 508014 64305 165949 467419 8799 371972 323081 172043 614686 583383 241022 347745 363637 526951 99744 221331 384094 649048 357788 138329 68484 477048 200461 208084 85263 315349 597170 266754 540091 284327 177243 338405 38983 47973 247689 59872 323383 282752 37243 178421 393360 98359 19850 207522 410001 188183 181980 35466 504658 58999 490512 326092 115708 247839 35589 141469 439018 396547 267332 514364 126344 94482 413674 84862 125693 260218 454830 96669 371150 117355 156960 12375 170120 55757 122478 74672 256919 317747 623968 470301 90271 125788 68954 184521 483655 332759 34868 552915 271220 113401 9024 442971 107516 473703 491200 272305 453972 353752 85902 189576 38232 397517 70113 612425 271215 143278 105881 201087 118671 65866 157834 281216 311296 203144 533011 14995 471698 150268 80460 240828 81939 442480 827212 550204 176345 476687 244402 132028 449023 613261 171412 57913 725855 614489 308076 415548 518000 237650 466827 140041 184364 515976 634475 157357 158704 154734 375226 16042 319126 217264 442341 410310 221601 196231 29494 414064 47638 410886 270618 578925 50291 339126 53765 424992 346751 6426 288977 166967 125007 73046 509384 533405 285633 82089 135030 169387 267273 29327 11418 246458 138286 7446 493093 205023 376463 160076 742317 500447 102714 52357 226770 178658 156988 313544 123057 150937 213916 757428 185378 153786 144915 126436 417429 596561 224956 74700 86973 471003 267547 261343 71492 233278 540472 323956 74957 10469 607893 571309 222771 518604 443176 138149 80268 487955 277584 71715 266070 129649 67045 121297 133128 63418 104308 558190 447935 372120 93267 1254 637103 674984 74608 60302 325779 411721 33979 188809 374557 119960 669796 245651 626051 543922 82529 280597 235886 7221 540197 532806 119792 10963 297549 276694 666987 146651 730637 625971 143209 432354 51112 360395 149682 7466 405412 513916 87348 523852 220785 429402 602147 69403 29008 8540 130404 239853 154562 136578 193897 265170 45059 507100 99674 316574 352148 180775 153336 30850 97397 184477 617349 387147 83346 612771 462690 391280 28567 180448 678875 307964 268090 322364 631962 84735 240332 221956 510870 302715 192555 53302 176961 463311 247025 274975 323775 127049 3690 9898 104274 202501 284489 340779 126515 186514 331602 112817 751596 496840 695269 584292 88593 521297 349974 485575 40458 715005 617191 21170 355808 310 739610 180149 80176 153044 122409 366275 177819 12938 75633 387321 388797 108584 40299 421029 689214 119244 452811 343898 36257 308528 93710 285866 379681 17423 205072 54304 343455 379590 139655 138779 94521 267104 93232 156735 28043 64804 7784 18410 397669 322484 465144 315285 510823 799903 585285 221684 373294 480519 222400 110066 497579 660401 34404 245090 588672 317492 147191 284852 362081 323778 42912 302537 411425 69509 98219 213068 188833 679385 603472 48243 535610 65565 23164 85874 123190 418054 247296 210689 64679 364143 519197 55222 422975 260782 285992 27866 12342 701405 101205 129146 150072 127032 98004 97215 179826 192436 300429 272267 577872 4353 36380 86112 212275 44460 63876 54399 13816 581313 418617 329364 534916 510249 545339 540041 76043 41245 387400 259761 11760 67054 359821 214524 309687 334459 118872 62479 521237 777605 165083 178103 385502 178892 181676 113785 71264 18654 202298 23249 432178 458049 515419 414759 214057 131582 348508 58254 256850 247160 326894 434512 169760 46619 550378 157885 460428 171119 401968 87273 251801 107637 135541 150191 15957 146040 64013 26651 98490 57979 351300 568104 184524 78917 226604 533439 689018 597150 326335 514248 16032 412893 114379 241857 374665 186386 367487 162701 6375 124080 442181 212451 271117 325769 357480 527302 528445 448145 338113 447021 445834 591328 224617 121265 32645 64427 66535 55931 613993 479804 180929 155942 328812 168474 192111 176862 155828 270754 233949 407301 581356 425337 328800 153852 145336 376757 520383 139319 198333 401664 24244 181463 231914 84165 125033 185225 252068 118583 698432 356192 437337 249624 286901 473851 133690 391206 11059 166148 317095 425202 517868 467423 301340 19086 204829 114473 400446 538756 522683 127126 165010 13088 670510 362078 187321 16082 170252 296715 510047 310468 79507 340333 768478 517210 723460 498808 589521 339656 534121 857870 599435 415532 395146 309711 21528 13246 540176 323208 405303 423206 287207 517863 307366 183204 183138 257122 75962 229482 75107 76027 128340 294864 487052 542357 447411 36355 147875 279554 584495 65245 237430 181177 105214 24031 119063 58033 33277 123169 377318 517253 68509 32348 585058 379884 264213 479260 481787 151986 324034 2966 154238 124968 63261 259445 270261 28617 351570 71141 429363 653845 80966 715287 9053 448362 80251 201728 85367 99326 5869 200679 12935 121193 346749 447998 313977 245060 59626 711447 708837 294966 454319 11416 272342 324195 270625 522796 261849 729313 636181 639240 399519 135467 245890 47845 173337 511799 296156 274152 199590 400248 515661 144066 255933 199729 192027 323915 115488 32288 407936 227031 44525 322390 98091 170681 385163 580128 381000 129395 360449 296689 572364 170840 122020 377145 470885 479514 116687 58199 176977 134347 377319 163511 802391 357866 411814 384995 135701 48452 77910 255014 260428 137099 542568 311988 218957 156119 349103 288059 227349 298300 23144 612977 97812 130942 301976 263284 169051 215874 201323 262450 277344 46654 245766 119934 173660 286536 200537 297057 258109 405972 127300 341835 185874 503336 22595 65889 127121 234885 454269 77221 427745 26921 3648 737892 109027 594447 28062 90580 69187 370933 485065 204508 185106 457480 135433 59133 312597 9076 150803 15737 481762 484328 441501 230189 591013 337534 56812 3487 8801 452662 381588 439781 396732 173875 510961 178551 682679 324626 417195 352730 428421 94028 11204 148247 453144 290597 93015 548464 530192 122362 292601 242144 784901 140865 49779 283234 597227 447651 506504 331547 50432 434366 288151 100348 407783 168281 221413 405066 541457 120295 14081 356994 487480 363967 131322 144908 452272 340520 418166 290578 427115 543953 531078 450619 494243 290263 224305 118330 236704 57966 634478 810439 104918 143325 331527 170548 269792 752511 72302 21091 172746 20581 742209 408167 404482 5610 256984 122602 418664 491016 280035 523576 113316 416048 65074 160369 456126 204119 346911 375216 372063 39153 294829 322324 395671 58457 47027 74970 198838 416104 369520 661998 369325 100588 142955 360566 535533 65097 150749 352419 294449 55290 173381 647799 184175 477387 426796 351695 26891 361661 255515 28338 337656 16044 232560 49941 609460 294303 326810 158705 228294 110783 86046 33190 139288 144284 80938 48830 506460 593985 87976 65736 166900 60541 35201 362605 314740 66888 164954 294735 377744 157923 273779 646235 520500 184842 358336 224329 218180 120974 507982 122418 92401 262657 7709 32833 417942 263832 222906 486169 54092 648649 24460 346956 219966 348327 58272 519691 323244 603132 99355 23525 620923 100921 223096 328689 213570 528910 410283 73165 216167 56195 52540 60012 96265 248482 231147 12271 338049 270634 640603 371461 133053 105379 361577 454107 548792 434390 435840 240491 225539 249366 73090 29503 361416 207664 145165 381401 1759 217021 97627 458028 154947 282527 517674 713058 804700 734140 139217 62153 74828 80956 554984 392053 446903 447134 37831 495669 75525 85291 235040 412752 441013 115891 581482 668138 147244 104289 269821 309779 244210 298128 564350 341372 506695 122890 288540 82194 285869 419345 196404 384806 215162 14691 138897 283038 447166 522686 619878 863787 345267 191081 82757 28508 397943 399868 372778 529587 90629 187376 610013 149874 624431 253883 24943 515014 509823 20153 187431 133453 52396 313964 171826 76998 114137 606873 402173 535672 66339 344922 227520 317223 550847 477275 560582 486096 357463 472407 63057 345565 734616 308489 799087 322486 267520 79024 507607 690400 107484 287119 244909 139755 539049 421174 86330 92920 647755 208405 675416 592025 38224 43461 13498 194488 530839 173481 170405 126898 161293 214957 374722 392799 155609 461056 477585 390634 59795 238570 230106 231132 362124 234839 333695 203702 238778 15539 762150 173121 152773 476161 215493 368433 207467 543296 184404 25904 381020 377394 125518 42 511473 546895 173408 329221 149337 280874 265600 41595 35597 233773 188393 258401 54600 605841 293095 14901 703185 205317 469917 308981 379422 503919 491745 589149 508059 468070 79909 71397 159331 245331 526355 251999 483935 333871 32302 195971 269629 104287 248673 133427 113859 340334 124052 212955 308236 94938 34574 2128 192279 434315 57375 174532 61055 198336 283943 271968 547878 167614 56509 601651 190709 61810 89456 53084 518283 242841 391469 505565 115620 76520 553537 213686 20301 493986 208803 568035 265180 322368 594827 279073 512595 679687 186832 120482 333862 192351 108134 466729 145886 571337 56928 438533 128528 436377 446333 353103 387041 136311 173088 294775 739878 180569 190749 74257 225627 66580 50796 649357 369353 38767 287847 98108 159520 641138 16274 150283 406946 517883 678652 720254 499444 77030 364759 51137 239850 417386 488755 200913 288111 320225 597883 106094 387258 283490 45749 60023 38388 76141 317934 307074 443109 445035 811921 594885 107996 414124 277644 585207 160692 327991 8922 141159 105181 183338 438129 541337 30977 432812 242126 566497 533791 87105 120492 98771 43442 612199 264982 487219 89168 313041 89654 152904 153602 9379 572072 576502 210466 793567 325641 123441 666539 409377 769143 173534 340187 440126 542390 235850 18160 22920 237420 153905 503530 216151 207116 183772 17831 275953 117864 450129 370447 270972 103563 440258 472554 68927 643852 389920 199834 183553 175113 111967 296268 416887 323023 358824 200371 306395 193430 503475 429979 88753 112259 12027 225273 127134 45071 90747 160175 172268 297023 289378 340949 14905 222576 292173 126472 205343 24964 13157 160072 78090 93178 253188 487542 22510 469753 23589 93402 538237 297296 86958 96733 508578 139897 368702 719917 142910 332633 199255 565868 614465 7887 141807 309476 239154 51585 45186 600616 542262 152733 309548 64696 73118 392238 282397 72700 54387 313212 84155 142177 423179 11259 262835 369524 247275 595119 822178 271242 68198 105245 140334 162341 4231 230918 281716 630612 556213 83572 133697 507603 439987 84410 177079 608331 209934 571223 563755 691518 61710 401533 415442 242961 299866 120146 166562 413083 445942 556056 308939 535108 267680 49858 211075 401300 336200 447785 179461 220740 501781 129847 362793 586421 327080 17525 335040 163364 167761 67450 312197 35449 198549 170910 254086 25629 32151 222502 280243 434540 268180 708556 453919 564070 514700 406334 300252 691512 316105 15461 74086 234267 138583 651099 421595 231822 440429 339456 666066 645658 518524 99365 627331 68971 573352 334865 459799 613084 641980 90603 23673 255188 309210 244631 172469 351931 413979 239844 481956 146147 232601 397258 509946 41299 168017 65039 378691 416588 129173 189896 209845 274118 204989 10142 546638 377962 124031 47506 95506 105551 579655 208997 16752 209509 334894 111738 385141 81813 243224 382659 174393 281665 505518 218885 273751 62584 197553 268021 80628 407177 57111 119799 429007 595988 449228 174908 422528 583259 138729 280518 291018 183263 205643 268620 214552 375243 331310 49920 305490 27061 1418 8382 124912 562397 324352 637899 667191 156118 39918 557043 156552 130353 249336 352597 488322 329380 370103 331806 220742 212503 711667 177856 52399 368371 28615 78076 92649 257391 223884 71352 357577 273578 77055 579632 195011 191057 306199 137559 136629 489390 43778 528071 663512 327683 516527 504501 618114 189769 591649 216928 301642 233172 210333 175494 435460 84387 54301 553892 582069 715880 60853 134320 274616 242804 454989 647143 192483 296867 480239 472127 159436 177040 33718 12733 64704 209930 148948 165885 176908 518897 424939 208819 59556 406728 304412 155640 561012 97792 754183 462280 249509 120565 65285 99227 762211 344468 339373 253740 21526 356212 377767 530682 474805 294842 274540 291358 314341 49140 28619 561154 420519 526451 586626 52646 61976 76361 241202 261660 246832 102476 192702 623060 298673 237196 6872 532099 50558 262748 307902 107429 3276 545154 58110 174583 276554 57142 50643 23812 98017 313265 113432 421177 413509 594775 283588 146079 272947 50524 343883 571485 390267 334423 239947 27991 252014 190801 682265 423373 14059 697563 155659 339199 378673 72690 429818 304857 243822 322720 210934 317670 319860 403789 168273 352184 343018 46822 425820 240608 302372 188150 201206 593759 153245 88022 584711 225563 487836 576033 620375 312379 293425 162355 159424 152105 200037 217830 132734 330108 251466 459825 250154 317999 694082 64547 376603 49503 54377 294801 355192 440263 186503 50163 297093 655869 662798 141533 36975 557228 55554 67439 457383 669079 593411 150797 558262 432959 124012 275137 33099 144601 112625 351296 40065 141092 329289 343027 550112 568159 381968 789063 667061 73631 392796 294753 353028 194368 534816 251567 5308 304379 152380 456764 220422 349230 616116 96667 491965 485933 274101 884697 286896 215664 180960 457121 426868 405451 159419 282856 138720 428483 296531 341158 151537 397930 80420 63123 565152 83337 59681 48885 108777 244808 298841 278066 59555 46626 677470 15361 11028 113732 197818 135607 113301 232474 152481 221487 326428 75597 529630 594247 618332 655788 6779 290541 430527 177748 175217 19409 49150 67836 91826 467373 206554 521813 474517 38453 155370 308681 194012 220923 223515 194892 359400 368812 130900 220574 358829 274786 336837 232809 134108 481292 196022 288379 205829 94993 401247 113831 461099 79786 563191 53578 661943 323731 219840 114873 484234 416121 333392 600756 438089 455290 359507 472299 50381 67688 292066 137124 711081 6701 185713 625494 206784 416825 372548 114076 23856 506623 98865 346580 292538 85537 115065 209781 447227 319188 746 55841 146678 331418 271301 121922 419321 248820 151775 516528 151018 153874 614664 702815 757982 234295 53672 5129 148292 28001 400870 428049 209997 560486 504844 246194 88838 544489 241780 124439 226880 568244 230287 50528 229096 624161 31755 171791 535562 490987 324264 37174 515556 444734 298013 21876 597565 491728 376942 27191 326632 493993 178399 22275 23990 703777 261203 450046 524826 553407 117544 97327 80863 260612 134154 475903 145849 214816 392006 544216 184127 217069 213841 9035 92062 622434 364531 255921 554684 271965 363427 38086 287550 649349 394882 343098 368129 206610 562361 197515 321386 582242 494150 69918 88363 37340 535031 57472 308248 540942 303072 288294 132940 224670 143835 36904 38195 16783 667727 261921 1265 129329 1020 28211 311014 474663 650984 85665 20252 356886 521733 600580 245626 651291 563975 306868 132793 432364 221717 121694 23233 192003 181106 582761 149206 157754 448576 223352 244012 116325 484645 508388 357681 349359 117798 144807 52364 20648 155068 89272 91777 488217 31232 177070 423789 254334 712687 484960 186424 348252 653356 109702 490827 448949 37443 620596 296703 144467 140609 606654 691333 278834 14900 264131 587959 512320 355471 187349 372404 211083 208693 329740 259158 387254 445765 339764 359794 471365 7003 163701 139271 210854 113632 108041 259608 5415 539339 58085 143344 301529 22486 494357 83563 413424 418725 419003 419646 334326 300848 284188 222037 85278 168844 433011 251038 149380 605979 254726 118596 311669 305609 1454 106925 229863 242184 189780 126083 258601 253360 489094 417829 98392 577926 321630 357960 74409 163478 855095 605643 20846 104661 311480 260496 73844 172371 13151 123104 552642 53474 786331 340334 258787 129720 523860 609831 77735 80956 94007 219793 220985 101905 282542 165914 249801 139802 350057 367781 91549 98310 195753 227587 84149 287817 503927 375060 284318 648983 224444 152184 156707 1680 69093 140872 321639 262456 191398 386800 45641 428604 332694 89624 456665 225235 368588 156088 538450 202750 135696 462194 589014 453928 203913 530759 333686 331834 425742 284416 290239 65980 118884 148716 28842 76106 521676 642275 60974 151154 470313 63592 129222 303937 388945 379714 41905 413860 591033 327498 199748 25139 818010 787954 233481 152128 613267 648178 404448 61228 643556 525596 105857 43217 138773 444674 306003 140146 602642 208894 652219 151917 81479 238210 130308 53981 330306 331078 112820 52712 124817 542777 216902 336737 204433 27688 175018 506556 26372 252790 198362 32767 624265 116605 701511 525328 68081 100643 75022 529105 270281 327693 1658 85532 457400 11237 389469 83966 52715 186771 103169 523926 378516 232379 22586 135682 244438 675668 695770 107774 113267 666037 62029 37832 138067 643673 533200 141615 684614 714892 98669 60566 316708 572793 460101 351270 385043 344598 80002 547943 352645 394665 445579 345950 65897 404974 76271 632650 367268 391196 286817 114074 43771 51465 405188 192080 76239 599960 228773 69139 523436 454488 117632 320052 82780 227804 466067 210642 483874 529509 66763 59704 151685 160861 136331 505537 218292 262398 773526 612988 267402 167598 685579 156019 307628 11042 368306 523681 803589 560026 473562 338432 280476 208472 598476 199636 4737 87765 104966 315623 105103 356633 96938 312008 262552 431277 441440 143453 653039 207275 133877 352316 340284 167767 14134 228152 601283 515661 865796 105064 183891 20723 501394 129350 289045 454371 167494 8876 506669 28021 344205 165061 560051 145795 178617 334180 946 130183 358939 110226 427935 435938 70997 156921 137292 108572 142870 3499 210618 42827 683691 473134 319305 515572 410294 564452 140949 489980 239557 523422 354065 116743 317990 27366 362254 316805 102954 273268 206475 31721 671701 427179 73845 289613 227483 31301 271786 347233 471317 327349 7218 19680 166361 377598 429199 132226 324092 285607 66148 181850 191787 12265 371621 382292 61841 196993 280420 42318 136292 491693 675317 581532 16080 427034 147667 328908 333988 321535 173101 619759 135319 444522 10031 435433 685976 616694 374200 16315 342288 308117 814596 573777 312144 261593 142240 113645 383916 44888 642227 217529 68577 542039 786270 216298 108303 274569 212559 178732 179203 419989 128224 147037 319105 333913 470574 609286 784280 450915 10558 587877 3338 70405 132001 110595 99703 523039 263361 177232 50116 472653 82370 264401 231825 196112 506174 32745 534294 216168 44131 371139 350581 84284 127085 639348 479806 645892 561857 473908 84736 203599 133645 69792 451605 272403 95644 161120 275007 33717 620309 753690 140469 365524 113099 166430 518791 270258 322908 323324 350651 157127 540984 109238 617825 464250 97572 235133 451027 173720 321412 180317 170067 371999 314745 556917 240983 313428 152202 159840 42169 265206 21702 469503 231689 103416 108854 559481 216605 514864 389917 675577 200787 410932 117732 197204 344558 33694 251294 148732 536273 74759 232575 63306 77650 592871 269529 374936 763120 640316 83866 237932 36015 550631 486223 302746 425728 73738 244931 67523 481024 1660 387878 301260 468608 249055 482099 69081 166005 72330 167262 95498 322666 109682 18264 97901 189903 360480 516526 32831 291812 81335 411637 62082 635006 304575 236657 3918 51490 147819 616956 503418 498958 652153 686949 161523 256007 209408 127687 169296 302686 178376 398656 328131 79277 389578 119132 35585 378144 323798 126675 75267 274070 429636 426428 88614 488799 381780 29567 662753 648015 109487 623876 158782 50715 735657 220755 314088 100227 226551 607597 621893 427711 565660 237861 300249 357435 282504 98840 155453 418651 344856 751267 527298 792973 33235 134079 151880 187579 116920 29242 107227 55999 535592 271389 14458 213525 98104 551114 195140 145953 347506 59297 46173 377593 37009 578163 163239 265855 481118 341059 632212 372488 215585 290353 334547 33895 464124 448614 748224 92721 145455 298328 489381 212768 657722 649909 302813 333678 80129 64808 635460 474053 342430 176202 558054 44068 132223 129 25900 131335 201122 346521 97298 652582 575112 184857 132030 475187 66699 293508 345310 351360 248686 277665 359494 199896 71225 175474 606571 405559 129727 256660 314565 14268 359043 216964 102647 451366 325749 469452 99852 153259 232297 205785 566104 124434 519592 180881 399609 295536 339807 199306 5741 159592 64838 92976 415784 402807 73760 174352 43042 301448 302476 318901 277268 130551 159710 588972 562664 66691 125352 151616 69250 215451 211703 619796 611041 408547 127209 244043 281289 249330 147746 368857 40546 665854 84451 807123 741294 250281 670600 136126 323633 508965 60118 156825 196670 89831 267812 466846 184344 111960 417737 380772 489430 55427 147657 238105 102584 15443 296351 55485 684508 29323 194106 46172 508842 493877 144071 488769 328243 262021 602154 264700 410085 369924 428170 567524 445726 62588 341539 540150 637000 172960 11815 157832 719009 615554 303027 398395 563488 78610 5991 143035 429231 69878 355431 18685 106391 352422 481887 192082 607240 344603 159229 300111 601697 486747 273805 130183 236605 212105 251067 378920 299508 653663 27377 786017 435229 124763 677009 147484 422337 508976 172341 62210 359890 358088 93708 134637 25770 75774 276001 268743 558199 495635 511712 437496 313007 285895 175461 494721 181468 462828 591496 119468 475176 643439 623976 245224 54901 348587 208837 447738 241729 186501 162410 440524 245634 73962 95693 88163 165641 640660 258447 482441 300307 230093 136493 276136 398632 529060 340600 136120 210106 611762 486950 623300 754158 432189 561805 281910 175674 326333 240225 370621 49083 465262 49716 343895 335049 349878 693029 276507 100124 424080 364651 230390 322205 199965 540792 385424 104709 295510 63002 255149 288870 520320 552314
