3519
999087 999980 999097 998351 998175 997253 995573 997898 995758 996380 991405 994372 990914 988227 988774 997731 993036 992201 994207 995885 995989 986550 990989 987487 993209 987583 990129 975719 980965 987545 986751 996104 994781 989893 988054 989452 989548 979026 993109 950026 988251 990486 990437 985147 983282 977394 947070 986224 985779 992718 992889 985357 980628 983285 985409 946683 959194 972507 956456 964731 966727 960002 927395 991424 992127 993121 967913 965675 954324 967531 980590 980414 984421 981884 962795 977822 978418 985667 989305 944941 936178 982003 973339 963597 988311 969434 987984 973313 976581 981237 938503 969393 971763 937294 946410 971591 970907 968203 966877 991790 979821 979009 990195 965600 904877 980366 978185 982522 980537 915351 961090 903033 944452 878786 861262 962376 957117 898660 878432 959780 963366 958491 961756 957566 958905 902462 920389 947409 971798 990968 950871 989966 974838 915640 963631 962408 890374 867276 927873 962281 946742 968938 971440 938347 963474 954637 968518 964133 915805 962183 936046 958032 961163 951848 959831 984112 954840 866403 984977 923832 927778 932770 926447 966517 977487 967678 882618 955952 934782 973134 964804 954590 951330 964688 907508 926339 921049 942570 976469 959837 981180 922460 918662 959141 959880 964575 945562 930535 929033 897633 931941 939299 963217 937065 961353 907894 958113 944196 901942 973116 963861 938792 956539 972230 967359 926197 989706 948072 946284 882167 901290 956364 891326 911195 881022 938206 980293 866018 975035 882325 864337 912764 943419 881476 765238 836426 933481 842782 771291 837762 773745 868596 847798 940137 829020 872594 858815 835437 870952 828239 935450 875048 958444 801040 858531 925424 917597 929878 930164 950275 881414 901686 781704 888777 869691 937387 918307 930210 913716 702940 973122 884793 799676 986368 927571 934120 901663 909939 825585 931116 960273 951603 786516 855569 836847 778852 856369 925599 924114 920852 875470 904285 924124 770826 933383 952372 960403 842742 926390 914430 831576 865944 921648 923832 898149 941746 934636 889690 788884 912696 777067 810263 863053 932301 956551 888211 861263 939176 878786 874074 907865 972193 961743 691254 950843 866398 762572 980942 956807 907267 863674 917045 903861 862031 830200 783951 808876 868577 912906 957252 933936 964628 915231 858377 881154 833608 947763 888209 933026 929696 960156 853464 877632 929976 827530 922272 863008 932366 914444 837887 847171 886733 908349 845162 890210 855534 892113 963011 951228 945117 920490 966348 944524 833827 838859 790682 854311 909187 941071 940619 920495 839343 948528 873379 919640 847854 866214 879959 811196 870725 859428 695771 819790 936062 837241 644311 802978 657677 927187 944859 908628 886879 851688 777050 955433 773618 849186 852741 855393 847452 878508 950328 958098 858881 859172 936395 857469 913609 835324 912779 914035 913854 804538 932398 813328 928304 910261 870286 946146 868674 879227 901176 809282 949757 952265 880991 852347 883036 856715 875776 851282 801915 920462 913112 929057 835723 811576 949740 961013 869884 871493 809613 829330 580442 908526 772664 893231 847514 777525 693226 750022 793546 765919 929284 913538 717727 639323 579115 668409 815343 777426 772426 747422 772638 824440 838092 613731 527717 899993 799706 825360 694377 632260 712872 851078 829335 817925 491540 589953 819098 661375 884392 919026 638864 722765 911129 870212 789156 777339 768362 827943 589251 743819 802496 886371 824730 928260 792171 916884 936043 892663 733956 733283 746953 769728 769043 657996 790041 731008 857216 598401 785483 840567 852411 708650 839670 809940 872033 775442 693696 609966 885339 928445 882681 854390 777591 620385 922098 728316 748579 628317 926794 675195 871946 686019 824625 723642 641893 824119 763890 869938 738404 537380 948176 631669 755791 732486 781259 476736 807383 710829 685211 723248 664436 843890 479419 844447 844895 852346 754987 917117 666540 835985 742787 638935 855515 838671 362515 756036 872988 814587 773222 909805 927423 944952 812641 837144 717860 743688 896829 601177 816979 823631 819335 705539 911953 790044 797734 590849 817636 550198 649666 809432 838670 810266 818378 818293 748416 757216 591414 841699 690591 771089 793016 783947 828579 860297 506611 921057 859425 883788 815453 815220 815253 686588 889112 930755 651876 727798 792959 787614 894990 878459 933311 965027 932212 931424 661167 680592 938307 715570 700333 638261 734760 739715 792872 979102 920965 875860 727780 675607 635255 741546 659041 893383 807685 868107 815189 838539 790047 734996 779924 739825 726335 793199 800077 720429 808727 527892 848973 925725 918909 624065 800327 675653 868561 853970 678091 833451 833969 806886 655287 750456 854872 803924 612057 760339 811748 864382 924345 674788 792831 945321 814314 700534 731290 637787 743631 914924 826327 794308 747415 882140 779036 813271 825981 912977 900745 532086 797491 712944 604695 704870 612068 404010 859882 692814 784367 771598 648093 864142 781437 689899 475638 719061 915350 956441 817630 830487 814915 716602 909961 622312 806346 902344 704417 743398 808265 812318 768323 761988 553566 755602 727186 700074 852690 879030 813263 917924 842732 753429 781517 839270 739272 757729 872168 820842 817133 871143 850079 898298 811706 541923 645317 836611 808297 772071 624601 694887 438788 857554 845418 855246 654824 661324 621989 787080 878795 860719 573614 780354 503807 633330 531213 798067 604965 592121 788423 860039 933614 820568 828538 897580 692241 702691 837391 798269 628375 709014 817509 865425 598776 773384 831208 776982 817010 840136 639958 732910 734367 810251 870618 824393 639896 876749 897531 877549 830763 845938 651860 849885 658172 917130 837620 840375 680957 794444 810032 815315 885374 835979 745580 911362 904558 857343 474860 738826 930728 835484 665401 678660 908615 750016 885616 906301 802662 648259 934452 693007 773736 750961 840449 737368 732706 728954 777761 737953 920274 795426 884729 896553 814516 640086 578071 796084 703543 816108 780276 825563 652608 874193 810263 762177 660254 780695 905370 758585 473868 906419 897934 916465 643667 507114 725633 776938 736792 569083 515907 748051 686372 638209 563188 654477 755500 701589 711375 725477 286503 227918 733403 864535 357919 346837 172064 585550 729228 726980 314150 584554 546211 471872 725027 313539 735113 693770 334677 579446 912694 761376 804866 795357 689429 510969 607915 470864 104970 505976 598563 319750 477443 778115 178043 776455 711094 755540 228833 511145 613335 345379 799208 655689 493507 744124 442084 337228 473301 159721 705815 661172 697000 644445 729053 765777 456425 678080 608567 451444 702252 710411 476448 227174 650270 490902 644186 671341 487230 402084 508534 549555 758277 628781 634129 629673 727387 830642 899708 433682 447289 386654 316027 596650 368951 878242 536240 526602 641152 726914 776629 391762 717204 216241 436770 714477 334701 519736 425587 293760 373409 332500 667233 838218 647430 804234 812782 492258 567436 750281 568333 774775 686285 674951 365767 525539 228483 681997 555653 685382 677495 730379 139686 337050 732496 741750 635921 586783 544172 701678 704584 662444 738084 638396 314802 370459 719285 620602 251441 433569 850813 771583 630361 596612 683067 716255 692597 525504 388066 849525 663193 722718 681104 549200 575703 472195 755469 710428 818890 711192 872618 669300 761531 830124 689653 735175 518850 470478 673851 746455 666125 670127 478814 706806 348721 294079 871677 349217 548889 539395 847450 538539 533424 594253 728936 687406 631308 174700 612861 593550 412957 491726 518891 730268 800683 312968 712704 512625 510317 488727 478680 517969 349355 577387 637879 658398 678493 583134 522137 709650 415410 209861 790385 792238 672986 283101 579607 274303 399911 610521 482738 636953 404840 731945 454419 205907 153469 566736 673188 632787 761053 632254 479878 624581 707773 597458 624706 427395 647033 744464 619738 562758 536121 381647 391595 324221 567020 164226 234488 308777 675079 659600 494506 797234 491032 580693 283611 504119 866993 875817 557856 437257 763488 837431 752686 648160 605769 364212 346310 599307 630294 400684 824290 815369 316285 395718 607084 802196 823571 523608 680930 443618 688796 460389 722357 705451 711302 656991 428536 711265 561945 420037 789914 503292 517519 504714 401164 425206 508644 733437 800717 763615 711041 330273 493574 654038 737077 288792 375830 576991 610936 613722 349391 437030 809846 599428 616820 678329 632175 285033 636488 638221 732934 289380 816494 756931 806006 568050 366930 340906 840419 909344 571725 603401 657486 494172 744746 481771 732059 383170 780307 668123 670983 480964 601327 751309 332007 857707 379902 506287 636525 682409 708626 629693 648272 733352 814203 842218 269873 706279 907606 744085 873005 885630 687584 833812 768915 648391 529733 409960 512302 558221 633761 907176 656095 645576 397088 552678 583921 562615 465320 648706 660727 609346 491184 483763 735794 697807 704626 455045 749057 391396 723101 523167 624258 522772 213813 399849 656954 405932 551986 532406 722497 584623 540672 760306 249170 847385 718739 415743 686349 244176 626010 756884 367155 519356 720442 656748 295104 687597 607661 716789 663942 791967 708738 748795 580600 435567 586234 325253 363949 511081 532111 839331 346993 915685 873872 385872 536452 444067 514127 711059 541440 556293 722089 686052 727012 820273 609718 491522 474010 664057 563582 568861 796062 657734 537750 318765 676928 674809 501153 853222 693191 673170 520482 473566 550329 615596 583993 602451 695667 727063 571348 770392 663697 634135 658649 645851 818075 622317 657324 782133 517984 565187 618210 505850 413858 538186 172054 697330 687386 612745 743032 403332 623115 575800 649490 722021 770761 770017 441788 611288 497051 607569 670627 801810 806348 842357 818877 651100 383990 426281 794447 455073 688051 565631 569417 477325 432905 491073 360626 518256 383274 169478 818774 422086 692733 236643 549401 710988 733883 645224 611826 391313 726670 191950 407610 590071 442951 473193 272559 417945 215054 641731 760354 888888 417936 409478 416869 590855 437951 768534 772354 785557 588514 513165 307051 656051 327374 503312 680709 480584 578098 855319 464389 672152 654254 740333 616678 461616 601478 668721 366670 469486 679626 306305 340535 352934 639923 669318 663153 548173 411427 450396 546156 791925 743301 652261 417894 720690 630908 829090 510207 326251 720516 647005 653204 532954 759159 658284 655302 369405 526472 56206 664682 435778 332220 577615 742300 600966 762313 550970 767315 821827 711296 596773 752321 506316 504181 406376 641896 490935 718944 688186 698098 577086 764765 493450 430360 348778 632276 272661 303236 423697 622386 792015 705217 778575 320366 812796 595878 513577 646400 558846 607209 584960 613982 535566 772346 863527 767106 794698 421278 229389 665189 649288 388760 380442 481853 423655 367868 434015 762417 445233 481363 493274 585531 557186 781108 588692 708819 716286 887502 492845 692982 668830 785205 470055 658063 850827 616485 354234 627584 591330 788059 697060 599548 620577 552674 471510 454314 451450 796041 505548 784484 848224 546841 547735 499313 611947 630074 506102 713748 315251 677662 515095 690622 816461 401280 602031 300260 647797 592609 620442 751906 305647 686872 838233 306086 392874 403752 605663 707046 507641 889889 816699 519415 571942 372604 736101 799597 392381 493399 595114 779264 788533 371362 459943 743947 344509 747770 175513 776880 748724 602116 645301 438980 725165 722032 436960 591117 783792 640901 623393 768760 715575 257511 632144 378367 775961 777692 260846 601785 467993 289550 457808 670250 572775 646331 400326 701559 502368 651941 589619 394397 627378 659020 455476 663672 619873 762833 454117 198906 703970 351895 728832 607569 608415 869877 838580 597850 318909 733831 318404 633777 617833 840338 750553 611297 482733 595765 702853 181755 672960 752955 655177 441343 571263 211958 610462 693139 367620 670558 468551 852960 763736 513969 189063 605100 630420 218287 321769 540725 607714 583339 511818 309772 656971 311729 644700 818545 758757 389499 530781 819763 456089 482787 766417 672173 651300 605517 620463 692657 687655 826206 160747 710043 226808 396983 324783 585851 135376 785522 737015 827829 440880 528621 594110 312062 414487 494263 356026 632102 557046 500285 631130 382347 351230 509716 361302 578161 283780 416056 645256 363620 486641 454225 250334 412955 61067 251879 387248 306501 370411 662158 384711 629981 580014 3129 279163 193502 220964 15420 386648 298927 459593 71854 255683 915 265378 20673 2428 507366 52482 625155 702790 18646 512615 220762 39578 115890 222926 10631 229628 406135 312072 465164 44823 15956 81296 658053 535628 336509 176927 106786 312228 212562 375448 34280 596881 342977 375695 245798 90447 188712 105354 390861 112950 363934 228598 432475 331933 376776 354890 88699 91507 71288 271235 468946 581169 56251 34178 450600 233529 29189 83522 151684 130938 494423 302593 35737 530163 204301 306423 95466 25777 227027 386807 232996 88424 106757 81363 361179 367293 525597 174129 51874 345473 53542 692252 164720 60231 125253 193389 147760 208139 56452 105859 18373 568869 615559 36453 363185 160223 84755 87686 59588 577133 680375 660314 337080 97871 589102 217571 153554 379825 79631 332922 285470 279149 90811 382640 29791 48258 137098 54180 16323 555987 4813 258310 608533 580098 289701 143499 332897 136091 195774 401678 503999 221604 338058 462184 295267 221413 71474 161219 370117 431292 391271 341964 550051 527577 46842 410126 451849 647723 130537 413589 158330 151445 359205 138977 177111 5417 542005 78863 336296 346197 857150 628211 288235 387873 341454 347031 613534 529272 576782 334363 611430 180937 254626 310437 265680 294044 197805 81291 163820 149247 529006 504004 60989 194827 429141 519607 36839 98363 235185 118265 142002 164167 16239 140710 325412 121564 139155 266095 330730 147547 470217 348035 527613 490690 58296 304107 560149 40200 208895 57794 362070 70687 711691 113047 418821 537523 433333 56740 79391 168827 28283 159101 6254 211 469577 344974 366328 102952 139355 337441 151043 403371 126571 398935 124900 43853 272513 209229 196222 26167 676909 205639 499812 629635 222854 142380 326415 509937 173910 223552 149186 486465 567570 505462 187607 421081 50678 96001 290214 114388 1888 62015 51817 530922 464430 419281 187054 37595 5149 104820 584630 284489 480345 679460 545082 32931 172590 283014 186708 232025 233804 288401 267764 164991 508285 211701 150315 315314 418512 719430 500284 586898 521713 3514 197096 479488 400358 412514 522924 421267 322771 158721 630849 351165 631639 297837 169355 715009 640641 602660 345471 38975 619273 196350 118836 640532 259618 283251 113273 599926 155423 382038 106596 297403 73326 408956 585307 294949 231805 501718 240619 57481 102283 142489 220697 26524 74492 138770 119204 124387 26823 192097 24495 639937 39270 186560 170359 472742 251776 98778 746543 563870 229080 100381 52696 321572 305687 266658 295251 411676 367759 87823 465367 513705 15054 149525 589486 455865 334340 253041 240960 213819 382018 87551 314054 453841 727914 648305 605564 118989 266378 100429 8955 183714 152162 30088 120945 176617 448791 148120 63581 118837 96703 358652 4619 111398 348304 127230 231374 538171 209536 58215 562809 330000 239701 221736 340688 242278 418137 253091 118177 340744 17348 20206 785532 404122 741059 607867 475301 118526 186960 223543 342670 384792 225388 264040 194920 384196 178618 267562 436435 53461 49675 557193 59927 250718 705813 21491 239721 327331 121351 70812 92675 29636 29321 318425 40654 433213 539968 401019 642059 417650 384177 118031 280865 402424 470688 66833 3511 497321 398754 111797 457764 222588 349790 242740 420913 97084 23932 135406 610839 331944 34990 190169 283365 530279 176770 333628 214251 242718 139648 287028 546016 257358 59373 75976 73218 106925 262761 304741 139114 288469 72084 652648 378606 284644 539443 600125 444849 282688 222218 88832 21296 159612 4856 356703 532349 102777 560911 431483 378167 178583 239585 247307 373396 189546 281043 613854 735549 629948 334714 263251 444223 343622 71573 243257 297923 207129 226771 431615 117182 269809 193803 103919 271803 72539 735717 196683 70166 39917 25297 226545 144837 347355 352182 634840 486173 482796 41256 473447 198832 105579 14251 434040 329754 638756 45281 130613 593476 645707 424009 111071 635392 640085 451880 259692 367943 178349 156564 227345 257515 282060 134300 232792 740299 23717 247748 126608 23677 8891 201799 34277 276855 53227 396986 188978 425479 44999 526680 654772 425568 511299 219091 742465 557570 247065 90556 211462 74875 491200 458459 514864 216946 96380 109771 193880 107849 2672 184123 391734 432351 485935 340298 382859 294644 348862 281203 198164 159995 703368 392414 396212 400757 60401 208129 309777 479607 30745 225771 152361 467597 589727 216421 610301 429983 572486 147309 278966 400330 176212 485412 671351 377837 483223 66301 383213 314182 204610 87128 94149 311246 553036 124523 520475 216617 451747 328187 426349 642054 460819 34963 274447 212633 41446 354424 473484 160271 442666 342670 20765 375232 680793 365503 531156 6903 221800 302966 21400 32395 336331 106297 305453 330554 106900 377237 223810 227710 169280 75564 33821 455979 618676 455104 549308 270960 702247 284257 421576 891 567403 28555 467202 471364 37146 589443 390832 93861 120738 231282 518838 450439 842283 67236 642670 673372 496325 255567 766739 144167 137892 57985 432197 223691 707167 272455 624577 406074 2383 303223 128721 159669 334974 450290 551932 348311 397153 586463 181663 208925 57841 636062 344206 328551 22449 98690 509663 50898 336136 305383 143711 29195 57917 322807 399036 207980 543016 66087 70672 56959 299295 220075 179839 224788 229631 495002 167331 494338 645633 335277 387673 711291 139672 194802 79431 43554 474506 491878 408171 266321 325569 145659 103173 73377 89052 181511 151338 220988 127988 167839 149933 422792 19282 262075 223601 155833 656877 553223 244782 136142 447938 99915 23009 167461 56582 301335 749244 159122 228698 298638 291677 107179 576621 168648 34178 413848 273023 15511 473185 110797 111313 512913 510835 376877 242484 139154 468185 53628 110156 152267 531477 178639 207059 558605 63491 457883 257813 631906 630381 320099 481740 415720 720409 547956 243371 291571 128722 182326 154099 209179 207888 271963 17972 176582 393983 109039 157859 494952 70016 55993 149367 456355 261496 496511 787864 6317 214730 97290 77662 402044 291593 145501 209652 441190 386304 526831 403746 182039 444798 403382 147387 162298 175465 248020 72066 601674 356481 386391 285523 373198 401527 59109 249295 250216 606949 243693 326997 214565 456119 405858 500985 219826 188315 520847 350263 67690 196769 134127 341665 385564 295120 57886 25413 149128 283556 619372 269589 636541 354079 93644 270838 184631 71588 497411 467050 350576 310956 541576 44057 529453 74265 207636 455621 450799 682179 112764 85908 87786 158476 410822 137167 498460 288095 226429 154072 23519 250111 495215 794926 76581 488402 577484 214419 187886 650018 199813 494597 270608 535984 600538 442187 58863 236255 298421 240312 521197 319819 166600 39986 613908 334120 618800 370077 326597 83238 670260 281052 238116 235724 401437 147812 517596 66578 391242 539331 190919 160221 693545 127411 291901 480614 286069 69516 256621 126473 134491 265897 528474 230034 239393 57513 81971 42945 768760 203660 384989 5617 168293 585089 631234 94579 229450 221485 402884 20113 142441 160672 183511 141646 316332 449972 466897 408608 464561 395344 362995 260419 196150 79817 342045 442685 84103 52987 219770 64785 8363 105333 50376 72243 106567 191098 19330 43225 520274 355645 208675 48737 423649 463184 481048 111199 28899 121755 107610 110989 471456 13304 22471 334184 260128 232525 46344 102407 130957 89653 450397 244214 249422 47682 247078 427617 146351 127079 62053 178024 22684 8580 78305 143089 141308 672312 538767 374860 224552 69107 389826 141601 47535 181184 381252 277919 416848 24246 301606 97976 748406 356798 60891 742349 442612 20837 343219 147988 180283 158532 266680 127547 176992 27147 211739 182787 290817 679897 166992 100543 504425 169289 699989 297763 391302 70375 299848 231827 42224 341846 312490 435993 173168 156951 339237 441215 68900 11917 595962 132503 191926 304494 202996 368826 105205 219054 23520 205775 263562 183872 52081 4209 275881 127228 373022 373330 555130 500188 134210 410602 309355 244473 244381 208588 64667 346668 591347 381437 149279 740904 155472 625967 83096 217988 618515 474669 457837 212226 803356 730024 275767 46541 181157 247717 504566 99284 628872 232889 428248 278762 66470 89593 643220 141679 83283 407001 86452 485847 266615 13756 389211 327358 47283 36731 355584 327413 148654 351392 142471 19261 29661 476295 352468 160785 194765 566242 145692 471124 26561 377918 634882 164971 227902 222449 483691 523592 475267 493142 111114 529008 209762 91337 208849 273580 329697 227305 70101 223131 67995 387400 216779 85741 238310 70836 101615 614076 376800 266847 706491 368672 393895 287885 158847 57120 341016 329063 429101 130584 257725 175930 208378 127526 91028 239649 576732 110969 779239 194642 575200 299703 679089 376670 52036 197588 464560 168770 357092 399021 21490 351451 28246 47806 260125 372226 544193 301862 18337 31643 613260 188999 45566 40977 528372 99946 789771 206816 381935 544305 223470 641203 49910 23232 144330 196609 369679 437026 278976 463069 46380 162649 301406 210147 408279 9328 373899 1443 240090 355376 52096 68686 693891 252782 391879 333524 106865 158582 85502 263604 25990 57195 236684 547464 486831 620142 354112 394227 145065 333875 123362 557889 512202 52105 148498 22577 239740 106038 12186 75471 30667 673103 146073 378245 573925 464830 254522 314603 282498 227261 35618 341366 12820 51497 319129 19210 582580 309465 475988 382358 361866 1274 292461 5595 226277 453916 23426 334261 331410 355589 139830 283830 66885 785199 493454 15803 147379 706873 499849 547767 542925 406839 532531 449116 469606 101812 560313 227205 123982 255225 194610 158007 285469 656474 132483 131057 88415 491610 197260 295900 351850 136552 596348 566325 222295 163351 242632 23251 63867 226246 130561 490715 591302 65318 94963 321684 483319 153680 126347 182182 597468 99353 64853 254530 75725 48210 376551 124318 381960 318692 217060 277799 595821 30864 425241 200229 722146 166051 485015 516260 122597 26019 207613 397012 274787 283723 678707 506356 581708 451260 149138 303371 333036 375924 500131 531242 175063 604170 519333 141124 259852 76384 217368 361763 618806 500640 262881 150304 581193 402625 33191 101607 406734 371427 568374 184618 597037 118406 265636 614779 122706 188661 160151 407822 439050 67395 313725 213430 488832 101446 757535 520790 515744 587289 482668 166611 606695 358709 110820 485155 198251 237745 491246 627769 162835 229272 770365 643130 582719 308126 93291 178290 398198 441377 167469 262160 122020 233698 131426 243153 295529 138097 359760 294628 379455 395849 141938 150150 89076 39537 500688 94130 95580 233730 36561 212506 165189 201361 622139 191709 319360 467056 284590 90633 308346 405657 434471 209706 87927 330077 442455 189997 157129 62127 272243 215115 85943 329899 337548 520237 170115 229360 248998 146370 387833 63357 510044 289267 558480 191343 167405 220019 356879 237232 190915 27759 306991 560275 415137 78909 646250 790741 629447 100469 306894 314645 355702 159442 477022 279619 624269 227907 147387 82872 322799 508812 197060 328069 409602 322982 168371 324452 59656 217386 191918 42220 10943 140020 625162 102689 298104 318643 212733 400940 465759 191775 265849 9083 369166 620088 399972 434736 185028 93566 259084 84656 529507 328750 129349 199174 114616 169686 16917 456620 116169 356397 144725 556373 50341 430185 190799 107889 579580 124409 95038 119325 2223 461170 715521 282302 243358 532077 48280 224320 326075 416787 636181 427059 206363 65116 363399 94488 297520 438602 520628 380028 610131 455886 33435 261991 514984 147006 366478 564549 626512 59264 258032 583301 143296 113194 129198 204081 187071 9576 292647 148972 64832 290688 517588 370309 59231 126279 313015 204558 254131 162134 502796 41970 190542 22686 319630 514645 263971 351611 287378 186626 184342 62568 327448 442561 347931 93326 466844 156453 199382 400378 316530 322443 227433 496541 286678 187540 96377 289492 456812 225772 341026 164836 394735 354680 190319 180332
