8627
999944 999978 999890 998092 999797 999672 999710 997689 996819 999639 999178 998280 999040 998279 997077 997088 995855 993741 996676 990237 999133 995242 996103 994086 998264 996254 994208 997066 998251 995488 997059 996402 996988 993509 994253 991769 992637 995496 995264 989243 986676 993093 998674 995030 994217 995219 989374 983153 992426 998077 994404 996136 992547 992903 989677 995640 992690 993572 997597 991531 990720 993269 991517 995861 986721 987358 980167 982089 990020 992414 991506 975554 983077 983050 984161 986621 979081 985913 983820 976197 953784 980123 981779 972321 983623 994752 997265 993355 992453 992363 977771 973433 983664 978179 985309 947906 979879 985710 974824 995038 991601 987703 989560 990444 987723 990048 989690 984737 991722 980354 979668 994574 985718 973042 992439 986232 990537 997322 986634 986926 986088 962430 975638 985363 978411 975107 986434 989981 978211 975365 976716 985842 977702 977734 972572 936803 976196 978692 988950 991924 964457 987683 963212 951349 967992 973465 968316 932360 964990 977352 982826 981886 973350 946364 965127 965417 974159 981156 977424 944695 973825 946542 925758 972303 960820 977056 977046 969564 928959 981558 970305 979336 978078 987964 994852 985927 985466 987237 946640 980375 986211 973074 968322 924486 960861 945413 964669 963488 971586 973612 985256 944548 941408 979261 976736 984693 984527 969795 970205 993350 978040 956323 979208 980321 980936 964920 977621 989897 970592 946348 980772 981924 926546 985046 984072 974295 970163 985536 967141 976626 974951 979073 975932 988946 955024 981699 985504 962343 921025 970037 962335 955353 982581 988082 971353 974220 962536 974489 966761 982081 974758 969660 976069 961021 950579 952182 943387 961378 961103 973712 966772 960554 966777 978003 980962 989663 987089 952665 916587 969166 909780 976101 964504 983728 967486 952450 959188 977116 950595 970256 947455 895625 919069 969100 949967 970113 915159 948413 988222 975509 981661 933470 912438 965009 974313 928589 792754 949427 915977 937228 960445 928073 898947 939980 963871 930324 881028 932707 961622 948928 957143 928495 974685 970982 934189 971876 945804 940135 903344 927690 912393 947997 906693 949777 950064 957793 967466 974364 955289 885413 905468 971475 939043 944398 920853 923506 914203 954438 811288 815538 895386 971852 946684 949496 976964 965351 959258 915733 915028 976744 978414 949161 956097 963996 927370 927271 949082 958548 976293 964289 979765 959419 976863 925199 940266 953499 970297 933760 877193 940983 954629 927560 933578 928609 969690 939685 948698 923830 886732 921078 939642 935776 929146 963164 902310 945038 962204 949698 963638 932885 948623 907324 947995 934723 920539 871736 928513 954150 968204 974785 939598 923424 953514 935266 959823 962685 959432 946226 881198 937152 953582 952702 971440 906683 907447 965525 965252 947939 890533 972705 945279 928484 858403 970548 965136 967796 946504 961455 962269 899914 932552 933985 946226 923278 925456 914875 908227 955136 977536 972290 978699 955396 971461 935825 966114 885098 946255 905342 904104 969654 905178 903278 957530 944740 976645 972176 961615 952604 960868 945941 904868 923906 963958 931404 962390 959778 892926 912172 839122 896358 916547 950417 961821 954507 901740 854111 975735 966570 979905 969951 965283 945562 928765 945407 957422 948210 946350 954740 900892 953389 968759 954033 967601 933291 955244 970335 972623 913771 867108 891812 933240 950036 949230 839284 922901 950171 931434 928935 931471 930435 958329 956611 955456 934912 936647 934379 931769 972678 951872 969988 956094 963235 953384 946825 973328 941274 841633 859919 914802 903316 950022 880250 902848 966004 953716 909748 937188 976169 961102 929136 946445 912724 931009 903831 947743 952225 899891 928385 936807 960611 970063 669510 902125 819236 794351 889096 902345 774192 869110 938667 937203 763861 955579 864570 829425 884511 931196 974090 820313 576553 895207 796985 874927 880983 572485 781698 836052 951476 929465 885626 884192 901787 820637 773999 735719 887966 932969 740957 883512 860571 925162 902562 950076 884988 830614 863226 748849 868943 884547 935646 624988 844095 911552 836109 853644 922430 903661 851012 908078 917582 920835 947722 928595 855308 879025 916730 941271 944191 779231 850795 922564 953083 935095 944977 936006 766719 807808 857843 818512 906656 810639 905714 829563 614781 741590 900485 795408 693325 895088 936192 928329 907062 771792 958482 957596 900101 965095 891018 914160 879127 847633 630594 833630 888072 942069 885964 876534 937007 937469 896506 847719 833016 859153 910043 737799 656874 814397 799023 758965 742659 811605 880105 698936 917078 939603 912291 938598 934736 949306 819120 904183 944010 926925 875209 853810 912852 910414 907769 912377 947872 875863 866913 899515 861636 929738 895667 950042 957903 932719 916160 887392 808105 891055 845736 936850 903371 861899 966439 872142 948648 814820 739815 928303 932333 844677 940887 964810 900051 831104 916192 904007 949934 932570 751651 832296 885234 906896 830296 834503 917040 836013 899718 910535 925408 886035 927028 884457 883880 863353 966927 784728 869402 933818 792359 902839 922105 854717 717064 763998 828244 805213 794897 927292 931314 894135 926862 909476 838990 879756 869760 894657 688021 734470 883198 918818 926358 890131 957197 931326 914581 787980 896880 834594 900104 830337 789611 907412 933496 924227 912730 900372 871585 828925 840583 907382 943253 908566 920585 962206 944165 826018 912859 925200 921490 838757 881244 902628 873457 918177 924011 882174 921259 913161 930817 936662 946032 803064 869733 877513 881695 901092 825032 940352 915868 792089 958898 579776 609325 882887 901192 849784 853374 742208 942399 839491 939440 775836 765883 875082 945064 969769 936039 853071 924314 804413 829833 768465 928910 955806 881014 957212 807230 907771 917311 880332 920255 956491 945564 952569 891765 859960 877656 824365 933213 898882 905486 807460 800415 846946 883142 902252 903544 842267 804958 860837 855340 879224 953916 910697 937743 959961 805913 849733 845418 890174 807717 883726 868129 925333 941188 936736 882799 881241 888019 933072 837251 808407 834062 894266 960731 963346 892755 890629 820025 875277 906219 942709 937680 910036 921258 969309 943714 942776 944914 957656 939239 950130 898521 874174 778296 875440 880604 852822 910442 789223 910712 898041 718385 877802 943403 946298 826801 949884 876376 826321 911837 898879 828517 813576 840648 820220 842565 863038 928895 802588 818125 874482 951929 856322 854064 862961 806366 785678 927694 970145 953202 906769 935633 975733 914939 914992 861257 865402 861113 909768 918822 921227 937910 927573 941450 922844 729171 943896 924200 752433 949112 905710 882517 893042 902787 812304 968675 908133 946793 951613 927049 960330 928711 902362 926622 806973 800529 958330 874829 945129 887350 867850 864118 854242 847003 863133 886136 895045 908123 922263 797848 811208 775641 772048 834088 919767 937177 775349 771165 876177 780292 918002 836891 918913 884027 909995 894007 953887 905176 936833 821636 933954 895012 886020 750430 784179 934010 880516 922968 926759 917658 964401 926345 944272 943219 957292 784329 944357 941933 809274 866540 905845 924147 734300 878718 966558 882209 872915 831834 809660 806019 827768 894771 893014 900955 753850 934816 941719 804399 722740 852913 869075 909554 958191 935023 940775 881494 906685 891973 889358 904034 955443 888728 889612 904670 913006 892424 856524 885663 847064 872239 915507 879627 821632 929255 826270 875886 950945 899844 885249 789313 910184 766433 879369 930418 783285 967619 949783 594447 622643 807247 724266 747871 774019 725321 712794 852344 887968 813660 772131 602359 511380 806548 710746 727096 765107 641385 777907 747506 732799 893115 933751 807005 670877 794965 759009 804047 883823 906845 665194 876955 838432 808000 813666 481505 566230 862969 784376 771070 783991 783038 697001 738807 807820 482500 382122 755699 753656 661764 583871 640172 931539 625105 915182 798996 882430 780284 791299 887478 844740 772862 798595 754669 681455 714149 722242 779588 786981 886105 917587 720707 674742 651746 583135 825100 683875 837348 873591 790424 898420 944386 725216 825977 828580 546144 635806 664480 826678 648942 722662 833348 665178 788812 769093 780234 583747 547598 544950 694924 682180 765013 557008 751391 833308 843919 638107 856333 695036 753362 870719 850490 810648 830865 784208 897878 889432 867273 902443 937749 922749 883228 711600 846730 671313 864613 874029 768461 828215 734348 844253 694977 839010 735804 630475 738309 695375 894846 914145 922200 803438 879623 721898 540135 739091 791015 852834 641853 414247 549898 627319 821826 753827 792597 712305 742197 486451 758111 716073 896547 873653 786625 542593 612312 606257 703633 539564 773461 881714 463277 737850 634677 669805 649552 860701 754298 867822 758002 597821 718105 839819 689058 653903 839576 765280 902573 870272 885723 699226 901433 887201 719326 773485 807662 697365 716343 422846 817726 607072 376864 558284 802878 760617 865897 838126 847464 857690 864326 737661 628524 804506 867198 712548 814156 595646 783867 654018 734653 756120 738037 807516 846946 435054 824693 481066 737159 735403 563771 599151 727137 772063 754691 676366 651021 755159 597894 646846 791679 763966 729655 642818 590198 610421 646503 854728 889338 737893 889165 892522 605281 816563 812853 807891 878216 728904 800418 756450 779966 885777 813739 861752 739796 759616 842259 748245 845780 712132 786110 815753 532027 726636 868375 902127 786451 789249 899111 947047 702803 872511 618801 816890 792698 806946 784878 771378 828312 895409 667010 749058 875476 921469 822139 928626 511162 755423 844893 824620 833783 759242 654746 701952 783674 866730 604468 612200 893076 892072 783127 899694 788676 825988 904805 820392 756326 776353 668519 931659 736092 723875 581353 585203 833124 851588 738273 821755 704908 556894 838000 790160 757348 802437 854046 803953 678914 661257 853869 902675 805729 882634 817736 905744 903366 717262 722832 617339 806417 536230 800372 818208 891708 560453 593487 724619 830840 741778 815043 897657 765384 749791 783230 518917 884730 865342 909627 896390 855479 684580 872377 569287 804910 833038 867842 772342 792852 689270 874133 954207 758011 481408 614938 725006 911806 885220 563045 788129 866465 696623 743466 694256 820490 671270 661533 664727 590497 652879 488425 708660 648249 777881 694652 592305 684856 694555 906652 836454 870633 702899 876437 796149 901336 845178 593078 584297 872430 877938 536672 752234 659459 585214 620795 683802 729276 639128 878297 824906 887802 755099 778933 864354 466788 678728 652769 911804 903165 911059 549678 888235 509221 672304 793900 623242 675344 613404 864739 881332 805919 646656 759114 692665 874674 733310 824759 746721 878051 772674 902889 860449 889879 897768 800013 863743 809502 746857 770270 761688 859667 843375 889241 937521 800480 873384 672134 801079 867059 793901 896785 920487 607818 796941 891336 667815 836574 672676 865780 867232 751487 834129 780556 799381 727723 840293 753661 871715 750613 776194 923219 876653 873885 869988 853983 777841 902402 887889 870160 900633 855064 689174 630657 755334 774812 515136 746825 857501 581518 872912 697652 765554 780498 744792 735605 684774 752312 874429 843573 764510 632258 665698 910097 890754 573202 370681 599981 551599 747501 757053 834323 755353 842397 739197 781817 786755 683723 526902 571200 874071 781610 738548 937974 816206 758020 765328 705105 600977 706621 722743 779813 862509 940950 921938 935851 895189 829543 726332 882269 909127 802000 761024 658260 714032 642799 594977 749003 892223 844944 484833 789181 860096 942069 868168 708607 738910 866594 901127 859849 662443 714867 843060 868561 881861 754377 932572 809194 717159 885874 736352 883622 868910 815612 708388 774951 816405 768643 721909 796231 911029 854591 735417 524108 809126 715041 734482 683538 750832 824462 796129 761649 829646 711922 879267 684851 867482 834157 835837 565450 717925 748182 808597 817224 772687 792185 673270 689810 944472 530134 844538 883596 857492 919778 847949 624410 618730 681135 779733 830681 816078 845062 819180 805535 563794 558414 730023 845611 772010 858305 798555 716548 716705 862441 890336 824129 726117 875065 793318 783326 884609 735646 788082 759449 773119 785900 682323 787382 542133 880763 698004 945957 757840 913642 609048 683412 777469 878873 854733 654744 525537 471905 585089 785267 758619 766934 681962 807745 915056 625175 888832 635575 663068 962552 908327 926276 827132 684394 690630 705969 933285 860145 767187 836687 870072 799263 818523 725161 668474 858054 679041 639103 758184 831504 697337 842046 583973 799739 784600 890167 878417 722260 596137 533163 798643 781293 761467 501117 608186 861595 865525 933134 859650 764429 724987 571178 790502 850959 855740 864009 756951 752648 540609 834914 870594 890936 821023 811002 768667 731911 687893 837075 809478 595673 797345 721864 744726 848203 614867 649749 845495 763337 793799 731993 639976 859677 340817 874488 939385 624195 852964 805603 798534 783726 846544 800217 669136 769669 637028 788511 724590 963787 523390 576846 828956 764789 900847 929357 882538 945115 966301 692651 893314 893906 893044 835703 554523 791072 735122 758395 708633 884359 669195 710644 861397 717707 782946 894222 907103 748010 606998 628199 882123 916802 842637 703707 689758 871211 939536 814799 837628 713298 722742 857225 757569 685861 863055 766782 660770 694537 706441 799312 842566 807644 766874 923771 950150 847515 812976 870346 889908 876913 883159 866360 856690 676594 768728 871624 875863 890252 746722 705358 796443 682089 781401 780621 794847 931076 851234 439845 869866 727436 894117 839992 769701 862186 782425 857121 856067 833017 838401 842673 570461 711299 770667 836586 871101 881017 848944 787751 907885 910780 843357 733497 686752 387690 660560 710866 612457 632455 731477 760272 741484 680973 828364 906065 540876 734556 754484 497239 665769 857314 861977 558302 699221 909692 903378 598467 728792 830557 906740 679432 598027 907114 898444 732067 869930 822216 950074 697709 780152 936362 901583 801261 680476 799252 872544 657249 760912 878197 871382 520777 677713 738985 722300 879091 782423 759932 812541 807371 705749 878153 630726 889474 917143 853771 806370 533524 767874 883764 903824 868066 577390 929208 864554 763819 668442 899379 642197 879310 690672 773633 673210 847198 857971 854037 897016 823197 381317 473873 566589 784835 830940 943640 737855 850497 666410 863318 832359 733876 815703 781578 517317 743428 795609 719023 721710 842580 455018 727471 717181 560102 711333 607157 699215 909136 887039 750550 930195 461814 539186 640637 696585 753148 713765 631548 813642 745544 827028 908271 954467 886543 898294 903079 859271 732306 740878 627744 779345 845959 726661 832707 867645 856701 897145 882930 556234 841033 779073 711861 767528 690259 781028 760637 866371 881629 654556 779405 823132 826049 785915 813270 832100 706411 764990 835579 834453 868532 832353 817092 773494 787252 882374 780494 704404 724261 828976 903685 417777 747351 831828 846210 557524 568378 577430 826147 575149 605372 311688 875443 459253 869594 857991 426421 644360 864159 368174 286777 571147 525331 202277 483462 345955 680231 669041 222888 652776 482682 163294 519028 508362 616895 613056 701534 326941 620363 612112 538564 860277 812040 620991 757406 392312 594124 349741 391965 473796 785073 665139 649177 432676 706779 474502 434570 697371 496929 333552 745935 689448 623336 643567 688558 192955 609030 718298 698504 907704 789624 323702 539341 506383 552992 684570 741915 567365 496793 653951 719420 421638 851457 884560 615910 643309 443357 863186 556186 768526 250509 750090 705674 617189 399485 327484 524420 452889 609217 571208 647581 769551 571214 708517 709852 550885 180755 669338 532564 543289 585559 712649 577410 632980 482388 470648 336827 332625 703598 556575 332995 670716 540132 476416 583345 331002 381280 483263 709004 591242 493497 260271 448689 475156 724961 411979 799599 181696 502583 730854 273742 440299 729916 853521 827951 330197 688978 711836 544617 731284 561585 707081 457636 552420 679485 583597 602154 678526 736087 550056 674032 220001 879833 665262 505087 897362 566844 654032 601339 580379 495794 340468 582779 284479 693808 316400 510164 508954 352149 821952 731744 535932 744593 527800 173178 836831 876576 528351 494799 441172 790933 518501 786606 781596 305606 457457 333043 601861 513798 404853 823752 743684 637482 641198 654633 501271 675040 831039 265709 495551 585586 586401 576277 435804 654554 404618 373292 409273 288480 183793 427580 523784 583787 502582 454318 268097 300591 598801 526277 549720 739941 730334 519279 449059 679692 718815 622696 401140 665220 813774 514816 645570 250327 508803 867133 578797 467792 650054 472593 761112 791085 802218 592324 766117 388524 700436 395212 852254 552634 651308 743766 571012 898740 771510 755275 874780 773826 561236 635837 686407 835710 828375 618955 109603 742473 829379 873060 809303 268977 353641 654884 751268 678624 734036 696608 740757 631505 553124 718620 589419 683000 642027 501037 461687 328511 366479 541941 657383 867391 820620 891209 774337 796388 821554 354416 797809 486793 460746 659373 550650 434164 485106 544935 713117 763793 612554 555946 619622 620766 540757 256935 349632 540089 482675 387010 360098 815162 689848 745635 635981 505570 787868 610317 663235 550144 562938 319432 149068 487790 323807 548904 692085 759564 638643 727769 537622 744086 356472 395496 454403 374325 588468 511324 561206 669359 485590 318741 472195 725336 767586 245645 605105 454414 242146 542009 418437 437939 158637 256388 637042 637006 330419 569468 637176 572278 687883 696956 552618 739821 371357 474647 571966 613937 240504 266016 815144 180011 666357 583015 617557 531062 800623 369824 500108 869252 553021 856742 780048 496940 825186 407452 630407 837467 803288 573329 681059 487570 481870 418566 692765 714038 413090 560246 622020 687148 592755 341970 271772 710213 746548 371582 479471 372112 368745 352009 525910 720619 529956 682098 728912 510445 582010 755130 547513 667418 762476 748735 586294 791830 466775 641772 710569 520614 438791 568802 582456 866349 691804 695340 610087 790095 652459 347958 387698 524893 635426 548556 575864 287341 555853 598811 527827 214588 581216 643116 174657 743753 579700 325014 271637 809840 613407 348958 468400 410240 664502 703316 280393 524935 472418 347914 248109 656817 460729 557291 218475 583037 668579 527484 567634 374951 566815 419386 688867 414690 558824 358926 571154 539975 645835 747016 669307 315739 481144 360829 598892 418779 248453 602169 586952 642115 505437 639572 718766 453804 875165 585662 369404 828274 647194 843985 692807 539471 541852 156066 547235 389081 677256 401327 741913 683017 362838 571227 628898 738259 426603 636925 673645 752470 688359 645584 828708 684766 732073 536294 749735 573948 730156 706833 423222 487791 791245 634134 539006 529254 835444 635566 659482 501991 745187 758599 497604 492993 445416 684487 424551 858033 466093 678010 642430 730326 743136 756378 417662 274542 885203 754384 592435 544088 395112 823436 845651 484586 171816 731823 473274 433131 460093 805932 624657 462436 740614 752995 708833 628572 790286 531127 871606 341860 613108 640939 616326 498046 725102 528990 828474 739467 585177 658385 916288 425650 468024 463535 518399 736847 549293 643532 679325 548077 781017 637054 704706 414587 455594 595815 648430 776197 771625 288444 714057 561052 423072 541694 599111 764371 615669 536633 551806 682116 595669 449405 877813 644301 672676 535540 819295 554384 490271 589213 572532 722357 357427 598803 737747 335251 571536 644747 658204 528912 410998 710964 286869 576069 568231 441201 394978 594077 798501 594067 839792 310296 186035 713173 557635 519764 680186 470513 550283 697428 757381 519291 708107 489098 573588 401352 779137 495780 844834 761395 729148 182156 646206 427034 610948 850086 504968 901967 493040 590112 404820 798933 514641 742773 567064 791282 816824 881736 777686 674156 391915 710901 603104 484265 596237 195503 713921 425238 472440 592203 391673 666428 413719 408428 602318 494644 406721 314079 187097 594274 450235 512406 641103 502767 508368 565695 669040 505216 713749 728438 733434 450023 429217 546469 633251 463479 320029 736532 682687 397309 667230 872459 837415 720211 838106 667629 847989 673802 549048 845668 534180 378194 555753 705517 784672 650988 504655 654362 718481 451481 460710 709184 649551 192535 462843 765610 853285 819028 771121 374639 277379 452554 300718 426314 561615 451922 469581 882055 774103 236945 637710 464113 223221 754549 461430 591473 743878 657862 625768 378896 539264 660151 250687 653887 817790 220081 488371 621818 593801 415061 663671 456131 552929 470937 553839 481655 462871 659098 558033 464865 463436 666457 522653 573647 535006 401212 546876 661211 543913 369258 261488 804735 885716 818325 669424 611671 674241 528707 376924 341015 433626 726752 727086 796739 717595 674543 551758 423046 391972 385566 467731 668035 807714 812506 762344 474859 479278 596714 372112 292375 466263 535070 563956 561116 431918 663368 556377 586558 680148 512290 606503 764090 839758 675567 539454 476504 695490 427867 640256 553585 688425 805041 532279 302906 360863 260039 554521 352395 482513 774208 866506 679342 529133 154226 853590 209335 533922 873378 699516 432064 107784 336796 630704 413216 335354 528294 581860 664269 114282 505875 561168 202134 653337 846059 801372 569421 745584 641439 591754 734552 683511 456744 577920 557820 784833 665320 658161 398638 618110 527652 439489 339719 841023 370741 756783 691678 693796 685851 467797 787230 888188 391786 631464 200601 451340 580137 511650 779823 800963 702567 690124 449134 449195 513471 247222 747371 560082 714954 461014 408975 778780 858151 902833 483930 639545 856010 392635 338586 345451 430399 721640 295883 600921 695215 734978 767622 728075 566386 675974 390340 413589 346545 537496 722903 383085 617943 563607 668751 789861 391775 571412 576809 491305 584999 779891 540121 738281 124690 752892 751996 462804 561015 731776 603163 452611 831900 791975 734575 227749 342181 512229 747900 584753 776045 767698 680471 626461 479094 622744 419734 594200 685001 866169 495196 573140 242317 663929 768221 682399 784616 486649 694144 462053 858454 900148 325206 621558 402446 607620 341837 416412 550788 547829 338465 538924 514257 412216 602807 193236 614501 519314 232092 533140 868271 834559 279186 542106 268335 627008 592149 368662 711347 732021 564933 693362 594348 414289 417353 638691 730238 833690 430658 732968 504001 706582 610271 616260 455715 660607 293803 584818 787538 735457 471195 513162 345981 125167 560061 291116 302957 538885 382201 711948 462690 246552 496268 576549 649966 405927 346190 642528 667286 486123 494039 663652 560579 199353 624026 481460 305462 440608 495211 477841 811689 619124 583060 631402 598899 485374 813531 378170 751186 527213 555996 628875 642871 460391 406119 653258 117779 420531 559920 182371 639359 679470 760030 399553 775032 844655 940923 604082 651618 911596 527328 804869 657233 663679 827949 484415 519347 662829 363287 766676 227473 650450 459154 792649 718468 248362 613598 637469 695069 327813 289501 278346 477582 327432 655733 664685 593713 582367 417773 813361 339324 272484 514939 631662 669848 675638 858434 832618 558486 405349 414640 667587 511688 583637 837759 805966 682789 857816 639952 339869 631297 548643 647291 537034 803342 598530 538052 343970 485588 633803 546464 676470 895628 811080 700729 419555 643733 519242 656870 861211 707947 337513 410968 597819 688335 862476 718686 551904 532728 623160 319880 490755 693755 742789 764930 728369 620075 686083 500991 416251 635917 591156 380837 817060 586937 664926 294892 498891 523312 544782 356587 681591 722700 595868 423809 510951 714568 498971 761447 572812 695458 257841 639732 692119 615386 709999 523600 637405 613135 438225 590160 393506 541320 794783 609666 635508 439875 486146 224291 427053 450562 581022 461778 603923 462145 790096 737319 673003 627888 229901 631537 318951 500593 530941 649686 413822 943868 747464 389459 355727 707048 530769 615625 854429 768351 828375 711485 795938 193881 600974 495320 560908 528968 473795 220056 617822 660638 661543 772309 744980 637234 740802 690324 531646 556582 347354 633549 714539 499810 459478 522987 522482 594619 585333 616333 480067 751835 674292 789952 712703 695938 773553 669954 418905 642065 247313 489049 753222 765333 615781 208813 681215 705962 705198 774408 551920 576667 615166 552240 471452 463287 684545 556106 285076 693609 456619 528634 464641 656932 643120 753833 684521 475095 643752 116462 537001 517114 337069 572748 445987 660980 678620 335409 919616 743299 684127 648263 863650 576835 338180 628388 470336 328648 705656 566808 777530 733759 699687 412359 610315 479391 337001 189367 400957 531741 456581 580186 452387 235444 457789 517875 671063 590632 630922 571573 423987 325012 724393 344710 88727 788386 775750 411340 630113 580494 371138 886215 954054 527865 852556 900652 161630 706378 766313 659376 503535 685818 630943 538762 685342 869787 921125 752601 744245 541030 182936 817947 788960 803023 836437 454581 698372 395843 561045 211256 701833 610388 614601 769294 512754 506324 548522 550305 559986 444216 651387 830655 820903 648335 559687 691087 340716 391685 350817 249021 757674 764322 752328 633393 863431 664480 466730 702176 489251 562795 437359 532208 505689 770107 728034 766127 772033 421008 686262 85796 408877 526880 435658 611357 767345 357812 776880 875462 726623 584485 665856 600264 738923 607264 420076 269268 565203 633464 741353 756629 796379 668491 791001 608587 768279 697138 699337 517136 306187 293247 356740 793481 672933 864323 819922 705091 551620 749883 781415 612803 733703 702231 757736 673055 315429 363096 554475 772133 307924 414780 565572 372207 507631 743083 595584 661836 630045 414955 304238 779376 671184 426574 524903 510359 592653 556811 330926 201791 559731 543731 778925 621206 582964 441922 403211 674885 656076 302097 227436 757148 807834 346435 748859 183264 377217 729649 603547 650749 498100 702796 651454 468645 639408 561440 496810 322202 731476 618312 442479 586222 623478 618640 627953 747265 574118 579089 450360 890221 760352 309164 243561 419139 377016 766549 425664 467837 656639 756201 805064 911441 903612 860612 664439 652444 751788 961639 900850 529113 520771 372711 445775 714505 700342 498311 323646 603842 135206 438641 491746 481026 594397 611981 497224 642337 716870 602643 377032 562989 808563 660040 669117 231201 665263 664518 387675 543705 147171 771156 347419 686567 642076 805521 673430 100386 665099 550831 533729 502583 571986 329225 724852 561280 726067 724215 795071 662962 605368 516436 433876 823156 865541 598590 761892 748927 745790 625357 608986 684498 177385 266677 272684 513140 799035 724027 681761 607926 450373 856710 619542 588835 552945 425938 475600 563869 579978 332881 618679 609189 621427 557700 553827 390380 300523 476185 403847 578752 500985 208146 789867 500364 580233 417979 741012 734628 472706 834743 671382 870509 720686 744887 655598 780184 502088 769886 333631 602796 504539 531749 616748 688530 863754 648898 379106 204332 558935 585387 459311 593342 574977 634178 648506 661923 645681 734219 540931 728846 709654 717228 460510 824102 585191 778694 660817 392146 417165 392223 755515 625830 688230 177777 694600 640516 749723 730772 680868 780308 773380 734124 534980 645117 400812 641310 837644 545166 497219 488620 592003 648802 580865 520189 269848 423763 326667 704201 272708 398348 633184 667518 704191 665058 609835 791774 592322 670266 687882 808919 600249 747617 352950 764290 752690 526695 507382 270713 516599 344067 248463 572461 274537 468931 424396 399269 609408 612384 617948 306266 676145 689365 673481 491588 418435 492702 663151 617208 681826 700145 698771 465018 317420 565168 711180 462815 536381 273848 365793 547609 482061 516700 850496 719486 642262 538326 371868 668498 334435 768422 631429 491917 723480 96331 456024 660183 380034 728356 719554 520117 863200 556311 503465 573177 342790 808474 572273 798420 550262 235160 678415 768714 490083 455574 569989 837594 647163 693496 591348 136210 442458 885796 381030 391594 251850 755761 389105 671269 568590 725880 745317 741453 301393 142825 556736 284787 527136 597499 844688 771080 622375 402838 427876 620799 395195 698110 645173 481586 519767 764161 479063 732528 451308 565436 333917 592527 733550 421583 805386 396519 642697 819005 826192 623592 597708 464401 188996 647352 845947 739833 411187 780403 282730 377788 354995 601816 615571 835741 745454 510509 143563 409555 686225 427633 334905 678338 444252 787241 830248 691173 700874 336707 574532 661021 868512 589470 599664 871768 472815 446473 590521 112744 639645 244915 644887 818493 714621 766132 801699 832026 545488 798474 798953 818830 741150 302858 367346 422058 436295 463231 322348 658396 778860 651641 614139 761429 646904 596274 565245 285421 526286 612830 430375 377027 545160 512378 490639 331148 451002 772411 717562 646872 534351 340003 307196 737994 306392 672872 317763 90888 505153 544707 716790 679198 756604 402157 375255 331975 182686 562494 529829 362458 523936 429426 462713 292759 568713 567261 665597 875338 428674 878674 269843 744840 673910 921649 614616 234187 365954 482268 491248 479983 490865 646182 663980 752449 625337 601149 695455 294961 420846 792251 716943 425971 305991 690956 485372 686038 745466 720259 174691 411817 822824 515373 890348 459018 890563 696931 466572 507647 480229 569837 578769 490678 492540 630554 706903 760747 686164 393774 540141 591461 568771 684459 619972 754388 718863 741577 462025 235490 848436 526301 485661 332704 700513 365919 665891 526955 680700 680920 666532 440087 620207 451527 387262 328833 260258 851877 814116 454978 697368 470061 419005 496032 727532 754547 789478 718806 563297 433128 491879 617797 690662 515871 481130 548450 668296 143334 524182 477272 724942 566607 375141 862293 321393 721252 792160 534571 725259 654188 395169 643528 452506 724912 423610 675215 310217 366593 696389 566072 367823 677510 704397 716858 854108 288022 211190 550789 489477 688452 428683 628280 815009 455725 499292 490844 484461 392309 473534 529407 438787 212519 529994 520855 593063 74133 74931 404287 301884 405752 244325 155882 245417 579731 787660 413695 38817 64322 308404 399033 27097 172160 271234 79513 19218 489821 192532 229993 449893 146011 24468 369947 150224 157484 173153 646922 181344 8999 333401 55976 52661 270646 369259 226185 186981 106239 146858 516578 478073 301402 343486 408772 38419 127533 368500 346256 335751 33343 186738 296956 247496 44414 388984 264006 460486 836256 172436 606142 232996 133272 189941 741197 314684 69700 90846 538486 412791 93219 105755 46221 78309 420010 403622 493147 148461 313226 288005 611157 599777 163913 261987 163664 658422 121481 194853 293448 62706 192916 234847 368836 459129 268447 238862 559853 716872 77575 425736 576441 38373 504109 245576 196062 417272 113362 104573 121261 245134 717516 409983 55818 103534 739281 110992 710742 291117 229697 296982 100197 415938 431408 246305 478877 514523 147050 196651 145892 536833 116904 247991 431664 195800 201295 318342 213583 546728 239534 77512 391179 41103 582946 699557 164482 288718 592821 347158 432816 191842 590239 26395 422112 455045 263777 196351 11442 166610 332555 106134 167394 5092 296933 8653 208502 279144 18511 114671 47004 501478 10397 112504 270610 356285 28218 548882 487989 7839 61860 109603 326596 387155 539265 365275 646173 102368 277757 263830 56515 50415 562264 316224 263838 463574 276382 19084 366205 67534 551417 369234 551685 407187 405067 139599 124026 310352 404225 225370 77443 155126 288562 227253 626615 12200 214006 500126 308139 288640 165517 237332 356601 463049 411010 21911 299398 87017 317616 86180 99941 202413 462158 180268 653958 57129 184447 391658 19671 57985 113718 103557 440753 390927 377013 369427 721727 149553 339857 195718 200772 576609 153653 81010 17208 126557 389171 349256 58315 222972 237109 221196 602943 659117 15923 826586 157818 213337 50013 289909 416404 583026 679619 701777 509106 28841 442013 649080 34444 215235 398609 205113 54703 383839 327865 20002 63388 659733 958 464296 165763 240660 536009 449570 15736 230935 388387 325539 513923 141673 213534 112713 96326 724177 443952 531176 118002 446236 754116 176471 145878 465365 266747 445804 410166 187985 467561 115005 362706 274828 271727 312737 219123 69411 237983 40225 524345 529117 34083 231276 465535 257001 37577 225449 349069 1564 633282 649739 558391 544215 453913 368078 74742 296562 369330 465536 158371 17299 756254 393367 729368 347319 483240 202414 244350 328568 150413 14559 479764 604172 397230 72660 458988 600626 250978 21006 207831 198761 206019 316361 158946 240991 200049 18893 383845 94464 129205 172499 29316 660214 703472 600666 427452 366759 460639 96017 349182 95364 287845 225477 409287 641318 713586 356514 174122 259846 205896 268104 209562 523951 287285 136945 35890 437809 260413 350825 539145 633001 72029 104777 342325 178031 51911 379973 27592 110031 120760 81926 387825 331118 454511 235833 182766 210620 51819 428735 432496 66842 64138 179963 145211 28309 329517 147505 57436 265305 270926 400770 150216 393671 97161 682788 61989 272236 327982 400185 96392 237853 469582 193090 233314 172937 158262 227660 100656 402485 170839 412403 296152 310736 625655 306134 207464 168068 386759 104488 704502 688959 287209 1342 397089 385767 600828 584195 368818 257438 607128 679868 513504 694162 272344 427408 249709 432315 503793 728131 130535 146333 679738 124111 115492 220644 317017 100 537492 112280 177630 395450 184611 391968 293598 300004 714662 593086 322735 77163 54050 244104 489003 643955 511110 513410 25927 293003 631089 217910 315085 313923 587935 511394 47682 756451 545631 615153 11313 38240 198424 29984 466581 127033 594109 654557 400476 666043 146308 204363 341611 175435 222045 238841 616166 576488 624709 271730 386620 29043 500186 518209 565498 358154 477791 373260 304850 163724 696577 546939 579057 508938 631607 551256 113280 334073 145172 413774 384844 151956 200947 225705 22767 340239 446079 228728 116801 211638 251859 186158 120665 469030 758122 276201 37448 581689 296925 655008 107041 117941 349042 90812 87464 743827 279151 10055 215264 34751 86380 294772 192978 186523 76727 42151 280346 423521 294372 36445 33551 295689 281490 676014 510351 276943 28104 379754 548478 305565 70533 318071 279351 120021 140599 94927 81820 90505 538583 180668 102346 446786 260888 186069 310241 245379 683442 437818 431612 223677 221529 130215 188278 132578 475083 229131 364432 200794 66245 510360 355822 452294 79836 494375 492791 139343 206558 277099 117160 50658 185422 359324 320791 184408 263333 135890 493823 354578 289564 88436 255445 243539 270616 126184 25510 176399 248587 483516 38298 263781 150419 295160 227028 34785 248605 38204 230036 177932 5453 162172 270478 292131 89568 265870 188531 462378 286426 287052 7643 53942 52133 214514 69565 426436 49674 181055 316152 32775 50961 57410 211228 73339 348446 124092 219168 241953 190761 214693 84713 155961 36283 102545 131964 88228 34693 588249 218270 141657 481209 349981 61235 326766 513151 457316 667921 602852 665408 87133 184779 434360 207139 578090 265191 285546 328714 41168 270116 29201 158293 404940 16494 210667 193496 130807 469406 537612 49077 97578 354322 309583 392316 139979 451293 375417 222581 280451 346390 162488 12349 23408 135528 422282 391628 741371 509071 355763 777988 770149 378138 349110 208458 489163 522697 150088 175199 189897 207562 7344 298595 459796 7374 710685 219047 143839 501247 452088 31603 47641 470900 387772 17316 198251 616706 617147 512317 37689 218490 370355 514998 190772 398813 396146 286142 47493 568556 352270 52677 123842 243863 6504 538330 49800 213458 68779 16509 169202 449682 386706 18896 168245 123240 81547 89840 322477 57187 18317 301853 93995 221743 494679 159906 228162 23706 272561 493209 454087 470035 181361 685755 69344 69407 186193 279808 74276 473105 7542 89155 310926 480241 449873 379608 182142 386540 151283 624615 462898 577848 306936 148565 440837 254163 323427 455063 108030 456476 242297 463234 245414 266218 396404 488835 437001 248294 280671 741606 469395 483466 175814 294530 161238 195655 128890 226890 186429 405483 309640 380772 529429 141754 65854 241398 95802 334091 234005 457135 409379 53389 180869 48272 122483 309970 560549 5185 73554 38220 67019 726331 136996 386909 237850 271842 201761 18298 108143 25187 600341 48863 605439 182362 176480 189748 73901 265757 143045 17045 407209 128935 672370 1935 187426 169896 389421 143219 386123 24375 95016 66144 131637 188896 180680 314908 285863 467663 426279 51618 10838 157959 526996 247973 491033 490956 385604 184383 287859 318289 321891 363413 65374 406576 62309 542384 486254 86898 225465 293488 230932 76182 25117 561665 212178 535964 529474 515294 199063 61765 415609 3453 406627 216588 32854 394887 27522 209396 226488 490786 318075 97074 77838 80926 169342 549927 302103 489581 333508 498642 388279 205587 287026 155834 292861 452870 640140 220191 374951 867445 587086 56869 553921 226954 287098 11900 778551 435186 323131 684703 591012 558205 688994 302058 271348 17596 495194 55023 104312 193912 224681 342525 234578 610674 238630 47646 390543 204775 75362 294629 327032 29957 260645 454011 282820 29358 516142 531039 328699 212126 160194 548473 168750 130857 516736 676894 115975 157276 226339 516209 522986 458148 824924 27268 664633 655237 479803 524556 535007 608115 78705 179791 281353 476299 317739 277183 204975 301745 259078 486369 348834 555089 172639 522843 354413 211195 46340 309057 38381 375301 663164 429360 348439 31072 306570 407945 41927 236934 477324 174270 312080 407163 229846 64090 77963 262580 411110 38505 359369 254903 370430 809993 97138 82941 354410 208098 81361 119592 377548 406809 536895 691022 465213 518632 708148 13624 392803 112666 177131 267100 681606 487968 392098 519094 183436 389673 81358 74956 249462 405933 118817 517407 467824 68357 264063 10000 142240 336460 521918 398644 325107 314361 98223 446002 2702 424436 370993 494060 595441 352722 440007 516073 119458 33948 35449 304030 317302 119945 98238 735151 502136 402136 462244 21911 191477 73609 105590 496097 294834 496560 508186 553149 323678 74368 432156 652963 15204 357927 523055 554303 294777 169966 47791 179815 70148 176571 186199 667253 751494 13286 268084 456591 422545 253568 462151 482541 448478 330037 488432 223462 545636 453059 111324 482720 669496 294789 206625 761271 411090 108153 192943 49326 457335 64842 304865 26503 368016 440507 575706 337165 642155 333707 341582 112358 597515 103094 194677 1571 47369 300667 470853 238322 236389 329897 511389 420048 497383 698207 687473 206085 557230 435901 390608 339805 258897 95771 342936 568253 470693 203139 290255 607807 782351 422754 373993 492717 45229 350271 436980 271758 778868 114156 349835 134632 401027 79067 101005 291706 412180 341064 51757 247803 251993 180059 210777 460370 338991 222973 237671 317962 477123 30352 361074 250224 467371 392483 468591 144401 348137 544265 455856 21486 89631 380052 477498 197262 190356 57365 140686 6004 202720 577891 576744 580368 482751 539446 198866 467584 400280 247073 41741 133529 184689 522169 390960 97876 341389 331360 310424 75621 597479 301502 256482 338522 242487 458843 188425 135162 683960 497042 144058 558303 188676 84468 126008 151798 214641 385012 126949 193365 682608 62070 6079 249473 648815 740273 312119 670091 57630 135857 36991 372964 320211 320599 312244 392467 8951 485365 552882 206526 442967 320650 574935 109423 144543 282709 216496 299734 176241 491693 36304 223116 339169 40900 547963 537086 270803 780765 481505 2854 621285 766522 341379 561067 741910 665349 640407 277255 120016 611661 655787 382653 341398 319591 327179 472071 402959 191968 5419 75468 630860 342680 178324 85374 429250 506107 66537 269120 297427 264893 301201 99162 294628 293169 396226 235461 504395 215677 437008 23962 391443 216272 168280 124260 3241 347071 192879 360338 279831 507395 444682 495256 279573 270185 404118 10728 474571 505940 62400 154400 10121 31504 114051 611124 636143 407008 682522 76865 14252 317537 70865 134217 280773 153929 6969 628666 535036 353448 274060 86755 208186 121709 593280 431464 564984 377504 194409 312326 211604 71473 211685 443203 137709 452225 231527 204941 470126 185356 487402 58407 398098 223220 610022 522577 33448 341215 909 211790 345132 284525 375841 431624 359544 37394 2948 25036 680723 158878 443235 398037 191645 288062 618085 76384 98551 297594 368143 370321 67390 443790 277008 313765 148487 152283 121706 428937 462191 382860 603202 488044 669560 330215 276122 236616 601825 364371 300602 217103 157267 29418 187772 83283 201327 181888 269081 34792 198935 118280 277590 408999 108503 542814 803548 508868 177184 235977 138510 451975 477815 349699 114781 88578 213122 144729 236165 103745 2396 160519 469340 146240 187433 54167 340156 9819 566964 239344 212446 123075 80647 572894 365837 215388 231297 158298 399865 78319 564518 87620 177126 313067 320737 114690 30616 529162 448902 340432 72989 324674 275982 316094 66267 71611 269403 168329 8545 208526 140925 164827 396412 212768 409910 575408 144891 265934 421401 204173 27927 240321 224334 354913 250324 90080 388934 404296 344889 37481 1179 120032 318989 246519 181538 567466 286217 65856 395595 9528 128921 115252 157344 597984 190478 143539 388272 606636 246117 615347 349388 556038 58238 502602 106355 185288 44719 271471 18268 140064 249117 403408 284026 557232 111230 329006 559031 521393 15564 274213 85226 47823 448729 21817 302791 196186 303970 57652 195220 343733 8825 72585 398272 384018 192882 213170 58824 336322 128441 552711 469534 444351 366579 132217 461648 414629 357652 368705 295925 280573 176844 266975 48928 220936 420759 480405 142164 19219 467552 314507 356055 307945 535122 360669 221934 211798 337047 222869 351882 74039 153796 548836 597448 541488 507840 822740 597781 560671 8525 476822 269073 342046 105340 615317 309650 277871 75361 499429 150390 446986 462114 271826 570016 738358 692687 531837 68773 165916 246237 91961 151906 130320 255854 190261 40669 319724 160622 155193 101496 218210 516148 521974 51107 122237 296365 416486 75250 99893 135900 674911 83541 84175 178677 250164 436528 229823 251192 225554 334849 79187 382316 37469 88960 89042 222876 412783 578067 147719 223060 187233 50554 121197 482103 218178 236811 367775 167842 55992 27905 101616 358106 416274 35702 56607 57490 529039 330328 723562 224907 473212 136551 357293 457110 333394 681959 391363 549562 77991 208193 717388 613609 363700 530518 25984 332800 119345 208064 332138 222959 60720 568621 22560 222615 432629 516508 388641 197954 7838 204533 25036 450320 357376 47040 297918 296891 675682 697887 258626 144271 85028 669125 665454 502323 551285 463858 490620 213853 432038 252401 90613 343812 184453 596963 378933 373300 19527 1865 70456 25942 396322 313885 198732 78502 92476 281782 403561 115723 607235 464519 435208 18372 567874 192933 165576 311039 107344 184593 281150 441145 78517 139026 132520 107667 318854 353409 8796 50741 340405 432413 305160 350647 429056 325234 229510 418845 819201 869429 363810 321282 218992 204234 5955 442895 370185 178700 275157 43798 237874 280466 138696 124936 187949 178047 136182 65627 396800 296200 461548 126576 455877 722495 67018 593773 692386 560530 288727 411315 176971 117463 303114 207786 219887 288156 151101 258371 79347 151888 5645 692159 260281 145330 506917 211210 56182 515262 357737 667314 158519 599865 71119 221163 234943 133725 69852 201672 107844 431362 67658 129021 379577 54544 462967 489126 481823 464225 83900 31595 632056 47593 52422 562687 320202 50723 204794 78963 485000 308673 520180 501847 314833 346457 562265 501307 187515 681321 15103 78129 12510 56152 234985 322572 17599 320115 682537 282790 297230 533535 408897 189657 547237 191567 270066 1200 46522 215999 48521 468950 290416 379198 233105 63848 157039 327889 271178 454979 428120 864042 151416 388039 41945 238601 154492 88804 9688 334185 4716 418374 443120 361563 97274 83394 303397 138862 45187 625647 173374 34601 440728 719716 36791 324278 21765 16314 488202 230749 261631 87372 428110 19571 144257 57669 378250 76356 57786 106804 481818 489483 159358 336894 70575 460055 62863 376670 65257 365924 478440 393134 23752 111982 200482 200901 257465 297745 106383 155701 370790 517925 674719 302803 508217 466821 223725 132814 8940 233874 35885 16906 620510 342277 483596 214683 144750 59994 326659 322061 368494 161927 238176 306739 198003 376994 305716 469720 219422 167214 69167 116700 327010 370126 379796 43524 448500 531870 267249 128028 95108 258497 74889 449677 264641 39129 166514 360107 143859 373654 326211 250707 419719 269325 99003 262512 35867 21218 14557 735184 438272 146485 318462 200320 385915 243772 259584 283076 50007 104871 222065 188858 125630 142857 98050 103738 186319 443125 20233 265670 110896 471642 267046 288259 132732 40307 474218 145819 109507 460 197794 189190 147171 248012 286280 245473 519640 593245 61015 146340 443634 188776 75241 121141 115517 615448 527946 84718 154022 4568 330003 550700 453106 190917 13539 24238 53213 107127 416893 372565 157341 121331 88840 765146 160474 549861 36205 92896 279097 575708 466575 12516 187574 153896 145762 31919 236701 246394 201975 381693 45120 319899 384423 152093 66555 126154 219037 508624 20930 431452 86969 12973 485839 205334 22118 57020 362321 38915 273195 320088 69701 178258 82016 396869 341191 462096 72860 161397 83953 336644 449237 51868 761118 774792 875646 910885 409014 232375 230068 633031 179739 221253 300582 84455 765574 86975 426518 135990 395497 551022 77561 665326 70491 145395 217494 34473 655167 236654 152420 168178 559838 300744 30494 197403 632381 171426 143940 378321 596299 276821 526253 143962 12126 171216 7759 551453 290108 558974 544765 87119 159385 299124 236149 272803 36070 235582 26781 341913 294975 15822 528774 14199 654820 605474 338051 321536 427299 177233 102294 148093 494534 190021 320655 30900 124743 70253 82360 18574 69473 342438 414604 634229 352346 538691 754844 840185 712919 551635 329195 535713 163239 314101 241422 71204 90220 32789 163910 431206 268 176979 810308 763433 439305 536251 520004 481584 661510 767738 45652 99152 129305 203710 28765 294860 500733 122825 72972 621944 261983 239403 410795 509750 206508 198322 75058 101553 335182 11494 184011 71923 239247 339589 310195 52466 64122 327396 501421 884490 541058 366680 178362 330701 326865 226204 350741 17377 76443 405680 231237 38267 418087 400634 72111 34053 175923 15780 347677 210370 408467 571211 516114 76605 31094 337384 431500 125183 62858 206640 365817 503040 222901 597924 177528 295032 426255 396268 334506 199162 304136 573634 484237 719116 586393 62881 176496 584258 156349 496089 269012 360914 182279 117448 194441 348287 530222 319008 266158 254446 793935 84475 329355 375523 250715 201639 167123 224072 444738 182985 146607 2733 438934 389097 143414 145848 99281 375797 12678 258027 337286 62934 179171 320863 270592 337923 236478 449930 159165 52695 247713 542947 333424 120488 414053 565243 69837 61985 533036 207523 343214 484975 535278 528090 687485 138067 510238 509229 294404 284772 332635 566525 130568 239207 528066 469147 126774 206515 228262 361535 89822 717670 571164 463856 272742 522234 419370 332076 13084 161652 43311 141880 75189 157371 419020 178056 415595 23866 148756 136095 273478 138180 128989 164501 42552 292675 331192 230708 178350 332284 265585 323807 165719 46148 197540 380674 68536 64805 232598 148060 12554 158678 430842 61291 114932 148661 257231 899081 233870 340624 385344 216905 44667 119080 453084 247645 460694 252453 1093 436859 594107 18870 290677 23291 441524 700605 619754 35745 178046 612186 138221 131478 253844 577246 44099 122141 65214 124545 430576 114549 435614 193618 147021 48159 97730 508623 86536 626973 409482 512038 650624 42371 740670 513729 171868 410567 340265 669881 113667 481262 334907 216545 270088 380284 41959 113747 408280 411158 380858 490383 473453 397887 84617 302623 75702 203829 42837 299082 185005 272045 342698 83130 156890 63445 68857 315341 340472 327648 77410 167461 76392 757407 711495 54743 686043 388162 637223 388632 383880 470269 73715 399230 64732 78838 122252 121834 172158 178528 78571 93931 71527 558525 414447 454140 20272 88176 505292 349389 254546 462387 559948 342315 3839 646497 299463 93256 191860 348270 389610 509146 310545 321414 158354 449767 151893 111081 189245 350399 44522 26995 282762 198371 182805 89881 248154 347771 114534 472280 48861 117139 479098 143666 194009 558366 478751 726861 275654 274057 203300 217424 254785 51583 49165 111125 454174 212408 368089 332285 134493 269126 99221 139431 155795 158784 136785 390939 517923 236591 89992 296664 238225 418413 486325 467301 413451 528331 231982 457839 829660 459589 549667 562378 23395 135452 301168 616921 331649 378167 254743 161437 696780 342205 259947 310349 715890 413830 288440 135482 678954 673867 97048 216112 202073 500458 428920 278309 314569 283309 45701 86859 44861 192321 521609 527272 133427 402834 285291 455582 336169 243932 123408 214557 169858 19822 494762 295163 633871 553869 796 482431 224644 540966 221929 333253 138551 48796 72738 209382 599325 458081 255160 325800 1236 10225 766697 302723 515461 14895 245670 174299 24523 538313 491459 491564 21654 283656 49769 817709 240726 916527 269733 274891 34175 173354 201154 275581 107039 25402 580139 451581 73029 754027 311968 10623 421597 134782 103748 54895 34954 30708 490827 163911 434132 601691 210531 757626 196880 529945 443114 552490 706216 61688 504883 396675 117095 171992 231606 645933 423314 427596 547065 280521 29312 467675 391095 97600 16923 307124 115044 46839 534749 92632 67131 125810 518876 660208 45831 510916 544508 277609 640861 521223 289758 256625 467800 151398 363738 520041 344182 212753 272092 499002 299633 260071 131509 396925 63714 403863 50059 553351 419467 355495 300231 241316 384671 268191 185501 73732 154950 237514 32480 100012 25088 241766 212802 722750 118246 345549 146016 527201 177691 307417 688351 104293 414506 110995 461398 285761 534131 225765 90213 82220 319014 336518 227980 348240 395444 446176 260260 111438 277984 70030 537442 561288 446539 467331 113012 563813 305081 232643 605741 667849 12044 48917 356818 352724 4024 205337 5263 304560 201228 75463 114478 652502 300635 146984 97118 629437 310524 275482 159939 358383 173159 413107 492661 138953 572419 439967 720364 714143 403739 603955 293739 377346 55274 29759 482110 355811 482853 482594 459381 490199 136399 446161 157074 230991 200888 318189 576012 216254 481678 424666 14777 448394 575059 256401 628510 237804 235276 437665 139328 299157 76072 144625 23326 113021 152023 159655 248172 88895 447881 409309 581625 579157 519168 523478 279718 152250 27370 3752 56300 519410 329855 103729 360147 516144 594646 532485 722867 522532 478453 605036 175533 193762 193348 192356 49059 477480 655501 252942 241674 251501 53714 90016 305437 155994 217386 248133 375738 343856 119052 22064 431177 502079 532725 503092 227413 185907 245486 24119 169170 35267 677936 132706 565300 263351 153364 357320 30686 42578 311199 123723 53921 57878 475998 482094 65284 106012 11809 138645 275135 499210 257592 36877 352909 441262 39145 433641 540039 79395 335230 282425 198070 209354 549891 608432 531568 62558 116271 245204 43276 79360 254155 327002 785534 533986 127972 206681 498742 14498 66053 7420 338081 158480 451890 391262 237283 3159 165222 219369 119296 47312 620210 410482 247748 210667 187221 293079 490211 267983 554534 146596 125810 410236 68417 164306 564840 639917 427727 213671 167185 94715 39870 227331 425396 211533 215061 127915 321253 561163 429596 458135 552734 297661 51493 175300 239848 217919 493901 630011 174598 618637 159697 233364 151539 119495 13803 163350 243623 278264 579131 8912 54343 350222 12228 337569 656626 240003 416516 14594 101248 494336 496300 471319 704610 542980 531982 311789 516531 573731 335032 537770 418644 161106 389184 171785 11527 278191 410959 155075 262164 62584 263482 351956 126247 98792 309779 159661 395044 121973 275693 287183 116442 11262 455586 97622 100840 21839 207815 379750 115653 170093 430770 84952 399751 41818 445564 270219 29088 484936 394454 222263 25626 495791 242543 383107 58784 85790 295882 141638 528645 84264 199365 560744 549411 529324 125757 184005 433759 67917 366761 90683 125534 265403 205787 390423 11344 123149 701003 631966 314868 321934 66307 264669 524467 372940 726890 561161 71880 400341 60760 15983 171423 240590 270170 285315 203724 519043 199248 438804 327970 411088 92305 150060 101710 622943 523097 381866 125035 320920 401766 18115 482860 48990 612052 389424 88754 320154 194748 501784 154178 223922 229763 731832 722404 669288 370731 290280 205645 116966 301658 278990 530203 550847 461869 11039 255322 514592 409219 471709 118104 49131 127258 229314 93284 263359 22611 301386 286479 519765 111053 393451 385600 463481 439517 587298 25413 78615 475588 297311 323227 416937 101119 343595 486822 49208 73945 387623 56665 193122 563860 177246 12626 178090 77801 11348 588573 58352 508817 567071 316913 542624 447708 186297 296903 67100 10776 167215 127357 117015 83475 209491 261975 40020 324666 171946 364438 492457 83015 32779 281192 157625 100086 403099 100455 382120 260327 323066 483736 596164 214116 123021 22471 105779 688880 165410 366216 372009 296744 540909 644326 80943 316227 95133 374852 506925 533406 465691 202770 415087 269072 682415 100362 175054 460111 87562 416977 25045 490954 163622 398461 158153 643875 375242 611481 852439 42435 355743 265291 330801 38816 3928 147882 299205 580494 303325 299839 80015 246499 318643 249392 297753 404680 141743 60559 106132 323083 458618 200014 511138 419949 509915 28267 138503 240260 15609 362380 387003 22041 610151 44622 317830 119992 258547 9799 177327 735925 355536 340361 580570 230697 238207 341435 394462 165167 385857 700335 706268 352278 473041 369902 41981 98137 24759 160399 200791 544566 41989 243707 502357 380547 478330 323391 319008 418540 72906 126687 573630 275424 279857 113594 414203 582296 539608 100655 281337 232625 465362 160203 135786 99140 188239 218553 207456 371273 234455 572576 433551 210879 543085 4786 332642 94366 266557 74999 118946 158595 26424 25019 188675 218459 625945 149198 192843 170108 339296 171403 268278 538436 639658 354944 380266 116340 358712 206634 516149 384389 18302 292496 441423 204193 198209 544069 400527 409871 608240 187690 492456 661794 450780 35752 17127 266586 117959 368940 498015 103951 449622 405801 209603 96149 267135 256731 258673 84921 342967 91567 59022 184840 351421 62422 249255 242404 412600 76083 140017 262310 349324 84385 282936 70683 577697 132261 533990 99921 55855 548949 109126 670035 468201 574693 532051 445980 436549 42861 246704 30529 55907 507381 28240 123678 577152 496404 321900 350276 145704 14727 286130 195498 10867 56070 296975 12685 26820 312131 351281 183152 84202 383827 400489 111824 201433 69904 315166 527748 226690 384346 235830 198556 57614 570430 822950 65335 275617 290907 590987 530854 176688 355761 29204 145935 478957 58599 86173 732939 556201 455913 422612 254349 135608 339760 116012 62296 1061 9571 61293 121292 446881 377721 132503 43818 321200 265065 8420 70284 51501 811246 211277 461875 489298 37034 16661 186253 283132 7024 42090 500378 40504 237533 28233 254105 160179 155252 411267 74756 12910 343423 12997 506975 663467 444677 463016 443133 439292 122696 51358 341891 582853 368925 459890 679601 103716 34924 171991 114565 131989 397081 428062 268890 315947 187596 357584 21157 155904 111615 137696 488465 204239 165545 206455 433862 412423 333631 559302 486915 535868 421800 354501 421458 85183 17813 135517 28551 120188 129603 257212 136939 62168 462985 271715 530079 93135 567155 298419 625851 742028 162318 502854 130220 321846 187999 98344 124910 596295 200512 47686 330226 318870 331379 193965 202186 270013 477397 116408 715090 104824 462518 95000 392020 668914 203811 250691 172833 227060 264299 11540 398023 438601 80542 115231 11585 334115 181118 516114 112508 162508 55795 58171 428361 623076 368205 91648 542861 149729 209889 168214 80566 134068 143004 120474 364991 446927 568264 299589 235038 373174 33239 314812 546882 283565 236770 30127 185556 53346 60681 174661 38886 299266 358094 557680 334820 108918 43425 222749 112191 295004 20450 3993 26233 249510 471659 637993 16678 407985 108094 193073 105337 334580 136952 335122 66683 405124 720996 490742 438873 235547 67243 242207 166359 324876 550871 162467 660357 164318 43897 861113 146128 252774 255171 232085 55617 398566 357947 153423 7793 177188 43095 476554 8363 42695 627170 550897 208686 182822 47681 532134 327879 726694 633277 619582 478156 561839 561349 414246 79956 91317 298847 176458 636805 673188 165349 500870 296562 153815 74028 601768 14147 114577 126569 80342 286031 335020 32278 93709 46463 118374 45407 201257 466545 555839 736845 396661 56904 133282 139660 542166 256354 419317 551551 641247 376783 208122 563073 318297 102228 221378 427857 348048 539898 148039 247251 98428 82708 80940 402750 467737 182255 453377 352254 54520 202616 312007 271971 257636 568937 685069 233368 167532 34002 297303 105980 432874 93918 174754 215806 283933 477919 90352 3741 88174 577969 4601 202290 7739 64838 7901 358230 134400 272490 77018 254190 200613 552544 18418 142275 525797 389739 304326 91620 61450 172330 28150 48485 3125 496981 136817 269543 119153 71983 258474 353447 248657 34663 399418 103024 434728 223455 262643 485738 428336 507739 181340 61488 535999 417919 279746 375441 396461 443290 280847 56982 62437 263478 113875 544703 544541 587228 796660 359060 119065 612 19293 286271 232396 25569 147441 326908 403367 133984 469895 141365 272527 645084 499621 76157 4951 216719 623213 584744 601252 86477 377104 79608 97853 249518 45703 96498 199833 524036 480815 220909 568121 293257 233537 209021 297765 44568 111622 337971 165660 641221 398632 496907 253122 640252 68500 119338 107096 157671 321735 75856 514097 473927 196692 876280 502940 71219 245513 700569 154531 54824 673282 111547 142974 116514 183036 19178 189854 355439 538444 172561 77261 335000 112792 17048 88660 224437 45777 24327 392028 212603 37991 392337 499767 212740 366161 449982 159799 78637 513230 146527 485724 188251 567552 258481 612592 217459 452 511320 229903 160803 418348 79098 100772 16533 71687 66376 692368 85577 277258 468998 63031 195229 297012 421399 632070 305193 251162 378865 265623 467574 32919 312177 300741 435063 47672 582972 197941 406170 406615 384430 245682 42261 142972 251544 302432 150232 113934 161277 102507 670659 848974 84330 389406 355654 90269 59153 28414 220653 18175 403885 163517 415049 131942 300186 74633 77819 108870 448046 196316 427399 616211 90052 377819 398153 27023 368463 282350 435830 259158 354730 283750 265019 404739 374641 22145 271859 383546 242323 590754 138079 65513 82550 345210 35087 238567 423320 170705 317363 438243 257653 191795 653605 631673 158011 119877 536978 334320 125834 197063 480871 480111 641372 177361 533257 654133 73866 340391 567896 308980 134239 277325 8470 110054 291685 61287 607455 522826 216471 142210 346844 227503 403818 3878 223644 433214 288280 112978 523703 216582 345610 630473 384905 308894 664104 63386 1908 109490 69833 66778 332001 512049 109975 186425 659411 616401 166275 115084 532307 363783 518902 527444 112939 193020 85952 47392 172250 406849 22759 357505 177070 283204 414555 336729 302646 58157 210665 340600 64416 86024 518972 232175 413380 383431 87757 332958
