9507
999078 999692 999316 998826 998640 998834 998300 997515 997874 996898 994912 998047 998230 997174 997957 996344 996958 997448 997380 995042 993421 991355 994673 997855 997481 997225 996993 995551 990238 997338 997151 995094 996127 994447 995331 993100 980002 993912 992422 994647 993468 992936 984071 988871 988475 992108 993999 971423 991453 995947 989437 994694 994439 986893 992722 990592 983712 986568 989729 988990 994602 997139 994094 994578 992641 996037 994815 993889 992649 985487 992286 992157 992773 978496 978266 987200 984543 991655 972145 979833 966273 990024 974442 973838 990510 957624 974187 977828 986094 986880 984336 989242 987838 986384 990607 970514 965795 986991 984461 986553 989094 979603 981982 994222 986508 972734 992644 984478 962540 990056 983186 990360 988366 978309 968638 977889 979312 983732 988481 977795 976250 994586 991617 994894 986217 959527 982225 973822 987218 975817 988731 995389 978622 992294 965706 978484 992794 988108 992204 963213 981232 986485 990653 961573 991511 975493 987010 963399 970714 978137 968362 963139 965602 967178 972435 983022 978137 963937 953187 968377 966367 955939 961259 987723 955061 973967 966999 968639 965427 987543 976648 935280 929638 960898 948930 941123 932533 971222 967637 973081 976122 935970 983031 985379 968362 978097 981515 985484 958412 983268 954994 924957 952188 953664 944423 971836 977835 966183 970124 979323 951879 982557 988682 930942 942689 973987 972064 993533 991902 956800 970872 957888 955284 966001 969585 977512 966350 916554 950636 987025 988475 981893 976697 954811 935839 970268 967817 977097 967094 944644 949274 954694 968325 970958 968796 980142 978344 986815 962065 938558 950295 975507 974633 982057 978527 974561 986391 980622 983864 979626 983266 955408 955852 971615 981466 953796 968150 982849 962219 967478 971192 985539 985822 975743 977058 959788 968772 988263 991880 945459 953572 967282 928844 982828 954291 973516 974329 992111 984850 957895 959416 930103 964882 966834 986071 985019 969046 930167 960173 990626 987119 960968 965107 979617 983083 959054 901726 970548 949309 913586 970745 966195 955924 923414 905655 959179 953016 962612 930126 958154 948691 884998 951646 957947 973095 933340 783550 928297 924128 943830 912610 938812 965315 895211 952629 904357 814032 986649 917235 921203 954115 918242 885353 898862 955287 950032 953549 891409 963698 913064 958268 911359 902291 878716 922234 915507 888470 958975 883517 877480 919070 898772 855279 888657 930336 965256 947250 911902 938388 959697 968316 941991 951818 871294 891965 977188 947241 930237 981934 912408 950933 957142 971279 953368 955834 964470 915406 940149 948114 972125 915585 951176 913878 913890 915039 932174 943843 950465 898143 934060 902006 954757 923797 917683 953096 904602 961754 931811 908422 783826 887235 894943 938734 950810 973901 976612 957306 907656 900650 921565 931646 953092 938281 926042 921160 988680 963716 943313 974064 949625 939140 955518 956973 932588 930958 932260 930393 931565 945962 942661 966101 956739 972100 964888 899324 890120 899064 937551 944966 775199 932581 936432 970191 968978 980697 865811 905770 869772 944567 932119 859576 947233 965666 964459 935444 970317 955653 967022 891377 912787 943880 936284 923540 900669 935800 956168 954327 970644 960892 952837 958826 977957 955339 963462 901908 978203 960536 945706 855071 900796 888152 943401 942106 964248 839640 948985 918807 958007 958782 970715 918291 966577 965887 961729 980565 909703 974592 915232 977001 979481 972517 975810 979617 950944 886160 949226 918862 962327 956344 878890 952331 926726 941098 947431 938426 969433 976329 961536 901852 938127 935810 963833 945240 974326 983557 964161 980860 937478 894414 975385 973703 938384 893404 947443 958798 924707 976240 959343 924175 942095 943483 879227 836806 918104 961339 920484 838555 932593 968969 953701 942851 967000 944463 965099 964616 968046 990305 973503 980284 949576 945186 950544 815856 895460 927971 946032 938252 959128 964299 975905 974014 980199 972579 941568 965577 913102 928765 942607 829087 951423 990004 935363 900465 922873 932310 936022 853849 958726 933801 960031 960756 937514 954310 881725 895285 937474 944194 877165 852363 906893 822192 963003 919484 885502 928387 909114 925604 867707 875727 870517 902310 936095 707407 837512 935780 716214 880940 868052 764278 940649 957755 880007 913152 868666 849259 922687 927638 938508 944520 850122 913861 851890 886064 778339 672771 811115 850020 717559 867352 725303 827215 900853 910688 803756 724629 933446 961006 854547 775738 920786 769280 875923 904231 701223 764202 915039 881348 856368 834280 755155 888100 900360 861521 897891 841366 841614 865466 882165 838712 930304 867475 933236 792341 948612 942439 753118 878454 944757 925053 842357 843240 948622 938234 858037 828439 813977 799828 866082 732718 847321 870065 838592 780829 885269 832230 957056 943090 619645 842759 873774 835106 877390 914046 866252 796293 790700 788454 805235 837617 927782 857687 771126 964247 888578 931205 892563 791492 815538 880757 959333 956372 956984 964757 909478 800662 934387 944981 803379 790750 867661 858666 963996 960104 931777 834746 876189 903268 824414 948374 876726 863611 904828 947132 935071 942019 938989 939915 924498 948123 915409 943011 943490 957644 906881 887489 881723 928189 900967 937003 834872 954903 847938 848845 916437 823976 851030 871512 825814 830417 862198 894045 930142 835148 910770 941575 898735 916707 873090 869211 923184 915783 876967 857133 864886 791415 852054 886660 881517 881757 938137 865486 871745 641250 865064 873212 797811 927904 882903 851498 768061 661332 834548 879304 882978 881787 900543 803105 829425 946191 736467 959133 929923 889240 927556 852422 827024 882177 762284 646967 889256 892654 918558 918790 883107 930173 928210 934903 925533 863912 897413 916858 820368 952654 717475 935105 841006 939872 919824 944737 929823 774954 926700 846897 943490 954260 898149 920578 829688 757793 873516 924788 892402 914877 891941 822932 929508 848160 834088 895369 907179 933296 935998 957708 955867 926729 952205 962600 915459 940667 837617 890466 873609 884818 885430 881733 871714 820689 922001 927291 774119 707615 905541 738718 933603 909283 896750 936382 954482 842660 804297 966145 725153 825351 889569 697668 789639 814124 893008 859756 827243 784650 641377 789431 912438 846786 817093 961986 861887 920172 923688 843021 913466 958417 948898 824896 941992 952733 800671 860719 765815 754042 781955 912816 783466 935707 852912 893109 882046 897652 905101 912757 920013 864215 934924 935665 957919 961260 904710 897221 782722 897288 920249 831147 891828 880771 946196 876805 923472 938749 843118 690230 959950 853124 854304 947037 791134 871028 633647 828007 868192 793322 715100 819386 921811 924250 927662 900441 840148 944951 838106 772253 825014 934136 893838 897054 861141 909101 916322 741854 923352 944771 871252 909325 714859 925528 960604 823000 817577 960513 913655 938586 863500 908829 966666 911759 848434 901061 939147 945567 975943 942353 924396 835460 839115 838587 951345 974523 923726 947306 830657 832606 936923 923920 907920 911418 898104 867763 920784 939457 850981 864673 931988 840304 915273 870260 880950 854238 831076 912387 848065 810751 859616 880536 818701 832923 897361 952303 875351 891017 906905 929395 916096 885112 923016 886443 922528 818681 955853 933719 812629 958546 948600 900893 974589 928457 931447 887939 812704 887978 934274 959353 947011 969398 937385 927339 818654 882477 930484 919385 943591 920743 880615 805392 952639 881550 944137 917256 899373 844822 910974 903149 933452 776975 866381 867877 738141 777746 889274 872114 819285 870372 873641 904886 724169 828238 823658 907738 897652 956361 800797 924663 827587 937998 901300 818067 933587 813841 929672 945130 792797 869933 901442 838475 813399 837814 963012 932333 942348 858586 902524 948018 871314 779288 912101 921861 758708 811779 890104 814044 899877 850171 885749 941892 892978 904045 956716 945160 828619 956278 971171 778728 943410 858462 935326 958714 945217 878102 783636 934157 956366 915170 858257 803193 910600 898450 756639 887427 788097 641763 912851 922112 960048 978206 900069 924171 875554 819825 893650 853809 895673 928159 872942 879616 738635 831084 906473 886060 881739 906013 831803 928046 949207 939179 916354 895741 862594 915742 846481 830056 692676 790050 740841 928123 929820 906122 742433 749613 767660 691720 837820 852068 782356 791543 943892 930375 825390 899484 876533 746110 581859 909200 883577 802273 721225 851949 862837 741829 810451 841262 801826 791553 817857 868508 811892 928948 498811 652415 710325 683675 864655 896966 615825 674902 722330 772303 820360 731088 679898 676270 902421 906845 837011 734395 877024 757672 811283 847472 769827 864416 819160 809512 730672 900757 813357 674356 742068 770979 819268 723149 752806 816660 836857 913782 695864 494269 726540 875023 657074 752530 617816 590842 755839 475294 699710 603059 709445 371100 698703 847681 681904 616889 820930 712222 882294 773193 906282 493675 721173 646872 663982 717578 656431 871155 913576 870028 772021 697991 746930 770642 902147 890066 691172 709536 796552 762859 681009 640093 640864 639260 668254 541561 887776 872307 662739 619352 800718 834461 630040 831718 748460 554312 686506 797029 899954 768695 823790 852924 833743 763348 706798 418138 806397 700185 759923 737289 775487 825824 833568 769461 868681 608122 683596 780577 740232 660310 735216 708865 877939 875595 744162 923186 375330 697412 807923 736632 627109 672102 579744 862881 832723 733693 657769 748492 880063 900003 919719 775787 715270 590838 539596 762383 478327 731283 739852 778513 797367 746287 681116 719377 812851 803384 768530 837371 698279 755330 482439 608421 693509 748921 773610 516124 827137 669822 727658 939008 575267 467304 780031 774195 868351 832147 782771 618537 785360 862336 730208 800051 667234 848197 551643 572379 730979 761537 453971 650791 596533 660424 822521 451566 901147 875735 799053 759816 675747 588090 717642 821551 659538 856513 894718 854601 758902 786963 614000 629639 689422 398414 847029 846382 914780 897779 935132 846845 949212 791403 898761 853227 671070 805931 798555 734121 874841 889956 759104 646600 645729 742903 667319 706524 772101 793726 806992 834072 904477 906090 911935 792472 829447 893318 627754 763062 677213 767454 850797 871337 736671 735075 848135 737789 742854 818922 778915 842781 815820 868069 933488 879174 645341 906077 847413 783357 759236 930749 924672 893407 858282 856556 722170 942814 479144 893363 915335 752693 907688 887001 808291 736727 812316 828849 856784 533185 825247 878523 755665 898123 689633 801362 747575 715075 652913 710363 926539 923870 667868 717010 652760 723152 908048 515879 783584 701746 820437 820380 802265 728724 551490 687139 674751 793667 819024 854892 769052 876394 873840 880351 762101 712363 662149 538156 844149 937658 874563 808477 911829 832123 770962 640903 803958 531588 781801 843870 893088 884952 855832 776301 681576 815118 656414 779000 783694 633551 735253 799491 857759 809005 776168 642312 804653 871897 933289 805514 800849 684290 681570 712612 494224 637635 856757 697292 823110 852085 761831 796489 873383 868102 586851 800432 829778 750125 755077 720108 575359 554199 569829 737995 840078 837954 850949 777566 861125 858101 854103 874521 712542 582433 750433 761632 936881 854744 664746 653384 860184 887826 892889 891061 861088 775715 650790 618834 632629 660071 507432 820776 715568 850548 720136 736344 566985 486655 849372 806814 885186 837214 726800 535101 913545 880606 851539 536292 747218 804005 589275 647306 920529 826429 757227 916915 748853 847788 705589 809248 819962 570275 690491 761338 928532 878189 710306 648946 610468 884962 496226 716092 897998 748447 816457 629481 757790 738219 746615 912832 743169 725496 743275 920596 779174 823915 866242 430951 756000 730182 833590 799087 690218 787698 795010 812389 696450 721810 833638 792320 725579 897159 753639 684524 909104 858043 815559 843211 770735 809845 784447 908308 752992 675721 779195 822450 862139 873076 494873 853699 912912 845572 875775 904383 943286 611118 946076 934101 868811 844514 945209 758468 842033 857155 737087 912490 863318 922385 652069 614567 769183 803785 861409 821521 773180 673664 869711 800979 878153 850764 844208 686747 687693 782344 851425 552777 807608 907968 761301 707655 649984 681178 840667 883953 448925 384894 919209 862638 734066 904344 874467 773736 926458 660140 764840 834340 629388 708363 673209 660904 857598 934268 656145 639811 709578 820041 837827 792781 676913 636709 788362 775775 682969 690089 715226 878335 475083 535148 765696 691782 405640 735204 505241 612141 714003 697106 862256 743225 767643 383225 747273 650297 858655 903673 769364 820486 619485 823638 662503 890954 796721 804650 883467 882073 861434 751887 947750 883847 742474 749916 914407 919580 934277 802264 659000 724076 773235 845234 533742 658599 714166 674731 621066 730619 733311 890291 736585 778935 721404 644912 829127 783529 855702 667615 621225 801059 828167 857580 798061 861230 906862 889438 568205 786077 781048 755865 725088 858671 935636 872395 930131 857385 914598 872715 743026 838665 743334 838276 778255 547947 819051 867497 695779 776781 795938 610131 737820 572803 588105 706633 875028 943872 849818 846718 487151 683320 901299 923376 734290 827222 643410 631833 812524 560769 724891 787424 813636 817033 880912 910403 600952 564305 571462 724686 604126 479209 808034 754069 857174 727677 670112 742110 625883 606914 750326 682205 802638 871806 850152 916653 905164 657880 780227 455156 776808 828251 702089 862855 794826 825879 647741 610777 706596 776540 913006 720890 759630 776247 636468 754535 850968 859922 836395 843287 827900 875896 681565 735469 897842 773596 886993 934565 630535 850292 736256 882875 639081 552787 665091 878379 498263 791606 762049 697920 678931 548333 935030 899433 879832 877758 801807 831657 791714 641495 714130 701660 846086 919195 828408 856519 746165 731041 752053 497963 889318 764031 943585 735227 909787 745090 798305 800369 888376 898361 789919 682710 807472 747766 381345 829574 924167 836010 939403 846122 823940 535082 907729 891403 785291 758260 782620 744261 731790 931536 908153 862813 844187 768389 792477 902031 875193 721507 749338 604747 886172 836625 878746 912054 779464 778607 856704 851898 903785 856995 832497 797641 654371 892783 550787 848771 824900 826608 786765 772264 812054 606584 502150 897036 729869 760394 747498 669138 695360 735327 767022 663294 673059 439020 526394 792508 590435 889136 850982 929705 791087 656018 571472 867241 664771 888923 789751 653562 912849 844762 677914 869780 903888 847559 793625 846867 765191 893421 620302 702925 810564 891833 757170 759543 696873 594251 898838 907665 880988 607126 724720 852085 784954 955542 835162 927287 657011 726506 734688 863663 745580 629146 694940 613776 849472 815583 865403 875110 632333 722429 920784 921593 748262 918994 860646 869069 787284 775045 838657 764285 903542 864494 870990 669839 834890 644408 680263 667901 719524 749208 756485 684694 710280 951144 637615 859364 914441 867174 659007 778494 881967 812813 835031 826112 835282 756171 867877 890640 895163 750090 634520 741106 787371 769829 676161 783995 601020 731167 702442 544997 827088 673593 633158 823811 757682 636819 662962 862438 871887 809833 804778 759761 588431 615304 665576 739370 812056 740907 903885 805078 755560 743495 850742 911000 683496 620789 760409 913350 784838 746592 872724 601633 772815 858878 585410 813378 845990 542086 764030 636555 882485 853364 941750 884464 654634 581922 737622 866259 820757 867710 736583 797599 800236 615621 692237 624592 716041 904773 732818 798272 776992 855943 778230 813025 810613 838850 834545 824552 823756 776787 514493 675673 872446 844664 743146 556318 739426 750012 663252 553040 599629 794142 709605 801359 802107 795864 740027 827780 813857 871675 810804 913154 877732 794162 873420 791058 786571 812253 714856 927239 795672 798325 823297 895939 951377 916175 612145 596844 806556 814933 817547 802497 924117 890199 835271 910654 778468 564498 671048 852938 661980 671219 789113 699410 861091 852960 899602 538339 834171 747692 611515 782243 875396 580459 766352 885579 719487 698534 806726 881413 678431 638945 639725 588662 633860 703188 750894 831331 784408 950701 846199 881213 711213 614292 922462 917411 861154 706075 702037 777474 786604 844716 669352 771571 869654 882872 616353 794311 832656 691280 795937 735545 712322 644318 742816 651245 873059 850914 778082 784234 631597 865558 705519 859977 803524 716818 921830 868372 454601 835921 864641 863903 911532 898307 799522 686105 567124 815073 851691 780639 796209 808142 778688 737103 621935 405302 774690 443326 610742 553617 886541 617869 840734 832869 730453 766738 686257 730171 622769 397547 602382 749406 688242 422927 795218 613284 747947 816175 249378 600317 465237 684864 462421 859573 873912 837142 722327 537946 848447 682809 717172 728334 170130 743851 514673 389419 653409 775143 520383 875118 426265 400508 666896 529478 528030 740319 477204 784921 483652 509850 785047 633352 704937 638699 565416 652271 313318 646147 581084 649832 496539 327809 639143 546618 697180 750470 403176 288095 641951 496524 698472 613554 595863 653673 678691 773609 838739 815925 447820 525111 666648 334748 574436 567812 668909 604360 511542 183628 543058 543506 522574 430938 575939 655504 418764 662419 776001 813311 403800 798719 414861 517555 728896 833294 693881 469362 492264 485081 501345 833134 557908 644927 799145 482816 775324 767422 436337 494232 566838 703775 452417 756160 605320 724071 634713 584965 316745 387838 468850 759430 654102 692903 606889 709575 705782 646200 647205 363632 787661 751388 597332 624116 467381 538904 487959 436370 687819 553695 628652 804513 605722 407249 491386 693152 587533 279243 589916 326251 557473 529459 403436 243635 682499 532318 411592 500389 582274 594267 324938 340951 493227 503114 802986 435267 561222 570513 493692 609899 346879 654712 557050 429947 592277 871130 407815 162248 888238 706234 402453 456061 366843 650306 388487 452418 655427 186277 644218 660472 613733 625875 465725 742641 870526 786868 726165 819234 413636 631790 533597 658493 619057 329255 361598 696176 718769 740106 783820 550914 436148 123275 553042 558399 644352 677761 659450 721529 614103 621873 415041 558579 313501 441332 595104 452626 527019 509911 418550 427619 647428 820192 208377 793862 572569 541152 222770 173468 420621 570184 543751 777463 599929 439593 824445 818902 687855 429942 508451 260647 680703 489904 400858 626855 801707 777411 525268 718212 532725 777703 768589 625635 755832 825886 751709 525380 109446 457127 348496 259992 685754 763499 632608 417357 635400 208878 423990 555661 753860 765077 789455 431845 303169 814198 647530 767896 795472 441128 570353 583718 668837 647703 590415 569058 706651 656927 511099 618994 676611 467048 561944 289998 205273 700701 869576 384687 301736 686198 815662 836441 366550 220908 273852 607436 265302 627799 530933 506314 505509 326862 573458 316177 548052 442087 476680 769747 786314 483055 631341 424119 633955 372823 217940 673015 731432 678705 758166 744846 509826 649547 675418 693328 581251 206948 503991 398802 482546 454209 458425 434153 208897 285698 453291 659266 533904 534730 530216 777166 737240 290346 595410 657838 548082 608831 558170 149168 684936 440501 681230 800337 759910 615895 367465 623591 519421 656251 736594 628398 322434 296475 548823 544342 607751 620214 709631 614886 721279 409059 431184 333136 767872 774919 107131 395546 702146 692077 671140 355492 460702 218749 407089 282029 710452 702979 525747 598954 507585 644700 564715 222385 604269 737973 308308 408098 764403 577470 657735 608605 643715 548503 466193 644290 518575 514352 698269 769597 425053 460402 425225 430678 691866 288384 321187 761436 214415 380189 436256 574018 468315 265808 570824 556747 714247 797048 344085 449450 844421 734450 496911 620644 717159 359836 330491 587524 511463 533331 394893 544182 624756 663279 729967 687433 356726 657565 816293 779216 308456 725977 840732 609986 517702 602899 779930 633740 451323 314416 448749 566164 649202 422920 336479 372302 799734 786911 548651 636795 714064 788836 650627 841924 810304 682539 778885 683197 721901 544586 680290 786519 798209 343189 699788 383379 523295 553919 767362 361576 785351 791288 509831 721631 692718 615830 420906 770751 428246 669925 574955 646337 493286 443987 705761 567360 436376 523074 641063 529114 692737 702511 441241 587601 748424 204846 421763 464278 779537 281718 885698 818494 451617 852591 725047 729385 453886 730563 640550 828025 467878 356104 468186 589131 420119 419805 753964 572979 511032 667780 531111 639351 161932 602111 568056 692670 668420 777506 693304 549926 613738 543805 696299 485769 776266 590337 647450 755008 687357 700631 820702 470731 540539 573406 846406 507552 551055 440698 516404 779572 755022 363750 243105 121603 422443 46798 909074 827266 765867 911476 654501 571674 714073 502027 501973 778272 553615 711054 918467 474699 294429 260977 533720 641805 908507 904861 572483 471373 756313 643072 854658 802080 804847 492354 585200 486371 563710 726075 465029 420936 646991 646046 498017 389572 251202 800104 653575 564576 631312 718732 733616 882171 592026 311763 364892 797064 678360 640700 492801 680484 600529 540444 692672 510946 844657 582592 450742 848435 447835 620660 417284 436928 579849 473119 426591 702444 620777 487620 500071 465278 467274 670118 591795 650481 794623 363078 794818 741540 687137 336378 543609 704402 240403 451928 678020 650237 296460 35706 697093 738954 408573 676527 676681 628729 700369 559630 644743 431448 510624 855392 695475 800518 633821 711102 690888 580017 636367 658229 499797 519941 695719 714333 843753 436613 342784 793236 430596 701619 911071 547171 586263 831038 721372 662579 614285 597018 643246 545867 253582 490375 768907 673054 827311 664110 730973 602424 203586 280629 569211 769643 509816 602817 353961 670766 803638 384545 608115 633732 462401 777745 588365 564197 413011 412113 577075 415379 620311 679087 577355 267766 505847 471138 576680 631001 595543 345017 802711 688118 721062 543992 256138 907775 771370 521561 711523 772121 618254 376628 593704 558897 636084 598515 282513 434190 582226 620659 470611 596327 538989 556020 270585 548876 746278 625319 492255 756972 757428 123682 518676 408081 532942 677161 542974 287128 788157 479559 686379 701278 437106 311402 628635 486277 629076 355099 411208 439867 277900 446153 313898 565237 695781 585391 698743 828514 738983 437695 522444 567514 436515 697658 541979 825211 630982 542204 745984 453744 472602 820352 663745 555050 385836 563792 539697 405449 680092 704662 856646 629484 558176 667818 463501 450341 566199 331091 802442 768217 525301 565877 884130 819876 885888 754420 655833 228848 736780 698223 537927 301818 378536 279783 613922 478560 570700 281713 397936 372930 662222 609239 675381 475790 715990 666074 522965 644696 544729 611379 284261 288252 486435 270177 815192 721085 718642 354974 857865 742817 616037 765990 357028 542301 218009 488401 787505 786775 732634 709906 554186 653923 480657 351851 252244 606452 395301 787740 156541 219379 503126 500898 788728 759880 197598 652856 707323 365032 628779 664897 641746 722652 440834 520001 664104 411733 640471 754131 694974 778306 363190 565791 655703 595210 507424 449038 819217 497305 621556 738684 510923 369886 506858 600674 376581 377679 712520 719525 334207 130566 601857 696304 235223 674192 437398 430341 785540 769870 587345 618853 536548 478228 326014 616079 605942 564029 861041 397287 503492 637332 564937 529144 610322 707921 442547 561174 567478 445611 641038 804855 721501 601141 343621 399349 591853 622003 727223 643865 577966 708286 695577 770172 569673 578422 493194 640105 423236 218264 747569 766391 296133 378856 476075 168993 402013 792031 711169 373190 352629 699979 628139 854714 535254 672398 343965 356026 699495 276136 695299 812771 239577 625537 519775 781586 667083 278429 233120 708987 772947 292644 889252 843735 595066 598833 343309 602143 776005 608093 392577 681502 624930 824768 686421 653681 422997 285076 656189 438126 499108 847978 325467 778878 787157 244896 847150 902937 794551 722557 472158 515421 503159 880700 661524 585268 552694 648707 827218 647490 181317 908741 484899 642941 672713 528556 584531 805208 735422 656144 889860 852787 841500 834087 754836 762398 468132 444977 280615 442737 496172 566167 567316 527381 776893 261068 738518 774594 549522 597345 556578 394248 542154 866544 785484 709797 843577 442415 591033 660278 786956 789960 237150 496545 683301 485147 594579 307905 339421 668460 375783 549471 655627 540064 752007 502561 731243 518103 666224 586436 580165 566239 667833 456301 675952 727383 718756 874444 318578 439827 145325 369949 802117 833766 615159 784546 686385 620738 693154 232480 817020 687798 451926 515162 686442 826190 649142 421475 730256 738772 279485 630938 597723 193620 396229 404535 510589 592629 527735 183004 447722 654867 612400 587535 221809 527216 594911 603446 526952 572223 775508 323101 509900 711581 547900 775494 567370 617294 618638 486127 342366 737728 209570 266098 591218 620058 590423 600908 668954 679266 870355 550422 427795 209515 515953 330869 522158 725531 572156 676274 352080 164290 543459 649492 341791 468184 576852 560592 668250 629297 666046 685738 766264 664834 533450 661889 400750 416326 328871 365054 271940 737301 276548 544721 707776 462820 744469 513130 584425 542893 520541 762147 419265 497065 818952 588837 443351 590387 781046 442903 643308 600599 685616 799714 502065 320850 816626 502359 859789 578680 426098 619321 654419 751596 685762 807092 734076 426760 555909 223020 318471 562602 849014 899900 659796 867686 798151 755748 362178 497015 687107 621324 637416 516215 713154 435722 298486 506342 599149 215865 537165 458182 466527 673847 600075 591425 96836 694148 551233 692162 830102 577672 641126 362826 635901 468692 691063 663674 296594 345201 162083 370836 281684 677415 631526 312760 318951 388443 580293 565795 694344 720333 764584 803415 630951 327619 679282 782950 808352 771947 786590 814645 800615 859857 506907 473157 481492 740524 468185 350644 510007 457239 636633 650177 540100 825252 835250 712269 735325 747752 201401 900786 529319 824190 888487 905625 857652 661305 668260 600751 755022 823090 641139 348561 419367 392790 733759 436330 477327 504457 725822 691752 467841 649518 544874 508292 693135 570760 772007 426218 460230 549311 390599 663561 406321 406866 432349 346948 545938 423464 785975 729615 716075 933810 612230 709192 795975 791106 432181 397594 617660 621570 430485 590510 416397 655392 543626 708118 755289 718021 611432 620727 560323 433223 456905 633996 371331 243951 500165 535057 499806 679721 220875 750472 602305 258835 429330 839233 526699 809117 550902 473435 385846 200254 282718 273096 649205 523702 291201 573679 155242 182581 470316 340294 667926 521005 845496 479676 402052 316763 639058 549634 685216 489129 513837 526032 490289 392272 747864 696828 474200 332874 651309 718744 720542 378241 769887 553785 350482 772599 761083 865436 535674 376228 771806 625024 408329 373132 629495 747843 367150 709340 658341 391214 820627 389325 675967 426009 351446 739674 578007 453187 500090 565051 651228 690188 420885 663370 756631 757145 538654 627338 691576 502760 618661 724438 407979 365658 696472 671417 641242 326388 677128 680305 718025 644988 502035 459987 521819 655643 622903 732944 411795 536774 634830 706543 644324 633140 487596 547976 462400 617051 910630 719401 622053 582114 528041 605323 695722 693157 445308 379184 578948 610815 374536 487679 473659 626568 609832 817349 360176 218808 706055 590340 738132 753386 675843 649207 649786 667881 409754 533952 526377 557555 634639 624089 798796 693994 816512 580899 789728 392887 649261 731164 787189 788429 614556 625573 386465 570575 512185 597628 652866 758607 917214 896735 797655 647234 783333 721445 544763 696702 444512 502699 627211 371100 156083 120487 669038 768924 617391 595625 726910 800717 316701 721046 664063 794063 444356 481055 631491 280695 759978 418560 165186 862803 406787 768392 758759 562134 635310 588479 556310 737799 574191 570584 294758 356070 488011 353319 717325 771192 804523 350322 700888 557593 687350 627113 644714 747576 365939 457089 325331 358552 878503 372205 480468 596438 663610 443211 748496 358327 713263 692734 513876 672251 848096 708100 486169 606769 679831 620091 641267 705563 549791 687417 499543 165874 462531 715641 683909 188764 688299 597789 573634 708185 592782 573647 834592 625227 826808 725628 700525 667723 867527 442539 731902 594853 245899 643084 226479 570983 760354 685135 725559 782152 639502 757513 163550 742859 604820 766043 80047 637989 833931 612560 475794 469083 817361 782036 647177 682121 719587 785843 308767 449055 720035 567574 445199 428450 383018 412046 379511 467446 767908 852776 289813 714600 712134 665222 370882 707917 631751 561185 503581 634903 721094 317554 702000 715904 656142 526803 371441 378612 421410 427613 493926 159032 757704 213566 548121 522652 661046 611971 732253 836788 908209 701957 449362 391380 602947 411118 568589 565100 831345 827383 429961 347288 622592 555756 767520 636808 89980 639463 600977 670701 833799 766187 591202 650390 610106 689949 877482 859311 443329 762086 719544 338009 552999 744001 534624 632074 686405 533583 326772 499142 593304 499059 799021 556979 800403 848382 429167 686497 499478 453288 565108 520194 486307 176514 574514 654139 789053 566238 871309 619200 417676 459977 707256 525797 756734 806571 536928 724282 807776 730206 827246 559677 818562 797928 626938 281906 712141 668665 653799 441503 394790 675106 585826 610323 588129 306421 300457 456444 588136 351343 835411 477962 631002 744207 183218 784374 799080 822603 294383 615058 398056 101196 873236 544189 521280 587201 486719 443368 830537 490119 763144 404500 769536 625009 283720 699525 721470 710865 765479 692823 473819 538372 714036 717606 734326 537886 623829 690446 527317 600502 765755 586798 615137 538346 474908 361519 562120 330927 684047 566254 409467 729282 517488 536622 581745 680474 381700 372583 852547 921472 367785 267509 763115 780419 552661 825129 803859 816201 352277 446965 465734 485960 819666 617051 379816 782029 759323 588769 558449 790710 564932 444175 418459 743924 747275 716060 816984 808481 443109 662531 649774 746108 578224 599814 576835 698845 782067 559065 741110 367693 559793 198130 730885 500735 501143 295923 580192 466926 326082 674637 231473 414417 576138 771343 503377 662040 494558 583967 805580 696694 546575 708786 562160 224746 460569 487674 684381 545095 838771 814862 784847 362789 787817 766968 486400 95019 314397 455745 313649 459950 491052 614950 735132 429648 802130 574441 592255 596007 408710 762078 730507 734583 693018 556277 665877 443278 673679 439278 477577 449177 316383 484051 291242 506602 651543 742714 883208 631536 692960 583516 711409 386985 865310 737502 532848 408606 684135 738085 694830 477282 578625 323757 595185 576121 426563 754001 410344 283955 503602 668458 407670 403181 655840 294737 563388 831063 637049 697176 793948 830158 578491 551963 480558 524136 685575 674935 724045 815889 402533 616148 581496 461525 657132 272693 636435 759310 481561 589812 413097 562609 465694 648088 391340 489963 522642 153511 878559 594721 416837 643437 514536 567081 343597 560123 463133 308511 685710 467803 765932 494400 571434 337386 444596 530445 777163 569399 446699 530033 799833 529041 770323 142065 493374 454241 579081 362315 564219 864209 589254 796463 601229 369742 320097 331282 683891 210186 678896 455343 600191 537997 442242 448860 473407 376919 723685 788400 481659 538927 673816 429309 140135 649083 160990 708415 699672 96800 558675 604552 544214 458879 773020 625667 536818 708339 852153 731998 711063 798934 731566 736416 202060 488427 596694 765015 735642 608292 705877 554785 626497 665594 502531 652430 764218 767452 642916 608898 507158 545612 405219 868461 304860 751802 900388 578255 272422 262385 362326 494019 697587 301002 744719 213523 722740 647263 298158 398935 892278 872149 734502 718749 369811 381408 852421 377278 534891 631488 459503 480492 535780 389517 809745 551388 609414 362035 486346 352612 591041 285893 661282 523357 643660 449740 576444 757487 751890 798365 326508 454812 237626 537081 209997 604789 314101 578147 404633 393625 468997 471421 451878 555063 639284 586018 854091 638613 586488 662827 563291 602210 580232 509537 839679 795363 267148 611841 588025 323079 587284 572302 218345 424640 578761 517890 338224 442888 743697 518651 544155 685339 661596 781669 535007 920290 322852 785163 424234 757850 337288 529697 369624 290922 734805 241995 772538 876777 837018 550653 611673 603656 502995 639288 763982 442359 217862 644600 702951 773336 298805 627161 312226 623450 757629 804723 716456 523879 114895 580003 781922 647221 747671 595496 403871 403407 716309 630146 675900 394314 648495 331524 423683 600014 217538 660703 623717 440369 546923 613276 842145 541880 504871 757979 698649 668127 451725 410656 568666 438936 552889 234247 720827 767718 453227 667855 198728 702332 897634 729643 466137 561418 353152 391157 561506 552556 349101 749477 575757 820164 823288 812686 532270 497749 741869 698006 451629 479274 509343 291514 748763 728222 560904 832615 766508 622273 609835 341963 777223 595157 575438 363966 258449 172510 462329 349750 317978 359222 359206 439355 203982 266108 21793 371129 147419 445408 428901 498553 415504 193597 693968 295504 752905 646763 324964 199233 367982 178520 99124 658800 262260 729839 429089 155489 141854 277204 335788 52536 95146 633611 365881 237818 207237 209309 213177 686924 129699 325764 105362 293529 363765 578242 149273 98743 148652 496340 295068 269354 146046 465047 88581 65040 387274 720540 829168 528726 233504 522639 629354 48340 83610 93235 710535 86454 209740 379564 548349 714833 409502 398744 117472 71872 89057 282439 130387 16374 247500 308450 578178 374971 329677 475186 44114 421 845926 205336 329480 201877 24081 83886 97198 399073 263830 35651 134889 325524 375511 70687 241293 74776 225437 89025 19325 296354 87562 445468 518129 639898 348156 259916 198033 433092 335656 601331 487467 138879 31644 277171 284049 202735 66887 642484 562797 316399 385355 579955 174027 201364 36834 142553 17351 510516 293590 215160 66662 119512 431461 559221 39955 247640 176481 230391 229314 639210 485224 388151 261635 1813 45678 87077 255247 374720 66141 270568 654195 83991 459227 551058 139296 138083 808586 179724 233159 244358 211182 389699 625842 322272 26874 224741 190604 562073 131232 181994 345949 386216 71431 451658 129071 113392 125330 28720 471813 410281 231461 456755 403745 508404 239088 60250 377650 235745 29595 317604 262295 408383 639971 117120 406563 12169 393270 380355 387655 91622 151002 307297 147170 319093 182280 498485 278224 349510 52621 148785 519877 275456 309758 410896 374262 42661 31134 42012 106102 479332 705761 580984 19431 226848 379365 499718 330054 469173 187106 295419 293017 368092 327926 688941 308134 271809 487313 211225 472216 452110 493311 119111 222598 220608 700662 64275 539185 543706 318094 493741 535838 435611 480385 533994 115201 22003 82939 269353 325718 68614 266380 522289 325967 367968 15135 274202 169500 239468 584615 499400 488554 281805 194950 521435 187554 104304 115774 147056 82522 219473 521824 109247 176204 330565 264328 133670 247228 184587 6600 164617 456024 307580 194530 61006 36277 395879 43694 295116 22219 193718 391870 767254 558762 328110 249329 1458 120718 157787 372490 375572 286827 152863 109514 116667 38224 384035 53225 138014 135301 286149 374124 173120 142907 88726 101252 44574 620525 238495 356459 452523 326958 282616 303593 434595 77308 381786 408429 429413 102223 230978 212186 190559 210504 17828 123592 450058 584110 451632 312458 99057 142602 559257 280743 436965 92821 242804 51983 331296 170170 333569 149425 635472 341533 308272 193397 159882 467742 364400 122732 180773 347243 179722 65820 29499 445052 857962 304712 379236 283789 366011 28252 108697 303760 120033 159407 229250 152227 231263 284000 251318 104955 295768 15549 108985 7836 263573 210582 327954 458399 231875 115834 605209 307532 258001 51511 76869 458796 479433 633841 89385 691946 219134 37321 736063 169296 392690 61987 453132 347721 469430 294061 190435 49684 581748 233780 166891 115283 41596 69628 513566 175391 584552 226615 307309 50479 631240 107137 142290 11694 309760 26500 23592 478908 49785 424316 259437 329688 116800 567812 169252 234183 639828 175464 245719 138538 193646 40878 500315 61045 129490 485669 418725 277974 25028 318382 314694 552174 389614 71906 161883 469667 519786 49874 133867 344471 5685 178581 160058 327079 161243 608518 340737 104422 205462 222585 645374 22906 304482 300547 178170 98103 61177 60596 148698 44437 23053 100362 83867 271855 133495 419555 288247 399213 310792 269026 270896 44235 211855 157655 552891 130833 381442 194926 287604 33503 184050 102798 97821 525466 282825 385659 370837 327434 165728 618313 36966 356077 776211 241947 480251 152536 308128 19125 641961 507256 496564 698370 628088 730870 348453 2007 230311 384815 15472 357673 154620 232350 85396 458457 275914 6808 82931 41092 116317 323256 247318 7919 152244 430777 48449 395069 252995 295385 79374 41981 362383 299954 472331 22595 103900 225503 161202 108727 438068 124328 232014 94436 444403 156335 550169 237341 194720 225420 280220 500898 440344 239336 539952 749965 267336 238890 425018 41455 163550 282308 191271 447000 331673 549939 660454 343849 15387 223597 75889 417654 247549 49957 80754 156527 168975 501568 181158 142767 572979 212480 67047 19553 410183 318912 483354 202001 280420 138293 181943 17185 503946 787621 69592 126969 59843 257942 240889 527503 525326 518603 680716 249543 647139 142685 19623 17979 57289 49241 26504 194074 387614 156659 40836 267069 342346 286350 150900 287391 28456 48400 190420 308672 15107 547573 355199 312145 128966 210513 386226 378744 151597 258887 182132 583802 587194 99813 203360 265359 460500 495190 63130 104754 21144 12498 314736 332333 225961 118234 197787 200119 577120 507879 582626 246399 91010 439854 754573 647885 207311 325202 359801 325222 10916 584384 508160 408557 100055 352130 57085 176187 6365 237129 99744 197961 126473 30222 207707 164791 450206 301703 103169 323565 746 170504 148700 135745 202502 162733 161038 18930 3472 258063 380988 4880 185267 106978 24874 551531 54135 265837 42731 153629 158159 1376 68038 42430 259117 449515 437516 462773 18739 394853 230585 89296 82949 19976 137287 249616 382357 157244 336112 224270 649220 542206 558345 529520 367673 35078 252067 246692 613052 97781 207001 452405 8264 189041 300433 320503 350353 166435 148895 183124 49712 369167 129210 195735 300 118248 233466 608131 80168 533821 438008 346435 219509 154101 277408 402222 145380 323452 333670 242140 259872 424920 500028 698721 473873 27905 40054 275113 127708 370496 264374 221158 523004 437153 475806 334675 86507 423295 58828 138579 90403 308167 152366 268637 222821 501623 338441 339722 459667 46971 299584 86196 36620 245791 435855 58058 200570 387143 401975 116760 193272 376718 520605 108417 546161 24238 84949 182547 144020 528175 68714 199445 178668 157228 122437 135263 58496 93827 453718 141990 158732 350831 293889 146854 355043 298955 426152 134003 385323 30396 323994 357791 311782 259517 399838 276455 181736 32902 34572 278374 181299 384006 9204 250505 170044 219984 270038 747552 611090 19381 97328 357194 366210 265754 275165 104487 153466 325483 29913 131683 193684 533518 543868 543300 210770 443450 419706 214017 655742 219227 305376 196955 183526 666341 193904 107155 493497 408504 104209 550266 304753 552060 238609 332277 108307 28200 37974 139626 135267 381194 118333 87587 146290 231122 179597 478831 240970 355100 235932 376244 196657 569527 232675 479491 570939 45431 40845 559496 50305 702235 145713 778631 190067 130773 131309 359194 700138 441074 390503 27843 282548 113726 456560 341525 297662 548746 141617 312776 618270 97011 47598 188353 124053 235959 51921 61447 342457 308974 440399 166084 374164 274647 159277 164781 78709 499121 144265 311322 216077 413697 419489 343039 305051 704908 473770 459817 387395 205476 462729 440795 170278 503401 456919 516495 435092 224975 442826 595394 141877 492334 389044 231336 403872 242103 331080 138204 425673 638495 33755 124818 100027 59780 528217 255341 344914 313948 483566 385186 493518 463529 138899 269144 176711 504495 612296 53775 174754 313166 58201 225502 684496 643815 433348 169153 36288 244739 59227 581978 601709 88223 127955 569574 528173 336730 488073 167160 13444 419524 232819 220366 437383 191515 29583 510111 209052 238152 323144 392934 189995 400749 128681 56286 84435 476764 61409 111038 318735 260973 413403 45930 172387 577015 73676 75782 68922 184578 177220 217571 364891 45913 125601 177369 158031 74142 377824 666696 66714 212757 154808 750397 75947 642949 146181 22676 650654 291766 332802 23465 578522 435379 488514 370919 47747 115258 241212 221710 42726 175163 48906 218407 132685 178162 418147 158506 69070 491818 704916 134655 491030 342979 460784 538894 81073 383483 458205 8013 272803 69271 38873 263788 551969 189051 379685 471586 578102 295233 491820 725735 410271 107471 326986 371972 381641 560528 531396 493535 144466 106908 578932 125602 16658 265090 11580 294746 253310 378602 534422 154645 246593 434101 87969 443739 328828 784497 275238 79663 271815 316031 479911 533623 8032 45002 396872 437529 395514 85610 169136 112732 265738 192620 370450 632997 674498 355182 152060 107611 59576 231771 12071 95514 6559 164576 102730 44611 24354 104376 216217 310357 617359 256365 698029 220759 329824 52250 479164 225275 48708 327845 251654 352967 103613 240459 253436 56620 11932 217545 444056 19190 657265 902038 885638 91166 63020 75476 131717 17726 245514 19633 94345 546331 326618 62906 200580 14445 451900 154255 201818 301632 200224 535654 337243 380198 29683 395554 645205 152498 182495 748656 41885 53464 62652 363614 246271 234531 301256 82124 350189 419362 441033 378648 214307 244818 9926 605921 168206 402677 312662 282380 316722 65082 101478 155990 182413 653801 520665 553206 1322 26208 318525 116856 519848 10967 270583 461128 441214 726370 61259 298529 397637 240589 284347 187870 128095 523601 421624 462293 475008 563285 387911 80870 399293 635733 177349 83870 208353 528676 361034 293223 229332 389357 353142 463130 199015 273947 572660 111251 45690 365705 751143 180152 407042 342654 270416 405601 397679 148740 374006 80589 367814 223074 30769 183972 210669 661802 296987 145468 324691 75247 217716 43692 51256 388892 53269 10193 325444 433325 448315 191548 576672 636626 10556 555501 18607 65946 2256 348428 738174 313252 566288 634320 113016 63056 244541 62702 53631 533557 329438 24933 23431 231579 373021 312091 197766 163458 310586 246131 106200 12372 17879 243848 280755 303222 290395 204728 168696 262539 98304 576147 354437 85284 26439 491648 144890 136774 51738 501444 216947 385537 50172 303580 478225 116242 327207 213380 652631 682338 75527 566064 529120 570742 529331 8900 671497 262061 528261 37447 234039 487111 361182 414953 270491 405960 470773 445117 374020 682273 28578 234699 760971 154119 376268 210283 199614 457145 639698 336346 288874 132085 388544 904255 175344 484228 50304 564419 229043 407724 382776 306911 45484 393734 119403 593463 39193 281891 208427 634383 498553 529640 20262 1730 158119 460680 270733 150446 396354 281126 179243 225827 432553 656912 75012 327405 511412 268251 583951 81714 176093 16850 220780 215875 263761 203402 380790 369678 467643 456922 130139 45914 108370 140976 75749 621325 512868 117641 269838 74161 453506 4329 520240 183277 392209 546976 525452 416075 123711 365376 441385 257473 208144 353934 237139 551827 504968 84890 186625 251013 151478 580085 252245 185481 499518 238694 89233 45563 260552 330220 65683 12079 124343 482892 354021 193759 187719 333877 53153 802429 375014 672178 473276 11084 628460 251124 86744 108842 15654 604026 893079 642749 643000 149920 126201 413682 650536 614563 234643 293037 258645 141893 80844 329772 101552 332117 460895 178438 278175 511789 134238 61871 67105 296611 133471 79006 144341 314579 148317 92126 31939 134690 53761 517595 424011 8100 187018 162705 99630 259490 514092 587 622668 85906 96416 210720 163584 156104 125025 438873 710138 56191 35285 162054 518425 163972 136298 267570 238508 343194 469097 542808 541191 153121 46315 129723 767975 294494 391008 133539 151985 178550 88645 213269 7023 219289 197527 203277 230998 264105 263338 40059 593464 22304 352160 284738 197925 266749 168343 219350 142243 435451 139661 5064 247981 306450 62626 219962 529901 180026 161163 48435 494930 54380 127467 737113 347089 8313 92250 436285 484413 242329 112643 400284 287842 9776 197603 146565 201226 173548 99915 560437 626890 385326 147980 29503 388680 139516 332553 362198 102118 40244 677232 41454 477114 123320 270454 105784 212076 357751 119475 120754 333951 346016 6268 109525 638954 480012 458986 390092 392865 538269 623241 70598 404944 298330 16907 35467 222621 38693 69493 356611 263714 325641 215674 497311 453716 47016 295380 149366 266413 29687 81155 479588 97210 10430 475343 228987 401888 121259 189250 537542 589230 103963 115249 539508 505985 231079 424103 179580 459300 209515 175873 261902 81996 54448 60649 54274 557299 203292 140612 368448 39516 158757 156722 20025 204149 46107 61586 572730 105804 474906 264556 470425 219004 45106 190421 514522 600591 281300 135121 294252 6775 523184 489166 332664 8813 423178 365703 225677 66915 127020 74064 232165 59382 162110 183900 343693 140187 179811 513501 419343 128883 10775 311012 87920 12300 38544 623621 249511 475425 491919 696508 69078 188031 37070 282357 194295 189534 106571 164672 314348 469013 706888 364315 712682 653820 40465 106323 372210 98762 24416 383122 374363 62918 218084 316738 42048 140229 289939 472701 341270 47821 746127 481231 131243 65985 169436 5184 475178 114609 272506 182595 545088 237338 557156 341862 61720 85248 247418 331146 224770 624360 94210 25001 572204 519059 244864 15682 191628 221960 186940 188099 184017 256620 444803 327880 384711 183505 241855 292177 526085 352936 32734 515993 658419 3732 742978 3663 121416 262538 545268 334796 116238 98187 563083 49077 117227 162628 281083 410362 464840 441946 174460 93377 188191 381101 370022 253727 241215 497778 21895 186028 80291 107088 165537 279474 219838 342969 361143 239458 218624 368398 420530 665181 329390 177615 44927 25896 56940 463072 67507 419022 9963 210858 595760 311612 120689 221058 187038 206070 487460 149296 629702 489828 487211 251279 328673 246429 278901 132103 118807 227674 208568 170980 81537 214835 523991 264642 375297 555828 36916 699894 256443 289629 467526 93621 505319 437989 413935 131065 119249 144539 563874 201341 552942 656469 205119 54234 484259 550015 48922 407945 274774 20201 53278 491723 143699 144987 676273 701256 178404 414188 159987 84009 363528 80502 468144 517363 457621 478678 460463 412262 22138 378371 414183 307087 262458 195188 400443 693324 132581 102525 567249 506925 10954 473466 168131 88681 126121 46958 766 13767 133627 128941 653072 405267 620168 672161 101525 264925 272612 370267 70841 277665 80729 135813 200759 168224 287076 740959 698009 359334 217923 338230 350664 108201 106191 112723 501311 296418 477039 659965 125728 209732 84545 448474 665 82932 351449 186650 590022 335477 268306 249197 196638 180949 303093 692634 207751 163887 432357 536454 468551 418914 625078 592241 430285 360786 50195 87969 172974 17471 536530 85376 647287 769607 130793 49202 342076 173575 735998 475881 305713 490839 370595 138265 341622 78960 78044 11405 494698 673370 491886 167534 50428 27724 117676 295686 254668 165123 457584 187 422794 513045 161231 538758 187753 91798 137577 128088 16251 105979 367146 222875 68547 156806 684655 788449 13024 207611 528518 74432 134111 336164 169355 139712 186875 148889 47878 268051 244653 254227 419211 582542 12443 95461 7381 366888 409 280717 687375 539319 601972 84397 186321 348766 521044 222249 119899 273887 29857 241869 223911 405762 131926 60197 791194 649039 229886 13621 366199 238040 597345 547662 194635 508457 435019 565278 570057 358182 226980 588668 97469 79351 470758 40037 7519 375895 578975 13203 134747 192521 205070 291744 190776 640694 48408 431825 286593 182465 267534 4650 368945 62170 129800 431347 324333 175686 219194 489976 6717 384061 408845 501965 47959 53300 654605 665064 725450 697897 232084 481101 223162 596623 527226 192140 147262 129754 240638 430456 646784 173465 181297 756357 344761 46692 537406 393261 203644 336129 577704 321524 163242 272980 232397 390775 563793 184937 25709 144749 422673 179767 60024 91059 107612 294333 576809 200530 34607 110961 243143 289658 5974 107270 90824 2349 134892 537863 197415 520882 419369 456955 438255 326790 474185 211122 710533 543678 322780 316293 293528 129885 301409 397688 346526 66732 424587 471573 69880 30343 362649 214890 145680 86401 504028 287688 635179 469097 857906 114250 129612 280867 55857 238148 19788 119385 63386 29831 713011 513327 512017 53778 609278 71371 319301 157969 419957 673798 601950 261987 416456 297364 42143 149154 429809 546759 266766 183469 360244 301307 470847 12362 354500 116312 811091 459456 325150 323288 321247 250566 613316 594845 596636 537866 17791 266846 619452 88339 151558 67983 75263 15368 108685 330055 176305 12526 221266 97793 70092 262876 256486 99192 104080 99617 290391 339212 564395 151474 95072 168531 256016 435761 41871 214651 418620 392399 548307 16052 294452 302996 451302 480623 460218 348855 392959 732513 155565 212971 116835 45991 411302 97139 228075 139890 220014 191410 357009 131359 62399 468064 252602 476200 153201 108186 69835 330670 222489 42543 112173 66288 34074 230342 284485 95567 495957 159650 443189 375869 106631 197164 55256 163743 51148 478122 744304 396030 427880 142859 115866 255648 59982 149646 307635 288778 159729 43643 378405 412647 105830 364148 538077 520121 79731 608714 308564 301333 162290 18669 278901 164113 95188 402972 33477 207617 237744 428242 248160 6117 209053 233663 303662 255688 432217 231966 654721 543941 592921 416493 717435 168055 391995 658993 444702 265797 312899 481054 159250 156337 138367 169306 39772 9850 314591 96945 205377 30059 399951 244419 83189 46998 257401 340150 499281 135639 320173 327138 102817 23997 322233 289637 397326 543501 519863 99211 514763 441664 456895 278241 138009 55854 362094 116263 158665 18743 410111 403501 13268 131512 186075 37386 329024 245637 169759 270219 91537 47491 371994 232062 95724 582110 726300 415466 125931 80271 107033 170194 75216 164904 130484 45880 73756 526987 151335 88694 34461 278918 154660 495508 489216 507371 473928 171168 225540 457695 624917 750391 70933 130920 182252 424543 270152 413167 73196 117210 195491 40898 335619 406805 299544 47755 826433 311578 317661 627542 57041 866668 510855 474069 488093 712368 314120 77674 55617 251903 147186 560219 188754 565693 80520 285071 222290 172394 72775 71379 422711 273845 117183 254882 143373 148376 351829 92460 55119 90325 432274 356761 293180 101943 112059 277086 571392 567394 278228 486530 528141 98720 21985 6817 158347 684998 354826 238522 278933 656135 54414 662010 499410 52115 369808 187943 73 198641 314540 568533 247967 248568 631148 496965 476084 34375 186669 29018 177433 42275 12500 92829 103790 221425 103445 254638 419158 627718 416725 347114 101108 143260 44583 3764 61167 37274 108380 302314 275560 53039 121040 5962 533863 55069 10118 274229 80551 602070 556981 174825 5118 63020 209347 510252 692227 242803 161146 468049 717967 322643 242554 303729 370752 778318 543671 472292 253874 465747 143484 119649 50444 181194 134675 268611 191147 665551 411032 133019 113278 223970 241478 413933 9613 229841 435616 506648 171351 165601 31529 448778 276125 256834 427832 168436 491498 482062 504267 64697 564976 173648 135187 198885 639874 839712 335602 262934 202846 598457 499788 753353 181006 375550 603725 601355 14242 172088 371221 547235 370612 250054 454336 67501 343124 126110 506379 541606 36350 81080 92926 288952 229366 279897 711823 208595 150543 153925 85667 334492 194671 364636 444491 368544 233669 659068 151417 347339 77487 547997 462477 176578 158339 277442 267267 291766 151099 328280 505863 278912 368767 209591 78964 21095 261798 271508 21943 51421 171384 537791 388465 184310 162655 43928 425641 176204 329552 165985 404569 201872 40082 243878 317970 279542 529797 257581 238143 172785 641451 131349 495755 318315 388250 43933 584430 144619 630941 120283 66315 195100 335685 31269 341710 372100 462156 159057 253106 25100 355843 16116 351822 372565 397289 507852 338649 442789 173145 243522 746390 230831 503445 599384 514349 597791 138471 481902 364335 367090 269344 342867 398715 183734 143812 85041 185587 289565 174435 158130 91965 318422 67702 100741 129005 42947 152402 634703 108733 216878 35855 682757 28641 578834 238434 43052 134678 216949 98892 386637 481468 441823 672857 668112 332209 296279 5295 67076 33156 109451 194605 167703 27195 162974 79328 57945 394029 111652 444037 170236 26920 248462 16605 542082 58869 4966 47255 166801 37922 431269 279967 303375 564209 505493 430411 231892 116294 650353 52459 393244 366444 379365 151409 65145 161480 503190 207789 196892 503058 21713 291160 418846 255975 72728 362831 232383 78173 290905 167460 352897 28585 651174 31131 492194 86736 190457 12963 161302 107176 306506 350974 100936 472794 170353 152596 121033 747654 461066 418606 379514 124169 40674 194432 699216 702034 498461 404552 829406 139880 271595 62058 267302 298412 584835 298882 583014 188878 384924 150251 83927 533 400593 320596 577278 182861 366676 526646 245973 288680 145554 120597 356797 761662 657804 250217 2970 288078 275561 292998 233317 243017 176982 692489 461516 363430 334746 290580 79827 19556 64426 225832 519672 128084 6604 571657 231417 365362 28385 260644 103351 14487 628841 241296 690283 506987 64575 324942 374496 236622 425227 289035 300534 490195 85831 262213 246972 203068 106036 334937 312891 424204 438401 93631 515450 509218 124780 212294 9817 100546 423033 60835 567726 685075 71902 561564 401490 218566 428923 443466 4591 97085 201465 649535 590925 457663 440426 440225 645676 265234 331418 101051 386725 520175 218480 664625 150644 609764 404845 570192 1814 224648 292578 433276 10330 2035 332695 82675 365523 846367 115695 52174 204115 491135 381740 400899 561153 334451 302019 80980 161311 695329 47573 504244 101416 169000 330155 266922 171338 267905 206915 40381 425124 121399 64379 105839 443403 330516 275941 134058 207007 123655 361278 197112 4525 71424 267836 144939 90450 473226 448914 269466 134418 333421 160966 534887 328884 141041 394367 20613 604282 460790 403677 607287 70702 97246 180787 122036 1076 116374 375492 411808 65977 410367 619267 189867 103386 705286 10114 352117 267676 400281 163849 206301 60965 376214 460125 31952 354295 126164 419079 454419 182941 518077 458128 526983 223147 566227 545900 68167 529122 29503 228468 249116 74126 490675 94870 504126 241236 356948 644389 509465 167630 509553 866932 654 368744 549180 481769 261127 229751 222789 207263 244450 432471 277170 184437 317935 258665 338921 188166 446749 207382 604991 585449 363272 360685 54801 88972 109269 66497 83873 631272 73122 235788 570500 3474 130906 296671 401141 146760 711238 22174 261154 119715 519741 486143 437198 89697 670819 131723 9561 223781 432655 64290 429 7529 193543 197926 337061 607565 350619 109239 152011 40858 810705 790646 397875 84423 425231 406761 154907 394143 89599 456667 535205 290744 103861 131788 186485 16353 570654 575228 161320 375630 293147 333256 11395 274717 30992 353013 280317 465006 2972 293943 119209 68140 161312 264769 244682 441089 230226 120148 387039 668012 555720 20376 411824 415400 304124 296245 117457 443641 485481 94298 322516 352467 365210 164733 289758 25052 225096 150682 273464 770483 234049 16718 149808 225896 265452 147594 354327 590159 246226 394530 547016 742292 153243 355330 176006 434961 83759 601791 7296 74171 181003 152204 136033 489045 168991 534508 222862 191767 477300 257771 234509 324642 505926 91751 231926 498510 21041 346629 433378 301299 157528 96123 377270 407794 49273 154662 9756 448023 107520 407938 526764 189076 93164 23243 539612 29605 314160 133212 462801 449031 503128 389358 575873 512277 492305 92413 78576 380454 111512 236871 217608 304552 407726 14538 142166 615256 225973 78358 359304 277925 166285 348954 188842 716537 593166 125093 63862 180956 370735 41656 150151 154696 131731 363611 80206 102727 55985 416499 220089 250067 634346 553344 212538 493218 689295 558877 56185 36498 83041 227489 560894 579725 342321 229851 5578 69244 139765 12231 76438 180351 429843 150749 103873 272664 121088 296326 621314 795692 576656 769741 312882 518612 635952 215275 698572 587795 190869 397059 83358 159167 131535 393055 303658 147228 447618 337223 207414 70596 189263 276437 77545 296214 312843 365119 128997 5127 254556 33347 297554 515082 503401 476193 128359 143726 453013 305810 686956 178142 354975 3767 249097 43869 520693 106160 439766 241388 213570 422148 228843 217508 440357 185478 135336 5239 114678 99648 331313 26148 352016 250665 595840 309562 331157 202408 285991 231141 32375 165634 163348 98967 195920 194339 337306 25932 33785 31188 639706 694457 15794 121983 16634 249335 429040 15446 280025 369887 113035 275636 503842 560160 146161 313347 24873 172073 484577 548930 329386 302055 98039 188110 344230 525883 356940 218941 446116 205067 265339 561585 441529 661507 433314 592584 208118 337261 206659 245260 16455 226592 532669 311087 176124 393960 129420 238608 31138 78011 6104 474609 471711 456066 39832 394242 790520 710619 752332 51798 223464 208464 268432 445250 160231 369813 216497 118500 159211 113046 590925 724727 195438 348920 328643 248490 217680 608810 200488 291329 301620 228575 603455 483397 341989 168657 110967 392551 593669 278249 47310 200563 49959 234303 427494 359197 243756 105213 237802 187614 408660 104821 33932 426655 730359 730676 31107 795462 400602 41128 362856 500685 75062 96941 154716 131672 529502 551303 311503 450332 225133 177585 111941 47255 167192 81277 144861 635648 736836 263775 446618 268145 708494 73444 14667 183000 301538 83780 210568 248574 331095 61111 261644 87770 514982 1178 528134 335973 201875 434142 609516 524484 498898 52514 40 407428 343919 372972 271073 259564 791985 101358 669937 434803 154907 303135 68669 118583 375942 7341 361840 79662 301044 313863 409405 430730 48024 49195 126582 166004 526346 389087 267844 45078 528975 400489 109375 104448 108101 251671 77 434585 271018 241741 254699 268363 495185 586657 377923 451653 252913 162450 52781 455952 115657 170746 101080 500142 487542 456392 103067 388079 81367 125554 527949 436857 311927 219386 57374 11790 495500 227695 249202 73905 335779 201281 64458 258144 295911 19713 433826 8310 261543 449032 253249 237869 56109 461222 64375 245114 644401 173482 547030 377967 213312 225639 626503 67158 661703 118411 80839 363362 371971 752578 688636 454169 421182 98405 518679 63897 57955 525971 112996 475975 314160 509411 338202 55313 428095 63431 298975 45435 41219 400870 41261 407021 36268 390666 77553 465615 393482 65533 490274 525564 191558 52173 302522 342903 239673 72438 251463 146105 323969 274604 347699 457990 282226 121529 322418 229588 480363 50816 286957 354918 380431 286511 236062 560242 258830 54017 158288 84114 67502 180399 806967 203360 95589 274492 130090 116362 217993 584577 168010 432110 329890 93197 798085 180586 771440 340782 556957 467230 176996 198924 91544 56054 145080 186246 37554 291838 329764 418065 179724 469094 280147 291627 218177 300975 144618 702277 335533 440806 215525 503919 194280 484611 103768 6804 378646 133575 248238 314065 450743 548640 373623 58703 593423 534010 812758 306922 801506 655066 223871 341708 606022 34934 504122 226000 578457 66689 290440 10641 473000 403394 115947 132649 70954 691245 284838 436251 84513 69333 210705 691251 327734 158833 226107 202073 57418 49863 514210 268017 296670 414956 305155 48299 89176 145777 40282 16576 86104 267830 160217 42027 543184 112756 228279 111889 110286 43415 383093 122169 661416 176921 282702 45368 543369 590313 350945 200398 35394 210697 378655 644570 285605 552106 447970 17469 121044 207678 254210 155119 25931 39471 308648 241275 369042 444551 311792 646688 397760 72515 331175 555884 646479 678175 231777 590958 47301 341276 715812 676167 590343 392427 305921 347519 61297 4983 197647 264847 32943 347037 99691 308651 26896 102625 52209 62926 443672 271191 467263 580567 131849 299614 614582 224366 364908 469744 351470 288168 555993 511246 156730 7699 105545 41490 324982 301548 319949 272590 415295 424171 511415 448550 54706 51676 64094 344169 290539 139998 95434 155147 96506 250491 300194 111587 203881 119348 106553 147916 132346 5398 469044 438009 30545 355880 490452 144985 177268 452499 231824 547151 692952 467022 318857 180814 236094 241553 3395 216699 545523 655347 325665 68011 82581 473866 30408 286117 152362 369264 697087 271935 376924 191794 365820 341408 220517 19041 260306 306538 533758 199784 170443 509345 329310 72457 638950 65678 175202 314319 91321 281096 123786 82145 270038 350016 302818 275520 177457 313270 187543 347143 171944 257794 383861 260385 585778 373063 67071 251179 666265 431682 677184 153962 530924 406640 109668 253327 316734 316776 465702 440610 68572 460969 614349 235530 360526 524149 596777 269067 391160 99112 88899 90200 427121 397093 349276 10915 13962 431618 187393 426841 60540 264711 580218 145650 355827 427104 409765 369012 126952 285860 406086 246368 298866 330266 44074 20703 585301 424604 60304 153182 143314 241268 176464 293649 15376 150928 94381 725403 233814 588679 88816 136685 498502 43686 445759 368824 551795 127052 124128 305627 509725 57311 80251 78253 183431 31245 95874 381863 11587 17029 130644 746078 392708 194072 34409 307680 241922 149761 199356 436563 282210 243588 740816 296494 413257 366683 257903 82333 454237 411489 663255 320144 11151 423254 144204 527035 51666 34444 212763 417665 176081 195128 170408 57023 88913 122485 388656 184900 291140 781728 398411 66281 113896 280995 298442 250973 334037 334235 289816 280445 54950 243235 464486 245632 98987 110915 243493 381220 119886 198768 1214 247362 255689 239052 215726 238884 60841 8321 242001 7471 101740 244468 403373 157341 159478 787707 156339 106331 145331 324730 367307 532192 142840 94084 126157 21760 216161 464490 142465 102977 576108 622910 161460 696565 42389 96222 552991 23397 41577 114655 362163 537320 253566 213302 214892 624561 427068 460229 197154 77815 276483 506434 157014 785791 41998 326521 195351 457964 703872 389357 240341 56422 160651 421531 53285 125289 34619 301442 452055 158638 467863 251578 342128 84846 278681 130578 301538 505338 138215 259292 8568 556248 429667 379378 385643 188004 491347 280083 689399 16599 497378 397083 8817 129376 459085 378352 188569 373167 229496 408026 148643 55230 47364 412344 222292 207562 327937 170310 664990 848769 357369 186202 204761 240622 176126 243034 262936 212254 186779 177416 690321 479165 61667 87370 485214 145921 33154 142987 58414 464643 293720 163504 217843 238449 6986 339258 333701 533554 869013 661956 690675 609727 90080 1309 7631 332867 1236 16 74366 643305 232691 186766 328045 156685 336886 277024 268010 395065 76988 331513 436818 422375 251469 228952 268518 418539 331146 229717 209967 480498 313885 97146 118491 106515 226645 278793 306259 62258 85916 252868 187096 190084 498578 129013 595665 441940 23728 140675 187015 178183 752717 270891 564018 736601 209823 196032 9837 260511 328592 202014 144910 156510 98870 270225 73256 39610 117062 314455 298682 38621 259506 148294 273024 111194 47082 329150 242528 322415 346226 270741 443865 165964 75264 189241 592989 589928 419706 362568 15757 171102 366037 468371 565749 10609 75922 473429 160338 397796 432336 304954 242776 217973 5059 234591 686931 743702 449014 551608 186887 247932 75690 470890 339317 304224 74272 246224 179741 506250 421700 416524 175283 83175 63384 414264 199384 499363 152540 153959 152511 41197 267243 91877 223628 457252 171607 427235 307478 56436 182040 323622 346018 338201 673033 466335 415693 199842 133409 367455 94172 70664 56184 366660 174244 330347 349196 473652 94880 21052 293536 271154 235628 248011 158100 12892 67418 679791 117013 191900 620718 337572 535314 522637 389283 816840 489007 69144 369813 578636 536998 576503 155629 44090 553373 382837 145006 520872 424623 281930 185874 127713 214440 132745 573123 9643 271667 199375 16049 105256 374684 105889 228898 32912 466093 87735 407241 329490 143926 203742 600894 525408 147346 513539 20443 81539 216216 153915 213717 335088 23575 138354 152140 637014 81902 321503 335847 380084 57876 38966 205056 349909 516087 415829 62683 497687 128390 333226 363506 598871 157240 178584 12475 166383 370224 15553 193310 187385 434578 605052 360217 350250 195233 279786 130698 304657 87010 527088 610002 89032 293542 173429 313601 383865 429996 686536 477704 88050 429449 613198 284756 323065 120805 245197 510045 389630 336306 418227 147817 437839 111236 206027 351849 124596 457937 636270 259927 72522 199666 641707 170001 92900 194232 348759 863072 455963 182621 617744 307043 412800 437456 57584 15965 111815 58253 340883 249623 357003 462070 207486 231302 241882 698780 171834 329431 40340 422161 479560 637779 549455 312943 171841 433440 274884 200817 76314 107130 572281 431715 236095 43137 88190 186858 231399 139947 7031 99766 65781 475401 241604 238987 91283 372974 537030 456713 14754 321098 482235 12812 183631 233791 300408 617 329581
