6605
999803 999856 999588 999279 998951 999008 998539 998505 998669 996305 997607 998318 997934 996681 998452 997177 995296 995402 994478 995466 992438 996429 997398 993169 997132 996923 997262 995275 996240 995874 991024 995565 996288 994874 992721 992617 992728 989260 993297 980236 994055 992108 987257 994041 996050 990417 992963 991110 976490 996163 994650 995192 974326 970288 984473 992631 989680 992862 992516 994118 994912 960445 980127 986631 978346 993500 988790 992273 993336 990281 970365 988705 971973 992339 989929 988787 983805 986065 992666 977355 969734 992612 992167 984347 965340 983651 986156 966986 984494 989710 995213 967889 977799 987002 975813 990134 990076 971586 970479 994791 991029 994145 981768 992109 972477 949253 973320 939907 970191 970981 975985 988960 984072 974344 974851 983514 984099 987398 977735 991350 986156 958316 991415 949321 906063 974693 980037 972558 960616 966969 974534 972109 976612 987822 988644 976430 975981 953663 992966 990086 981159 960442 938372 979491 961818 950059 970901 989046 988742 979828 989046 974475 979224 975791 958856 974007 977783 987391 989573 952163 972968 968073 933501 973430 974633 950841 959203 865126 969517 945037 961089 900007 941515 982426 976858 963289 910756 947825 984027 977691 958751 988190 984111 948084 962832 971390 961084 966521 970133 966540 947107 986616 983078 977997 977397 958612 954605 970073 967639 980594 978399 981100 985269 992511 989066 967406 959191 911056 988561 968067 966918 919645 927810 973213 921393 880302 848779 965145 952482 967058 902084 975438 935885 950731 887700 957948 961352 897659 941315 889323 920553 951497 937932 933766 976918 976340 966728 976352 942416 975637 955913 972822 949412 903008 918053 952165 980131 887768 921575 905246 899961 974445 968084 939565 931150 908015 932225 921192 958523 903974 953210 918104 966393 959194 939728 973038 956501 973798 981836 862606 930894 976392 968016 964796 975654 801818 952322 991342 946819 927109 917090 981131 926969 958945 929266 879187 922194 938809 960343 936920 950484 866971 947389 962240 966454 986743 955931 872487 980815 929817 924963 939322 976363 954989 964361 955936 945852 957491 972646 945370 940654 963449 970553 950204 824563 951398 973290 938208 977716 922147 941763 910176 949504 959579 879276 909860 868814 960016 872922 965682 944266 923702 940782 955748 942875 857849 829746 960471 942133 929938 936193 959806 947714 898517 871213 922333 921322 967891 979116 906850 958302 925620 952486 825111 903499 928251 931768 978713 850819 967449 955845 937857 893027 950572 985094 980350 950615 905354 875796 927397 957832 911946 921188 891403 959732 963374 934742 893508 949243 947498 931706 894362 945977 909423 928826 966369 935407 909292 879127 945130 950125 937471 945751 913170 906802 959206 895791 959687 961583 959983 955186 973852 964599 939352 950776 894082 930566 955142 905203 912161 951905 904639 866776 904122 929517 906844 890508 966480 809017 962612 951655 928274 688190 912648 865442 922642 809093 939120 925983 871623 818019 804146 819597 816336 845304 935905 936198 944610 929164 907843 804838 822547 881282 897695 937759 806414 865600 915790 941962 870892 774042 901211 913889 919099 915990 803194 848445 909908 933250 843807 871675 890734 911204 899660 941743 934687 913517 844507 836555 961654 900255 934198 907870 954847 800335 962983 975178 838959 810607 961062 947993 865216 768048 915989 860700 942983 873213 820502 875729 902628 797600 849682 920582 902153 908543 845983 885246 874969 874590 796880 866539 845839 735202 965997 816604 955919 944383 897304 844310 857010 895424 878383 818544 913249 923755 831910 831722 859538 878261 861303 892234 902613 802216 915512 748017 963863 943604 939252 898205 916605 935794 959447 945936 906230 956494 965929 826344 965015 976410 771827 818816 864268 876007 937798 936535 943071 780894 829461 946604 832571 837790 779415 755388 807790 928248 964161 600715 820795 774530 902773 660403 909164 633620 913445 918809 901198 836220 866625 953307 889952 911284 879174 844260 821308 787048 927529 877464 884518 875803 865626 869934 935355 933593 837943 817152 862390 897532 953965 949740 868235 795456 917242 856194 939665 847562 821826 857396 931710 954662 924601 906273 879926 923393 899820 873391 968607 969725 838275 910461 905049 913553 900013 926756 906970 775057 895524 898815 950914 930943 879906 778640 884682 817902 954749 872359 854816 885783 887380 932690 694590 799429 933991 897802 938144 927207 893476 937923 972097 921189 917084 813489 939092 910491 897936 816314 793464 918358 890106 929168 858075 824377 864713 874742 844894 865596 957738 863248 776774 816784 800438 963918 868535 926234 910720 821796 886451 903973 877592 883057 844042 925444 799474 787663 725967 819383 933265 899428 910981 925890 845952 929422 901600 892671 937469 913133 871452 875008 765460 864538 830344 857972 915948 895331 899287 905501 757383 906440 978500 862435 683906 832748 693005 915998 871808 881879 950570 919405 776674 722569 802475 881297 891725 922537 905602 898790 943768 936129 830117 835807 849066 922998 905478 941743 898718 829183 861840 815442 854816 801801 964807 967911 917550 949392 928509 928884 855318 786104 792081 832502 826264 848311 889477 934637 831384 807456 841568 904739 817327 887579 907483 912368 919122 955679 905233 817128 892615 875652 919043 928474 943932 917269 925701 825852 855876 772186 944841 885967 874959 895413 807282 897620 917497 892413 882051 856882 798514 891032 863297 870738 810829 862206 875507 867900 894107 862261 854765 944473 906036 804566 893581 784012 884006 910779 886819 888216 956173 928244 933084 907644 923218 936801 888324 951798 934383 956032 868416 911377 931996 838021 914857 923129 872374 850365 835695 925262 950085 936869 822794 901732 862585 866614 858781 844016 852749 874945 777799 847785 877883 760711 812966 819850 854770 633900 871687 604818 920574 916966 793649 708842 918221 772323 876006 775832 908947 536463 412188 653688 912292 908749 842804 748830 704036 839384 703647 774608 765745 934733 622167 831838 852945 866662 766369 786157 794868 697696 646624 710422 442465 534744 434298 789415 898660 767961 909954 858198 868166 775629 596775 840104 806330 759791 783290 669643 766197 698539 815129 841532 728352 824473 650060 802161 794922 569546 823399 799816 871748 882808 730391 533426 850146 579002 737355 699732 865892 859448 543981 854930 908986 903745 868438 881563 739251 792031 571495 706735 581966 901191 910217 889625 711989 639537 691932 772136 886651 838106 898590 824409 877808 778826 842420 848873 665126 869139 792068 742792 607479 829016 815724 673368 860482 921085 586862 872592 635586 844470 688776 872192 842136 907839 746175 758394 898108 950505 608014 533948 517574 819350 763242 768913 947281 907398 639671 752900 719591 781918 627438 628131 908107 890490 782111 801964 812897 878408 705840 614699 764636 724199 755135 736297 896175 727147 569741 707130 844023 822763 721777 747593 833696 841795 827450 792689 826090 811104 534647 695502 847022 818776 809554 721591 778893 704638 797452 716005 750029 594197 507899 682352 965949 890102 478702 713840 909980 937155 897914 839544 816449 744151 738321 842567 836734 659697 630364 561649 823822 639515 771701 683090 692792 881078 736092 669078 737134 532133 694305 702826 538769 680160 718939 863577 844333 730730 851285 837550 868668 823088 727237 541177 815758 819525 641687 570305 861922 737508 763919 778656 737571 851976 886131 702519 766804 833129 912350 920250 932667 702713 892571 868944 879944 894334 918278 831315 904286 594508 656990 719953 863793 850300 731354 709936 759368 731928 653031 562009 780608 791287 787737 775860 731228 611534 899949 840866 664424 929498 755188 700987 792206 802327 831476 889910 825804 746168 757377 800645 768468 693353 728118 681184 583616 558738 866114 796856 947703 878533 545230 487200 785374 641362 667280 635396 895646 859286 584408 589343 878148 495420 631063 627595 749006 802739 806609 842069 757514 790000 797161 792372 848263 504907 604143 944898 782369 865846 883268 804012 843642 875617 699948 816179 781278 650676 655901 672818 890800 926222 589748 614351 501991 804404 682827 637518 789699 614386 571425 501752 923214 852690 871699 932720 811776 770505 658170 813948 858872 758064 719662 853130 891217 941868 939225 834205 739967 484008 598211 729021 766005 726446 797241 739212 793907 795597 810893 794708 811702 801322 721905 726020 784991 804865 889880 869679 879191 641803 423128 680212 862649 836850 740294 899768 898917 570217 783041 836443 848955 729185 797281 830298 794720 809242 727453 544978 852378 858463 750215 763955 671348 848539 884320 593085 836713 781243 705322 708973 712374 880773 891156 828957 693471 825173 852954 920772 863858 844044 722234 684513 807162 688833 637513 772903 671248 824381 701013 827387 745366 830670 648142 430026 780687 856153 835271 930810 646141 624822 723812 612023 839127 534634 499622 692758 757735 897266 661783 857536 837475 880397 887768 564037 935002 956114 857094 771484 408702 795616 813343 706476 306001 932059 763349 878762 872620 749319 739253 775163 591476 785570 745677 907235 879250 605956 916724 800643 833653 840860 770165 797817 795894 854560 716208 715182 826076 622809 775372 776992 841944 948750 724149 656598 775254 653211 744087 454387 707699 783959 946135 938953 834137 838106 866498 727528 804514 773908 561111 757491 801572 878554 779371 491547 870017 863490 836746 749701 739679 754083 859237 918266 608500 674535 433317 630353 685807 659217 757393 777019 783832 846016 868273 774761 781666 875106 895889 499611 808712 753844 722925 601329 751883 900693 612409 670677 766355 816290 909207 881773 728760 803091 847961 840882 764281 623625 850542 837908 740758 630817 852547 779239 741589 902409 872032 758483 893792 880778 762262 831507 622859 671011 704244 635884 910597 883906 605127 835342 529461 592975 800997 826148 579430 687368 911040 818608 815224 767605 724325 814605 854244 914070 669857 694999 562677 577560 670168 710280 792860 561680 874198 789842 814801 720535 814155 826397 682020 730938 898670 753415 872141 828871 758209 878324 700575 677126 670795 632599 810228 835651 641884 621803 742445 806652 887997 705921 596651 816532 810297 746462 783280 814372 743039 544761 744394 743386 530483 754543 588446 803053 882888 823665 868761 517364 714842 914451 900144 815097 766856 787939 691997 753394 701003 710262 676305 701853 789890 533556 785292 816449 691467 773883 540915 850697 841986 862163 650752 820918 782445 505163 798363 783353 875343 833741 764140 668033 835544 782660 873456 705427 897388 888208 908300 781058 913160 618285 730448 743007 756261 808167 828703 793731 774795 849790 869850 800146 901922 800932 816114 743632 670783 692101 447821 884773 809606 594629 791076 827573 384748 646676 798511 846951 774308 551273 663058 702560 794041 789817 770673 626612 704694 850475 896266 887606 617128 875194 837537 841165 776872 596619 702701 771673 712351 704617 775708 857955 822868 500085 774777 559769 501477 850907 779087 840927 587289 742971 602950 721425 611899 803742 818978 672442 930223 903641 782200 902885 654308 736178 778292 754169 745938 356545 795212 695218 785561 792502 847256 877845 800954 843358 937053 905004 447387 879129 748174 931062 864838 701260 878153 834281 756273 925623 871602 835362 791904 905183 799570 775691 853948 794083 648501 802130 829171 642910 871337 870566 762287 677389 838319 849452 726549 644713 720824 791540 814095 845598 817727 823052 906464 872692 927015 845208 828573 655226 759998 598957 882943 788853 670770 776487 803397 570464 764398 813995 783275 789732 704169 694757 833442 752496 393988 437319 661018 763988 535055 796711 481944 656321 507686 702676 623383 752770 611451 419624 519788 477004 627313 754155 562527 520156 891927 251267 833501 855188 448783 384484 392718 445154 676728 840303 335278 309423 247521 645595 732204 675758 516356 657702 455522 489120 191468 359020 348009 651264 897292 805033 742064 646637 742836 555407 731284 646244 185760 599383 705293 732457 667946 697865 614442 516753 537712 742652 764161 452556 263342 587438 394280 644531 488897 803165 382525 616977 366684 734244 696704 653987 645491 439105 454909 655523 569506 462247 658331 438678 333356 305903 487793 174380 393514 226602 534966 748742 831121 829888 548855 712802 836988 331579 827207 594410 605142 755825 713435 747015 405924 265032 778815 619718 566177 735764 519210 661750 715600 105598 614979 659425 732983 641581 571379 454173 393853 755613 791591 292599 576584 704793 410200 725338 609137 484943 654638 740593 563667 370413 375785 543043 744571 567002 638272 767179 602503 195094 429706 757885 237459 428589 435276 378561 818358 421004 480072 519032 236360 537137 673356 420872 390869 795572 775211 666971 461150 519251 651457 611934 738124 675339 771768 484605 478368 857764 300167 349402 417841 207844 745228 700329 382348 488826 514981 697550 392842 411876 499996 654337 524523 332921 875737 419869 686889 532172 607093 562005 687573 611962 332397 574383 665718 855108 574216 645914 695367 782707 683547 741367 698874 844151 672317 767722 795101 590289 715656 320706 583149 604597 721258 663295 312915 641781 472362 687488 373400 297071 546883 575028 683619 463266 500722 607068 784283 523618 805467 517567 456189 307995 524331 568196 594198 536776 761237 844378 668017 639631 639048 867857 405843 807378 749614 531371 377324 592000 564920 636460 735486 636764 736082 765291 331927 535638 402036 295558 512931 390047 369717 592014 648706 497296 499979 759671 467948 624175 883136 801438 174403 167100 732778 736406 405446 678746 774149 569903 543702 463814 420029 559859 651130 519126 687043 662951 763145 721784 738005 791670 322702 440635 775056 805368 622637 473743 597021 398740 589177 606773 612985 690232 639089 380255 438776 716315 449894 710217 711360 500042 401324 536597 648117 636223 754209 787433 588009 55597 713429 703196 675731 707361 829560 771381 477121 787274 747292 621576 614089 762773 639060 464223 556301 760970 411369 354662 511876 581625 843767 816825 701965 585534 647064 657686 610593 538697 403356 378209 636550 685436 531750 634066 586579 311393 507632 748898 516500 548332 384925 345088 584956 547957 730354 403352 647918 802575 333171 246289 265844 454405 703725 887214 778453 802174 827040 381448 655122 561624 697231 790178 730888 473821 556324 726502 837990 529857 598876 494596 554311 454037 336647 629148 298757 362394 696116 588413 586948 622496 664944 518871 358402 141759 561630 201280 535085 817424 626203 157416 397238 563556 551796 519508 224902 484542 506614 338615 638140 564442 484766 276903 417994 245499 671718 425763 712478 627768 602562 359294 510167 329634 386942 474812 602321 546010 413987 844395 664119 808435 676749 310891 487401 402622 407968 515818 749397 703856 575160 595947 180378 225059 436295 838016 509254 126626 486334 762239 576965 749906 731071 681396 850953 322655 683277 773016 570564 682215 571401 723626 784384 360608 844288 646098 94060 601165 818558 906163 641475 273830 562951 881859 581444 690786 764983 671916 612480 449233 326725 524160 805448 515949 486134 882822 285406 189943 593662 619268 597898 379973 817481 648921 512567 457719 314536 662218 244683 652524 712709 531163 700267 703266 587274 456858 371367 420616 775072 695023 645864 776419 694452 68704 752137 672177 729881 146454 513595 544341 748139 669744 707994 571264 398510 574247 687450 328298 689760 678671 692045 460934 785718 578904 741119 234201 577393 745651 534750 593726 744223 680576 691994 322384 659576 711381 797477 406893 722385 715385 650201 669773 676341 721416 590233 622284 434623 555261 284943 427326 853366 531751 294746 429415 883439 636964 837193 612213 309781 413478 327506 451090 462093 659851 504109 603314 643984 578302 68383 438659 155717 240595 732575 686361 235485 574133 588314 351034 727367 419884 354618 452305 569601 400714 383287 568032 589744 606612 662228 643046 265555 747299 715374 567713 571642 682505 750797 475638 578619 726468 318686 300454 770364 269608 452536 456168 593567 461322 877398 801887 737049 691617 545868 709292 243427 545021 653005 651637 831382 842475 767086 829944 688816 424727 702607 385402 746116 661684 387335 595402 359826 431045 594232 582950 869251 811106 873674 737273 478222 434422 378883 438745 326353 408814 428932 674420 663766 678612 519882 461309 718990 660753 450645 558426 352918 445061 474612 420023 765362 568767 569181 643496 670902 271881 882455 721842 120923 761210 646819 741671 425417 593226 600459 235956 470622 786633 408757 584334 422399 545431 498930 838219 889140 435767 508135 823229 868301 660316 791849 494581 451245 489419 372770 472286 588472 534912 727738 481461 301696 502489 642759 702138 796851 370339 444365 272152 558349 553278 368834 400220 717384 767236 708032 398520 286383 740639 535270 316186 516788 540547 592438 401563 690542 486497 419315 452155 549695 646656 313769 783848 433569 635277 372315 410375 330191 232149 493138 424976 769619 756656 452450 824481 720994 414983 648456 713996 514921 821993 443286 275944 526237 553883 679423 618607 580735 602060 633828 464264 574985 315254 767479 511093 756547 396374 559500 476726 581428 548594 328457 525846 572061 598116 495497 808497 394325 393060 594490 385886 374871 556711 824239 814609 360587 865644 365404 592490 718917 515483 766981 772719 611519 393508 657925 485798 390928 709851 474895 779427 853140 469175 615383 506695 609339 681260 78966 715193 763464 607062 642750 901022 811228 599702 784209 808890 610476 484278 639956 519589 757135 629056 539713 397211 630325 207703 249300 729085 655857 606419 656585 800768 649593 569813 717906 488460 723893 613330 572374 723634 431969 637218 369828 409944 615636 666455 671850 352586 95648 741160 517471 841760 145143 582718 613671 553347 310938 702021 455662 385424 670542 831108 360205 454580 492064 452048 430925 680228 288869 726924 797337 635382 638909 259834 737610 473366 482567 811019 491091 853177 577817 299645 551719 418857 813940 722049 855945 707724 535766 649665 337098 473693 231013 377330 363292 777681 756215 385867 673919 673213 228615 215108 596903 601277 463267 478092 798973 683291 714326 621381 747136 555238 572546 575888 755754 270738 461541 436127 593572 472841 582350 413438 745992 783630 727125 380798 348359 574905 756941 816798 639997 606143 672218 390755 661220 796518 708284 763144 727779 759748 673745 792791 596611 784195 660821 512748 578853 618595 491413 780763 587236 481781 719619 761936 430932 600582 538806 679279 872266 403716 459915 427670 625303 558308 752647 577210 228982 515578 653315 534754 449904 439446 416309 659602 370152 212617 244825 814247 875510 549014 405157 400746 584009 516603 707669 612528 649365 721456 729605 733407 549302 579069 338935 467115 536036 641907 628655 769292 851622 436377 724049 772627 445658 420933 522204 451939 561283 784956 768220 760175 723271 384682 670258 578118 438673 290873 463485 834957 740934 882187 516625 436702 368531 633062 244860 381748 492630 434148 261318 470855 390809 633925 435858 620489 756267 603523 216160 259750 679681 366151 791884 750767 748420 678825 624577 498637 379940 311595 611703 546072 280821 332437 759911 372370 645436 558285 206879 492297 559845 337893 746225 317154 531948 148110 506915 531274 477960 513327 686396 611589 417546 594403 806882 624747 200310 484543 311589 312603 396439 696533 316780 808956 694299 758803 642457 133726 545532 462540 823410 578684 359536 502947 684973 629990 487964 483461 516797 810912 774813 555219 567986 456918 568342 548554 692116 686756 521737 688788 762448 858946 790790 841986 321122 476775 576812 750311 350047 575852 577882 507454 484863 459330 489750 93808 606783 746735 738415 851381 374822 601554 830263 511996 136236 354739 446848 512035 776787 466777 500693 513263 156391 194647 649889 441921 645534 281583 727984 498959 755006 367712 408640 620401 628517 723107 481204 325973 670588 827638 758976 905732 459209 600126 591479 312239 555666 374705 547541 422162 624527 478950 635572 437642 787972 706800 558931 508583 696716 625933 627654 772927 687680 628821 717489 679367 544844 775870 632458 688827 63023 451354 695134 375649 714105 879431 676342 658822 689544 572460 479455 789548 545853 516103 702545 809823 658876 674543 194196 491224 641542 517221 546323 573044 696038 739220 758509 674695 595739 574452 602832 285896 546671 423194 431970 558519 649310 817601 633646 352958 344524 561531 301744 769073 449463 732363 343287 546012 760434 617560 256009 776072 354921 677679 209573 469641 526181 613833 523541 676689 514333 311308 521452 496614 467909 565242 681375 694652 622635 614357 142134 477342 815881 679616 493091 287737 659567 591949 710485 475223 683518 352214 772561 749111 753930 733901 734057 371773 691225 467369 290260 557535 607599 283272 664353 706643 664620 455317 551595 441714 693962 623821 311692 394483 338898 735530 340304 734774 484421 368715 565926 660699 305378 495243 608576 473981 508345 624126 806918 760553 86997 447179 586657 777485 483139 464466 306226 452242 787992 670460 564161 576785 826466 381037 534581 435746 720873 661502 288881 579868 779993 581994 229871 566577 840656 438615 700701 605796 768196 515472 501345 676390 400028 680795 619523 419789 898999 731284 597003 397395 728589 719766 418440 247772 646378 387495 800725 330103 801435 790667 613258 626999 497721 560298 589060 336593 861476 850125 643005 348286 667365 796340 737676 596642 703463 240868 531123 265440 460818 579274 515897 327399 348011 446313 711970 823648 594820 683486 532995 581920 609117 637061 508234 541816 349172 202008 459430 625244 604564 700525 287057 394296 642674 770830 382201 373784 643668 537416 409115 626472 430883 445586 501545 786845 761272 697405 335779 339614 688121 672627 426078 541343 373992 720736 428632 676082 349658 501643 644661 341839 635377 513164 728651 836555 706236 693219 558366 452804 555019 644257 677478 670687 489772 707963 491894 688885 740615 335064 373223 745533 323180 672817 371425 286591 637960 222039 385157 418307 266879 358329 311271 809185 431589 346484 622698 751305 543946 342379 677217 732859 598447 475894 642795 496356 552388 336872 475351 518218 797996 540449 354640 648556 923891 763976 775009 208007 587117 453247 359216 742802 329314 601856 594592 655781 729306 436428 595690 680432 573510 713821 340412 244016 564162 685792 441132 685501 545657 445449 192291 646100 706110 837323 641615 336490 783226 515944 366429 452395 663113 523604 693701 852733 350811 323298 504938 720840 339487 338505 804521 894494 714058 837641 587697 684956 778187 866995 571562 661233 576186 507082 850594 731689 768365 582905 612289 808542 705383 494229 649998 822297 629172 520211 608497 437388 703185 726209 745562 533861 631718 623436 405403 584987 647244 645580 549586 475409 419623 609391 794110 661307 604336 609582 596742 516782 313063 793199 762545 479378 658049 450640 544548 585197 425931 693499 547767 540131 180727 427479 582175 608532 603849 803576 747502 736821 662782 336043 192463 452436 799785 202119 743897 518208 696184 616836 379979 531956 655458 632532 473330 535489 635898 287281 309853 712981 573062 562621 176257 513556 347213 572620 566016 215748 740915 536674 509062 678119 724716 720766 511314 618865 626490 469627 419278 547772 526002 829974 736383 745390 317937 359059 45870 37587 556848 590295 381904 704683 275950 262054 570832 414105 359802 114773 115225 54043 213644 254180 34556 388092 21648 167167 627588 160965 546948 347010 244624 129986 376928 208042 22170 17126 457549 390114 18721 24899 399352 507899 397870 173788 21564 796712 162722 200312 330492 158824 260407 366091 249069 93493 166771 180507 230862 277257 334737 267900 70357 216247 126507 235350 246425 271014 81946 169972 12341 89548 551309 499436 324725 297108 81948 657055 19232 182135 144425 356568 455327 243427 395934 252849 170645 86872 123540 191802 226440 277677 208153 199150 272208 44368 246213 450093 509945 199021 121336 372249 713037 106948 429609 428321 12347 682958 94874 182278 39542 101878 598317 267227 373413 470756 105399 483274 246912 413752 313710 333479 481124 234831 227681 20758 364335 12497 92146 383615 409672 406909 266840 409249 152840 199806 55475 409670 367022 207269 243198 419183 436031 279395 637049 696297 266543 240711 237060 393206 176920 332116 189999 280903 83634 176279 334547 80870 8582 100885 78539 316347 12661 258251 468085 364312 165944 100636 104203 222761 307434 154501 230359 135210 140858 235137 167347 169039 94620 390020 149231 124245 388302 220975 77234 137973 248527 379270 528135 255198 520344 734232 649149 774789 531226 268646 678797 633406 128127 504610 148214 100095 58119 140807 564914 195527 556299 267383 84652 284763 60586 496616 635958 192437 133519 52874 223014 205594 661054 631304 489797 239254 395332 241386 563966 418656 458519 176697 380027 392815 302573 500942 103372 27702 282566 215745 63293 124265 95089 578831 330067 119205 176012 399640 161539 138823 360234 386247 252576 711055 571571 692329 188856 231402 518339 486625 620430 322989 279073 385095 301973 8615 356028 437888 50767 59093 143150 251362 270292 428574 169995 382228 171947 250328 140935 178493 52975 289495 327905 702491 356686 522123 5524 129305 695844 286933 36247 393421 67577 161928 317725 178885 388585 552551 223991 173035 99082 368052 423323 54759 333475 350387 547613 429383 366963 290343 442457 319945 368156 84755 192287 146864 463872 261702 532941 309281 349684 235682 137572 159547 68982 404208 33941 234561 500754 496577 27728 397873 134142 239075 465806 356157 569643 451517 218459 624438 220059 59332 673610 6664 411977 58395 131783 175391 176995 149877 32591 11576 12392 325115 320212 220626 178350 59717 425699 152277 369395 320099 124298 47845 5999 343584 37028 198282 278524 443460 211458 35713 198362 263702 142623 51202 262269 565182 304526 234246 226686 109925 715146 596918 371021 361171 515452 57641 312463 235258 505135 82486 364898 19316 116224 325134 565603 326047 145571 254882 137451 344283 599797 287959 305459 392581 390403 88742 75676 439694 626975 386299 671066 415987 639052 321824 507850 362193 390960 155760 571827 331691 253901 375635 155886 763894 752707 292050 381394 235431 167024 576095 237525 30003 278232 327559 111253 537364 319991 353948 523058 160680 219059 38428 199569 44107 249960 58790 437299 488680 87688 189155 274315 145775 30880 5300 431748 412280 56974 271822 358203 142132 200400 140553 384710 446154 26252 234511 483479 455653 12671 473041 305507 335609 164342 117334 304404 39562 478650 405429 363422 220857 284029 227758 198666 373261 736674 382212 221062 96453 430072 78710 365430 313903 161084 444617 124454 148943 301839 28615 692374 79627 135638 1195 104151 339588 357455 82693 202668 269062 477387 329447 334871 597080 494573 655141 290693 269824 621410 720008 247926 406037 276688 205228 196947 294913 65607 225795 10545 121587 211660 72638 353146 387511 173361 24791 216449 492295 442097 492703 14423 349203 113443 284975 137074 598479 129564 206862 318056 198018 517969 313074 131164 251627 159987 80066 12762 42431 493382 673932 185153 2782 278899 20182 377226 70400 708931 290874 292738 323609 424774 329775 36271 283068 223297 216170 531211 474145 95159 87825 91771 208174 280781 316690 425571 203696 717834 390318 162848 551056 461210 673541 693023 68826 205437 107646 160740 328363 486717 524860 264573 33742 316663 218437 404508 451535 508519 589803 356832 140443 373707 553511 38093 84316 78258 240347 365585 89430 206421 476413 239343 254779 179660 56511 660058 411661 403469 157035 115956 387714 525076 117480 264347 250006 86033 315556 100922 170756 128137 483237 422610 407772 325253 388361 211941 312146 537411 34373 28882 19604 84229 10333 333730 364614 45745 353443 278812 579712 590667 379217 704773 488811 269272 233995 595676 36061 418865 64382 60950 306971 216530 46726 287659 10243 224632 324839 424278 380354 256125 167426 194133 259384 398528 205356 319376 327528 333393 184615 470287 495979 745310 110839 220433 22622 475397 472966 101262 470364 509193 43113 501678 129061 232226 513745 29336 495630 4989 103226 277789 138089 307733 75470 159999 507168 451644 375268 584015 631012 144088 341495 260067 156603 326360 421800 237065 553114 405199 161372 189101 544477 207566 319034 40052 306695 526835 165885 268796 439779 61510 628115 328734 86999 625511 289317 296847 436370 152188 210270 38274 133184 256120 99412 361304 119022 355643 230215 64866 622262 306949 207833 719118 250711 196071 643364 41139 27510 22040 86743 439888 128947 12298 572022 383447 175677 563459 467733 220531 388305 4446 31590 528142 27253 47091 836630 337945 420960 323074 43997 262771 376550 62946 257912 370765 217431 219599 12465 305001 295545 196033 93697 328215 13868 392526 649607 385375 527930 31911 546991 84120 187391 14023 333546 101557 268799 54278 67576 57831 60285 300105 37182 24291 41124 133011 526864 511726 119250 354088 133772 140195 2311 64453 180934 17858 32959 128739 181783 32558 356795 112161 125603 49837 268006 271953 2226 162128 4553 86153 133796 145153 345667 322864 145635 140001 77542 66350 235858 6065 20713 148936 467577 44513 361936 283746 704985 257683 428335 340244 461356 70902 185517 201327 35906 189945 97170 364732 304610 462326 336603 469118 365854 465870 39158 350891 59781 762913 625669 296717 182124 95346 512547 165811 88113 305826 162920 353188 293789 394244 220549 122199 8847 398141 376135 525097 468054 646554 431804 42141 32271 284995 303638 53431 34697 150570 222424 196801 30324 283861 481104 172160 117098 76939 72366 54479 474737 457881 164821 551884 323429 562263 252178 573656 275766 178604 22446 293009 568762 8076 261305 178857 544442 297902 518911 322278 454253 675887 20627 44642 215868 642278 699836 520539 429230 43320 138472 140582 625679 183999 152720 13078 25150 365947 238448 49475 121164 616722 169144 579471 275954 38065 238303 487527 109428 438677 458464 575680 462300 491212 635303 230056 179410 372313 198614 176014 65583 337173 242139 187924 6916 192146 486479 250706 128028 197892 377619 463655 471928 273078 872905 131834 167399 90402 21372 153091 283299 201325 588092 109358 202650 272704 41 32789 418902 592101 38022 459175 469950 304866 223984 191292 102379 159250 159808 205322 134433 127089 95329 639893 544241 238485 66356 57761 42132 22843 21807 63450 192874 437508 321732 291891 346760 135631 371514 135367 748334 298144 269857 128578 257477 217675 307802 421304 17285 10219 54211 122295 614099 66001 604140 578466 295071 6338 50069 345147 155509 49643 36375 519012 600107 4799 421133 249795 703266 410269 195224 180653 356529 312529 399087 620080 512388 305947 73502 331460 201965 205978 57540 109355 648724 295676 32933 671993 521662 358606 388738 231297 709982 116858 118030 9222 388783 553921 455230 321426 529954 306935 81638 3361 601345 200162 291588 1056 97301 287427 149750 437930 438121 8736 98221 670883 179105 381215 235988 344478 610578 242957 195726 573131 223482 469194 547560 408081 515612 451980 563051 73307 125964 377835 164678 336421 278137 260631 398573 270072 24650 115593 145023 117181 174421 184034 472866 233044 161902 399107 136929 451210 440144 382603 35179 666886 599961 386112 567028 27773 56977 316901 393457 14814 253202 354362 62685 177695 34979 181809 209383 57379 83746 164766 570796 410782 173268 167688 245367 30725 194 371154 90308 40652 36064 31710 149835 243261 625208 579128 396805 16858 73359 480827 537872 62156 329932 230656 216774 362622 172586 107287 43373 42811 163567 289783 268247 505429 437179 288660 269733 377432 112442 174922 450943 99499 425773 268014 161986 333483 532635 606580 19948 138334 136338 562285 229082 423574 262655 561882 335394 175686 490536 544868 266916 598142 717444 199280 229957 530879 194110 517394 111424 137535 149735 127160 23913 723950 474849 158962 55225 322876 420552 235949 17434 19931 239539 102096 138128 451003 519481 477907 423345 14528 635942 665760 572388 437312 213195 561969 617983 139989 86812 233650 357428 560847 522765 230455 309775 378315 467282 426887 630102 702702 425355 135248 624328 235431 252820 404409 396754 360981 396799 145660 254430 94268 236725 653618 139083 343779 277381 25639 346116 27419 46809 398501 92037 472211 305308 37736 88275 548924 350296 283615 666180 790018 357236 319028 422042 245421 230992 259333 291760 289743 75779 379392 323318 43446 52239 180452 305655 383354 96312 40609 387659 15279 617740 70727 439452 45686 493105 140303 163438 163988 448843 247802 191805 220905 254299 219555 335548 217330 346493 299493 71570 139753 423484 269222 397119 133463 572902 91218 333688 206077 148448 124186 394894 271670 495609 108432 11405 342803 25764 333342 632317 35649 9340 626165 183421 580485 613189 616742 560933 353833 344533 257116 552862 528230 39697 9579 31028 171962 82309 470504 276054 172959 73767 424111 85027 190513 173939 379057 73592 353629 312812 632373 430136 442264 353295 184301 282250 498627 343849 481351 712957 135608 788275 186330 356767 428530 43023 115285 26360 362536 207137 253592 328020 362504 181797 158053 391035 541446 397848 71981 384715 645121 411833 9553 134686 268143 101935 183357 52365 61554 188241 15400 385311 668035 333414 251643 84874 35578 439006 113978 151006 351735 11569 419339 193549 144132 326237 211971 360302 459376 95812 195429 369822 505555 326296 151044 337237 187027 198094 491740 344079 396369 291485 201189 276972 240067 325877 379336 300138 326323 498954 323639 74084 260617 558874 460803 160974 284014 218898 390355 227576 261401 527037 447843 526976 177869 36979 18766 230881 215129 104116 23026 622232 256956 191939 191205 202954 171048 56865 141406 8467 105754 478864 96682 236713 201853 477056 113078 309095 3358 350494 174160 303140 19392 667354 222139 124879 639843 632330 558185 188625 208042 207779 185949 139439 334178 232807 197857 221592 499863 271144 178074 241373 584322 132865 217094 531521 472317 455088 318367 421320 473486 485625 141462 450740 224926 570450 9345 41671 550303 508683 148129 484787 62062 577802 228504 373985 78123 326448 443152 16379 498175 47163 507120 398437 214886 252239 244477 113421 191251 353297 332566 567812 268603 271802 63497 551891 270497 11399 119006 325706 128379 211656 271104 7514 265201 219742 1331 456416 706949 560016 790153 214621 55271 203100 480536 283221 54508 72827 371197 578027 128263 23502 32519 374279 491091 92315 287551 368717 597518 200753 355104 159165 396730 150465 310874 311436 6949 97199 123898 242696 151092 402402 516900 266653 756866 315953 215384 257580 210624 249137 440074 20521 415970 583314 427175 429953 46387 53256 590578 402934 104293 398094 127763 236266 639492 69169 118191 208650 499430 396958 324442 557004 669524 414963 113852 96658 604162 522084 155060 399559 490365 560029 396824 80979 385156 526 603843 86149 414763 528004 177412 104068 332547 590120 48803 107336 59285 1138 349551 233507 346708 204310 339815 392229 289148 122860 642875 369870 387887 644896 258211 543847 707050 614265 225272 103024 360331 256361 244310 263237 23179 95733 656414 614070 141245 422993 64855 362495 19312 335413 243885 366417 598701 245898 625789 469890 182276 178526 259337 41450 51587 11022 290139 71081 485524 275767 778642 463081 34497 68349 375863 542857 200259 609626 436926 224580 209121 219581 3005 268294 117787 132842 182590 310671 392721 337230 554213 252370 169805 233873 268112 177232 106838 13090 54375 394243 112342 172707 639242 227969 170111 77297 129721 243581 757609 588017 298215 422494 519733 503794 203413 70891 705658 418667 464477 301618 435408 99662 32821 644924 452258 430075 1267 680446 406111 573241 295077 31061 95303 250149 168589 351839 105829 568283 478851 649310 599741 305221 432474 293317 384579 257732 492161 69966 238524 69062 240923 411460 101470 74897 91696 228864 169761 199885 270431 695081 64211 36349 285896 281208 151423 45110 60997 101412 166154 170553 211643 165852 525373 365533 351352 205100 327475 216746 142330 357309 772926 351546 611483 512796 657896 84761 305082 551197 202638 438512 269173 184391 524587 38486 182003 412498 598981 229070 214850 6877 200801 216679 243421 115670 461694 321234 403981 155864 217088 54114 160141 379065 345858 683267 23172 200015 55877 658154 222136 103285 39602 319385 119646 203750 124242 255109 615788 218474 125962 96936 580201 29587 142765 663595 321130 200048 626025 238106 361162 2568 469438 569436 504135 198327 583035 361765 161150 107472 194979 397657 288571 324257 199045 364106 633097 636032 213041 174073 97204 312452 219741 90964 230958 231443 221600 42307 239906 724236 324302 94171 141506 237455 342424 598770 564030 660921 328285 161630 538378 134425 506538 416507 38456 254260 711490 509983 57866 396119 421761 35020 245842 156591 316389 179102 554373 90333 151563 181886 364719 538362 197861 70664 128914 264244 459538 25190 473988 229863 267899 159565 6608 130069 304828 328038 379682 179164 89757 340403 180902 26899 87704 221613 715421 217442 394587 874102 4411 500547 10511 150750 369042 274452 451125 92659 6510 380726 135945 396278 67238 430396 17240 488988 216532 662214 652859 656153 173697 86565 97211 214143 99330 285113 313901 15066 222466 314737 524550 458228 410633 118260 344905 591001 582735 538590 399411 192461 143688 134162 253259 599993 700715 571921 338123 377514 214619 215008 44508 505811 256726 220305 209813 17454 122750 42300 395740 151568 156920 728523 182250 333875 161606 212794 131739 364043 232103 186899 351608 71241 263155 13394 98800 128037 110704 74673 567347 114234 836122 29218 50407 119804 89673 251699 329032 245280 277428 298553 91839 138538 94903 321677 190539 473145 117745 222677 120595 114529 354223 319078 335999 82662 18817 365151 18957 259869 49928 132403 682436 483467 512531 389025 94539 209459 132421 127712 569164 13616 72758 162930 513120 291991 84888 116167 237169 307900 69736 668749 431512 310093 451171 481977 297120 185595 283854 34537 17618 495377 166259 261032 250306 76103 51803 319367 8314 625021 275026 191610 36365 174052 259999 216334 58043 28654 465121 155273 245964 451355 246940 111570 61634 602034 86900 118717 459690 104965 56816 32573 423297 206352 346279 388107 124654 301096 307280 429588 540629 338369 82865 102043 341994 34270 174477 224619 679038 161301 476575 352984 162628 81469 139053 426351 168987 311207 60449 91482 387843 260816 309286 36522 68010 162185 16354 303692 92539 255453 588937 663014 391456 445171 111033 67568 346513 507151 11659 13322 683587 215509 92069 384113 53379 97933 176532 326620 186687 39571 625118 228901 171539 78678 415645 178768 287841 246285 380438 607890 123407 59487 323372 81876 436997 320062 151389 235493 490619 227807 344300 478517 164155 556785 23613 34134 223050 166098 73015 363690 519231 322446 850341 506324 779130 118481 230285 585239 36528 135225 298436 72863 478470 289816 531391 394264 131537 3794 153265 261603 253467 52243 421962 205582 404207 255913 337849 21620 425433 144779 81201 68969 241326 396680 524975 170850 528963 144515 739942 727623 98458 295222 201985 159192 30974 367396 299094 415112 15969 70289 81617 239480 371420 113862 246218 391368 367142 687583 258325 453427 47656 156332 134560 84571 104994 33687 126248 69825 463544 392103 295073 288562 479335 476115 196858 179542 214430 32580 313912 274974 268953 112388 184123 232466 87854 186757 34465 207565 451698 239684 291268 144882 60061 477737 88982 155168 58181 139098 401437 164580 91952 312143 375735 641959 126620 225018 519401 36529 2756 286666 96531 271398 446787 91865 228177 152213 522917 469293 18523 406999 352419 110988 47223 145391 243513 293639 355683 148214 122794 621703 179287 224555 220694 437235 21646 107869 28317 481728 271555 191698 171725 587815 117854 403229 106496 345065 592097 351579 465530 176753 268207 223547 58700 315694 495594 52700 38875 61952 649660 44372 6185 11842 317298 205626 470139 45025 76288 103859 64100 488591 343048 225652 298064 253506 471476 250288 77392 331953 219739 495962 128023 207957 763188 194967 129154 37549 66245 334090 164454 572640 530530 705940 390280 198743 203540 226992 298 56944 431605 92336 219439 228628 325643 415589 110251 193935 14439 544861 216716 532642 359325 624489 142960 8878 638543 444876 77955 28883 138340 316632 483325 16540 245151 15358 125007 325426 421108 93898 120770 389797 71152 360181 347697 149774 371314 158121 379612 478420 312234 327321 86751 30889 529766 535848 254180 22099 249548 463657 92789 57078 494471 373942 306114 16419 183405 206781 539865 506618 511093 540086 93039 150151 662423 292545 131517 150925 91948 648528 89758 42840 245829 261259 106387 398536 263689 12132 13267 235571 496802 274749 504320 105830 159437 56513 431427 99359 189044 127396 384248 37572 196474 82237 658058 473138 498283 84545 476706 471852 441968 518036 19912 135494 42182 169460 708403 250362 626150 554757 3 479228 83909 126978 562019 186571 39186 196807 220443 116015 264020 284601 36215 415143 67530 263173 235615 515523 238916 89924 407835 349613 401690 130559 64458 353554 84151 166833 136764 248712 109467 328595 96092 155206 322639 427908 414851 402315 268663 11307 289607 653681 645581 135009 646650 653190 239947 13492 193725 346768 87383 7145 581722 418638 69924 315221 214148 34697 215980 113824 84886 261134 375797 720393 12979 12214 262699 348671 74264 385290 114170 328037 295343 183403 483440 298286 291740 82979 290197 418923 55684 602748 372030 133285 52185 328456 505241 425746 528368 403736 597571 305569 51415 51273 116246 281798 64668 368421 564742 258730 104019 302747 374983 305597 164866 276768 206865 129922 169407 753655 487462 154426 437639 552949 528262 191133 653827 681621 130800 343961 344104 155092 242268 324558 89430 628611 257559 173921 182902 47311 68488 319132 489842 224738 398312 45940 117665 178713 422362 95257 493203 618371 382855 2067 62993 438702 441357 77125 430487 281216 69000 147445 488468 68278 192056 112784 284887 33793 545318 282466 73165 412187 194817 67464 170789 163982 235516 630018 163517 264525 201271 210832 660574 411666 260497 670577 379052 407353 179189 140160 461440 300141 280311 127648 601703 9814 157821 7481 570942 617237 575147 648767 48651 560761 371941 289890 134165 189276 46194 98158 468821 386125 331835 25448 822150 290930 10907 20881 357831 402833 269109 64208 636300 115355 673673 253752 640628 276815 119264 38083 350958 181356 167172 40090 327137 446975 117024 33409 133572 127196 471740 240003 402558 437490 224607 14465 216161 245243 21026 216280 650408 115240 425895 367693 471677 16980 507204 546645 388004 366657 267952 317163 303977 86400 233619 561605 40117 66964 152190 240722 45605 87942 84321 169490 458238 178599 17438 29063 416595 138305 552434 151112 79183 6696 342762 93828 192398 205528 520273 558255 270126 262113 293846 247653 625949 565346 469982 256600 122651 95324 114029 87622 40044 358553 10352 80297 375513 421151 627413 427451 320971 381537 506703 564010 328261 86984 176179 131737 378229 561586 475540 619498 132619 282488 261728 435312 106248 141402 464329 592826 320482 175212 465118 79234 167382 281630 237928 464877 318226 421066 220331 212783 168687 611963 210671 285300 611013 15639 54799 696042 597371 149081 613644 427200 338026 452921 182906 189435 201986 554325 187720 137792 28723 496911 88160 419367 139421 65765 420599 608415 4315 149936 659214 226743 50319 533940 74756 223381 266809 301754 297429 226065 125337 57820 539025 425501 220191 101420 147076 255296 414408 11321 5329 25833 78443 27728 61988 385837 262261 140150 180628 285066 116549 224812 785304 150802 239652 302276 243969 326327 89686 154014 659715 543326 147596 49213 235194 198513 288806 102279 645644 322166 256337 79455 213707 415245 620127 613644 158247 366346 71634 467678 149128 80526 400484 404867 275228 277928 131794 665142 132810 373526 347758 52492 610919 113173 378950 258618 173938 523768 753733 204545 19575 58648 134371 570488 107363 136240 212402 293996 169820 132680 284325 149353 388479 154500 326014 530085 427097 355791 305824 521559 278551 367101 523810 259549 596522 320191 181444 203210 659750 13751 35918 139878 159776 31789 229764 250650 484360 452381 379498 295739 47250 504819 48301 446108 214221 38214 93036 102993 136805 440882 288203 328722 221876 365263 489641 625846 311367 50356 443777 679616 450485 225161 7562 120972 268254 436124 198515 639325 454411 421262 137466 256089 777450 807630 297871 201573 58417 287475 112825 448619 300930 163089 20867 332430 295235 61907 7541 753233 55445 541142 196948 593750 347280 576194 556902 389820 464963 621659 764343 312598 806717 176399 113049 27017 81300 193167 248630 525040 393200 223135 194415 752324 267058 484456 87876 518177 574052 457399 296046 148749 604504 489866 258005 370015 339024 77972 475410 536721 94453 89625 562792 147745 40783 268172 463501 166096 189567 34531 184002 206494 679752 139450 235449 74965 418971 134363 182598 380426 505696 326928 40937 356734 160553 364865 90872 80476 140730 195250 25189 303012 149570 141639 182689 394187 492270 4045 663558 338428 358698 262855 371213 231186 448345 411088 110578 481309 248704 159074 47587 51341 580728 403642 237429 33669 463086 372984 303720 148948 100609 81219 526079 343677 307814 325112 143800 185493 108697 351662 98444 540437 454390 359340 161486 118868 212432 217278 579767 243336 392285 505414 553470 377928 419751 419365 66561 595385 388752 371923 3346 316491 150800 280517 38449 96069 60366 212918 71363 591416 50364 151788 324354 41261 79357 357632 36549 516552 422220 375654 20693 116144 253625 402001 242958 228450 304702 78996 189670 239897 395157 71455 261714 125178 123188 48335 205976 290859 114500 314001 492601 339601 47818 470267 146533 108657 232792 91096 58749 193149 394083 383160 300188 247240 214936 87002 501924 155342 239771 261969 359165 241545 590884 154825 339239 646821 269514 261649 36862 173571 197143 176603 231864 226887 407214 148141 275475 57276 367967 397699 95908 277532 791635 12281 171992 732235
