2957
999474 999585 999338 999383 999081 991428 998416 994734 998596 999030 998796 985391 991218 996830 996587 993728 993195 979987 998429 983828 998543 994492 993173 982082 982250 984189 991181 987265 993078 992189 995521 992683 972765 981789 990167 977317 967060 982611 991602 951523 975610 991903 996147 983450 991854 987927 982884 976864 952981 977475 969185 982183 967439 977694 989307 984184 983320 983806 988751 991500 989115 968603 986460 981926 950983 964951 945440 972257 973982 980843 950350 972745 976405 940293 939501 967101 962285 978724 984409 930533 946215 974905 953103 977065 978403 967595 974764 980128 975339 991554 972660 938340 984786 948530 956894 932867 973386 874540 951644 961012 925338 945463 961559 966689 973205 918892 961392 941951 975421 972881 906832 965129 882328 917659 909008 912389 979432 986430 967838 979630 965504 977969 922649 950844 966602 967046 975888 952995 970565 949972 919219 918642 889691 907978 945423 958839 930561 968902 967005 970118 967228 941071 944672 971589 862489 840883 933270 907055 929721 930005 935563 947732 960336 934430 945925 943570 972167 944372 976898 899713 908865 937672 917863 974267 967824 930296 911417 972136 956900 966299 925693 952422 956782 959592 956528 935168 953907 908652 951203 973571 885231 954669 967711 935920 915147 876817 942059 908711 881852 890357 914177 850139 894918 941969 958659 830287 797232 936700 858492 931663 929214 911108 787707 870130 886431 900606 942715 944259 720208 843476 874256 848930 887090 929842 954858 920672 925632 930307 954585 816937 963682 764850 864814 825279 941294 874004 858169 892439 894298 715263 813768 902785 833778 975687 911392 892644 971451 958414 906964 930558 763663 876710 961246 893478 930599 878232 907564 930065 896344 963838 893860 921687 805915 789035 926116 802107 845854 964074 901533 943231 903384 853161 899620 878864 790430 886953 861011 904811 870102 910314 931826 909795 939419 810714 897272 966935 860407 944553 862232 944426 943016 888692 925638 939233 920655 839181 908644 966458 894410 820118 768466 834003 830666 867787 871222 838673 905298 924088 878961 885803 862703 792491 915818 911124 897199 934932 909667 814643 894761 833908 848627 868358 933421 943208 971409 938401 914817 957841 938619 860224 857969 877564 808123 889907 891939 827169 794560 938028 925796 957615 931442 812674 908873 868954 908987 924983 907639 932728 930986 929398 930103 921564 844105 816864 921694 902340 872248 796986 923081 898164 899147 813885 679696 857320 937432 897986 898118 898057 884431 929679 924353 874094 801722 909484 796801 896312 924990 895686 886636 818225 877900 666348 856152 940938 868872 813487 575678 847261 627259 435720 770813 888794 852426 821091 803530 816246 847732 918077 652804 733849 825513 702574 808824 651600 779015 771199 913573 773185 611461 764781 831941 852470 784502 842976 870143 723603 779802 702945 728724 626727 864090 835737 869314 930938 888600 928791 887552 581224 636660 804998 745014 785301 802259 845635 723051 602585 820091 838813 885426 738272 880587 576385 824638 842690 634724 761887 895916 791663 951035 733998 672834 924218 867913 721593 560691 703376 777368 737388 708584 877322 741814 593859 786098 418959 854633 790815 834944 783144 827728 615756 656789 771277 812086 850429 682777 738461 709016 956120 925668 890584 816525 883997 645283 951069 970288 771033 955806 866858 733033 663921 918695 472584 618558 875289 747892 844216 887455 703305 841956 766325 870259 670266 715198 836397 473501 925087 754662 759538 760931 727818 929774 751010 510717 785363 738153 702765 668611 749200 770448 901495 887028 754876 725869 581634 524873 843728 843582 624093 597155 844761 911090 886371 860122 714143 636129 569005 893350 700885 631003 763272 553018 746960 828641 859437 834084 645556 633191 569361 633873 747332 724854 859672 726773 866636 812740 930666 907945 737758 650705 765552 894276 932097 781039 596202 743597 868015 840222 398502 772979 738266 767616 754706 662333 838749 850834 825009 805555 727772 906161 881777 637942 805450 832556 842403 774241 809440 783906 840619 877275 764779 664418 735927 693644 773881 631066 666326 713025 852232 776330 869733 811831 705064 778803 900405 663105 863617 484011 842126 592288 703738 818816 757090 853688 410983 706905 723878 770650 736537 652114 755865 875343 793562 819464 905047 843081 728671 796063 633913 640570 576816 749464 832180 779134 835806 799924 522064 582021 721903 804969 966688 744936 872844 812777 446728 858064 924463 865519 742864 822404 783323 811269 772873 846981 804813 835637 732562 802959 860125 819318 748272 857754 797656 623511 696424 703425 893845 561256 869498 773667 829955 920371 771644 903365 684974 782181 895599 795523 746144 813989 796679 795223 703281 894740 900553 735544 922510 875161 770278 766458 928803 919261 864148 615803 790037 882259 808243 839775 455139 655560 918752 903830 800876 861333 663577 562899 446320 738071 841039 849100 775141 881583 679461 854453 726315 801440 625870 663731 809776 699510 802197 932474 850571 371220 870737 537497 803421 777237 830902 818295 875332 845092 791770 769307 803016 645954 770096 790340 725134 893971 796511 708834 662131 807817 806607 895872 667607 791792 666342 730333 712139 664698 586606 772349 618099 614469 821372 737882 722315 498052 818751 770482 591973 773050 421022 506433 836471 707785 611920 516043 393622 306433 331351 650272 553286 688690 545008 809186 762593 255781 599815 648632 536504 792267 329370 301834 737043 766322 480169 464401 475628 174690 791490 399130 284135 562728 655332 645036 620043 386760 385001 579288 713715 666793 763669 859733 259193 709525 535657 573716 752398 494777 730105 709155 716276 597164 407248 653064 241246 829820 788275 590960 519316 633527 711593 721358 597462 649882 567532 530973 571034 347005 766891 780086 255121 727574 499181 544892 831084 700566 650710 173518 747750 780413 529212 459748 391284 344198 632352 477855 653416 734576 566750 635694 773011 583903 754916 623731 763944 413807 618819 492850 397451 345722 440069 564836 821285 521966 578856 741454 579277 657515 753643 330349 337372 567421 593042 680662 679968 807150 531025 516161 568787 316550 504240 285380 401599 619309 820601 616980 606819 623878 576437 609935 586031 861758 592308 775567 574461 545319 489008 459349 531021 557363 682320 621603 714517 600392 424709 493851 802759 761362 671318 642045 574963 422336 683059 776040 346225 365736 808875 663495 782439 618041 748280 707151 625245 773666 651787 432379 608057 600715 433275 634917 700903 669629 619282 741006 664239 674780 519224 562479 553934 618322 412468 700124 899861 815610 466129 828448 565662 451317 514103 630275 639784 794682 494296 500137 576987 620397 776729 397124 766835 725502 886600 922760 728455 477662 541028 677560 658960 590585 605159 877673 272974 461568 296745 449802 784910 873868 590780 705441 694739 829387 436098 506347 613216 655463 364991 693660 553164 708120 479351 821275 669641 482373 692241 316386 529845 482913 335864 413409 901816 399962 500790 752941 677320 567544 588220 255999 566925 444549 596666 772677 100447 610235 310050 432024 459908 592277 469394 732946 598293 540339 598247 540986 720509 693123 402268 525577 824523 691205 728847 800069 368458 334038 607173 710793 525688 282378 285587 485977 371687 802729 731379 404242 391195 200256 419213 578031 461062 760092 876982 769120 741000 725484 765442 855498 694818 557962 471351 486410 435815 310426 682786 889572 327336 535029 593158 329299 682839 220715 495932 520014 728572 740775 618403 570283 746148 529010 638972 647995 602401 463766 485876 596676 499986 567131 550991 620660 426375 554262 698541 498090 335745 842142 526218 380990 432071 639476 516178 503257 595366 723917 782306 442723 646478 646134 601553 428096 535344 519503 856002 756129 848899 839243 459731 383556 493421 488871 228960 264036 241382 818851 594644 558425 368348 252147 524604 256959 501316 350637 378978 614267 750810 741451 539148 264740 596163 665181 731638 777423 796617 259484 525437 559274 322793 664258 897122 766918 774837 729620 578651 552830 762950 360477 673487 680973 419730 569559 679878 689840 514060 607692 740743 759574 781358 547869 833036 842688 456634 533869 514735 564448 389108 291420 667581 659833 752939 608915 460556 585981 315767 419112 425112 703697 242560 779909 597406 765890 799961 581735 361260 756457 653407 586344 710885 566378 484385 553050 457844 617125 824939 507980 333032 385434 477746 698474 527888 587395 397244 599320 796254 529956 562857 489967 800964 661346 231485 265996 383547 231858 678331 678499 311602 362215 335007 696242 520969 284989 663673 670208 711547 846454 475103 702233 712472 792341 851635 605134 450868 688411 393671 681221 330119 538111 538330 619820 448111 343693 367526 518092 340616 729899 576860 649208 670868 654675 828631 508989 601293 793604 416953 325359 575596 470011 480419 543555 575390 686308 886442 881275 698205 606789 525410 692447 728573 769506 352620 307021 367608 600588 827989 831511 477508 403259 364005 470062 817831 648030 705071 537158 715776 718729 599189 266333 620706 777326 677579 803494 548174 330357 344871 280633 620115 278299 664141 626729 627392 633467 416065 599589 779413 221522 698182 777668 560507 579957 509110 451333 466716 685393 740488 795708 494199 363802 775005 716588 490824 597502 779601 731263 451078 789123 602306 766703 602724 901915 653545 527240 720949 663863 440158 803297 428708 128544 653534 302172 687277 765342 275146 407038 486075 529455 618464 540771 439388 788477 861056 816493 683148 679908 660152 917728 599726 641164 626500 530218 505093 464326 875352 876926 900978 753689 702400 648294 601617 458435 521201 687595 876636 573503 633659 656962 403558 549419 409719 388045 602795 604486 682880 546309 479232 729912 722595 743251 860011 624405 635431 661827 508170 364719 400141 430285 728678 545169 561610 800928 613996 836084 459563 733384 802993 839391 483150 626827 852023 846488 416181 433327 602889 649199 466320 460522 418480 311136 764169 576029 614411 503507 731794 383092 840140 900878 350597 570466 279920 262214 849360 713090 491888 407420 770183 565817 771094 648803 736925 796856 291931 743217 448437 490683 514030 387039 761619 625026 680558 397483 433537 690931 455059 518011 768743 750260 784909 441855 656621 658214 325273 679472 767887 352550 574894 587802 643003 373286 737426 464280 425302 545081 892301 490263 297195 515556 724754 505990 643240 477465 667031 310664 199145 14580 465591 143939 24526 506829 353340 464219 363579 59683 258102 378919 194406 126278 521425 536104 108270 515701 358838 397919 711636 812432 51822 116498 227039 245321 584537 747889 87401 87171 469585 475546 206732 723596 220759 314487 120061 409180 90752 158401 383260 314521 132324 11546 139687 43740 249625 519578 240869 442774 88445 386298 443546 21540 378467 544017 164701 93251 255109 221622 566323 595356 89121 168844 271358 381023 317427 19143 321297 327060 220165 277744 618344 228452 232031 594857 352841 407098 62750 270922 331958 370969 37434 7303 337968 582577 142665 215447 118020 207889 353242 101112 417445 167485 309046 127982 248416 110462 244636 100338 372065 126354 372920 184454 697554 276764 165815 581103 462736 590156 331840 572422 57560 213938 580905 428666 20024 37235 496029 185290 613815 340180 141720 113714 195122 219043 145403 87307 333644 416635 4584 334952 360819 54220 369654 554118 678 121221 218970 250235 773818 678915 40009 99931 47944 396909 461397 571704 190580 452316 541321 592823 48176 566650 636759 128294 242939 236412 360411 505393 515726 523126 282214 55459 5989 766551 737767 276519 174349 128571 114935 682285 348068 374473 185385 332225 651878 412057 543371 499670 157399 502422 151830 54799 416695 64924 193069 472376 227737 173836 136220 249054 282511 289382 82814 294136 160315 156580 60027 458986 623980 41041 409874 100737 164717 541291 484204 413510 595105 255647 6676 444476 588461 460326 596071 464014 280076 522877 299740 252841 604521 404220 235398 74925 133830 216737 209423 141102 101104 433897 368825 434995 632605 614761 113408 133156 527837 166744 86683 580982 263728 255594 41540 332319 483415 382733 51695 104488 197373 29558 565780 341379 142461 47677 274490 84404 88135 182885 492611 745845 207690 56935 109152 436839 258931 457879 158626 111714 53291 20271 275439 75926 249129 219580 107966 140018 163281 757602 42870 575127 235757 19616 584242 564111 552971 18200 270391 519877 519085 96072 231978 336834 247126 551492 395857 697375 127183 286592 498702 472817 181309 488201 98805 12586 519599 318428 423457 199908 473722 327574 214500 461306 670424 499267 106183 272396 129567 39756 51467 519 579649 536151 322443 54781 446887 122392 462432 574253 339436 307801 303240 343699 343638 180434 214361 592107 252018 306278 235246 310384 666419 706896 638349 570802 501314 160190 25425 46579 684467 499151 482159 673163 441654 356134 121698 362146 244411 319179 304878 277562 398931 318700 460593 524138 228611 15370 201160 466318 366121 46737 265945 80990 523566 506137 337327 557600 155299 43904 516704 597439 374178 158578 333742 31189 266346 106160 7228 511019 52204 359416 4363 482743 438878 215296 300339 326393 319318 126775 493677 312706 331844 248319 343261 255262 341645 191734 359661 370868 140977 1052 164850 53763 28462 106349 259071 217831 483351 195946 49851 350584 668539 184328 300545 241327 129580 402238 431984 322753 461363 304401 207065 3234 319513 221400 432447 157110 535315 94818 465116 465503 111842 56687 553211 514168 137378 498587 762222 366921 10500 268941 347948 393386 253401 86141 122904 155064 322375 44376 712557 490190 552083 321691 466237 438096 658704 347257 70022 363369 358580 56990 245524 180697 157888 58908 609071 247151 68726 195835 342966 677124 502779 407873 95922 364968 89151 331799 52952 248607 533110 41412 367190 441297 104786 627158 53356 105283 343709 256637 135015 88856 215105 141810 212235 289084 549971 190567 290022 25775 348078 72531 264188 232496 622721 170757 534128 283717 429026 478031 5997 93657 353535 251499 183403 405017 491066 497385 729149 404544 46691 94016 105397 182440 290680 280272 340889 45008 218223 77158 326631 384039 179190 318255 145215 388292 186426 362257 244532 98018 342951 73000 221880 38835 613859 463112 666432 441994 144463 357166 317021 20716 628426 321124 520477 667018 698285 10856 119406 385409 42101 240543 225204 2108 97534 116592 475787 129992 419577 162356 9039 116101 250787 114022 194908 335250 268541 103715 186543 544181 252605 459881 3015 270926 221922 386228 28200 150318 231689 54903 227792 205169 443079 264675 335323 572810 844930 423007 254560 70257 553976 18318 94501 133944 469881 618641 99004 139560 665733 218933 44495 356740 268509 290405 472884 340021 353154 37338 280421 303754 545263 537043 44230 402901 12505 314736 34412 40273 307167 276047 287968 145748 472579 550695 86505 158026 394944 230558 215149 133414 453991 3518 423771 233712 530811 542649 414116 435438 172229 410467 294681 90522 187190 590445 18409 625152 237375 434207 17131 438369 422984 139853 585859 260313 351356 4051 80505 316673 313409 550510 148429 505044 31571 188863 494804 301435 156443 196389 123399 465666 142790 311141 414561 441158 333732 27158 324100 305627 272009 59015 458355 336401 386668 330267 205017 378070 377117 432211 477634 229123 173070 319502 153275 21787 253724 463371 491975 442407 575721 377693 405392 279172 503027 247882 121599 234048 751644 823636 496328 638973 280976 799391 79321 118873 358763 303355 125264 160943 100839 282506 63587 393857 178001 181329 137899 99580 69775 236854 227852 448187 158361 561685 120606 186609 362438 306262 193493 185051 153222 407322 76395 141820 333488 178292 45897 249599 115276 40253 23978 219373 261317 376387 55392 584860 515146 61996 35358 260136 193325 94627 447039 186314 251648 338542 211193 615264 286355 422009 251329 250382 309221 318028 262145 420084 11211 190639 647003 70238 283262 554376 30804 213962 417678 97537 246096 711596 448969 199999 297512 62890 220889 221627 342596 193332 416176 279456 607527 332993 298245 252639 352226 343376 436740 367261 127517 101003 389529 61053 128149 314450 68690 24482 676790 57041 749795 305750 299498 280841 221078 474089 146851 636643 351085 336114 108105 494007 457666 107657 249178 529374 107663 318685 219532 211530 197651 291113 322168 97752 182020 431913 418034 7044 103440 255204 391923 323561 86794 34066 46177 276251 32624 49471 620106 534888 122900 80532 638405 613050 280117 28685 735777 73291 608531 657036 560513 454152 262208 315464 327014 27716 16848 444162 483996 282166 356161 581795 89246 182217 105407 78056 513301 137462 371934 75044 470492 64614 156729 5448 405031 493262 317367 239842 322540 197180 185412 175628 106161 19073 9498 381211 413122 257990 311412 158182 308898 265610 349954 738951 137570 234137 490891 279684 308949 259789 793772 270921 86100 452242 216989 136204 200673 169127 71563 100688 231816 179005 397013 294281 399665 609144 262010 159456 113575 250077 263000 141092 578580 470897 394950 1019 89006 78553 261683 118003 57784 468886 625291 112081 504767 701215 75001 428474 629714 675298 396393 72955 10979 382423 636158 724204 396342 598231 384461 398896 296751 163846 391182 10726 473598 57983 28875 247128 424103 9252 111176 303706 280085 116666 33217 94257 126591 45417 291262 193328 180535 421310 230852 20086 49755 355299 331886 8472 331995 343335 480105 190862 305425 469197 606897 147444 491570 368967 399753 133613 760602 593420 174861 366329 262271 58927 179468 212771 221614 247775 108471 222720 517103 271637 211020 501232 664583 237252 744525 41102 579822 305375 663464 657721 18965 365196 433887 455795 386135 160682 508589 696348 671241 132573 136620 268567 211108 60327 76976 65606 442019 98921 254073 180302 743646 222244 428532 89974 17488 59816 20115 110998 410420 130664 717649 181730 365791 324259 704744 207638 480681 54144 146370 391856 470321 544079 437818 346836 5883 75139 123843 321677 165095 370989 542734 141282 363298 221840 175084 159827 25120 142892 222819 56156 104635 47088 15497 287299 129157 112564 80568 387975 165406 28752 378772 303344 2510 310791 9530 87365 129176 4306 716402 400984 171080 114734 544197 82950 102039 664629 473945 49764 480073 422465 123921 72625 322954 206137 10315 165555 493648 127023 25581 266691 15443 117803 128219 431617 253253 93180 57132 328430 411193 505601 32975 167068 99479 567512 514160 558200 648402 265804 190153 438667 171810 256121 545896 282281 271765 623413 21081 48083 146659 60498 140643 424627 166492 202171 635492 433869 242532 92460 271809 166200 46058 290814 239000 171088 62003 83310 599034 423860 85093 205833 248739 40018 674104 563625 201951 178651 379915 233599 199715 190718 397559 373775 140559 327722 367415 378472 216565 61953 508536 514428 522276 553317 492029 524153 505539 58844 477480 420553 329779 459323 390931 749658 331276 236969 624942 457447 80643 515857 158579 354827 497941 166433 298236 227047 850455 310952 660382 15262 7444 426420 214097 508892 458086 250793 495561 26654 126108 530681 213527 154917 800 201901 287857 231089 368438 251836 93973 375168 482848 466870 519949 105955 331129 99744 512905 150203 75232 129404 199226 30075 497043 194061 196604 196747 6977 142750 388865 530928 359264 344264 684508 610607 717486 622824 290631 264141 496079 292697 117475 355872 313017 605749 420724 293738 142246 74915 38306 225038 280585 329339 344643 220438 302909 48641 489547 143314 404769 498417 669083 82452 19942 101618 834930 794644 411646 226698 517953 8939 739048 588716 776824 795617 317290 151342 595366 47886 745635 518850 252638 786616 42000 222250 75542 350523 271398 485995 265498 372249 62515 265172 190880 385464 250833 363761 307175 133634 367229 282320 572630 195531 467871 484384 433612 443435 573099 36478 219348 183679 474953 490278 753171 759192 277142 100465 138958 331722 119696 144397 101352 224533 727624 410378 418571 471581 347496 171113 263268 25757 741955 340149 34792 377088 253494 673718 645468 170987 151244 91623 591089 120639 7631 166730 40358 412505 421661 206796 131053 225504 85373 355782 359431 368958 681258 462255 536632 405330 382696 484775 96834 120525 8463 183796 464013 236122 385598 319711 208107 421723 27228 742055 98613 366051 603793 710310 105923 226573 497891 543623 130399 560228 86219 180390 6205 382479 304460 484449 213913 49497 397158 116549 152496 545883 389108 238422 80042 272839 474719 9380 219431 347265 116594 304909 316950 302662 719105 39183 99526 246681 172379 212149 337317 68062 484708 23495 132628 306416 364515 26938 89547 451173 427163 209778
