9942
999353 999882 999848 999290 999290 999548 998942 998375 999289 999189 998864 997391 998555 998766 998548 997544 997123 996637 996661 994541 998321 994544 996338 996029 993176 992115 997614 996051 998479 995654 996870 995141 995564 996916 996496 994743 996355 995414 990008 994421 981640 998043 993840 986991 993412 995338 995407 992257 994879 989200 989565 989881 987917 993713 988505 990454 993788 997789 998069 994273 995308 995321 995782 990165 992683 979129 991847 991233 988263 996444 994240 994568 994741 995652 989739 993651 991962 986861 981814 988159 992662 972292 981058 993520 994255 989104 993467 984392 984433 989424 991289 984226 991804 987723 986259 986044 989932 993482 985447 988346 983401 983125 986881 981849 986707 977779 980377 968581 964574 986965 977352 982122 977672 991210 982204 995883 991719 995261 981349 991818 989280 991818 990241 995125 985143 991373 974510 972962 989674 991465 968857 970789 974007 980579 982551 991004 976918 972254 982793 983464 996263 987743 984163 990490 987171 982572 993887 993703 988976 987975 978132 986284 988976 985823 981565 982484 958231 959167 976819 982259 965699 984355 959473 971355 967127 974736 917077 976105 958759 991873 989264 983798 987984 965413 984894 974309 975876 969670 981723 974741 987636 979842 972158 967562 982655 983237 980138 953177 968152 972717 985187 981775 915429 985707 955470 988175 937451 980461 978017 981095 985354 973826 975938 971301 913615 985470 985467 964507 940970 979446 984616 945203 966348 976373 969018 964051 968124 930501 956821 980298 931398 976246 973835 976078 946721 949568 920165 975436 969205 980426 975218 995788 970911 973884 988228 955514 990810 936256 975694 981487 954560 971353 980815 983448 977693 986073 965609 954171 976452 974413 959597 991317 988817 972349 972806 955059 963398 976438 977264 975256 979791 920461 954194 963789 968016 959654 932977 961159 962392 947159 945320 985114 985779 948938 975040 963501 962663 968294 967417 954560 974591 990053 984414 980035 972276 983534 983781 986356 989467 968650 985711 979980 974851 971717 993063 944756 987659 955795 986962 980872 951939 948532 920541 984856 961637 972574 987390 978589 962754 961801 966913 964656 874161 953495 949688 949279 908492 928338 960977 978373 980938 928042 930492 964729 963477 950839 951092 948612 956369 954630 910153 974636 879779 893765 915056 939444 952693 926180 906250 962453 982106 970952 981703 915311 901275 967388 945202 963812 882101 932905 923294 939549 933416 947225 908613 968876 916957 944430 931217 891797 922961 975385 913084 908406 956263 966538 963894 947219 866583 914248 939028 910790 946320 885853 963441 936140 946223 942794 947282 971384 972151 881572 958054 946883 937549 860502 892528 965662 971370 945720 914043 981946 963908 919176 929489 964706 950075 972696 971269 934900 969094 969202 960893 973343 966029 940804 942601 946819 955076 890805 912706 979410 944424 965492 982522 936476 833416 902899 923040 956033 927736 976679 974612 941719 944914 915138 964551 944148 952872 965723 969001 960528 958825 957633 957498 917494 924870 950551 949199 917583 972340 920316 916173 958274 952278 939924 958870 918086 905342 903526 925090 920014 942554 910240 870660 932823 913859 965267 941492 864098 970314 926853 958405 993744 978411 826185 950299 884728 961435 982580 981621 917716 915914 976452 986039 935727 894269 944809 973821 970274 951293 939845 945937 893956 958545 971025 932701 941653 966505 951061 976657 942087 905395 903596 944920 939383 912558 944620 970475 973264 942440 929481 949270 957358 990104 928502 973746 948809 910527 932970 948000 862108 925187 955514 924392 973680 960916 917224 968552 913888 973207 956126 963335 893112 911264 943045 941567 915707 952807 957998 940914 943146 874333 862039 926358 924413 914087 859270 953992 915243 936217 917721 944690 977230 977639 979758 977886 948280 902357 800877 964993 911284 940747 956663 961148 967191 951244 966601 966163 952623 860188 950781 938586 984289 960959 982540 929957 962752 968138 969541 962946 891385 925602 967792 965936 985015 976830 975477 934013 949658 968355 970709 904345 905757 959564 962146 940578 955733 934094 973242 870947 932514 897539 958758 931831 951088 940699 952682 958517 967940 936864 949379 941791 939045 937657 879511 916483 979405 980324 922463 954945 935324 965572 959137 961714 971529 977520 939391 962554 889113 912336 966383 932239 935690 890679 872060 837039 923384 952757 919026 924101 857946 945914 862548 899536 852869 926286 911369 918847 958643 949034 961040 847692 923919 871136 825786 848113 814733 907488 737400 923895 892252 855102 909393 904594 816814 872073 843506 932206 947903 932096 894888 892655 868373 798312 859196 787157 810519 820532 538734 854333 816610 912555 885527 946174 876521 852790 902950 792586 952390 948302 973516 941914 846898 947331 837619 926069 832953 900808 700859 865570 962329 922865 832389 935763 955076 916625 867677 802009 913572 878061 897992 914271 870649 790127 822997 762864 900189 798468 838168 801814 903988 923466 829207 794621 943844 913056 820718 905875 883267 871677 896150 889553 968552 954372 832015 909951 894926 908100 896438 949717 966103 826245 946947 794771 943435 832448 773460 742904 829669 882958 931586 887317 865281 836531 871625 806781 875371 824822 918872 955978 721587 936081 831440 932006 940928 941089 919526 753158 834019 851752 971196 893084 862691 709891 925478 931499 942243 913764 935916 892878 739501 859516 885020 780310 952054 914124 876794 934227 919584 867839 875450 910247 973081 901064 856121 884553 910364 734500 901806 870501 905089 893049 927276 823709 948480 960107 867038 907569 894819 932482 875738 758450 964401 816316 911586 859974 905006 951101 707881 915475 906548 908492 930231 885840 815883 874608 852982 757981 845860 841946 855109 907821 864336 828750 923445 927288 950307 867637 950356 881529 858881 792218 763436 786794 886846 866820 919890 735592 920879 896748 873803 887437 895653 968303 829385 932885 923970 874048 928953 886927 897969 905906 879109 943751 926017 932481 944347 949574 958752 872519 804597 950142 940892 862328 917139 954826 880539 872847 949903 905273 896178 858809 909970 922786 716616 824343 858630 946150 851049 890350 911535 937325 866237 851912 863835 792418 786830 868726 946718 927419 919766 929896 791839 938849 836703 662025 873603 854706 866446 833017 923780 909398 903039 907096 910528 921102 885974 888465 774245 792113 896629 910074 909704 853056 862061 907608 939280 893383 855562 766781 914150 961747 871278 850783 815529 948402 773885 961160 974469 933153 773350 774588 950039 885562 847549 880516 957762 945823 976154 858864 961615 976680 832339 907547 914694 836737 918841 910248 925895 954717 933778 862949 863692 890584 820645 902472 934001 891150 928704 873569 726404 929081 772989 898880 850465 905443 788510 892262 948836 925305 931430 957238 796381 912498 935343 872905 904069 872699 944212 747469 890722 958423 932569 871427 787368 897398 839681 810750 913033 871956 939109 906636 850887 825578 887989 938609 864697 870319 919849 870651 835942 806257 878156 820692 942418 845300 879997 908979 942780 887272 911458 921851 909433 914876 931065 830806 799627 880442 841429 917061 922845 846550 817082 812383 890196 612322 787389 912912 864001 922226 960108 957070 910414 920661 896677 817981 954446 815219 756610 729114 645575 898037 930358 905663 941830 935514 769087 868801 870107 905276 903602 940906 905952 931249 866085 875017 923066 775950 941581 954443 939517 936381 899895 893152 813500 839805 809373 773748 804936 872599 893438 853924 753120 853978 839711 843389 951791 944248 846939 870366 921739 932456 911703 850718 930320 870267 963868 918890 938529 919415 924708 944780 969745 951096 863446 916046 881496 791773 749231 782655 939615 956522 890867 848307 884365 936552 921035 903447 946364 927821 939677 959589 821780 935038 966535 952983 835298 927599 903686 793370 825471 813555 931391 931561 932829 919823 893945 900880 879927 841400 888404 965097 892784 886383 771365 912718 913954 954366 900852 952711 930097 916862 810168 743652 923691 894870 958340 928874 918866 908404 626519 863297 967912 818225 949520 948602 800843 894135 869001 817486 742055 897629 962722 937683 780064 874291 904464 896464 944207 915973 835897 905558 846299 934727 843675 828818 884423 875824 948451 959649 840896 833690 887566 882240 869294 794435 918895 934416 798535 931269 941347 880316 924973 887582 904339 878443 905891 815834 955913 924250 893625 919137 907938 941553 896065 891078 922800 889005 926565 772928 787759 866077 889363 890965 941449 726300 847794 946349 912888 916415 932720 921203 929189 914932 930832 928881 941625 927831 933537 929975 871779 957408 971974 905780 855275 902972 943099 922923 867132 877608 860304 760520 894056 881268 691406 885874 775585 807757 820387 807809 705690 537852 822509 632535 834823 836026 902053 886118 807497 916785 888387 912296 854820 770488 928492 802469 837725 596526 589019 648830 777271 484409 920337 858661 907823 748240 863215 861799 592479 815213 860525 899111 933306 878785 839623 830172 893328 909028 823078 610050 762184 473353 722576 794623 440222 719740 777969 891621 442396 732405 767686 898781 854269 864104 817440 567268 800616 698835 723064 834005 799764 807283 769925 810995 681846 748242 888659 649754 932719 940673 899570 736938 869536 889520 439120 873216 863826 810925 796971 774772 638782 631217 679119 608631 743533 683406 787895 743288 385637 490874 776462 787245 664966 490686 803796 889760 845401 754999 375808 577019 668490 751431 785829 832593 899696 853972 779274 774863 844694 836135 644527 617640 583373 946807 695081 923103 805653 832101 877089 885206 642046 738242 699209 823330 694136 794622 855685 769536 673914 441219 749601 836208 960807 880163 897709 780709 779151 637029 905072 696542 566762 937314 815034 785396 675826 826083 734020 747623 769529 720301 745725 615335 804690 895194 894268 906641 834955 696896 640116 638679 785488 768029 535047 697417 881181 884030 796510 539670 572189 746334 744335 625500 473570 763045 915278 730940 702991 757794 581167 496817 929458 923020 876178 911492 692540 759943 696445 792386 231508 727465 540212 861447 786470 861616 781676 815890 900568 900583 791512 774851 746504 593702 656460 896467 788537 710456 842154 840183 616773 767135 898410 858813 911163 743188 648281 710035 937485 875881 724812 764976 936189 771775 812340 817365 753371 534045 693263 693453 587043 797077 832955 854338 738777 909503 767319 723682 720652 715758 818753 765348 719255 476235 782524 789804 705541 856566 735877 814072 917204 872550 912277 898397 583962 712278 873214 917219 796100 703142 916845 921005 936202 664416 925783 881835 722570 776523 595628 704136 706946 552810 741410 464652 839762 780785 837376 633967 832613 845871 675941 693784 646005 878648 858772 770079 714446 779085 888740 891076 895573 511133 707102 758912 573904 739441 630229 838962 735603 709434 592508 642728 903099 732293 913992 901801 876372 837674 882955 907137 788436 603679 675074 535699 750603 813077 791688 722892 874357 949001 841729 888487 733785 853000 785129 797304 893655 680215 726640 362069 894269 894111 834912 787804 893455 798322 790076 860086 884055 832491 797628 763122 759923 858875 931264 909302 857184 795054 854429 837266 692976 712332 832610 870303 455786 849912 679464 704394 834591 854922 798103 786442 881944 877859 737989 835501 662279 675992 886729 877418 569909 568356 823201 819191 838416 869647 826318 744806 889749 917434 679745 806964 800128 687369 773257 847565 842884 775420 698991 618701 787030 732344 749576 824625 769408 726508 737889 895904 780403 768779 688835 735325 737320 638846 456729 815554 926933 710812 704737 776647 600575 934245 748251 839087 465298 847051 785496 790324 715479 643114 629956 761805 873918 837522 658113 721788 673725 881476 735512 549093 880531 867842 806486 709198 866906 767667 575524 741058 809042 864121 838937 824888 607490 794735 694517 766333 755950 756007 844678 798876 750040 835884 610896 845241 796438 764301 706914 778761 801986 590413 747073 891918 730067 909033 836696 866476 393405 776020 706627 813899 916423 781898 859382 803277 589947 773212 935786 536280 881166 878671 816435 770244 744905 894947 879073 919214 741633 670896 680309 761345 880701 766758 780106 891514 797000 815753 820834 842822 863361 898267 673359 799320 542229 475717 586318 729399 815187 793211 797941 799732 778597 819615 845625 737993 756471 656829 865162 820594 723745 763708 745716 845684 798444 862466 758937 708488 778995 555796 832128 680542 909381 759471 715806 904684 908821 638900 925785 746242 771689 634302 765990 900807 766102 707282 458101 630691 855367 792548 830646 838032 696258 662508 642892 797817 786674 797212 890026 594681 887326 765693 879385 346467 704319 844379 921006 836798 836977 793546 656291 823529 555899 710628 717258 676131 587134 770791 739450 892816 857835 815613 698089 809137 781449 820990 840844 701327 797126 651960 778652 769038 437277 757227 723018 528488 610007 874885 948204 950297 793037 794095 561338 701792 602168 664056 684709 909764 717960 697518 449473 841792 859970 743979 928964 741818 748468 560360 510076 448437 841775 939467 833531 838234 443938 789739 772629 816260 884547 793645 798320 901196 820280 777987 701799 806382 728223 605074 952972 955057 495730 731472 828767 530460 683643 867543 834081 324704 860161 654573 887867 687461 904866 786740 801977 732990 894062 736186 700959 560970 761291 781739 686755 890181 723454 671517 474036 567700 625227 882549 574017 886747 857522 921480 842650 774556 685235 622217 883274 595486 638829 714466 786643 875944 595910 798753 835377 857358 535878 677759 810750 890315 888661 768128 892213 746615 782662 692465 941383 898112 793633 648679 655837 798212 828089 884448 738170 718789 883909 831334 844589 793443 858904 852392 713113 743976 817568 651783 931571 932061 490566 742772 869940 790000 689586 655742 748244 859964 535724 797239 803732 762517 812239 893745 330935 869441 937877 753311 900120 890753 738634 739512 715428 799614 767725 581055 803960 919483 698753 769056 749153 756718 834333 897984 793805 620352 746150 769788 802490 803340 770813 757795 740821 727815 916097 900867 781354 704182 809154 844427 904049 877495 890117 826724 722109 734485 808634 865663 909308 864079 723399 747876 913930 823697 799446 881812 621698 783699 613493 359053 593218 755239 661780 796254 787815 871322 878089 704407 809059 604198 801957 750169 628789 648283 881296 807325 469095 382840 524713 758358 809843 885689 803573 743365 779114 792303 888116 870718 868427 670087 901461 858279 843868 914661 817547 730456 800537 815470 563517 941368 685205 776692 369578 549595 702880 699892 505561 573850 837869 740859 891306 766805 835969 828284 790658 767730 869198 636734 677195 473828 777686 649245 776563 856077 470284 804025 891059 656350 903029 926003 803693 444866 825130 892948 718190 785223 685574 799317 788452 913478 627723 573967 927356 885999 948987 870036 874829 868226 649293 872150 732285 715998 750088 862346 773047 784234 806892 792095 419106 764047 399100 706996 730255 684730 712587 833173 876529 582622 850889 793458 735392 704582 848181 838109 685191 778247 823763 705929 882423 899745 818280 619409 426527 809779 729996 869447 632593 907032 871570 928353 876226 734456 584217 789112 602598 924556 833892 692949 926797 880989 904207 874415 843013 929728 887311 876103 919097 762790 932983 823042 959957 889317 773319 920229 740473 843143 784544 658274 727569 770332 753653 745550 647867 708330 711400 692291 553556 741272 911386 818155 885344 823583 838938 786241 848551 716016 583249 492137 647101 904095 675145 863266 593175 913434 902798 746296 854323 742906 560017 860976 520597 814521 926327 906363 881623 792269 789242 897902 658265 777784 915222 734829 845942 834710 597086 760841 811709 801911 776644 516478 861550 620372 674019 824734 876544 726024 700273 907722 809448 443455 780583 838684 853572 878410 725483 764467 777761 638150 858172 764228 556235 822547 813453 663611 705946 568986 857808 887813 865500 678751 584933 766818 899180 587918 872000 744240 872173 711573 839614 880167 756557 735610 711999 700746 908619 606114 830759 755353 940963 753923 901222 761533 671189 808489 861647 904060 567063 520457 768823 550651 833083 963196 761959 787216 934535 873345 940086 943081 744368 770334 669216 866543 840819 837040 674237 725433 709719 257685 675524 886197 811934 936879 767769 579753 756708 742928 836537 832055 865493 889460 655080 885999 866554 934880 833865 799909 779468 684343 581638 563739 731808 776723 894127 751006 687263 707255 730325 776040 822207 816768 659876 813246 855987 798275 795513 818944 774173 641233 752290 693527 597453 884170 640128 752249 621838 787790 747324 676544 859693 807406 833854 934287 713647 667683 895164 656706 930579 803932 775073 817716 829247 894948 837213 810187 744449 897909 873824 873878 859696 883435 530996 599496 833375 924757 667553 906898 889490 725006 828363 835841 786519 677636 920846 756892 782289 817953 532255 880738 912918 909247 853570 835172 827961 923489 768446 621725 710239 732671 634026 361112 853843 758999 817084 882651 902268 829682 583637 516141 712683 628039 894680 829185 577578 901239 693487 864757 666875 898421 662036 813530 848540 840349 835039 726478 845905 636656 717393 926919 705447 934017 832862 895434 779573 809557 862719 863120 776430 781557 952460 694055 841522 935954 860480 896393 782921 612506 880512 757736 780522 780197 911386 593784 831516 532746 547782 784036 826370 816946 529858 563731 783404 850383 415146 456297 479387 690602 632779 774003 244738 518703 670160 420881 726857 621428 683647 764025 616078 669035 518509 400649 698925 822042 311265 514953 674979 345920 625133 620898 870470 794164 854350 496367 589210 480934 566938 742746 759527 833622 303067 815088 753870 850256 267443 766472 911707 710487 773370 520748 623839 609326 502900 550821 541065 116577 612607 405974 580474 452892 280845 419015 768430 857326 611122 648803 592257 664757 684472 592629 858389 755107 709247 381820 217511 461096 661469 658552 658884 426262 837183 601309 794679 312688 610791 685397 603466 280946 724233 774448 612698 772690 866999 838875 811672 508407 458959 416818 441689 649337 60155 403921 663273 650147 327059 745662 396573 338261 595539 505174 558364 736437 851419 883150 332451 399231 615245 631444 543106 657690 826371 790945 713576 847228 554534 348443 618586 811406 512560 490602 100452 532870 579965 698576 697302 694057 725752 749403 414069 273572 285297 734683 436199 479263 573804 597798 333554 439041 568077 424947 868075 764265 306083 489829 365001 785261 938778 746904 610353 181168 600502 240754 736276 626657 628356 834273 294190 353737 831719 502049 478696 296068 282459 696339 658444 724865 436195 697092 403422 312163 627957 351264 169740 487351 423548 459378 731401 76869 314600 468054 684934 678255 526889 454454 338173 236982 485435 364517 477303 479513 598913 710187 487984 428125 388073 378890 772698 762100 850225 685609 715351 710957 742930 736281 141746 346249 472240 553447 663664 470513 615981 658771 773990 602604 323121 820008 691028 814988 582003 758982 565517 742754 735885 734176 543175 364646 695778 407907 535015 511796 295775 408985 261668 344352 937818 670144 266971 494139 774635 730805 732466 797452 829870 575888 835042 420890 878770 767974 593785 536759 603951 182656 663788 349642 534527 507413 427816 659495 441684 763401 787760 716023 528442 508174 584261 245185 333038 359269 514637 569879 549103 720911 829272 800379 878911 173348 586265 433370 676975 495081 752137 775384 331555 384784 885936 872671 672928 326184 542777 469042 734669 696821 546559 725757 770712 734857 465713 252395 783017 692158 675735 703887 666103 589534 671964 641554 548272 557376 685018 572831 501431 602559 749162 605158 755405 716506 651913 752625 796433 703307 100908 629628 695288 529613 308429 465819 565097 512023 609931 597678 408578 728155 365887 413246 469972 680651 863221 431016 718557 763672 731639 787063 286083 332530 445610 222509 669406 432118 404415 515190 339685 522831 373488 411965 753486 281306 853932 493080 645575 675695 618098 588098 683797 613667 561569 138344 341269 459617 774421 575243 876575 452004 514820 779335 746362 702878 513403 623686 732110 752059 497703 664335 765822 697863 158986 225998 589644 619360 361702 507070 755557 652825 759987 780390 624736 573687 775865 665581 814907 770986 772459 714020 718850 664379 494489 661924 208633 687470 540871 539228 567413 406651 556130 538339 404768 534727 634881 758232 544003 619113 747451 645029 455468 740628 537166 590210 763919 729087 872361 566500 780111 629328 834979 777702 415101 515467 330906 548378 698634 444233 766660 932374 691705 814810 675125 593086 625598 693726 336622 611769 668134 513462 638821 736227 816221 806427 374093 599254 521150 153803 408656 633304 422857 620082 365947 522492 679840 456694 813238 711199 842472 790423 531552 607409 740360 631559 394292 739642 719022 672409 660954 248459 375006 648873 729645 781803 761369 654076 626721 584352 363182 448291 547164 726564 600194 768048 601026 261008 815681 843794 705297 684807 495707 509269 640734 851262 815748 866208 706227 455806 528335 794516 583394 390888 362752 571220 783994 522789 726417 507063 611929 680444 547426 564901 777783 843766 856815 676364 858336 439709 342801 505020 527774 324298 727761 548153 321463 585252 702419 562494 594364 550405 647074 661820 385857 546838 199050 291818 547543 608126 441150 267156 642149 670782 270160 141015 251536 662022 564561 340710 634171 480178 643471 491442 572002 351974 504873 463789 484083 548085 686356 446810 697650 756893 721855 168407 641513 509491 771059 749477 821488 837117 796589 731695 502971 567686 495398 346946 648571 359191 322463 715392 356956 334555 667352 451206 410424 245761 505318 808206 715678 475714 649144 648688 562829 542062 354100 508666 784603 673407 550609 635307 772228 739892 863159 519171 730330 812967 770061 802432 754682 553684 794926 600435 713311 236672 202099 257632 539984 479051 462812 422877 579864 735899 808038 761987 738351 646669 339642 596438 584374 591381 888772 461260 445669 506684 767061 424808 706126 665894 768443 790017 772653 579528 570217 332671 579429 867659 340269 513571 713785 684933 356145 282856 618030 804792 550364 839246 593727 578354 753626 659514 538410 709274 598217 613023 704348 726008 248245 703407 752761 716303 759378 553116 715022 147837 617683 722140 743108 324003 843181 481828 360751 492563 860515 541355 538072 626587 547058 730677 757446 374883 452570 703268 520423 372091 630497 553929 785891 670270 763513 811191 428767 436648 654542 586699 631178 654283 492171 685051 499090 603846 603033 650330 368373 774564 759520 734882 565783 449227 716801 441897 408416 582115 724032 532531 437282 564980 372385 574104 859852 363292 432590 832686 409256 483935 520976 543978 786383 796578 261764 734357 433619 596173 405936 380501 634389 448396 302544 711882 460417 764029 864015 493756 595918 669458 355159 576688 533394 271880 665449 274187 650211 554062 630872 565986 686752 744471 596706 662412 204449 641067 567161 575182 741282 710950 228502 708784 393268 309481 579917 610335 716255 487499 358585 692541 629405 709004 538138 761321 711843 665592 526834 485740 475105 616471 622702 634467 716604 384442 436455 429692 193633 380332 580176 674167 824921 716424 709287 547656 560751 682337 765485 559851 562867 545089 750094 622269 720495 692463 774511 783698 261110 342181 495579 809676 271309 639436 507804 768773 468022 554053 520333 552750 587461 558949 567939 726354 765459 853057 767126 492692 193651 640369 718379 713812 637858 651037 524498 625978 397941 507911 310726 340062 572956 161639 578848 749384 685863 263406 617107 600373 309854 734948 692964 334724 476443 514744 414985 329214 107534 762143 536014 750994 317202 280063 365384 602726 456450 590032 709345 528290 375438 605033 307720 308482 606105 595648 437013 393563 722005 634324 788468 502694 484422 325653 675430 682231 522322 526269 663616 609218 562726 669654 485744 590855 540745 557177 767873 614261 759386 584660 499717 522410 534895 635126 638711 534930 719300 650988 722911 499840 503790 411863 811284 861753 366641 320280 528020 453644 390944 597773 320907 771147 781290 863184 338380 702775 706523 718040 306950 759259 486094 490035 680147 768365 745820 802575 459082 393577 785463 767710 655810 615407 458631 712492 243477 326442 651509 332810 875617 667253 858674 679171 855929 917668 483897 500565 566589 492362 555806 560963 526525 636532 652570 699510 596683 738890 753649 735650 807705 751648 432647 136927 721676 231496 684920 457287 409117 700705 785331 507676 451377 855135 539369 604721 761956 569774 430017 352823 456282 461996 405971 433857 448677 110757 620649 584242 475943 683772 328339 581485 538672 688297 470331 521168 249641 760510 724362 778975 560156 412989 602312 715454 520184 33651 656097 736470 761202 373657 685459 696765 713489 533081 563289 654604 774645 677300 774438 481633 305160 483933 678450 581034 667312 694622 558715 309926 530892 451515 755517 603170 669429 636644 649309 740027 675382 325972 653617 549345 679097 559326 731412 637091 534689 463931 592825 565224 700544 722357 498436 610427 282278 467408 505649 563276 745461 473801 688140 254729 532183 337624 224749 422388 526178 584076 672612 630953 683994 789977 756126 805630 189651 214185 642720 674167 312399 204231 472688 605140 329007 315640 453606 722336 673718 765216 618202 876170 485188 315860 211413 320454 256090 548889 778111 772064 333986 127915 578352 479709 155383 813985 798650 824118 647128 797355 543895 689203 770872 720513 483154 602210 254605 304034 241415 528849 695704 579072 539410 656682 448179 360360 492237 577612 490061 641383 669640 523102 660560 622405 736050 834978 534783 543627 407488 270358 295311 419753 547587 577464 147208 666838 635380 756970 576060 688453 540360 666434 615212 572807 213301 477528 451771 468428 433690 293616 673785 253456 708286 607963 465950 471651 333069 518539 782824 754178 944757 768961 571186 944758 523774 664840 741932 431197 179458 468773 436367 601763 580672 439268 508671 393695 588446 500396 743336 847312 551706 420211 663574 619394 406293 333108 519304 506886 759800 783591 366105 560732 497789 876590 576255 540458 698732 699311 373361 553446 465345 384626 279475 401712 761144 776446 720982 156896 685243 337909 784189 525352 394170 368943 496616 677036 527012 763781 629010 562588 272980 505559 724686 647018 792789 538067 853332 767849 820235 768882 621559 606554 616590 309013 609834 785971 613466 322412 306724 550005 942889 634056 870887 810617 339304 443658 378779 666081 602698 511355 290473 417663 413178 657166 302737 800420 747826 429733 324641 275428 633728 693974 585738 223689 570215 809682 649045 359002 846061 304805 295347 375673 701189 508514 709609 453091 803889 498454 596746 699129 599776 627631 557172 180167 654214 524504 661218 258827 606631 665410 866455 528809 421175 571159 544737 514752 229286 238139 363906 418736 582667 494529 560009 728432 399376 314731 729994 690560 796645 845045 659927 907736 821691 545196 239794 302489 636441 518231 585118 238871 456259 870177 404291 159167 630762 296293 606202 411355 609622 510049 614194 615525 537153 558096 795258 403441 663877 781422 604632 705330 335903 447142 535258 436582 735974 489557 805274 459339 880210 736336 475542 435276 534658 786574 678613 242267 774493 495477 459547 163687 392104 672789 459974 601461 729597 642999 480228 578859 632192 291751 302185 602565 315176 763657 829499 600680 290460 648613 620044 657954 466355 859499 744958 830938 630731 395271 409809 507470 678232 785793 668316 395671 645112 514034 114598 423377 539498 684252 559224 493797 931325 903130 591287 757117 475081 454531 652947 590535 823593 563188 455185 529696 258570 339593 175948 629594 189639 252426 775305 731553 333219 367767 519124 785060 426225 803607 761246 748599 725864 631328 667791 756940 258247 296935 667700 672122 832638 888382 386951 585177 528805 788567 443202 752181 540010 615491 674750 480744 650915 527889 331500 455506 429852 455772 372274 471717 338463 144244 605004 883951 653796 678894 657364 134079 638578 459832 573422 321147 593689 460917 728148 775763 771119 545133 431296 560279 721746 733815 629946 592426 786554 595913 770858 499888 670387 464967 697488 340295 502194 210700 697088 351335 845502 388406 489385 720904 559663 627822 405356 359480 554013 666914 842789 541897 787363 173112 515984 566136 554612 610131 734911 739570 541814 600728 598515 533456 535956 720268 609694 339670 764327 598847 826678 801027 603771 330759 468419 737773 805436 272015 631085 812710 505549 792375 689950 496106 559722 549721 351088 637831 528872 516805 286720 328503 587566 235134 620752 752723 564903 660327 754347 263095 773177 636240 552089 508891 345382 866957 358887 493395 529939 797639 591238 588256 717878 757562 748940 573598 356019 550770 525875 586903 386315 635696 595239 755684 259365 373222 336705 186678 346991 439556 667648 399048 283646 717559 692578 643079 577876 588055 671527 324361 725286 625200 734512 552532 813164 596453 327639 790885 690760 720935 662948 577634 646022 846452 775418 566885 742889 435319 587567 486644 800819 807252 668630 544618 774765 711195 746213 452151 342904 552590 402393 650454 650845 184269 385184 590409 187613 338019 304100 497121 690884 546929 653857 504869 466854 402599 547837 306608 821738 728077 156907 605028 638289 213962 482466 611644 724123 780865 804360 426589 498657 630224 612031 712386 559852 712993 609510 492250 521628 220239 445837 463456 764649 372908 318118 368145 521156 504024 487429 745751 310926 463399 507081 558774 511539 660736 390506 261892 300343 783138 805704 641579 527104 758848 358139 411753 577754 379484 810094 407007 489244 681769 646676 550628 583285 585523 779891 578002 784574 297194 880996 209630 603357 567494 417754 477880 798696 891602 767342 403709 617131 865951 684419 375539 731399 822047 550675 661371 549248 250356 669706 680325 637016 589238 609235 619178 171961 444026 740373 233681 644853 323646 499313 733136 584096 372782 714166 655064 226630 370946 309104 588097 132266 253896 265663 605544 711013 589204 681225 525549 414417 312815 730866 419619 677773 649120 455156 466788 256542 821126 590504 576242 567713 518151 436650 540683 551387 762046 594363 491103 559687 543235 430286 761872 621424 537667 392020 611159 570137 584820 856919 711048 782810 482694 584806 396998 231889 297543 235381 622447 332715 579702 713406 581785 610635 185269 639449 896796 527583 868789 748341 847496 607850 843767 728920 573462 297269 488959 720592 659036 465197 457708 430244 918167 774820 606305 419926 354313 645489 580418 503103 599094 380452 867019 747370 724080 806595 414319 710205 633422 158762 408065 680314 840289 725884 891392 741119 680760 738166 887941 751755 714684 608792 863640 842536 236201 599293 761245 832817 891253 485855 627318 790054 707156 234155 672495 317589 592367 688141 98992 294195 437815 581430 747360 266249 226896 536055 503543 407032 650958 319513 543155 685075 663994 485201 403247 557089 442557 857546 874702 261466 638467 767723 481474 645290 822447 639833 679837 770663 380390 698006 681901 565294 356393 528171 517905 403093 470120 242604 427831 551038 564433 633641 554246 593770 619388 579349 278580 633654 731309 880049 327672 682369 524808 826759 802820 581993 710013 434325 363399 789479 655880 263250 146812 404926 745516 701719 664386 829811 656736 857377 648621 698753 768413 667275 662769 597466 849009 641580 522303 747831 655027 203516 648399 425131 679677 588666 445090 460739 601582 396942 462491 414074 698351 672991 669160 442155 680868 598696 520489 491943 228377 669011 273055 447014 570726 574902 616736 373650 641945 692233 765066 560992 636363 410235 571837 642668 595333 574683 745370 436570 372170 515477 702720 627071 469391 846453 375789 763350 566029 618129 641824 704511 617184 285554 203717 623167 426527 762671 584752 430049 558682 442290 358104 550096 803269 791356 705888 513082 370810 698456 117967 299888 309884 316972 671625 690288 884251 863587 858583 452525 426237 482845 422759 746339 416942 787801 637964 495182 529291 344415 722451 635556 640320 779765 785146 659313 570991 675824 833035 848835 793032 704621 509609 464876 560411 693814 528860 519740 589005 835537 785338 554929 546061 635388 664203 461136 598299 592160 640113 590412 730778 684804 739595 617913 626204 655583 553929 560497 544190 804728 743241 881854 486277 518582 275994 224554 328909 511433 728958 547795 387796 825910 539712 922420 655850 615345 547067 211568 779922 688304 911381 841604 445898 599118 878696 803497 775010 692478 663641 719540 464973 614676 571717 708347 691019 584269 444211 721713 605378 618124 674074 419102 524483 618004 664168 148840 217306 296055 423656 864249 828932 420515 773117 894134 791595 635440 249968 283759 492523 626448 563915 506471 364349 829582 461708 680922 680560 802566 678507 724162 499181 296893 387572 785132 834184 693049 823919 896279 667962 447358 607700 761341 436424 205728 753368 660025 641735 553874 441640 511847 531956 513688 601684 751234 654715 552844 855448 655685 270092 644792 485961 328318 684193 404900 209145 581653 422025 465576 702515 793405 676477 640316 454021 784856 393701 429516 545579 643831 589673 707593 638541 622742 734652 620779 697400 272302 410166 455676 455447 497922 634761 436656 396934 688900 860300 484131 496914 636105 604854 428153 608196 504881 577728 648812 308142 673554 192146 506358 657468 597582 416383 730518 507872 790525 714197 587734 584813 207356 483916 487257 825270 622363 437181 827142 777412 590685 335484 703934 590093 685030 176759 652033 584776 832253 688215 456168 798699 589318 805053 667974 670080 420214 240132 734745 765121 513860 838476 751168 708783 551609 776503 518456 217456 460783 258307 583785 755518 782084 685870 627848 473210 402809 484819 845023 857520 603029 302634 265410 349232 701877 619688 728189 544394 636976 533749 665886 641067 514506 617465 739569 632216 650251 644425 456626 489445 826979 861654 859983 775693 836675 781153 786391 771119 745764 479719 738969 701622 909982 829795 710373 434687 375931 554782 707222 596928 557982 533716 402854 517772 339396 211065 807138 750378 640126 672853 338576 667043 509797 400331 733345 758976 498078 794091 554336 578514 365698 368754 628553 605914 545318 420287 517663 889730 802673 520058 249098 370883 525898 749262 640821 367296 862224 265209 385707 618836 843414 608893 626701 452156 711439 770451 731089 677183 735385 828866 627944 753294 511085 660942 838798 666613 189196 631932 661368 451853 889891 746454 651365 566372 821573 930353 505420 664869 833300 384565 593020 478874 665383 646966 550674 799057 551720 506479 481875 466164 437904 491452 698318 694521 511513 380894 707796 508680 700812 374001 805114 524900 674771 674071 684980 519579 312344 611724 867445 828031 622216 717457 759852 703090 577482 578115 841316 690017 491028 528926 747311 670466 254768 517750 537955 145903 550287 721155 821045 721120 723421 339367 54232 484067 535038 103477 680967 338725 143880 751511 206646 231505 309947 431740 372336 87179 241372 228149 460651 417319 158565 463106 188607 84859 112880 414964 74751 59606 340917 146807 16155 586158 215498 613448 371314 189755 462533 488666 324623 141214 172938 322207 325358 239491 326372 400023 273351 315986 701652 326586 212754 150983 162679 504420 249617 80352 281064 247259 482257 141002 92759 62630 312676 251047 543355 768774 375921 317234 47314 316421 440417 19066 352914 128809 108973 199568 381917 94080 489941 335226 311571 296655 167989 300286 296626 400406 431837 11853 588508 643610 208262 46237 391046 415710 757849 757855 79406 100810 574589 540681 21250 104034 225999 278738 253078 328718 85501 286569 521557 96014 85308 421388 38952 83094 408836 201212 264633 286731 67678 562279 121531 152022 184774 191841 275015 336082 711208 113877 154602 338659 493986 601885 271847 354307 69244 166137 31652 373813 307088 346318 203520 139294 269507 172140 584453 421741 697125 159342 156199 355527 189605 146407 285838 13101 525350 599064 134049 553869 525108 182765 79125 393365 553134 528575 522352 462046 542612 24180 50162 298959 557389 281932 59815 114995 336330 335151 251976 238655 184514 512238 234110 50149 89880 220955 249567 764126 739142 361154 546427 33358 754026 313708 11318 7347 146808 200112 248910 360401 273298 293680 309049 533264 2724 10356 371354 225284 342597 154938 160512 253853 60253 237986 1707 420885 196696 161183 289781 108425 202139 500131 406992 165350 275893 422062 676463 333409 342691 87143 95632 804677 247545 6637 160290 392223 59903 608875 494704 345032 94891 380328 9479 574230 99185 375941 453044 287989 399404 394428 598759 388370 22251 87367 90166 227597 594010 86504 477146 280591 378815 112571 128305 53079 94036 79063 380852 266171 360937 12641 610939 3518 277667 375740 279707 693945 409783 506971 217047 14429 439 184376 21132 73770 138749 220042 483694 112235 394495 185911 189380 49372 92177 326522 64736 468894 73592 207426 42565 117873 431442 128060 41969 128862 516707 80541 569590 61778 39714 124235 430526 57057 82911 116015 194092 385123 169860 635137 145976 456058 384073 572757 104490 122599 89121 161707 215353 201934 523305 312020 110581 266460 505143 380998 755758 662331 101856 100502 278597 306772 365875 298333 450367 297632 463240 374856 202135 223096 216795 34847 651897 106578 476871 324406 535851 658055 166025 192273 304514 378101 89602 302684 45875 66489 280875 72247 284141 154830 158380 82774 483240 131380 222484 319237 286171 331455 387421 647624 14758 40410 12206 82529 204114 416180 624746 251377 357487 553019 205897 47592 197435 2703 198337 130771 236292 161439 344169 449264 154226 286169 265658 386050 422544 355076 586620 354050 458021 447629 6573 414879 344889 358694 144481 18119 113787 52626 389425 90927 622981 492957 590379 785014 169864 319807 360673 235216 671064 359827 731482 333794 521535 180177 73419 74993 290000 180832 153336 239642 547313 263474 367285 259201 178631 99008 431780 40150 15203 610465 165431 392130 312306 364046 116152 235794 373816 167951 595487 655358 22032 629269 298079 270540 213380 127893 514182 160275 434908 448342 553061 552691 633155 52975 151066 97092 103824 152894 489411 679139 19197 95695 66813 67436 23844 508017 19347 168339 89903 127111 42433 175001 315546 74986 615138 327814 216378 521234 30340 76265 28186 314868 358570 737426 598544 596789 424727 681459 550194 188782 78834 572768 458649 304727 451259 345074 375809 105860 83600 391028 50262 715443 486028 529483 30779 400917 593350 196287 88833 74261 536528 463848 268558 89496 30857 362228 144811 220306 138556 235079 561318 240739 163986 81819 316233 67141 240409 745031 300193 231316 328513 303848 13754 471468 476327 114000 11226 171824 17853 4158 351749 222529 100439 119758 446308 550407 184474 510780 688049 316039 698754 64038 654137 796976 200001 147098 74815 157404 143896 487951 169355 34090 591233 499012 243105 32634 751633 205253 15595 295806 99826 138670 11230 48922 498343 613497 580129 138907 12297 75194 3709 181174 230779 429086 263549 206160 595798 468048 161875 285078 393281 325327 319158 358840 250129 615456 528829 413495 403695 58745 212807 38241 456255 569946 657955 448871 643068 427761 253914 676427 237501 438674 236235 278669 431403 621337 475421 417252 78029 301973 83944 290818 334536 57365 412955 428280 447160 412051 197170 128606 460340 605097 77054 236416 62683 729106 480439 278897 628403 262679 746382 547365 563863 124443 223283 413005 1041 77901 507856 11067 590310 544813 47252 23008 284628 179178 225294 314676 55059 21484 349699 402398 570003 439863 541316 224060 107379 44106 145632 704851 163227 89032 388595 188331 385674 430415 162671 407485 26341 710481 416209 370854 25458 676348 526992 174267 389057 386720 591666 391893 197962 145421 254747 244983 198130 299751 86698 217547 209226 482303 289379 66006 9541 126678 236499 244951 244825 239804 265001 156949 80040 123125 212320 214389 576788 149345 72064 22510 527742 488928 220277 88257 573908 194128 304794 619454 596712 360911 347273 445784 565408 150441 328624 213923 196747 125036 53054 55745 230515 177653 379088 327827 11401 157902 450765 523411 616502 4655 272544 191772 290786 393793 410685 457124 69405 518402 80698 78369 194272 412330 183993 209621 505792 306383 567497 488435 114476 323763 395910 606899 430010 101954 12739 438601 135547 4051 2542 42209 169545 69754 327641 308758 291062 241153 299021 304362 158137 577875 549319 368245 85016 15930 16435 29961 124595 414018 210200 79289 158947 569733 255661 544177 121434 433076 132572 206181 1035 307781 672108 322577 511984 688080 257136 601269 214554 226801 401543 142422 33501 160489 431042 656975 181669 47053 94253 307484 286055 260645 159540 305623 356785 410783 508156 311983 73130 399050 502124 466059 89822 165262 706279 748643 193930 491706 492949 472179 429312 477598 357257 627699 172348 447209 671751 666318 310160 450712 73561 297506 317821 8069 482739 314925 774231 776567 128845 476083 739126 636550 586372 204789 612511 660459 651126 220309 271027 49218 349393 354396 40573 292903 352254 22794 369732 185055 269767 272030 590733 759423 659485 226639 598714 284699 135916 228765 427281 641017 375732 468796 79357 336174 533776 686491 34913 260528 142491 139280 575100 136370 115221 284992 505214 398212 464963 47121 10234 512636 141060 25164 319740 184074 31974 447705 347400 472354 94664 6687 215020 89972 212216 350520 245150 14469 275577 81089 189805 156457 199822 11305 545378 535274 324137 37489 305919 701062 147079 697615 616049 191084 604878 430198 99294 3385 294840 591945 681430 121804 287389 162249 67235 16244 656633 400117 585353 582738 504653 22457 335095 399015 161073 124070 90724 107313 26799 478422 2321 146067 581610 664185 571030 590647 476846 457394 545251 109738 540129 349108 124551 352053 206582 7658 447515 185475 451258 392018 244735 474366 435180 654880 270855 14176 140979 138147 1705 66959 383778 215348 560892 549498 601006 108317 225825 282065 458211 89543 363760 188813 258685 151222 553136 627726 769963 279027 666771 434147 384222 370056 168545 518802 745075 260021 244353 53142 329556 55663 131257 355469 510630 320244 336500 321780 144032 314831 472202 119130 120151 197931 171842 564518 259015 409462 495632 84830 164364 207583 154995 563067 158162 302805 303241 294565 122728 307376 79407 192678 416738 214865 65601 33411 42836 477928 354112 415304 123156 280343 206351 328767 419125 196737 26193 312127 436092 206169 514847 469855 21221 315786 484513 400845 19179 188736 51584 47777 43656 542432 139736 195458 470605 263666 187612 61641 60054 30793 465519 531179 470642 527089 7180 362154 163621 141212 28652 180525 660692 444093 32044 134958 68712 34185 236883 99843 523887 458890 158568 238857 107396 56506 37820 441158 156524 475957 149968 23018 401547 207638 484716 300311 20002 52347 488979 499019 120236 261092 347760 145709 483440 142442 74386 31063 129221 229205 574870 409507 337326 748033 187635 189140 91770 118894 355447 568971 444678 424979 564705 733714 734987 747110 727030 75736 662140 39805 432312 472644 713336 136573 437843 408667 33584 18762 217668 396614 216623 34492 485024 230071 174979 50976 266885 123241 499312 567763 140083 182253 19592 100980 51835 299034 290335 367144 80871 282960 191750 10829 102586 151729 721228 500560 703755 240731 377941 402847 162724 241509 17503 534207 168466 239052 263408 133671 128420 39805 235417 108588 403203 502253 279051 48619 391255 209960 287918 176391 611665 692474 455799 41328 240421 278235 444296 406508 404064 596842 228224 119982 39195 291598 48199 614266 73339 210049 338428 284864 15914 701876 136148 455906 406318 522328 30359 230933 131745 107557 231601 57122 329828 44453 310184 11986 246591 336102 13384 364202 113660 106734 151859 645766 757024 771089 626383 480603 240631 644786 170752 160313 203242 42568 128114 546648 119822 489413 36908 245727 783109 665501 84822 263510 189386 253823 177941 219007 357971 85626 412296 4958 321563 121169 649800 448851 724039 67325 17810 566717 652794 419589 490254 193473 350435 127602 194262 207183 502270 308565 739467 501381 110428 24925 513018 348859 456062 462535 45919 338404 145411 223525 76686 179609 89261 118636 672987 502152 513150 298497 416473 77313 34249 376664 503724 285445 539181 91213 653902 373306 459932 252488 673629 197823 345545 591745 226947 92775 349310 572988 537578 394275 180009 138433 98576 261051 179218 48943 670473 89322 413715 519819 204913 480925 494880 547946 131378 109669 156702 399647 462134 251333 633066 138479 192328 142748 696825 165560 325400 345290 103316 159140 90898 258308 407299 578089 278713 248016 338277 213262 153367 61925 71805 506281 114808 226351 185745 133307 318165 331211 188464 373954 100105 27360 222293 309789 67002 160967 84862 577224 468731 311485 510780 70846 595502 393220 536 218588 566382 664472 170139 405000 78486 50194 399076 110393 372450 211937 328715 587137 493190 137136 429870 262629 283553 253164 303751 80559 191449 28460 582656 539362 212389 126558 104996 141179 244605 530979 642098 555728 451642 28326 564817 229956 369456 429598 97624 615865 2500 9074 203085 341979 102574 15705 534695 193293 463324 160663 256909 52981 5188 233831 2345 96939 525195 250205 482447 709822 192913 261908 13101 374103 77010 247164 243510 283948 63622 97648 304060 344427 51922 181123 18136 412355 168520 408887 2196 151893 115870 475863 264835 89854 172712 93912 53587 317489 160912 5930 618152 59102 130450 66295 999 269615 355905 103250 436117 404138 84598 544654 475621 111107 344986 394719 177060 129567 209221 263615 282449 270279 522659 110039 414792 506838 113092 139264 662267 403850 108583 61838 567515 300568 167747 381544 65101 93204 380316 448066 571637 527679 511750 270865 388715 525112 390086 271355 149072 196228 538275 421690 422943 416051 543616 231634 140987 573914 527939 194645 170200 103408 171042 329738 358145 256486 276323 165696 276469 342415 536821 500616 319259 312143 100384 154197 9763 116358 315159 469667 155332 503563 11091 53324 66876 211786 20068 79381 696578 20700 560610 495113 237362 139883 573 42908 53897 110332 580178 141532 30430 37690 94346 599690 596468 564726 99816 75277 256150 84951 399136 248296 46426 6996 100816 122003 4920 113259 272032 554709 142760 310515 619086 31431 541630 192931 431675 83181 32626 141002 61225 428128 519553 440101 267425 162642 221341 40244 256697 426256 258841 225636 300472 589243 340628 392969 357732 424040 718732 283940 303370 606773 95931 232595 170847 58458 261050 71313 664901 380253 136859 41387 300540 202495 384249 448658 161444 561213 214967 421894 405503 337559 301602 471899 432925 229000 188598 265078 27068 533696 301181 374527 334279 255154 580021 552785 584706 476921 567554 745463 8489 134264 80773 110041 593689 629416 582220 149222 297467 88891 210572 356177 242919 416417 473184 453186 28833 200594 239932 260654 192073 275810 89859 304335 247316 296335 529589 107060 76318 129096 544856 251196 596233 346713 76288 571417 160696 189719 314647 564584 555133 474537 241859 225133 89122 412153 402612 624102 214315 297151 369397 297374 155532 197883 213372 324897 269966 232303 40559 23351 282072 753333 461182 502571 701180 75050 220610 281575 29758 95040 145782 251443 330812 327662 324401 254321 186840 511674 705739 46263 450009 233530 115773 100995 164912 62555 36921 241986 231718 251114 537634 573739 164356 522791 420420 42795 383310 268645 273430 127469 189281 264127 333689 14359 466720 341914 109484 429723 114297 229550 371114 420757 259674 139227 511969 355434 61904 143160 51744 129932 549573 124119 136829 228555 301706 432538 18188 442624 189668 195432 353955 484054 231175 540817 72331 320717 489705 34657 606215 398520 56780 37119 217086 148337 305152 21513 416017 503641 514448 254260 210830 105617 180216 447595 582221 572580 454779 451368 535147 449147 378272 166341 48142 355167 369409 79729 323766 327289 792563 126111 164909 39329 275956 275842 373904 187475 162790 320551 159395 78632 6614 152248 127299 256854 769641 401846 381847 108586 553441 584349 39406 41541 216353 579980 205590 78934 514902 578274 182958 40780 185552 197557 385081 378218 400945 212847 257583 595809 180367 25508 210475 343834 160111 51130 377166 75167 127353 218254 717021 381418 136330 212656 329655 402072 227092 213941 176855 52889 366274 682658 152971 240949 63658 165719 495892 405483 229808 277569 236369 359207 457874 147179 515893 841152 292861 96540 693404 800925 488475 835290 437883 146500 90853 433899 88970 36385 399210 469700 9596 121291 110955 443538 423844 483570 69103 146721 518478 235717 629421 403978 249350 463321 181049 631149 58416 430727 361107 493984 103624 742032 347750 53657 419134 418256 42159 54073 57478 399636 207424 170971 137102 457241 450926 121836 122840 87538 59821 200060 190865 760383 276788 344401 274775 394281 634681 750787 278290 115792 129654 284408 698164 186361 126999 309439 260319 349039 127797 84125 230027 34046 7287 431214 81062 83699 288840 71551 381198 14606 67412 25534 524659 615065 35594 387270 412482 204759 390787 503070 96183 55704 569087 210947 429467 207271 283346 272057 191095 189477 178322 352558 64622 138014 122302 648613 666648 47212 274407 520444 65133 357764 28868 156896 70085 520095 101565 463274 22033 326790 18461 20499 459927 349387 382793 75492 622250 239769 27995 196896 38873 510246 525050 452982 666128 568203 143993 484129 398071 384847 303005 414987 651158 718338 485903 379913 550785 118028 295482 206936 39743 204906 282952 346334 367504 674187 512553 188791 644409 111411 468165 102774 400581 315439 217582 257011 269300 93354 258827 325670 107584 92046 241237 476464 383267 509662 479594 280145 237627 409227 101227 256311 664214 593833 186802 314363 356964 484185 434984 106121 582472 589660 441547 513865 530618 380793 385453 272637 531230 166851 153257 364496 588047 225211 6805 430020 444254 322857 477341 553368 407025 108828 562437 478213 191827 124415 432611 125493 324167 470459 7677 114019 155750 253069 344561 237605 239247 92647 59877 224396 24288 149207 273930 128296 80069 5239 347273 84128 280279 520696 500530 351435 421745 357319 206612 336226 124077 462346 283523 79041 72193 720515 760080 762114 51097 52140 139579 205939 535608 508121 412048 376627 177903 311667 136186 38294 406436 88479 189112 277885 51660 177910 148373 151295 208855 138509 516025 92467 117612 324033 545998 194255 365115 186683 749427 53871 423460 67354 136441 192076 162089 116896 273062 209180 119992 44735 434954 420817 161425 366566 730621 721714 103129 131051 29255 96353 374953 82035 277826 190734 147849 98249 142819 295761 628146 124366 483821 332434 518142 216271 293380 520809 96892 270387 622841 378708 513622 510372 335489 60938 181930 400245 248101 473523 118716 54464 291467 15576 180532 115899 108154 68444 44297 321373 34255 312708 486378 17677 173715 524894 297487 247398 162523 137693 371778 387299 106214 79690 2295 149319 434065 538795 65722 29465 114872 279325 59487 129148 315812 56599 129015 338587 289464 650337 298990 21351 457848 332749 22622 334487 180790 180411 216341 16674 121103 52655 69674 29361 312295 5095 6062 33967 618262 402315 163174 307827 682385 723622 225554 82732 646140 644072 482250 387755 130960 527581 226672 291528 144677 511825 199119 32690 258820 168466 152237 439774 267910 319496 40147 282972 163605 223901 179056 204503 36227 101587 283905 36129 199654 341077 109101 208208 262324 179953 286853 70574 236641 477848 209001 710095 640870 363377 285513 863089 124057 737697 561060 225326 478909 204299 310680 102572 11845 617052 126973 214346 56064 254158 125326 88273 234011 287487 311627 321409 24526 567402 452978 297791 261679 150536 291852 96156 48367 148607 265559 586535 391601 70394 370155 161460 707215 51377 175113 30532 123600 364353 220768 303917 109148 181089 255299 234247 88258 324110 209120 406714 91698 309359 303334 150720 201527 144276 252049 265293 276126 304796 730 5380 799771 694609 112272 462507 239224 108491 286222 474559 4066 171829 369520 278064 307880 209088 203422 448002 39677 77320 143239 150065 351571 66601 311748 28506 531283 714108 108893 105183 49298 146863 406645 463501 63719 205608 626350 101075 227710 172047 169822 337630 259283 215853 62647 473311 469989 482401 496084 431462 561851 747197 611297 563497 349738 266080 79370 103142 189989 302214 335546 391066 557921 594250 409140 539438 370200 45535 109053 674724 172965 173581 394663 45885 108792 329253 46836 436667 237346 146756 102832 93025 106388 238197 377330 478024 234769 438537 483303 199664 132728 299863 20062 297934 81363 223596 824533 73122 437899 235916 311124 589015 51642 631541 172108 295110 396075 337949 335835 154978 321356 297881 590091 116557 245002 468360 71182 142956 41370 73202 20786 117424 646019 255754 94811 244791 535432 607836 76907 430149 265771 427811 195723 217442 214631 49296 570296 102688 561971 446109 314771 469971 5456 83297 498680 123254 380464 566133 412842 594600 242889 274139 78236 699277 123349 10679 194062 188474 33329 273371 295728 547317 300242 440114 129312 340811 351785 301962 120092 257316 350376 462117 284782 483733 25794 204751 510957 408428 624584 62893 181996 154632 11200 55556 295967 78621 127054 274735 299539 514764 3989 250170 22779 553793 504034 247506 846266 88728 484955 196699 320004 113899 250022 68800 495731 82043 77768 492369 110949 202738 112147 40214 33645 213583 101610 393585 166593 347210 451816 125429 537190 557427 275368 543812 186058 93546 166494 202651 539028 398826 468139 661916 595065 426584 750748 249244 181297 382348 794824 212969 817665 765529 301005 75842 63116 215713 267455 220028 277420 144203 239956 329146 213034 222291 87848 234081 332588 138323 866285 138358 333456 10720 3110 84510 123228 517065 110999 26838 553253 42783 296838 269036 303860 374467 140625 301495 169119 496307 440232 527329 251022 404952 217420 380087 201213 722856 57849 243295 202206 164166 334269 243398 306763 269029 687759 177066 107281 322542 140038 87369 179626 40115 262111 5153 206231 433864 451447 131819 735489 411143 337573 132189 758590 474956 414912 258839 319903 165269 416543 90606 513122 240859 613283 420891 597835 663447 76083 225408 357978 634683 167619 351703 162366 407795 78894 99110 289440 30703 449337 526465 334046 99602 18108 300869 692924 490743 489226 250362 171194 81234 80020 457488 496072 7310 127166 249202 61359 144902 474040 96903 142137 223384 450154 552259 717538 642532 106650 128353 153985 175769 421147 643351 250596 431963 50818 633415 295908 462828 678036 252272 426938 246059 178400 29278 542931 246442 259812 12339 108870 221657 120026 356744 610373 453440 643143 515834 259891 12091 25982 169029 312840 23062 204060 308975 34014 103839 350910 280474 36168 123618 244240 494349 553342 427067 284747 468115 734583 154700 563117 693131 589114 177483 707186 265984 457573 96740 243474 23496 354062 205216 17293 38970 412512 205673 57174 22259 139652 248617 71458 163306 33839 112284 295760 196684 52619 25318 512735 598539 85120 131054 117479 120544 772241 207008 137536 157699 136549 118885 207963 127238 485886 416830 242806 294018 38464 293248 365531 86363 298021 31327 115948 95725 347415 299267 224141 137801 26277 230745 160540 217676 22168 196960 128649 119453 422041 456015 9302 14180 789037 159609 51625 327964 20405 305991 365921 216042 432626 226927 320122 286141 154992 64197 88454 35305 288074 69955 532622 186204 59892 308697 113799 333152 329730 242797 455264 389745 78926 187359 384651 230718 79413 223605 431274 191303 100066 139392 205986 298951 255942 194560 73294 60121 34181 146860 802269 500279 417945 22129 587808 152338 524677 321053 119042 109839 30997 156695 290701 344646 233520 31674 27592 193765 537778 479615 288615 146564 711611 311845 415814 28535 670546 15636 288643 441359 306508 283326 509306 446675 360263 208167 293569 562465 193046 65668 282264 545460 104478 468347 188468 455147 405150 696453 41406 317966 391763 592126 96376 405829 442645 119124 128548 274033 265733 356612 93587 146161 417711 522323 250963 143203 657846 430495 268679 161400 342696 16785 703280 661061 57699 109873 388106 158924 187258 302805 225119 154373 42766 350473 66643 193998 466304 467660 22860 223552 438693 637529 99323 118182 75628 174724 335924 417004 372183 229138 219930 478498 347384 153521 721119 77873 443837 227450 252000 9529 194946 589069 147244 279361 215496 212740 655134 27474 377529 419327 218037 325362 755819 762218 317409 387458 5631 574777 294237 153144 597878 336491 219252 19743 23352 67672 535617 177912 280719 684679 42189 97548 294100 16744 181457 660594 102469 203771 311349 735950 232466 237204 378336 31158 370287 474127 255786 306648 199379 38890 66734 467880 175655 319821 50484 405972 65235 105023 68790 168020 456480 464473 96521 174310 490291 347295 391297 174039 108604 55221 297227 258497 282733 143651 138534 106398 209433 132435 530953 56671 115467 442904 94744 338045 27606 272676 496517 616597 324433 88206 299128 12617 49023 520854 645639 587453 500382 109063 208500 397062 290919 312876 333349 609122 59560 292295 162937 545839 198897 308816 186436 476397 148535 497020 385287 365874 157044 162804 52877 412823 359720 526825 336434 654861 220974 212381 288200 31464 143292 150648 46664 118268 32792 120287 153822 36122 566952 159830 117133 64117 79407 213142 161813 175027 671846 684477 507259 553605 1416 184918 169817 489010 79205 663301 40935 172302 585256 282289 366155 224961 1820 103792 504180 279130 397502 763137 64110 582645 316838 141014 41321 66710 355531 503605 287649 158195 318173 210694 303078 306740 515687 466174 254329 17307 447809 503514 27119 383970 176255 387678 429666 371140 24767 153709 350083 438492 48467 351206 248108 434529 284323 225335 127157 259707 289655 197233 295148 549876 623223 153444 18387 397946 197545 19836 386489 238285 225461 205017 110012 46631 590007 200559 67383 145623 334186 75170 43843 341673 173115 26693 127369 253927 146149 247766 402446 76496 549762 32129 157838 423198 508917 179648 340253 73644 416535 119794 4836 261260 33923 196076 229847 282387 266890 92049 712169 447075 10862 76661 324826 337544 627905 564346 201171 209532 220360 86236 98998 469278 97675 589574 393167 362681 513299 609061 247652 39623 393079 409756 217894 428742 199214 247284 13546 429958 265575 342463 331441 65327 353552 365308 93074 146875 445683 403345 70640 133465 55947 60906 34838 178930 255178 598777 139332 159180 174340 281827 20056 159432 227102 199735 79978 250593 172823 67387 365093 91565 177424 262830 164025 125686 59231 191472 488969 254433 405928 429136 205371 341501 179885 125010 240995 151878 176471 152586 284925 218514 718204 291031 359187 31105 86268 15584 199021 718809 82764 67519 169332 387988 325826 237680 195341 265876 703693 396450 20341 42597 33568 349991 29942 391736 122256 234206 144336 348650 46144 411952 262310 443217 730742 31353 3437 290504 353282 165362 226265 289581 562911 233429 199532 8906 62667 569094 36359 372337 126429 169715 157824 31571 24155 325457 33766 399668 521824 42701 318294 88282 436623 240466 234468 663161 612053 211595 22955 219213 581620 201542 622808 118774 276935 180829 637668 85846 114215 517199 225775 108984 448500 364884 575154 540676 247825 553414 93622 6549 148572 59269 278827 61885 106584 7782 423510 201698 214488 100753 57369 100046 75208 400343 292370 220950 57304 16159 14921 167927 390205 338338 332416 29793 658924 240026 357275 36439 66222 187500 198481 275717 17415 79629 493855 108382 86941 122655 209728 190064 92573 41926 356896 102709 664719 103999 489490 310984 403498 280631 62059 32654 219613 385194 247253 27482 38058 187121 97504 262193 164034 80526 233042 210194 234424 286698 68538 464813 208649 12560 591439 785150 561996 98075 265833 307277 60678 140190 96592 272551 241607 421245 90690 305925 212235 479896 210962 708924 73239 205904 166593 152183 11582 260225 92036 17807 387272 57753 217804 253634 510395 347656 433616 327580 205426 11698 560296 296216 73671 500150 79290 278085 99684 313190 136422 353853 753336 691358 425027 444188 186235 421705 129058 4367 10134 215871 71467 295399 153312 156277 213647 70087 139731 256583 226609 175115 681655 114071 346086 304976 152677 27271 96379 26248 442361 459066 201497 655744 454589 63060 191884 427375 39186 461075 345929 313547 281088 149069 743228 600164 559400 248188 86832 404583 107926 181488 474872 347892 235031 638427 584527 387782 285980 254607 411371 250309 154397 191431 407681 449591 602597 696461 53701 55884 397921 46558 338023 107783 149887 445202 284973 76846 298295 212551 471158 567395 176643 141760 823100 664010 219323 208079 93695 461832 463229 780163 301841 113776 93675 439178 407493 12114 91386 36853 372074 107840 633803 83403 301864 455773 163493 335586 500517 638563 616411 282407 458604 47350 59463 598377 44344 566605 629334 277394 465764 376082 412093 331040 327544 451654 264444 770858 93111 60207 87867 101700 386399 715990 156088 732836 727854 220880 211506 279321 251156 347875 427940 25548 24244 55276 25752 165312 60684 494826 13134 297105 424836 133482 107536 631710 23995 59512 31563 123822 61813 65146 307300 224796 326215 337572 171011 260207 468 185164 184143 158578 159305 118515 353429 292302 491487 226887 270969 51865 369949 464184 3661 655474 149112 547288 98342 445943 348166 391937 462841 242890 164728 303477 665294 342082 626177 306049 104359 85933 545080 430605 332444 44973 208112 177226 209344 367135 726402 18232 373717 238256 569922 200648 169480 593418 20810 236256 216123 243629 364859 395735 552809 9834 93813 300667 343118 176848 236978 142711 354122 115462 246711 271072 42820 54197 348956 213127 139575 55010 125639 375520 570264 21770 44964 304070 329495 206600 70709 223928 217088 537923 243723 12993 49122 535261 63967 529847 728002 627998 143899 199001 18777 589408 522628 155665 100048 781498 305957 356113 383902 249239 414858 121464 143759 68441 253552 124478 250259 709912 219048 408107 13191 106604 83039 67337 206345 302341 441072 253095 479905 638654 113335 516479 606414 60906 384250 142909 83575 374920 549074 38749 338961 441268 220628 322916 280897 549396 33241 88519 174199 165754 673683 279288 529520 376541 158598 406757 378571 455950 370499 32967 134737 31994 574440 625606 401274 187842 428418 677844 405227 159749 144685 378698 356069 157985 260443 552700 41666 339899 382035 283752 142508 13890 383733 216520 305514 659144 135359 92320 206406 39990 545075 384055 415608 426908 119735 496520 433448 299810 108031 93218 588026 259166 1205 221442 174590 51873 347829 181688 483582 114672 65714 420664 319687 198541 251431 333436 517057 193361 614012 726309 189683 337755 516942 528171 392064 16165 75729 523169 216356 395802 495191 386234 245680 535262 713344 516464 158522 287080 255964 365445 270715 381383 677690 510243 250477 142818 436105 128465 369326 799300 331762 341602 176111 509859 362922 468457 590719 201628 41606 573811 347548 651712 343312 76591 173982 232146 36305 43064 291693 41070 420739 374980 324830 26289 359560 493375 416430 345026 380580 134058 266229 378139 272094 85860 14239 12358 257564 318164 142874 40452 313546 163346 14543 434445 103666 88172 501647 640149 92038 106503 120602 8052 242185 48983 107005 69947 453450 47632 155446 642960 25785 572553 615250 278865 841201 632416 438810 99866 166700 266201 322922 151617 200391 166500 579567 476454 387427 2252 135434 338257 560579 582292 421547 414032 168621 168394 121927 236119 667064 656190 228909 135080 344358 187692 531056 30569 558769 205627 127817 365307 341573 128134 255766 604227 604604 164804 752402 420760 19541 226286 259560 424039 35260 260374 311304 210110 436416 210099 171434 317985 243449 120122 154576 460834 429708 215642 660604 461616 61502 453995 341309 147443 313583 192693 555814 189723 462062 57341 81559 377110 565216 361008 95712 337217 431583 627360 312246 20972 77443 263111 233037 321467 223820 625730 488103 587219 16243 312328 424962 485499 443812 391586 230686 86824 32336 141096 396999 234124 541316 349111 423681 124170 229497 303243 83943 388947 91312 194183 192156 217920 263835 38874 404739 439683 697722 418048 138488 274592 238826 5896 735701 599014 152112 231559 91939 768235 555488 524046 89623 275491 64099 114252 50972 181794 35606 733917 151275 273289 428514 7910 763874 392040 124131 20857 127575 310602 683725 813336 347822 640520 315070 62543 97105 409165 16343 478269 669008 351361 307879 249699 274136 149504 366600 570584 547695 267538 156136 54071 223008 19498 265009 397449 129640 31341 121855 117977 64709 122054 486585 492604 211520 213698 520871 237867 329289 417434 444383 140167 98197 122757 183034 142025 209534 75497 216057 182166 354944 367283 87978 439602 184262 143538 67811 605212 758246 520982 314968 420445 517716 100956 225602 5691 58364 67361 324768 14440 299823 136232 543888 19240 344699 458316 341407 316924 60206 102605 240670 362740 629858 465689 331941 560337 79665 555475 195860 140461 192537 45853 163203 292608 166700 166261 218822 246401 107263 744207 342298 626459 45550 480318 504635 146245 228252 440682 529043 328108 305920 48711 530447 544637 732126 718272 169100 30989 188875 111294 238306 635523 328783 170093 622322 611258 199871 320029 393781 358316 284852 263261 375866 164919 459257 245150 578576 575186 615809 574430 138365 583981 485206 395401 272761 30043 33810 121170 78278 80832 347116 520074 84820 90741 53049 302996 185872 631961 329686 83850 49749 188057 194674 549879 10751 381996 265628 402859 474791 652935 290153 30340 575463 433549 417560 217007 128999 309980 242818 587706 166334 349061 235849 184400 151002 153165 393305 494148 180442 211655 390119 295502 491000 145146 275801 70150 717959 41183 364606 5845 273312 163847 252004 94034 96176 311443 229235 165351 223416 417387 324891 80786 300194 529182 18410 80595 231453 35355 659011 191953 133630 577049 21156 314658 356161 311002 234851 394482 410282 7713 336506 11828 466601 60216 234082 91628 158866 35658 401359 9731 178399 210368 126234 233555 17467 106939 292454 478648 261730 144975 540495 395837 291712 243972 16025 589053 451059 15550 149329 487205 541940 273109 239600 351181 285524 389647 99914 173582 401464 102439 287728 52316 378670 824770 464376 212714 391761 242197 12054 73644 208585 15807 484486 324107 8256 249847 29606 613242 166105 31145 46324 372293 91624 81212 192661 407641 45838 358570 587536 601928 566377 117174 14698 21382 716514 297359 477242 49782 521286 569717 581249 494051 338276 27222 195463 261046 172509 233769 278622 705339 311782 657654 233157 443630 492414 439116 505869 497311 556854 75882 193193 150450 300442 635985 226199 269088 122272 163499 221993 76278 141576 245699 302087 348948 537403 324131 664373 350462 57399 189333 94778 431315 250138 318193 277050 205046 51744 58254 196612 385250 314370 766582 149586 336516 199138 298283 32060 170541 57801 11736 535591 556117 130233 431912 454808 109159 163358 2581 500976 445377 304451 490283 211352 507801 456341 617470 199487 435763 478117 128078 682049 94855 514728 229762 147589 606331 55882 168410 198082 196267 317591 348836 509954 168802 88463 37594 384459 404934 276531 279341 332577 709344 398443 194103 387202 51564 97013 313995 83089 412855 25040 236057 677255 551489 355965 221834 35257 653570 130575 571572 166511 29796 267234 249547 71909 13579 17274 105238 289351 628061 309742 450698 191599 277660 332404 474613 68312 172191 406470 34717 314647 222102 88934 82089 315668 398327 576197 416028 512576 401252 232648 256041 113969 180882 419364 652849 302394 432303 384523 269755 449892 493903 7263 461925 51188 311512 118712 662064 90122 522921 34069 431915 144473 68116 152850 339385 379663 472416 212638 605101 499957 251883 264955 311619 311769 392683 184275 722250 130037 415952 119617 472748 116906 210286 249680 185256 471767 462364 626267 552365 397773 176367 187814 255963 782567 278755 119129 177595 91636 3837 242255 611279 402525 150863 264947 314985 77281 67788 286275 119262 503369 431988 440226 5912 632031 318410 422785 474289 619898 382540 821696 3544 145616 14402 222019 412459 460260 34140 187283 502918 824959 182063 167388 34335 165642 51852 194030 41529 492588 575043 242198 411773 825469 546970 599657 156222 532812 135445 200269 102210 605229 663048 596171 790595 466610 178127 163769 219086 468320 85689 72514 300093 362459 385823 253661 220356 331319 167677 332806 430900 160596 433318 707995 415667 17916 231622 225188 126878 254491 97058 62782 298952 163922 135942 29841 152438 412833 227035 439716 649900 367395 174722 154828 260572 638202 184603 376757 248932 640520 166130 356747 83729 428035 113987 442215 449566 662570 37405 385829 116571 663980 268904 366304 35193 30593 134686 400560 455192 754378 678243 55465 462185 89094 489051 201014 213787 195954 366833 578828 550754 360201 552927 369624 131176 180450 523998 646866 538662 131073 103102 276550 338558 380669 127336 552259 70473 236060 6356 4803 387057 160763 408495 22121 97865 36219 442019 208484 38072 161595 503012 7194 438541 316293 180579 173020
