6985
999719 999899 999878 999524 999258 999528 999326 999296 995862 998115 998251 991938 998478 999116 998384 998183 993138 994944 990963 997511 996862 998117 997975 990826 988979 993868 996204 995716 996672 993071 988896 997989 997138 989830 991240 984972 990223 989807 985287 996740 990816 992847 995863 997322 997103 997071 997859 985567 989981 985970 986599 992528 990904 976749 995340 995110 989303 993769 991761 991806 983453 986807 988479 994966 995146 991427 983607 987814 987320 987993 978417 973473 982133 987438 988540 989681 974104 983652 984120 992940 996384 983683 980803 979733 977141 970418 991745 986477 987207 984984 993904 988776 994636 986717 992863 982926 983572 945726 984148 984714 978532 983447 985723 979455 988521 966495 983935 971800 951360 984420 982153 994291 988599 960016 988852 986213 979897 988452 974153 970142 983972 961115 973676 948999 980620 986466 982517 964160 959502 986306 993992 959123 960040 958917 905703 978398 974485 973726 972048 963601 982622 954000 931345 963251 971122 976549 969106 915945 987426 951726 965948 984514 974845 924736 942202 976808 976854 975100 982017 982450 989224 993401 988472 981467 973562 961016 980007 962957 978132 922973 964844 954363 965560 981438 970142 962772 967083 985696 981151 984946 921646 992709 973575 985120 987165 992866 988726 980834 982883 981911 961112 981496 958413 926385 973872 899233 917581 972770 984026 944751 943950 920763 975581 975434 982144 977600 977010 967546 941297 985843 964755 957521 946576 977016 960580 971498 971082 949863 902768 945548 967140 934782 959301 938838 940884 981389 970906 896291 922638 983430 978041 904678 939182 970930 939648 947698 959025 899246 964416 957573 957759 980754 966575 952773 945120 901005 957264 911482 933904 936698 969354 975118 933328 979878 972563 959123 957834 931712 870700 960503 950449 958485 909425 923057 944851 949611 930209 945392 828394 866038 899106 973623 948980 973115 971608 972718 954029 915268 957879 949379 957903 936938 961658 912053 924349 919154 920393 865386 939665 943453 958605 970765 970230 941685 965349 863618 863866 939099 967213 888292 919723 930967 861184 975618 978677 955249 950999 861074 908014 916222 913958 886422 856447 959450 931967 952112 963956 913566 981812 960599 936766 968375 909188 964145 949202 969991 978717 898145 977852 885958 949268 919356 950317 959460 946323 942605 844441 890274 969074 920933 915153 936972 956485 849210 940653 914085 955864 957445 915011 967592 963437 948662 955912 855575 934898 929685 885428 969307 934727 974058 945749 905524 843770 987445 990242 904185 958659 877484 976883 973870 976773 880460 968315 956383 977137 958624 943224 914663 974962 979478 976892 946837 952536 954321 973786 935176 896714 890872 925009 901519 883750 898395 821370 912357 895932 891615 957615 969466 976875 903052 941122 925126 932022 906003 900863 944585 960260 941322 933044 930014 973389 951664 972232 976599 919449 967504 941874 934821 922562 874142 985654 956025 937249 900023 944131 938783 938406 962930 973660 946706 953470 942913 964980 968813 958944 832233 901839 833389 853086 857900 865140 841629 944751 922578 922897 848205 850515 903855 879678 921900 935760 980390 976460 836610 961696 831760 877669 848160 905424 943920 965927 963716 959020 871551 898677 925758 879687 879836 834703 805953 875188 883801 880385 943729 864287 816368 894272 809994 872608 955778 946706 927942 891599 896139 882287 960278 946085 951143 913509 911993 869904 855775 895247 938288 893157 904360 891563 871362 879700 834646 889023 933136 858738 846857 884088 828947 928775 970350 937172 819036 896195 933005 945184 937285 938105 902994 836552 800664 833934 928888 827723 903489 817003 868053 904748 859872 854729 906334 876336 735889 765630 926627 934205 877637 891373 727118 880756 805636 719230 830264 815496 852492 808726 829049 945487 855416 871996 757603 860904 883341 812028 929880 844233 817968 929163 860831 864647 937436 934334 771231 795710 881145 904069 914026 878525 890718 900472 808236 811886 918587 909213 754529 916563 902467 886392 703693 802386 696947 874947 866723 927996 840454 769871 888629 932245 969440 954960 819201 930733 878947 940895 783384 857460 789002 789925 855002 935025 797550 842398 843199 823156 879888 892721 901352 916978 790318 800170 945464 908379 978024 975159 935524 810040 914132 917588 798055 849044 886499 803485 881357 896159 901577 909514 869204 872443 852383 795126 890562 867146 793463 921951 896055 920112 953111 836168 894495 898282 934439 918534 954599 734585 915978 928269 932040 927938 794835 850127 936409 957068 918104 885162 955639 920792 970271 962901 830265 879372 908419 895019 855764 845652 942618 871683 910760 906551 936242 849619 938621 830018 871861 668517 884533 886255 843947 828866 886153 776167 964252 940355 863721 883175 912344 837750 909397 734811 870237 907288 828139 815594 888241 916508 889635 901456 791118 884679 790202 918626 905526 889394 955072 916316 959014 835210 862741 852476 917930 918747 734501 835333 902262 869599 922979 909394 861347 861744 913952 928227 916753 893830 890041 956397 867373 890372 656403 879607 829221 711000 958362 897749 742237 961102 880958 848328 952089 828658 842744 795520 836682 937673 786417 950121 934985 976319 858200 878832 965223 908119 936137 949971 966078 967055 889940 927544 941210 853377 895698 847899 972037 970054 971531 949291 956434 935678 936004 872102 811914 945533 889771 933034 845853 933163 921091 843708 855971 861159 837320 886709 923318 907118 843511 808245 819308 877444 884123 817664 797542 774856 889572 893792 844723 847924 864918 854765 946513 942225 937457 915422 947880 945526 892471 803148 896214 902843 781492 903748 859080 819649 891517 882932 836460 890723 894841 903547 951560 934980 930281 821378 932057 889642 904308 899828 825909 966105 823818 921831 795299 877115 761288 863892 889855 837146 868076 859887 911117 866250 805896 762509 844908 905190 869159 809086 930142 932100 911395 948101 932157 936028 867866 606090 909996 907215 895142 815165 803590 904415 929464 883140 952981 933944 900308 850748 920104 941332 931656 912001 872820 841358 922370 933342 938404 896827 806380 510432 797757 828620 703797 736647 482048 603460 808206 779138 762520 706679 567870 794855 761293 900880 687308 893767 865651 802767 799271 834225 809019 843792 839851 828666 625729 804197 826784 769182 935467 893376 860643 919976 960295 951117 775532 749641 835518 743173 560747 736181 866359 762372 339519 725683 701636 831807 699323 773797 899987 932733 878143 821544 760680 797733 774962 864884 561258 842115 919391 881693 780995 862470 839059 747491 825473 744498 734462 703422 825999 823923 837480 805197 870346 761394 858630 825038 858239 809862 632233 721750 851175 872313 805517 585750 818460 744084 927981 457199 747547 899991 819557 871438 876864 863604 680342 774280 699006 787267 717725 926589 812604 917572 918719 752267 776842 801069 852422 894783 863670 738460 534089 812596 742055 893306 929219 916794 805505 817035 787474 838625 622351 746498 603615 644633 872660 796231 544277 788651 871429 865530 921900 769148 720338 796665 608125 677889 828641 764095 729053 803017 775391 861711 822464 916576 673629 871152 786512 732689 685221 846435 916385 898695 785469 810385 894997 934035 925811 901079 893200 812718 818771 551536 751744 760195 767303 832572 572067 820849 815489 514948 632061 772261 767726 701790 482525 830193 891737 668862 819642 846803 823630 429814 868918 775988 780683 721374 673754 723674 670595 593032 870807 839282 855391 816965 872435 787158 886236 873531 690391 610612 707501 592003 783271 660737 659206 469720 818433 800576 779626 663762 696255 839896 768991 652194 827969 787113 844683 938707 786909 383440 855253 855069 541563 684110 811974 566905 623742 835359 790327 682435 844691 845427 827369 441462 556127 817269 765291 832878 666844 764236 820298 744242 858273 929298 876652 743516 693383 599456 765727 655102 813153 778658 732076 782298 850441 881210 742421 491303 814244 806424 895038 851850 749679 511979 787867 414159 895286 771194 846382 884352 680108 742881 708301 908116 793126 757156 441766 853516 703493 700030 753602 798080 660927 573236 574855 618158 649639 703710 892473 831106 828910 797855 659450 563995 865163 825789 732536 907392 761784 828254 934745 798414 739899 750936 835359 734801 556907 865883 875415 805908 691316 744609 836086 604148 642306 639433 759447 624823 824188 817070 896735 926627 737446 623215 687608 785552 732960 826324 581291 818861 772678 748112 626725 854460 802521 806831 811374 907147 631297 755817 650171 656728 734381 698781 763530 800910 957984 892589 861300 880501 772449 679449 721439 751085 731879 877442 654626 770619 710299 689097 764062 754667 741079 858200 737729 797310 825465 881337 869896 834459 840114 768103 908722 833334 777806 639719 658030 822925 747070 841521 594807 768992 798577 611971 834298 706975 769047 766636 600623 810817 751518 728737 517343 874478 942643 855486 808125 700677 818375 786819 816880 858050 920437 850774 803907 888914 788058 824638 703675 429477 587987 847193 792332 749398 903186 897510 775459 488615 780907 721215 751854 769183 854667 859452 950985 909968 861496 622894 866383 793789 766748 783879 891043 775828 941079 960840 911206 919080 827430 775763 738697 868705 888702 898914 747850 722784 682609 764705 839380 651058 661366 669562 757985 786521 824816 853142 759796 683966 849054 859184 770961 433813 871014 915298 691658 717150 742688 786397 497709 634476 837829 826116 777830 736063 772888 750229 815523 793875 804301 763766 653204 737773 783595 822548 915906 721689 827285 797645 642410 875514 894711 898090 824504 756296 900500 630279 619418 703311 693209 691338 747367 641207 718776 669603 623629 740896 684303 865678 751093 686497 757566 852086 821846 657631 737816 761645 729308 881692 591882 742855 648534 914332 756445 758797 842236 819913 713493 945100 832863 779662 929474 867495 834688 741851 801656 819680 790337 775291 656109 501071 877967 407570 626702 729110 552263 825524 831728 865218 598414 832599 862523 911639 816917 523408 786394 776901 733277 786517 697869 901175 747042 768666 717669 831342 822289 863735 443379 877671 940209 931415 753265 867173 642398 781341 497393 613228 829495 712434 574098 650187 637203 562096 933764 837402 886648 832448 646298 681449 647555 903673 821611 762367 750051 764129 848988 938831 792098 655646 594351 842681 785309 753216 820470 832774 828877 814476 737427 686846 843830 769717 817220 906403 964427 844129 831598 807876 863326 850680 907292 571153 715875 848686 760170 836435 934003 812308 871734 934878 463626 956733 747974 667090 741591 921097 916356 824253 852408 830693 848959 762136 490275 649371 888573 849230 913335 959789 791688 663583 776031 916142 900895 929618 855115 724342 731350 916827 850050 772836 673746 744701 753272 941466 884914 827148 655645 827058 669139 737261 872442 764359 913365 918644 741202 787085 801158 722670 809560 803416 728552 614824 756731 775184 803779 903515 783370 906883 742445 735863 776557 655556 800065 761845 685942 875038 520240 837570 602085 804459 755273 756941 769092 571440 757539 667638 856725 883695 796880 775882 807169 705345 784005 830304 674644 723408 875465 889881 912345 880573 894772 870481 894259 834574 708450 870223 808656 708358 822966 707254 704328 800500 783655 853618 831156 897201 695398 638410 721140 848317 844385 855983 756618 619320 886167 727305 878977 830198 677500 747428 853085 754614 876194 641036 766439 900289 923893 771482 777598 921017 726505 809810 633137 813665 892413 872744 734119 569987 885661 890220 658128 867137 505619 790489 865704 717557 535663 719582 775306 773139 579767 604260 789291 849308 735056 692973 766088 813412 786770 653380 689367 685642 760375 840639 820249 838934 867685 877766 797112 850947 767132 561537 551643 675921 717452 800276 836523 795155 667811 852680 745285 769883 686033 672841 822984 855602 859732 632985 708562 582077 919078 780469 901490 920047 847264 588816 601151 444252 892447 905215 827436 831956 627800 829200 734032 687220 762018 707306 835782 572143 822968 791229 683486 814967 858702 868924 878645 693447 855700 890638 811873 739325 844436 595877 845751 896797 840953 883924 894668 575212 812037 606106 776197 658260 884996 768238 891726 769583 764862 400067 781587 848979 788367 740516 379658 403646 743729 463439 731056 470088 545402 326925 691845 730574 137963 428853 510383 368822 535559 601131 422792 306397 349451 719897 693263 682971 535341 129182 773200 754231 526315 434952 703498 623635 287292 624487 466222 573899 556195 834634 611263 675437 770829 513750 317254 551875 748113 621524 506141 812106 632193 657581 499074 806009 574758 573592 712758 495655 728375 538442 694440 702137 839288 872548 596306 355904 764858 658631 856578 573973 718102 845902 783882 669556 616969 317826 337468 733550 768205 655870 596854 299532 516971 455679 518239 463398 824417 454983 705611 547327 236758 195461 493539 700507 532439 296742 438835 729262 577455 287380 663817 350389 850677 736380 721775 741785 637439 809535 801344 656349 577770 588476 774176 717878 715300 644926 416655 719630 439582 400394 819737 727497 812159 915833 257630 844564 690818 680706 570377 758793 832627 807728 398228 474062 500616 737600 470965 469620 356597 716215 254529 632632 343578 546617 679498 607101 780440 235895 738400 749140 851784 824901 706403 701169 746601 705866 743595 735532 787472 758884 796383 750103 516933 336496 502298 374278 668451 575171 436124 807758 212865 664567 536036 526844 781620 639028 474133 278758 893853 805614 428881 209382 701107 399670 501417 570500 702722 735388 847021 665228 609443 619470 708730 839458 634121 604751 541292 529454 570517 661201 479545 665532 708342 298046 914478 587818 768752 808908 433551 740289 722315 434944 162126 743309 402188 221381 463979 787167 751948 356463 763076 622410 401263 704478 736873 600399 471753 342359 653588 627762 657228 407122 874577 889700 753892 797875 500144 844540 789261 644685 753529 284724 742241 315493 506992 610887 526841 613249 552712 567435 603389 375651 600733 442643 492264 740098 544564 465139 476844 409222 267019 322630 852940 867787 642335 854793 861385 805192 693969 526168 366534 354547 636406 487827 563879 373699 464076 405674 517828 677893 439567 616117 661130 427041 752973 605483 129836 686415 554972 767192 696165 204264 467111 893783 544101 530058 837713 446901 628382 672058 720149 674503 665062 534313 674010 699673 477548 651112 874539 895611 683610 439910 346186 419498 856701 735743 746169 648848 860014 430740 870976 869743 842258 477533 346471 570710 755675 442655 254824 315259 628283 527700 233961 706788 510728 743277 496043 466033 373995 473821 683434 784775 465479 731707 342594 496709 610431 565851 553909 672910 395784 705039 489972 346420 373732 395383 319951 694196 471243 784044 496338 640374 607425 352759 694898 745547 576489 393717 336475 415766 612935 572421 719002 550328 695924 388348 711690 522645 622415 323235 619690 452602 533382 649665 580137 118301 513328 642620 455780 656335 739326 594629 496017 642774 553728 773987 571465 369095 668955 773083 708095 758610 508808 684951 451920 519954 470472 463563 562094 581867 430410 351192 291479 396494 548687 312132 459623 400063 811132 536184 401254 773979 746221 469844 384855 515953 194971 639026 801709 759353 714176 750420 347217 254087 319696 686189 351842 690203 548975 798705 620207 491170 523654 527008 349034 273984 468715 630118 686794 792535 367813 339937 675057 592005 711979 457443 528683 537557 585320 371504 663363 556997 612376 758989 391392 376025 823986 785799 462199 614008 812315 575433 348470 414018 434784 413094 250910 747341 457565 562238 762250 304143 507843 587733 621642 713970 637819 549430 610993 340539 676021 503768 381460 879628 698097 374860 576345 702808 631188 419947 344102 538147 607601 343908 605337 645189 637725 434065 621824 658766 499207 686862 638192 767752 622468 849284 422531 640419 708847 736581 436298 465597 738697 610444 448409 734051 361713 590901 758744 718513 624198 486740 463250 221838 650141 250410 270806 258958 649991 881460 729992 185167 799587 392329 840442 564167 639533 470029 169290 247292 657984 599672 786576 814902 679516 759086 351861 696815 418054 378504 659633 852425 622584 591585 544567 241242 727441 649680 721505 669897 355839 619200 377521 492296 550027 200158 214009 195778 171291 466660 485899 467066 436699 571614 557026 637950 779205 696879 780449 617772 438462 342113 536950 559622 542743 622136 726066 671631 544836 430035 536267 495582 532391 210677 283999 586669 488637 763315 548867 542009 218771 513264 734007 270615 686141 627386 596817 529307 485009 463628 842877 763265 769643 490921 668929 566643 109580 647783 98894 295297 587097 804343 335902 567146 514445 478814 637338 535633 382607 667899 609082 578293 575194 462857 564554 795177 315756 886949 658177 460663 658789 474541 501448 577513 297487 631863 769934 750060 369237 452747 450000 305293 397289 357119 640608 490696 273339 619584 674514 738389 441493 621854 248936 770760 479334 276092 593502 388035 694551 548864 529367 640981 572994 602766 710364 567553 553251 584803 347750 564478 660871 450645 677287 634751 502460 493875 468456 665403 870791 841481 706892 764752 330952 695536 203702 445233 664577 643357 644989 454749 523887 557581 466755 745129 679445 283830 694135 609187 375114 517091 666230 601487 232472 503560 598411 612128 723797 619951 546466 249755 365823 715816 285124 793800 533039 587863 561776 671251 620101 779076 347189 285520 660260 853570 556652 659513 510470 491580 676420 332869 720385 803824 781252 829888 773277 672635 557171 406446 575053 558480 581632 457698 688071 603697 603100 545438 222475 280039 413646 724749 548881 650444 592104 562738 675486 702386 655696 447493 624734 709238 764023 657873 197239 525197 437896 669418 571005 458723 578049 624737 398155 503731 739745 821300 359873 694243 843610 797442 717522 563732 545271 555188 370086 818019 496541 705146 570926 585180 471424 319463 871143 864189 744834 820248 575522 590498 730419 757449 263570 763937 668174 803151 494642 488626 389354 348993 533805 567102 622160 574383 639107 459783 450674 748369 335933 866517 559020 862312 708056 537951 379509 480571 732862 660549 623509 651442 601968 673576 509862 526662 636778 811905 629883 807203 812408 682010 838167 361104 687912 760793 466222 263847 457589 836538 742325 730272 606717 709796 703685 745751 737703 405160 720856 647095 813038 495567 591585 230464 836483 840628 882612 589167 623083 736572 709042 494029 706960 649631 820065 837353 765293 842489 772755 703289 664283 486847 621885 654166 211432 650458 737314 472292 809555 500182 506633 552536 278853 522716 628248 543639 318948 633257 765737 602900 746069 800346 835095 614351 683675 443475 649240 665339 227393 592986 710713 551094 577856 738885 355251 225954 389836 740436 742660 857789 691618 155879 249760 714060 642129 700433 586685 691764 285619 204456 608577 523634 666145 304955 370395 618691 585639 777194 551167 610156 770813 620646 458275 434092 793307 469170 673946 648308 627757 702538 631321 717310 513428 455015 146094 304068 699325 693649 768141 708679 887850 869585 587640 578523 604990 668826 627945 625903 449972 584257 614486 577533 747130 675319 825284 748027 456133 492294 733422 468763 875430 747255 612609 380989 281437 322243 642530 591530 463400 455217 445598 607022 683035 332381 597230 552670 491476 667744 382026 342894 579875 329598 740274 634966 249059 674953 569624 532519 607714 404282 299643 355902 729493 683621 760143 654029 808742 528740 137482 607364 553500 712806 568730 613527 401580 512507 711432 867514 312566 398363 461773 629906 637196 610849 531148 734378 489900 518928 540137 741729 570505 741752 717149 738935 623057 509203 857755 701393 508388 502755 349627 778440 713735 436556 385448 792835 522431 830146 707914 173965 552441 543713 711595 757248 681012 748259 740001 685220 353585 623255 316021 408747 838886 574223 328658 271871 491511 624045 629649 621392 386144 480562 532611 797971 151087 583159 744544 623128 495443 299316 565693 792840 752155 821009 713782 388252 576176 590770 322689 355024 293613 423300 775156 741843 368649 401802 366433 584073 614548 419455 734489 604959 665464 553925 310824 286274 509961 656465 539767 809386 576317 492883 704063 669966 138979 228890 694962 854776 555800 597238 653258 668158 250964 288725 802189 866121 570806 361036 624570 660657 307351 90132 297072 415170 695383 788738 700763 223758 491425 313117 88089 619867 478384 634302 532373 547528 787738 852865 478270 785283 677064 783329 422503 702469 538929 578377 662893 551850 470142 575611 862572 661801 476964 620033 644208 733906 299808 747809 709754 711916 462437 460493 915284 906448 290894 488845 562830 569242 436389 566973 547430 808025 599232 747298 440443 584412 333309 763228 537464 562469 591782 292923 325925 793167 633615 588482 483849 351020 787804 615540 661925 375629 192235 318938 453520 846967 550777 887639 774201 797538 803779 475087 644159 336512 607967 659402 604545 807475 765014 503709 457716 529114 638053 507649 845043 607628 680532 735812 829383 718094 869075 647917 505943 749786 551043 708604 606419 516942 430806 202608 453944 741944 745070 402340 629889 251710 733795 727057 382129 649090 592944 696954 624027 751927 576203 827573 702833 687539 398977 713217 650795 506149 290093 376580 457601 209832 787322 639027 744751 662260 407635 716789 830871 808380 758629 505879 597623 531128 671170 440626 842000 875426 254303 341600 543128 717721 595077 708106 541181 696450 625517 374378 656844 712622 746853 337432 611395 465740 611405 606430 618680 651840 504515 618216 728973 368495 650711 467407 608944 387755 179314 598386 809994 710130 301163 541084 719221 533418 802078 762060 534803 653663 676380 362862 892234 295406 350388 636281 542588 693940 721886 422683 589557 262095 511551 800750 539008 725265 454703 271376 505448 590816 732552 713561 301565 546981 171649 544483 390835 899011 751316 711445 860812 615574 712202 573926 390819 734156 726709 600016 593372 635496 606558 587768 693910 671990 545611 554981 833372 345021 182040 487399 589852 677123 495052 490193 628884 729775 738122 396819 192081 691539 477532 705063 445359 386935 449315 278952 643174 617723 452637 736857 177871 745629 530159 466100 751432 705442 763270 790155 510406 607371 769011 370909 804019 821970 665540 116315 606566 154064 428358 753967 882073 808595 802622 839361 844915 655059 655546 865789 592293 687555 277311 371557 554348 638860 462194 571899 381327 502903 764715 641425 261548 450500 750139 196831 538657 491093 539706 596185 791913 540296 595379 473030 770583 508488 392365 789779 546150 396509 313181 658722 513941 318510 447859 545812 833922 812940 767084 594569 614384 830366 445208 323636 337323 582487 845433 833427 429890 615522 567042 733400 603053 533494 508553 466634 607412 433289 632681 789550 236035 742206 447635 492601 315029 452322 485525 703216 352652 652335 912153 700337 629275 343028 415847 658556 850450 791970 480361 346247 697693 634130 574564 597847 390310 674090 785248 519983 443078 532228 716532 405536 184587 366209 774474 846601 112820 733361 563878 513101 634754 813967 427406 310769 583899 638771 843089 554596 676985 629393 529598 390808 641475 166418 477169 529593 744186 617969 102132 281675 587541 468346 593913 760236 597509 763003 404121 683441 587376 481189 660957 624115 803025 507273 627200 557026 458678 431570 552647 687209 520693 162320 602505 441379 781201 805355 811136 659427 668377 364336 824244 227151 652808 704466 779435 654102 446137 263043 446692 538642 502765 414284 335781 443107 560434 545334 648024 544676 797588 601699 820996 720048 710229 449826 595725 369282 830267 789548 677636 502214 712388 768101 453046 414267 249191 627556 495168 772993 826063 679732 693969 194690 290686 541551 522811 522475 442195 507303 607207 892916 406054 569817 836248 704019 489943 564201 798904 628186 500079 586912 562697 560557 242617 259038 486707 721608 863447 758729 619352 482741 796852 549858 564617 598334 597804 707924 577026 621136 361953 407824 357628 365212 643784 524128 411819 635578 303597 477356 635774 755813 680570 702416 537254 658250 813395 695971 559983 493748 864516 444455 774478 789910 502077 465030 640579 508046 569099 670874 443921 593108 720638 711833 567242 526561 446570 540643 583258 705576 854591 792789 685390 400350 366772 815595 451743 813451 539305 323211 781841 563320 435458 565280 720829 756163 555170 567353 642449 775296 460772 703188 705558 666078 543698 760968 626939 697645 378167 303000 603856 604687 437575 710394 694847 740712 626374 667140 248319 20259 243025 55667 404537 294441 132952 86565 200183 724481 39748 121126 310644 68554 27556 239297 78888 657019 244775 678403 131394 39053 396570 232023 125095 277350 5425 142970 335010 111751 279445 39527 187338 341971 79175 254665 146266 71437 545057 552213 162832 124289 539889 340304 264936 251280 77000 13684 596224 179530 156978 304778 232168 251662 10293 428271 545918 373454 315557 547620 92087 264522 223005 304802 402127 168793 23375 4456 532755 56430 583423 111772 388981 174779 221625 621427 257506 502075 367380 14704 212829 85219 488019 313673 694574 484799 46140 223580 160904 423095 248560 506172 488499 323586 246207 364916 393455 386478 126858 5859 163622 230497 152165 380085 382850 689135 380760 305440 447395 531604 8371 476130 688456 260867 413631 517805 759719 815421 564505 293249 183333 259511 292483 129354 62086 628302 45330 406052 353520 601094 400 397494 408182 407346 321548 439692 272900 561522 310381 653097 368469 13823 216667 9583 216287 74927 177999 706877 4534 703108 635806 331439 363471 251698 211038 205871 444208 450547 331424 123441 460066 284091 95773 271091 10056 516339 81844 346393 299985 252074 48570 158686 18787 75662 73660 45193 37247 100704 474224 533094 306460 510166 75677 208666 149511 377919 719962 274448 207950 289132 82570 29954 217728 606240 314027 51445 370838 118505 12312 127449 191591 429485 111774 627675 508521 130247 488102 215436 99313 194029 483060 543162 403463 90082 508705 409015 345035 691840 100461 230794 20462 457311 376217 159801 239570 794 594621 642913 350469 294503 371763 234664 731508 137687 681648 552140 333400 703024 371282 727012 20330 210147 726763 237168 666158 673196 172245 205356 288544 63080 11781 290329 585991 422142 427981 708649 328151 155367 14406 404740 412454 217786 301707 308455 220780 416812 380761 122455 39711 57311 133114 140830 11648 58002 364919 262277 75027 19996 211256 301071 582993 655086 455328 167014 508838 765023 214620 217737 707501 736974 582511 275768 624845 3827 520830 796334 353055 671203 215631 113518 234246 165670 304212 626293 367494 201731 401307 281885 323214 1747 580045 547826 526150 462214 508521 322186 146503 501838 3412 318638 475847 97629 168 199468 435851 517461 485264 103753 129640 320330 68841 22283 160401 135600 327973 558349 476334 70810 430609 481124 749828 633734 137385 78437 349126 165591 136989 7251 729279 241050 259502 190748 64988 28715 162380 61814 153057 187223 172256 186042 180017 23975 363704 513852 86322 297884 42368 290319 217070 374443 380971 331421 273370 493398 130959 66540 535726 623636 23263 582654 75348 225056 319217 227554 33796 467042 193644 145883 405290 330486 628081 241488 199443 269481 309313 324780 434941 502869 187067 119287 395119 557893 429675 453639 56827 77566 529491 338776 10015 287037 282605 395116 434420 102138 95037 69677 88374 137632 85687 74885 80724 181637 84932 202784 197228 37118 728162 195387 225752 279482 192725 346362 421566 110864 224965 61700 312907 74303 438923 306 157739 48503 561534 355547 227511 336045 150623 57034 271174 525957 95985 374091 101837 435083 12013 35508 541202 40011 26320 449244 436536 416810 143180 384306 122641 260859 273266 70779 285376 447156 66437 338413 287968 448828 42358 225235 679136 142223 26551 268078 402826 245216 286178 514138 57323 512463 25708 391846 214645 539545 121820 191608 105812 358334 328857 78972 181654 294540 235857 401887 65969 48991 270967 42275 387730 406240 153998 373350 392795 370467 238535 220972 73416 256061 127950 6100 100532 685785 123431 788577 210744 117439 821151 21662 116809 821760 86164 4964 417495 105756 204765 404134 170575 32032 173050 43408 538611 314009 121419 259002 411422 244031 10141 339237 347011 336787 119989 109007 375639 443409 298862 622726 85059 192485 390056 541113 43152 108668 140601 239256 314045 430205 353339 116563 20830 10743 199530 196646 390395 388780 396392 66805 166342 66822 178077 153323 363293 229692 387736 297685 117312 121026 225396 300030 17592 11238 362453 102751 214516 332558 424320 352663 13042 32395 492105 152928 478682 584186 119724 363372 337913 58279 418985 70318 424176 69055 97224 161844 506716 668088 741511 485273 71655 575479 170085 83433 343119 315851 286589 5659 723624 80553 482253 608033 675556 679899 541015 359872 758097 252563 290258 380212 543544 124337 553687 623836 229316 221682 289809 235144 24199 145205 125745 374802 489612 394641 131610 104597 61705 158906 226954 303462 283738 627525 458830 24611 33742 78662 495338 527319 308873 242936 566174 317184 334173 200920 11230 282671 205192 20184 456751 271384 83805 56705 277100 465498 33738 407258 520875 680174 85907 226787 168656 321623 381144 96420 142149 380337 362918 481559 325475 194833 348912 365955 206601 307783 176519 367018 61462 13852 103003 297723 138166 273407 108592 99720 521557 311109 302828 266422 87862 331542 342259 48808 496019 596662 49181 171816 160177 147577 508828 334585 735003 178675 390095 164591 292578 106745 57986 291625 172361 371837 338533 504464 345379 132054 96520 218751 381338 249945 320189 544990 341533 1290 380341 655859 286721 292444 74443 36862 213635 162188 414579 176635 127235 207618 463081 472824 7733 35780 359227 511499 83078 24862 196232 353221 104565 529696 226644 58845 307069 111384 358416 267861 373600 543129 287167 305843 540793 292770 316692 170518 636547 262669 372242 74726 10854 347029 291399 120558 45193 230439 65724 20741 569076 332625 65618 245797 542361 489636 345854 227192 485370 189693 87028 233065 447342 76956 398522 385738 515793 5298 263168 297652 296518 22446 269944 224012 352921 353756 125307 59293 68177 160225 457571 177750 135003 217683 363561 431572 345806 73868 932 377765 759306 138279 301687 288778 368266 176669 345867 280175 409239 229354 76473 3510 562086 84761 411638 13441 471735 129015 504446 432713 69826 604276 255612 91902 121247 53266 314880 301405 672493 37373 244744 309568 209206 475067 270425 76201 120926 615147 396403 500443 295171 145575 121721 115539 166087 142103 33948 263667 101956 195515 134407 456038 101836 300493 71907 492154 17052 239053 32559 270896 315529 55433 126849 648168 154734 280949 56872 595382 335024 114926 464763 264260 388655 419753 246974 304601 80260 193554 392644 103372 456109 143597 452008 83095 188704 82438 41241 106806 344323 163298 22086 9106 581555 351556 440502 396877 285142 388223 444867 575681 420454 485023 156382 325604 115494 37136 203564 106533 286537 305285 30935 178895 307831 610290 237530 179676 543627 386065 309294 407360 55309 220108 286587 354468 554218 408798 121677 468222 675598 634708 588693 434505 474541 396816 147709 489650 95682 31491 203340 17139 140323 246528 327013 105014 852054 355062 15012 231014 32644 206283 276016 120614 520711 561712 21918 112756 71417 254619 159057 71118 327929 528844 313625 229027 200619 301058 441494 257001 332456 389597 428341 241421 156110 298701 580156 255762 392385 355122 216629 304053 461247 327203 363705 1322 713905 695344 280311 52222 630842 600889 311945 29154 372830 171056 306458 369896 430077 208238 407207 141187 376633 7336 602091 119172 457355 534597 423457 362327 345758 603623 336837 57928 79738 521591 131768 58194 16488 292546 546597 554796 409645 205418 434233 259295 135558 190172 640282 123554 126766 84115 82693 147889 167639 31532 330780 446900 53762 762995 215702 79493 38979 27607 240383 293765 257004 167795 434740 612432 530500 456005 268658 488914 327479 324825 50493 98887 35404 181181 131750 38166 37606 90331 209849 471811 115736 16709 191480 15673 275785 188982 42136 247765 236658 59273 377647 71869 120525 199966 118577 208878 15878 184773 19090 335306 381246 150850 497181 447845 154357 118970 708145 56730 580417 1120 609538 300869 92003 235498 98026 73342 283065 27253 374941 69881 311211 481843 494997 427579 59796 123375 21526 183942 91697 13668 73469 29235 305882 247153 144092 449817 8068 58456 365459 110407 354107 537685 477432 543505 302420 424797 339429 474490 605155 563790 76416 28220 330500 72812 434871 436040 152738 63412 301921 54434 220719 483923 344180 313768 311720 259179 372295 339467 82203 8511 66789 66839 143661 421929 30717 5341 312435 355267 354530 103142 187148 38307 225285 180410 84807 17727 39755 132402 235756 283593 304916 118443 489301 144079 191860 210552 87226 281960 92549 526899 66430 12947 620379 318813 54458 383361 502139 79193 500055 326069 69338 446078 8198 432334 332627 524468 405313 154294 583049 481563 437817 429443 181558 163680 204199 544224 80942 6424 299311 38960 81597 18556 177248 6333 437896 83390 706123 402149 98322 233260 174373 242709 491040 412334 56397 384194 230062 355864 386463 239065 53875 260001 617677 514266 573443 9185 305059 565318 270780 317873 188093 289944 314119 343725 750327 791589 261667 225815 164195 501288 408774 162484 105217 341603 321562 614600 440691 283214 224137 40488 527101 388825 165314 176343 123935 55625 510004 446190 372148 47776 118875 255074 139199 99675 213631 377436 137955 197958 181623 186857 340416 122170 558789 339304 283653 254294 210779 173944 339109 177430 344723 378671 679194 513726 265240 27844 119567 15235 202673 149260 104792 450526 72860 314205 48118 193793 142516 409896 381226 87214 409222 667986 518570 394869 382622 245427 460641 5175 322041 34415 127008 76973 16794 351628 486717 502743 138745 209216 552505 280662 92453 252944 37861 285949 420881 236398 267670 208500 641980 380630 330295 590818 298212 279645 467985 157444 264628 299754 47713 661950 518493 238318 355047 85932 461368 354920 468350 529969 327821 2792 110554 398941 160697 126749 431476 352905 28618 403798 530583 458904 318038 470184 224504 37133 80015 71727 416747 425419 360212 386514 454538 516335 538173 481374 266054 220117 646147 636263 486631 307735 275063 106455 31301 105031 94732 472094 294183 50792 206130 63940 329613 272164 260071 183890 381266 166679 598952 222489 486675 432635 241384 42657 30414 15072 332413 209202 401979 436220 254388 207548 214145 371468 122718 506026 457752 432394 500617 227148 398363 515525 401548 619939 249114 522056 239143 18123 208754 273428 568172 329538 603632 422960 511132 355521 239341 385352 405123 343925 221430 261210 675840 349191 311395 183089 133632 355401 641952 319646 572767 359273 362850 230428 343207 130958 106424 353574 313521 108458 315342 60906 485245 150275 501281 178901 192075 111044 140485 77250 236024 575197 569592 571956 62742 23017 137627 459776 218874 112281 220088 112609 95100 290637 224382 187208 532850 449921 192716 342656 10622 65349 46757 112535 277700 360147 362857 623821 317066 287015 74954 409907 115995 463004 658310 276475 476291 228304 168151 374970 12921 131542 283119 415180 212790 243720 642295 665472 484451 117734 123887 388004 273280 220080 588922 384070 222175 207265 392607 318652 19508 497398 332711 464 3682 38525 80516 105269 754627 120963 723297 438627 500914 26280 500314 337323 363194 487118 103248 311786 362933 238875 561259 127516 396590 396041 25986 279383 420485 342593 552431 570134 391569 119858 51893 18982 711582 169914 838101 571274 109714 507566 531018 173657 217066 334260 356888 232274 705561 327925 750274 168980 223996 2568 15871 135160 273263 393277 409967 341558 371810 70784 28064 316940 349976 277799 99977 253836 452686 186412 112587 103206 587304 164612 223342 201138 192434 630386 119127 55611 287127 243517 192541 288654 138721 146772 327483 355569 422255 270490 286401 247862 285803 518876 87088 435374 114839 112687 148446 440468 126270 597330 538830 232980 551362 197827 327179 161329 256042 555208 630649 209758 168216 19978 210985 494920 283356 357891 235547 58702 587587 200263 549633 158354 430860 722997 225498 638715 605527 369766 352514 60800 575028 641323 625132 264889 388614 346017 36992 8501 296605 164384 361785 731822 105461 79051 15744 668043 540171 464181 378615 131945 66198 196454 622309 91948 388100 247125 171642 116076 417800 285046 357035 157380 543070 630431 260456 340582 343700 37224 47196 12002 669591 318346 230367 424732 16734 40344 219489 460648 419398 436423 571044 645818 32113 676598 279702 364006 660339 253269 41842 348669 700769 203328 283076 672608 719811 292422 507619 114260 374807 351307 265324 2318 175722 63820 8381 439164 467853 471739 354824 640376 125666 192090 8502 355935 544010 19406 32543 328520 28575 716269 221514 173594 161133 345675 134366 548802 9950 270188 344659 205423 383527 323793 70459 337045 87834 180158 85757 413370 568027 562042 122931 518139 505801 486571 6793 544279 823779 651134 254149 211751 218597 168304 186559 134293 184667 71599 215181 273588 175603 150229 73078 43864 223342 284422 265257 464244 474052 513298 444916 99675 268743 316268 79362 59630 372443 292923 625014 422628 578197 207493 27741 130621 358311 526791 122189 112883 123465 190931 418458 472566 486125 232011 311034 586091 242989 34743 163900 303397 217686 39099 63720 192854 227858 216261 315739 209374 134614 235888 236194 267220 53082 308305 333494 195435 339211 146647 702224 302251 243081 194874 457674 319960 704290 711638 79434 141955 422397 385981 425664 94302 426906 79866 124166 377696 20047 525917 570315 632406 204714 350736 37937 683894 72133 405589 699277 676246 38326 209073 394223 347383 90657 42802 193321 33627 282829 148627 513679 447875 483023 36458 558784 496814 662411 101838 318815 709897 375269 532193 133267 214738 254434 5206 513292 645347 160903 384876 84627 451407 371927 397160 302651 138299 503440 355974 440458 336395 209960 345373 561566 352511 557313 81885 362793 530982 440672 410807 160062 300093 144700 651024 78301 56250 147335 169477 378779 346948 14003 199908 175492 19935 155538 51935 11502 209453 87620 9406 555109 355369 413688 231664 60581 322589 281896 233029 358060 20938 131119 325591 327048 69492 360913 98982 391085 213729 209007 277427 616392 27914 137061 251828 83286 303999 459268 496461 71049 275578 277874 140786 67768 456923 97157 79054 58920 23210 485134 325089 28873 289996 406244 553225 162830 362411 221519 266660 190127 220336 497289 488296 107993 266870 519322 470011 367003 394184 93171 335260 382212 129303 21184 34748 607260 300416 133825 67696 211716 711122 147867 426924 247908 586817 31072 26399 389069 326733 516011 142750 594673 817799 189648 94828 276297 209708 55864 277359 614826 345455 228307 338688 580177 371551 45686 350779 88239 424590 51637 32940 300225 377548 65519 203495 149981 417053 284470 50291 236590 712634 546397 510187 704891 47775 147578 102220 279882 258547 561475 669104 534050 103034 273459 47637 127693 206989 305961 81835 699660 91542 531222 254371 145319 253893 51621 80250 563984 283884 281041 431373 168595 599341 154707 430663 86733 70805 1975 374961 222524 263979 395153 511646 458060 138766 363126 76178 353074 120655 513671 736447 359477 137362 83077 101722 100236 294205 220031 47904 231241 214179 709334 375975 242418 314004 156629 61318 232549 191852 97792 348533 830 293116 74428 250910 279380 157561 278001 22486 390163 306454 135322 325053 725880 122338 72266 94042 18851 432155 196980 538625 41475 18465 386031 397326 28828 63007 316707 79484 437950 434455 226764 30320 180295 6115 598364 53383 225938 35628 213444 137471 293628 442831 290422 262897 85733 166408 7622 93630 113872 141105 26573 57754 598707 256879 313233 198450 105273 267273 172568 341624 41146 232864 188583 85207 345771 295982 354718 74944 82108 334978 88896 611383 211385 439493 137303 258414 108856 2680 337703 212205 32040 425764 68482 481363 386587 142756 132437 557392 257063 18692 10026 509880 279003 261459 46629 99727 79657 160080 477854 466666 830407 289193 189878 468586 281872 132385 641218 215440 541963 305801 236285 172188 177934 44329 753464 93458 343585 754625 497444 36042 189424 272384 234287 221853 213045 314176 14410 287809 85816 17515 200734 119538 242236 192518 489218 517422 310055 274759 547732 173660 134066 42358 91973 403283 112912 143127 34102 47627 597878 521605 397014 34692 294513 37967 5377 126613 101465 427370 168370 658345 678508 16416 259450 388894 766373 613750 371399 294775 391814 634179 77136 127399 183806 241031 517674 59129 57253 568500 479091 335858 342715 382640 204064 8084 59892 457002 146114 281640 370849 43261 425560 327599 596883 146178 280843 356506 273737 660820 293042 98478 689861 5248 124339 210377 114931 616143 404836 73734 148568 196474 174888 346027 391507 173971 49453 164520 456390 83591 521157 427572 26631 189624 98711 380196 549475 2037 187781 35381 216536 379481 505458 162832 160990 621489 219308 127790 271828 70019 14467 234450 562759 512448 405394 497818 239756 315067 501534 45839 226774 155329 230201 60306 517897 228720 449037 438156 537881 528364 226064 51145 234446 149536 238015 120452 569394 262077 154936 647732 77325 86203 71978 88964 262616 246248 112872 448296 420294 29542 457047 311004 269189 290311 618515 86309 651663 298019 401817 567247 325379 195589 275572 388362 67053 83023 188408 561892 261062 105656 563761 92934 382361 42032 517023 345015 452703 335319 300326 327738 40161 433019 396688 468460 367595 263202 722874 36260 484055 323535 157692 545945 5510 323452 144687 570675 198602 299723 396732 27425 448535 46421 494867 257346 571077 301937 144776 486813 431011 486309 390801 30136 41650 258041 381345 124402 47093 20850 387080 249935 563105 332010 714098 212614 394584 27971 365944 389579 93989 74349 112965 491843 274882 298312 85584 112458 351556 572108 145758 518440 508588 289806 168992 300497 407692 366829 322309 18650 363387 204973 479669 333638 98417 71129 212215 387376 491157 627061 326980 553970 449562 277255 153654 176957 138375 181607 398837 450916 115058 12410 695053 715899 221195 90442 525798 633388 576602 379655 132095 363114 566753 195266 772912 189478 10341 253537 197064 561930 388127 198621 412061 568853 120601 454965 626562 248617 259057 305048 276957 818478 605759 369608 86859 27045 225410 48137 400422 105765 525770 367435 141716 454156 286306 590908 277245 513500 588463 273165 375270 322510 140615 346902 328204 110098 293299 613794 708923 307772 315810 207432 86185 83883 373850 442079 311732 31316 160246 60732 305910 501558 310459 330071 332678 34830 91912 214563 429035 220341 73123 50345 295026 418888 130129 369295 489290 535485 224072 372047 21713 81367 354759 221877 486499 679269 463438 156845 124941 262909 410601 254254 219771 61705 212160 475139 478829 731833 403775 759267 230411 107652 296699 9888 452255 194765 162212 201037 788220 889019 263093 19149 245244 159590 265929 152046 20092 316783 299640 671577 570370 703093 78130 230987 72700 192817 234637 114536 251262 203393 132589 2842 237676 322644 471342 48681 199492 296491 52574 201147 320709 321135 420683 106326 387898 18494 365953 439639 280767 235821 35603 466114 105662 104585 221249 190342 107768 83362 79692 792787 697874 267751 662377 473749 127598 702599 370328 179759 200984 681404 111340 18851 20990 203470 523105 460069 92913 530741 199431 53200 575925 379979 258213 221778 277700 154674 172655 368509 298116 260616 196161 610041 457894 201522 18159 390357 155032 766775 75377 37030 146 149682 94515 388940 126889 167387 458775 48704 257522 416414 438896 263175 245534 276247 331074 600060 295333 110376 49995 136172 99504 33912 256184 647042 57353 198119 32145 687592 374714 114892 324098 380707 200900 279088 197949 160994 348852 116687 371429 218790 380625 176421 176388 520058 144305 11746 286674 382577 312772 123442 160575 73829 29034 32642 329075 450527 55770 749822 572615 87310 383530 115066 60251 407256 616176 680016 71045 115111 219615 116286 240716 389198 559797 564290 92891 116146 363185 398242 33707 142787 251233 57641 224401 411870 582042 489537 218910 627546 459365 418646 394556 13251 603554 141024 416167 487361 323881 321473 143149 865053 197679 185722 168113 283673 201524 211503 61112 281039 49294 403468 542292 213501 208574 359159 487737 321105 362190 9582 302953 481257 425392 134439 367994 12333 60702 151656 377677 166729 152447 293471 192181 178947 128372 390684 2542 6055 99598 58916 509254 246886 652306 433073 161097 65850 266675 534318 64052 212319 745395 91689 137300 476252 16561 141848 610210 475404 113865 239927 154016 265868 287371 41712 474078 429558 439298 194581 304773 112687 388541 247011 331093 284809 754080 805801 458165 418168 100649 145005 241189 148705 171805 262687 797096 702582 392994 62894 294961 197355 251122 237506 107760 581202 221428 426061 21430 406720 361387 283275 485216 37877 375177 202264 496456 50599 252877 321472 105641 452586 83002 343304 430932 139070 250933 520424 63935 189987 235467 477651 311022 545570 79236 91253 49363 640305 67548 194320 354655 27165 71672 246391 220429 333157 145637 97766 455868 352292 307575 178991 54905 237239 661983 620830 323589 243345 41243 389304 312402 208233 292977 309878 498322 9458 118595 647076 226599 84613 131379 357658 206725 94688 468965 133318 208897 441165 419943 236723 264961 462241 56665 377998 154599 106842 11690 679068 403624 421327 384394 167587 135916 487040 210452 93373 169459 167491 67543 106111 102530 353102 69360 284292 417180 358127 84784 63031 645287 277419 426359 378826 28056 471205 226653 92098 324693 731319 45269 19178 57505 110949 338694 378031 614592 491510 607335 789837 527339 134503 499141 460601 346760 392463 492298 163593 27020 185032 458351 588423 161764 113044 10306 153342 518256 355126 599113 152598 84217 369420 52441 33301 214654 128586 228858 43723 234006 335650 92873 525040 260250 102538 420144 289851 496014 161740 265108 34053 584249 319971 62317 296851 307793 410664 275806 640838 362682 21073 292260 245220 327255 394878 353982 299741 376729 190780 62857 253756 302618 248380 198123 3900 139327 3011 413119 295253 78920 3630 343714 499247 26124 276348 192662 486743 708056 171474 634011 299530 181844 551267 341903 254380 59849 5825 494528 296676 40633 35453 243219 533999 288560 38574 592990 641747 119106 259205 423239 168004 128728 194547 98673 28298 134199 234681 248604 468945 144415 257934 263619 273708 266303 251665 378249 198546 61279 107930 59130 333839 496305 196070 401501 64271 373300 60088 398777 5994 28450 377476 8524 303196 430208 169656 128072 444007 266462 293206 213394 473411 607646 691719 113686 24137 466620 93488 427381 119611 733174 286910 29402 309215 193594 307243 220794 1076 14961 382525 212510 342751 529161 139912 254478 55341 279014 388983 518227 67510 150747 108834 169145 171596 81075 304624 321188 408980 145574 510189 58826 416403 458421 388019 464002 73291 63544 840665 276701 274885 51927 82384 741614 758427 549725 422227 285155 357848 371779 358479 659734 430519 425792 544757 471906 459899 138124 22206 545584 102203 396584 14134 64971 73923 106753 92668 374966 68989 640187 303092 733658 444907 324684 256511 446651 156277 425557 399395 435067 288367 466374 284170 5731 97744 147913 73613 14083 594402 395600 312919 176507 431990 273785 122973 84422 41531 231552 191944 58879 248789 100116 125298 642103 268986 466945 421024 400172 382452 519534 156526 156936 100402 369258 125104 62661 452018 6408 38746 54498 44045 105825 531100 401929 307065 461671 405782 340298 104133 222730 341091 280384 221043 105583 215844 120239 387132 313706 143912 252723 552422 684105 545102 151443 192906 121811 248690 107629 152718 123862 349205 372147 498247 489683 474599 298837 240014 365254 423443 280235 208080 648336 67130 383683 126479 417636 170730 104452 174623 280141 282785 120064 317259 73410 45253 445797 681812 438713 19296 664726 35165 179741 329549 243447 254270 789726 488488 245577 39478 485376 441286 226786 223709 184323 286512 66390 539460 51512 103375 200454 256625 422818 494499 200610 181976 662391 17142 456429 18425 23362 564757 517597 34468 561541 327590 151726 138847 510627 343049 387158 574024 154501 267122 454448 440195 649916 585 39624 314110 106908 413946 109940 120695 55040 279500 310344 293239 193853 559627 153275 147480 210561 294462 326488 160404 232774 207819 554502 322871 310535 168465 114959 116144
