1153
998316 999266 996164 994779 996281 995441 991817 988705 977519 987480 992663 993161 978104 984993 989432 979870 984132 964184 972079 958000 918728 989544 950299 988286 989628 965193 952920 967968 972432 986344 982370 955829 962859 970556 972802 922596 942283 904154 970244 933881 908452 910407 895764 973463 885043 934926 898973 868140 981152 986093 973572 905386 959960 813450 948900 954382 883733 942231 968103 966957 972713 953675 977897 915033 954777 947758 921034 965855 949984 932965 966080 920589 659223 923067 921854 850826 808472 877687 810275 685262 799145 860868 836816 882458 622173 797575 872522 874516 967024 836627 855394 905445 809103 853120 857416 763048 854550 933163 880397 871439 984442 965653 964462 866494 771862 943375 954097 740459 800133 717305 864084 838940 947669 873451 841042 770094 880843 964365 957504 916748 950360 947562 919064 907643 864216 778320 959662 791221 872637 942690 930224 939963 828659 898010 887361 944466 898530 931521 936558 820859 872893 900898 900844 643266 904478 583770 512063 709223 860863 760362 873610 825125 841461 635207 472725 728845 734429 536767 677832 527521 616921 705365 734045 687448 818238 789540 744435 856262 736637 602810 606672 615841 774145 861766 865322 724614 819428 893395 918060 791466 784671 788454 699718 875353 741180 538089 784968 844679 771681 765132 853127 661790 679266 687991 803382 901397 793548 875426 849356 613746 613990 839104 872254 920331 826075 792319 766572 771807 840147 751388 755871 721986 885291 721090 933530 713898 725895 694036 740941 709768 665726 688554 657363 772497 725220 928762 902806 771107 859047 799130 707841 707884 578628 797225 879049 931551 909340 876688 839892 868739 806526 755471 863189 553282 807156 803001 856846 868282 876291 767583 834764 582081 596049 725626 860042 669454 745504 848427 553877 512700 812136 923931 786911 891236 919792 516697 698597 894596 869640 839300 783390 755279 845455 829193 681482 808960 892959 868738 569539 779244 787976 868280 859025 875386 896869 881554 838206 314512 329265 585279 603565 275447 383306 427159 452546 370326 541561 843543 686625 760269 131263 487998 838603 710790 517469 756717 710529 347012 486733 92336 432008 714301 625935 472477 493585 452328 478445 625659 604062 103529 223260 336931 510014 643275 652700 731387 516731 498098 495313 759754 589494 788617 762823 430597 599121 561889 829493 641564 541110 567632 485558 410808 576356 430997 545196 188006 747993 651223 474312 447878 793189 676743 342922 617766 646077 430622 673258 873520 912182 620742 778549 725883 310256 761143 762874 574509 678807 704433 655277 609202 596030 329547 294955 402725 653857 790342 575487 646937 739563 757702 665947 835431 768561 454938 578139 650639 239896 484494 302051 446742 682712 464035 597267 785391 565099 592743 860152 715194 243424 386953 543104 501335 209073 400048 465213 865991 572567 321473 822930 768462 648889 391709 639203 598401 619402 770391 737558 813998 815124 398331 602680 705036 387215 708098 628238 545020 619253 652032 690052 659019 714687 269109 480651 677640 696212 297680 633925 262893 727668 524908 335462 518555 456596 538507 601293 434470 331393 397857 739634 457994 724601 904532 856162 807086 760403 681432 719211 737310 714533 518750 370065 301892 628154 518498 566206 498455 472128 794773 510107 725874 858266 287673 780887 523160 497937 851033 872758 531430 808367 345194 525679 746936 736297 583070 552938 648166 745789 531329 338711 725183 468684 795126 768090 714847 342467 643793 665954 860219 777877 701586 285075 765631 780385 529661 330204 562896 399511 452798 712244 845538 789896 437479 657643 736994 672215 716275 816138 429622 545471 340379 511562 534205 717714 511991 381618 643806 577525 590276 690886 681710 583969 477281 485844 500278 631865 614491 650757 754918 846171 804496 793270 680326 488016 389876 623456 581788 836137 495053 707433 548008 679513 424769 560562 830948 538345 388040 744576 420527 400917 639056 614788 516188 729605 764134 629043 579605 744057 655991 601921 837525 891501 601789 839474 807749 382261 306031 136010 172336 130163 337524 279133 129094 562818 231405 127177 167695 190934 134174 239304 386229 303046 259366 128789 468359 472762 254780 406509 348146 27343 406418 681728 5406 30215 251449 327133 601172 611586 279373 523718 482021 391491 208704 298714 116220 417696 251737 127240 302892 477568 46322 46395 278158 419771 624782 16941 230380 104527 353565 297302 398886 247064 432115 168124 337613 17245 326210 398110 392413 333236 43126 48019 33981 189979 129833 215021 474786 427268 214462 526990 464041 497641 238855 603870 476752 65941 287145 465814 314954 112220 640434 511171 23865 345487 108554 702822 217870 188026 386032 323583 504470 387029 321993 320633 125759 55065 546443 573011 338231 9375 389557 378970 16767 424795 115682 156781 534182 185444 371118 56886 493157 423891 62845 103757 381117 407026 502765 217966 443051 35863 334810 85125 526548 707065 431123 553381 123046 328408 335632 214407 91014 289034 21229 182853 595667 7084 197532 461397 166096 76001 347980 530831 662718 575686 564290 631619 122867 186318 238920 643273 38347 668915 318853 32485 542349 69230 316681 225143 111046 167200 423886 447186 353287 452803 143667 247523 57543 241149 251127 174472 446014 193336 35595 526891 450048 252030 525361 275743 370475 647049 8681 177256 236603 433522 665111 462573 559377 443143 307431 317738 70170 515478 483476 595294 43681 73689 256801 182716 147449 52640 194925 210677 319622 13087 32219 346048 72126 244986 516043 43107 126723 310621 580909 8309 631728 726797 250933 347657 22024 109882 348372 175492 162815 460424 176007 155556 164241 99276 384634 245938 77620 346826 388390 133800 366251 92835 42136 94115 600544 263503 749855 231220 421348 454206 163437 169725 478819 336975 203949 283208 213647 52956 23511 120390 678524 58989 338424 140259 369146 177086 255900 193514 134447 321403 432689 391433 70182 30448 296885 449630 204959 504069 102958 480928 309468 443141 171581 220745 419636 534234 165232 477767 560305 154153 90500 62736 291135 38026 421810 40480 474807 354536 164230 228944 443789 183068 54975 169076 518993 156738 221897 280473 23254 286953 485209 220511 190838 243666 204166 73802 243831 540291 317780 369022 300158 201143 330237 123506 141081 248446 182126 343409 282818 244489 180837 59710 456649 106811 382294 592187 186925 113709 587068 402825 419570 492638 36575 532652 61967 428434 368906 507773 341023 166754 112232 60082 540508 145697 72266 143088 153947 251840 232899 317232 121688 197991 447353 354356 127867 325215 445224 173344 714624 466600 12542 181367 385678 243868 180713 232778 211091 61926 384237 244382 830778 604868 76611 82123 4062 490222 235303 17864 204721 264046 431448 480542 659324 289791 111027 183717 114709 478998 39720 322323 63844 241687 300358 25238 4768 226054 294433 226695 201787 23789 357122 781722 357964 606181 491640 365433 67071 193218 370925 610135 29884 195973 282519 704243 652107 395341 102715 288659 121423 234602 692978 669697 575155 352681 250207 104043 328572 131462 347774 213636 202883 196597 9276 127108 484808 299261 612090 380635 236515 209569 371192 217236 495983 605508 467618 686937 413120 316835 9953 179464 715126 299912 230709 320131 199715 380980 175177 54762 494566 446288 55545 66007 40046 192888 393216 42696 191307 109700 334043 264142 329079 563554 170586 374865 90791 469705 16589 398078 199343 353802 111613 130809 481394 380325 422304 453502 2094 470410 114422 416222 477883 255335 416049 638309 544846 59191 154987 147876 250438 97125 659643 222511 196308 439372 245888 6334 473441 406947 372093 15354 147124 122316 227178 437387 238036 30884 511070 233703 360664 351229 316831 208048 322948 114594 188686 70974 378304 43452 189239 13496 154168 216792 338436 420275 253766 392803 314847 32273 257251 358196 265314 20859 429740 693001 204504 7401 462907 388327 140687 70882 228427 159685 631011 569898 201789 123475 800917 646323 631791 830634 570186 526871 834485 762553 651951 659028 36463 169278 273889 259914
