4593
998091 999539 999425 996588 997029 998274 999302 996326 994604 996588 995599 997796 996448 997160 998389 994052 991994 992563 992392 984097 995557 992739 992711 996243 997686 989217 994539 989882 993138 995309 998319 993877 991719 984169 980958 972427 987783 986443 989359 983383 981382 992116 970208 988144 968618 991273 987229 991019 984267 990030 993353 980193 980134 986639 991207 982559 981555 986638 984620 990917 988991 982916 994612 983524 990592 974724 979239 978067 982772 971601 972957 968120 950414 985823 976907 949237 966695 982949 976498 981755 959815 971406 976901 966463 965711 968660 952762 981885 929152 949279 962628 978184 987505 957190 975875 895884 990270 973470 982457 973571 963173 989307 983368 978149 974981 971774 975783 979472 983222 918382 990972 974499 976010 956349 972897 982731 963504 982539 966208 990497 957322 986428 985682 978990 947085 954439 984872 961112 963013 936988 960637 972646 970754 933798 968357 975595 964009 969820 980912 945270 945618 969542 962892 933342 949852 909157 939377 963517 984128 965229 968674 907615 936134 965952 962239 933120 938249 959951 956280 962824 939363 950632 918321 963727 949809 905934 956967 965789 949261 956836 939793 918036 954890 925808 898184 958743 927320 920527 927508 875638 945606 956279 874361 942810 960332 945757 954066 957086 950826 956402 952495 880433 854875 960028 982761 950501 948527 979047 978612 964654 968291 948764 961404 966802 969189 815706 872593 962624 891950 973285 967881 900626 954443 924820 945840 959303 971900 942741 968838 869795 772086 966768 970482 972522 928448 941375 938757 927186 836641 968015 951143 981776 962098 926758 958184 980146 946182 956337 840814 984893 981007 897254 956451 909720 858508 955413 983923 972564 947434 944893 940167 930838 887100 984238 909175 929431 935688 954763 922627 933354 879354 947817 951325 925925 879231 968105 896652 910120 927218 926154 930142 939831 944074 944205 960458 938674 960436 954946 946420 917286 896269 919897 932602 966043 949055 934114 948959 911880 930928 881928 701987 906301 885278 807848 917273 940688 926517 872102 939369 951639 929401 955760 937395 897025 889842 883280 901507 923910 847431 883267 932912 851518 918272 916891 870417 815358 953094 945848 949620 904222 901251 818435 890612 842030 833715 915409 871113 883455 887875 943631 931153 895620 891529 922428 885299 914941 894630 890945 902354 944245 931326 921535 907953 901147 897773 943158 950879 872997 860807 833448 876495 920595 914506 915931 911141 866834 806638 917630 903789 799565 834432 932870 931434 901901 940701 842284 865092 939821 820620 865340 913493 937625 932386 821786 945727 949507 887360 782838 941008 906740 859077 950981 872919 877478 807180 833758 825602 911733 866061 883997 977917 891349 887105 847071 872317 921227 825141 825563 946862 880345 927709 878278 965699 900616 937892 942686 824426 942154 896881 833687 817933 812346 800073 856538 780019 951303 954558 886644 887283 957095 889079 877186 849603 755254 870849 910754 933284 908911 775705 788268 881680 813225 779140 920425 812397 841722 847705 934287 910484 825482 867211 731274 601825 951246 932791 849792 869124 864462 954971 819370 883161 830015 920607 921397 925915 821312 883809 827535 723263 941486 948195 894134 937691 867447 894700 931439 902230 926645 912817 883399 852265 931356 967948 946059 846927 819542 910203 812256 792594 870757 870594 956829 963111 816201 823393 889322 913517 818450 897410 853486 802633 919735 933132 978406 847645 929950 827027 939612 917082 941539 824528 891383 794926 881140 847510 811698 869126 962963 914575 851226 908522 925202 918285 921613 852147 840458 946987 838048 895882 871065 886393 862281 877704 904751 946602 937488 922653 772788 868347 760226 852196 954756 961574 875560 839224 676980 887769 860720 867978 786819 914713 861327 883237 922022 890203 937386 935318 940227 933491 955673 726840 924260 878904 814865 918003 796227 951653 917413 866001 856707 908634 866995 881053 819593 868403 902928 866666 888303 918833 948252 879239 902112 893406 862768 805723 808485 905672 819348 867005 851001 854051 555010 693135 654135 785912 832434 873287 793820 518594 878672 904708 802768 909784 840828 883296 855038 641928 725162 931274 869365 755350 922915 850173 713953 879057 881473 706634 844915 881085 752950 562434 854747 684337 601306 808134 637039 478938 788774 807856 706490 744955 924129 817994 766660 467101 523640 798826 886538 867459 706935 851024 753470 814218 800291 850493 849722 863432 819203 818627 836288 895051 866616 894718 811200 809441 731223 856923 697422 838166 678726 795440 828571 840816 782210 813678 756199 854292 865994 775100 878232 837212 824735 846213 801951 770730 786600 748247 676529 579714 876852 844356 793274 720333 820495 807732 734266 772256 855304 662427 840230 803562 739345 751985 843299 859123 694479 879087 845653 812171 683523 838566 664064 638311 927702 709638 468258 808717 851696 641907 810934 739602 855632 866775 874000 704341 838399 888245 911356 817447 744974 729552 837030 855780 728498 624083 885134 727375 665093 777610 777391 723057 683270 757106 806315 667434 627080 897323 860673 851216 895739 871696 686910 800775 427815 859265 934569 479553 719843 717106 802556 695179 881102 861819 935312 850803 814487 921762 754972 784910 920147 848741 893120 791463 796033 789430 727659 748282 894054 856621 762578 794006 823882 466195 946038 936617 438758 759559 787168 865167 744114 741822 641558 760059 747105 687325 802598 799463 795848 826085 665853 802842 894234 672240 882064 888250 682349 787512 692898 795232 870506 870664 835357 852858 768294 812167 790466 671509 725109 729216 853640 850402 803592 871558 841664 721244 942057 914581 870258 796868 846814 856617 901621 902762 476178 613997 442365 909877 840685 847347 759323 758390 803381 721544 598111 494255 752933 758181 719807 817645 681519 407688 923510 589064 861872 943971 756187 839465 811886 772617 946865 857419 886319 862818 850100 869415 691184 832371 603017 710620 573472 817870 674880 768091 797703 895516 816151 902075 771215 771828 744881 635211 814826 874299 795921 570776 779040 561143 802487 829822 810351 680398 610299 841003 829665 752253 723966 874175 875796 841599 823167 398533 827029 698866 675264 661593 456220 536676 906525 922172 802924 808732 762372 840806 860569 794881 770353 779106 774138 767529 655207 584514 658562 657860 771331 630012 785237 650375 697281 847479 869606 718153 771528 699869 815262 746955 666156 816262 578274 712574 743923 834142 848430 895087 815917 588824 857333 844377 593398 647871 752253 608069 919604 901041 739125 665259 899476 898948 867673 870504 648205 716609 755044 765627 826490 886276 901884 699653 745422 817103 692923 741771 452595 756438 705052 887591 715528 717719 711849 613336 773830 761789 661870 788171 829369 877351 909655 809276 790057 651872 761051 765067 580839 756288 827789 905479 790769 769220 614658 797568 579467 849305 565035 701745 900535 788253 770835 900025 865730 975934 604521 759745 758016 599591 561886 817126 737634 807033 867991 813242 869472 917702 585072 558497 842523 695519 784932 686512 801182 769109 831713 640669 424410 443741 850393 857331 924146 923158 648912 893835 793391 760487 894338 882424 875157 920758 770360 816345 786572 756086 819016 563773 669369 740432 928278 903678 722230 817442 859560 870037 843642 762871 870426 520001 854541 854813 792206 783797 824264 734759 885771 796522 881814 528065 904707 915365 743461 386170 788158 867251 562595 725435 809400 795754 853247 826664 833752 891851 823150 867417 786129 718731 588754 619440 856249 669573 525033 702814 790651 774691 692810 715264 817263 698035 763068 775757 562896 773251 549117 819836 762018 699667 902036 923109 852468 820765 919793 734724 879329 830826 727686 928688 676743 677216 818728 703831 843805 801305 761840 745760 826765 855359 785414 658044 925948 947574 860707 847490 741983 854209 814132 666934 907541 839711 837412 779451 683465 830797 812271 641858 768096 414744 876708 745892 808043 825578 838020 585277 775770 840116 935248 603973 747994 811554 876402 901327 775811 725884 856368 630483 781623 695248 454386 787787 635767 790009 750926 815511 735339 550330 755864 817067 704368 696813 260975 465362 521213 489905 479820 652475 688926 717114 452010 546997 555189 831874 635577 438013 222703 349819 589451 625543 736036 676443 622959 368010 882824 843267 676353 834074 592153 735116 454751 658328 628776 625158 280697 673176 533843 358754 707808 812463 726146 560440 659736 872845 343465 688658 568424 238630 826727 496887 662280 778109 650388 523915 610236 748327 186636 848128 743759 353941 380717 512997 602269 731911 566047 536595 350821 563249 732875 719772 348304 174554 463703 346333 719941 659764 800657 544153 691573 656778 567734 645399 549817 745177 560822 671213 593008 266147 203364 361170 482504 520823 641549 487528 601535 821280 95274 842592 517621 274554 797329 666177 699972 654010 631463 804064 685516 306843 707362 364864 825869 732214 422388 565379 361703 577477 745961 561387 832124 300406 250387 646349 324786 628508 746689 874843 421972 367507 344474 804880 574669 611008 787222 779853 665477 636987 446495 686334 203805 591170 542283 611560 542779 734786 366977 808329 767726 618924 762406 784585 577781 540551 848924 607995 184676 837826 463284 695850 755471 418150 516032 801622 523720 803846 389298 593676 669308 787372 455238 517754 396537 581706 380272 643251 546962 609147 365662 531638 729777 868920 488075 400527 350052 791466 684144 668113 465029 513698 778440 527505 431560 486879 368032 430353 657214 844865 579007 642520 561880 797135 710474 782623 568292 540001 625261 554939 445492 402754 691228 639496 563601 449290 764623 713811 589033 576634 643071 584804 639911 425415 794521 630939 341940 610173 533080 336047 665720 895490 623498 446488 395304 309880 711982 708105 281001 599735 614289 405694 592466 541213 729839 689101 411048 470453 779515 847036 613811 860940 472845 245461 711266 585787 851914 772170 645301 680951 796439 675008 525869 493919 232862 612905 723564 601436 742000 295851 519945 561773 611427 551198 684015 760758 707057 524588 337573 589851 261007 516435 581595 691198 559512 587700 647855 667614 647378 374933 400328 684037 551666 519454 552703 471124 744097 727448 645301 626988 552408 845567 800539 791105 240739 706670 551607 343426 330338 608693 253848 426978 821660 441478 406922 799435 309321 445092 494133 449404 361376 545543 715866 530690 446523 541452 843744 846531 646078 833069 832663 634879 738013 626963 775118 652085 447034 677585 425103 562603 717958 587915 816782 893527 358075 655372 623707 620724 762677 492042 662248 795963 283810 772647 631790 496433 729634 400828 874059 859451 664140 575351 690806 382400 511560 644591 737567 520402 466034 374307 885503 910753 827185 822047 307699 114822 688985 649265 717210 701911 692535 766607 438139 727505 438634 697162 165214 596459 287225 665974 564758 481633 401923 659424 735796 623005 651653 763114 126190 521826 629364 733426 548280 608590 632298 741853 869674 810579 649005 480509 548142 685027 826649 599133 501132 340335 632221 620655 570761 503042 679434 449450 460948 511878 215299 478286 400203 746599 492540 821419 629762 429174 804780 294338 407863 381678 651973 435445 397667 403049 664028 652527 798287 813402 829626 615321 571070 549952 768793 576733 609692 351640 435025 684750 235310 670664 315097 788831 861832 593716 791499 700353 627096 494867 805753 365448 368453 459248 442545 858959 394408 391084 591617 395580 424237 149547 712849 877550 371388 747697 441964 598583 230859 689274 545833 447703 734945 706768 639238 655956 371324 496212 435628 403892 604651 443930 753839 735993 499687 439286 657008 753271 545066 498311 194910 362961 719546 475700 272894 504501 530196 531427 929845 714475 566785 709774 295662 717880 476221 659784 709959 691418 701317 827016 802636 737279 868928 392466 829502 755311 150852 779551 618026 545888 586750 318536 404945 505686 281195 354004 457464 705027 287198 167863 707561 783545 673599 646299 594446 524215 411010 700729 596804 762618 762748 140384 483807 416088 696644 737529 718081 260393 642984 552034 442394 511164 676061 539026 114713 569514 251945 714494 489421 561751 542823 592767 555320 551937 589922 742127 454072 590021 756405 589156 604027 343877 527663 71013 823919 777743 696761 648509 646860 657120 688274 444500 656889 851405 561920 303281 657065 555699 683890 770751 261718 335204 526456 586546 696277 589623 626796 482259 405988 458344 453140 448790 497624 392588 882904 508504 312137 512040 765144 674931 316073 772979 751399 334219 481289 501184 468640 560234 786790 259022 572910 451531 345269 489358 225338 533111 611889 371143 632115 559564 523147 526966 539667 396348 219959 235237 713445 648711 427292 591537 467591 407174 444218 269087 532038 228171 773187 639702 264994 836587 452995 499995 323638 554339 598596 612210 614327 669552 611566 699731 333222 247707 659357 794926 407665 563547 653768 188810 288831 639683 689653 780233 701056 511753 525164 378404 807914 662228 507732 418713 638530 759385 744689 466510 512434 364964 397333 413760 721538 701409 520547 482329 703354 868312 786358 725971 606967 609836 656949 616659 381938 674170 656422 347300 492179 411718 600531 618359 479840 512964 570023 456563 663430 559363 296476 546662 489114 699639 765987 279262 515607 592407 321288 490947 279596 662518 750147 591365 597261 475774 712705 658286 301216 189295 727030 691633 644628 222362 885287 568678 616079 617844 420700 429931 544284 709097 234062 435222 412325 665605 701004 623397 492579 528985 658329 378995 623590 780448 802701 804442 708452 606300 797848 672447 398516 255576 361683 629684 700958 760936 758527 399183 580569 374303 230391 331942 776238 535344 492313 881526 772240 749952 610700 757408 405728 404168 763501 708242 556272 430288 723700 796690 505159 564937 504545 268835 461179 868090 694088 682987 731720 372732 364609 459308 826607 622336 871001 700843 466373 496102 563748 708793 668239 481228 587789 303159 489262 507667 699394 645887 627686 621426 804563 332053 776750 843863 474361 377441 351144 708721 886894 714608 560614 296284 330478 462648 733769 260771 601722 497122 418807 722468 589339 685513 205939 478953 763624 698404 501609 656154 486220 403453 393615 334554 425241 331808 834024 469401 830875 574373 818709 575128 439214 558490 366631 623738 389213 845261 592739 717518 367364 657000 826709 470135 764484 671623 558701 570760 882036 747034 515129 724453 769868 377011 415651 763947 675059 729890 466387 788158 495054 436835 355945 392794 726811 712109 504400 623397 434626 612722 651722 313597 453687 757867 749930 482284 662060 582649 767228 718216 720472 731640 469569 814248 370702 201855 662907 275636 678220 556668 553544 345208 709127 650653 341336 767705 692636 714970 787364 546473 528932 771663 745072 718139 327406 527854 828541 867091 841596 193663 533087 697756 345791 219325 777773 747258 379787 558483 441926 497761 305098 184726 701090 501436 289478 423627 768927 834394 637317 722406 789412 770151 652800 768437 551698 607675 782970 826781 756309 470922 519397 592206 380615 482033 369387 516285 584301 562191 483404 437334 481001 375048 516238 594611 404403 589542 762847 430001 583906 268244 351990 712967 695006 528845 660010 490249 424310 729668 585706 744228 400984 433254 412873 692467 147028 539217 603122 609426 718443 613166 323789 578359 453547 452190 905739 627363 553784 538807 541795 656006 848660 812318 627705 558224 517820 726270 662340 328489 583789 505763 861790 700228 611505 445438 584985 434827 784433 653924 661889 473608 584659 825121 553314 360180 644219 491688 457242 721511 453242 427621 167636 834241 545585 576950 138619 628625 805062 677720 115087 946793 811961 844833 662222 232385 594013 656013 674957 391414 683804 483083 460748 611811 754633 893289 802597 775669 705566 713179 646413 680561 495101 509140 576483 632197 766919 608726 538571 476868 689322 697103 408217 410338 359534 822773 694997 554842 804209 528386 734700 478208 621038 383804 141249 334214 763227 528577 624033 706840 855333 783769 444989 535635 621023 518321 500369 747697 712622 847031 823580 85345 646629 409794 664128 535073 855639 124610 394607 361160 497022 762952 9591 343637 75494 438442 370543 409293 423481 362888 670557 47950 300611 135500 634478 783023 135228 728150 426534 35673 570304 659128 347212 322156 77708 470070 321641 509546 223030 230946 426929 70722 172389 308767 394336 89776 42989 240801 39779 422461 548782 31651 420591 362695 213846 303758 137271 243873 318466 169521 413871 236961 54377 94166 171663 66071 119061 203788 47265 285922 566307 156918 271495 386001 607081 654127 128023 454007 73581 398066 160812 256601 672513 424770 833864 249654 94883 51561 159356 194139 64630 514255 465622 84333 138451 106376 407796 173838 132074 613083 179482 308395 72360 52432 617774 340524 408630 196484 261570 30567 315209 25317 79486 189665 255942 9274 285183 126789 553358 278835 321660 447794 286180 127738 368537 494973 299091 97896 206295 5363 358807 270281 35519 404380 432560 497305 109953 596130 588106 506070 237786 246152 171336 127094 227725 569975 38361 84618 667563 668581 254969 54900 175821 181797 300683 215081 46324 9278 598947 407425 152972 723249 363142 471665 320301 307009 290186 75522 335015 236906 432381 60482 218775 143882 97333 118454 8967 65240 37124 112662 11572 153486 501680 615742 250732 469164 777875 150258 5478 495842 671741 680134 242906 341438 68528 417089 14328 313156 533893 549612 525196 446165 503350 318171 608925 196936 395201 29767 54121 238735 78380 128702 327808 304979 282683 374288 458221 81688 635163 329665 89785 267542 123943 492913 15986 685407 70883 50962 103746 226368 165144 315368 40833 123608 455387 261339 628360 468823 235910 163408 129269 644140 238974 314097 8759 697421 58799 153829 233112 279405 412386 173767 227416 331931 576684 121572 715127 333253 358836 284432 348389 20759 229488 324597 207269 335050 410744 192818 202544 359466 37551 668882 55709 247324 248410 10973 106176 13928 281506 49007 210167 47633 302042 220606 675486 79762 206543 295284 8099 39477 183611 214116 564612 454172 254566 355183 442974 419952 236655 117254 97698 210605 372814 466877 591443 492295 304575 80904 514465 42178 103236 51356 24355 331016 1547 323456 549914 275177 164466 237437 484343 152339 284252 141051 202250 775818 99058 616495 16209 68928 372570 25693 270872 154258 336249 46820 206487 101684 755250 97414 409779 265093 35855 116366 174430 530106 395845 101445 517613 685112 223685 492318 149767 252713 293061 126197 153406 318029 143536 492827 126429 153562 21896 383637 281386 7423 364228 196997 334617 202204 318727 201107 238206 134960 375980 221311 171177 207873 180659 100081 252636 231603 7055 450285 30486 137384 24282 45347 264256 186006 330134 606863 385577 528077 324055 9912 312707 154634 317892 115113 762988 574077 187819 186049 615555 650916 78255 326565 81332 488377 138197 181941 432871 206901 5507 173299 110831 62167 103569 103589 290768 134201 68935 315580 259712 688087 249072 497675 107474 68584 36221 3823 661431 270975 549367 112756 577047 586406 491796 311322 470768 287712 140879 124512 472257 349564 304671 227185 54891 33415 193028 356962 250313 515445 143216 424574 399804 223706 14885 535905 421736 161717 558873 375838 118099 164103 100446 163102 159482 163409 339555 598717 358229 343285 128971 106403 628455 607722 164593 294589 606414 512703 248332 348682 212580 240201 29742 94665 547793 558963 267768 76517 431911 359066 355415 285948 11536 63575 287625 442403 539478 210098 158621 71268 198060 554001 513727 135726 78865 392261 70187 591594 486046 64412 25567 515538 583206 605074 350978 351119 397622 443787 187014 744686 528790 428143 548816 481706 536793 636066 242480 100978 211790 133006 295138 402934 6321 193135 417567 109788 717810 626402 422764 459110 530974 327207 199040 50675 475245 520141 268524 475130 155047 56314 70951 232655 558470 155929 532090 120812 208787 419507 518411 686762 34905 228099 24965 431 350348 380292 325392 71320 326301 200465 195472 167131 489735 599190 250885 536222 144078 174135 129166 36980 576114 121936 51573 259799 18005 209762 222815 343785 605178 238919 483409 458277 326801 282305 225598 191617 416145 137594 29483 237889 341396 53460 398896 246869 319113 242391 73223 111310 502370 434434 10794 29242 4020 434192 14440 170257 581293 118175 316141 50314 68024 486905 277322 172631 582998 376371 127806 754825 96891 159440 150706 203333 242495 59562 193302 38822 335480 306325 122538 6004 567144 538443 105306 74750 385345 133473 647416 487243 419563 242493 321678 344366 317451 115391 46356 82309 429112 94023 453815 385668 73257 159785 248551 333431 235825 253676 422078 174857 198342 32669 243927 200228 73164 81532 622799 676391 677639 202411 210092 414054 178735 710395 815034 557633 444671 107747 734541 276448 542999 271795 241227 206039 250502 152523 170535 415122 204864 539367 421714 398918 48107 265640 545739 326083 242448 9225 282884 420932 677570 442651 142435 330414 581318 524033 532418 545137 255835 110373 533028 746436 192126 491154 362237 548268 373320 374672 181047 96878 103898 413775 106807 584486 384694 242176 274073 494822 34180 10678 518885 475995 196303 12576 100856 625094 129792 565985 293340 555667 55629 280772 410084 12065 414323 440423 48334 499333 428913 224893 88830 151310 160897 137068 799781 42419 739761 498690 200450 178455 593588 688409 112963 305603 89359 53447 306273 492800 311593 549786 26767 75066 428451 669176 226359 408605 547665 240731 66949 45729 301914 670411 401180 396314 603066 159674 125359 31207 246547 170302 75608 211331 468278 167758 440764 504923 337758 199480 290973 159965 579162 429043 261090 222438 195118 255773 108572 250124 760154 452228 97518 37432 356957 399152 502242 312328 174295 350483 118448 245759 285136 493598 481002 285536 217598 265920 196869 131865 185354 25978 527957 376310 196752 350861 528102 41198 397774 400301 581785 787284 427793 294544 81077 204257 239943 16853 160099 273229 309760 401522 68317 202281 240739 312336 165437 128055 281541 73916 292597 44796 432833 102866 27930 103808 19901 303246 232113 167994 350991 144654 30538 87562 23809 295506 608388 232306 148247 366403 583591 352872 73860 114181 327682 234988 170487 269700 372753 342674 384759 256783 34696 265661 279667 388873 115627 552986 181703 229513 143696 645678 152658 29192 166575 353388 551295 366577 555309 491978 331481 112206 214010 19276 274710 255561 586084 459884 264661 28149 44334 149670 273182 117356 193177 41922 408284 366730 282955 35274 667488 292857 796906 125761 329133 400425 99301 295052 402265 406860 168858 342257 318153 305883 11523 788614 219230 260117 87418 342398 197805 427906 374546 394664 25610 243066 169651 23166 249007 285280 111907 586031 64804 221838 364067 373735 62491 131215 646357 673344 633269 658481 43209 330091 664799 572153 100218 235796 484620 278146 133774 119179 82437 397716 501670 185753 328701 222804 682130 28627 314131 14978 605277 152276 61953 276502 98564 267013 384537 20607 58307 403498 348435 290590 587546 563917 22381 317208 192607 732582 344269 600396 303346 494062 219136 413152 86907 549884 458740 39713 483095 291502 66827 414609 64525 45447 223331 199654 339020 435220 30162 324525 256497 96612 495858 293151 350708 59530 195068 5612 269214 489447 487841 50103 235874 165047 299371 84559 30787 103767 150033 612642 282852 57663 317225 487788 43824 252705 193859 409859 107922 25970 754244 640435 437939 1011 47607 732419 596997 468796 307702 309998 88676 309329 716880 248321 87508 16400 679822 62246 438765 67543 334881 237439 511903 192560 197868 296214 296659 358355 136205 219302 26626 240265 163907 247712 192042 452122 283633 172040 205872 9318 76962 24554 161752 549477 671268 128182 188626 306768 322146 390867 587168 79807 199511 69746 407402 210589 664383 48539 280948 463864 248163 35862 77179 120463 21238 35255 152402 59256 63501 68477 491138 448251 529942 317288 57424 218086 113990 203867 330740 512375 3720 491206 65032 148377 481848 224514 253317 198090 467652 462338 21054 28988 172715 305274 196688 730 428772 586202 465954 487189 378651 183722 405084 240000 194576 459355 329473 550722 179885 186589 203317 191642 10576 582229 271108 359796 538207 507964 561236 712426 242972 21763 112239 567523 252091 308841 499144 39681 11956 35265 576288 711542 383539 249987 452641 226043 544566 317871 472560 34557 188231 106699 687209 137885 8024 414095 295747 322334 266861 759417 319722 375941 104320 223960 163841 499514 22442 447471 646872 606830 439857 640087 235912 114721 37133 78378 25114 32274 415849 316449 522598 319218 171024 454318 523422 200451 444904 187468 3128 257512 453101 114459 256163 161160 250437 298495 219205 166198 244399 233513 468390 701547 144571 260759 295050 128952 322027 341419 75240 487845 283496 271570 925 224782 586136 555821 728802 725410 44331 268370 105281 30974 214778 135275 289212 176173 497704 432171 49285 410381 1160 10801 172524 442737 233026 421363 300343 149842 34590 23539 113207 161923 441391 200584 451261 100683 4903 260893 355515 148708 467646 467392 45694 313111 42742 484275 215277 443459 34774 284281 55095 134746 226795 80822 379644 255696 88261 558293 197311 87167 386402 338929 206879 199683 262641 94174 260692 376615 132937 185588 380495 55468 62381 11861 631325 203159 233549 464972 213174 33147 253308 219718 378249 209069 58476 210567 228123 36892 396316 99064 400054 146450 175782 573150 481631 146086 492575 660507 501155 26831 497591 361320 311439 89870 122319 52030 47539 203947 289163 264526 232794 292911 484861 40621 256636 592115 144356 7615 48990 76683 481633 366498 627536 308827 710883 381623 240783 159980 462294 156702 433289 177500 9726 217835 277171 532859 175140 257336 175468 305189 369324 11011 487403 289007 284374 644824 709074 451867 461579 396002 387405 120808 25115 18246 298555 285828 354772 58931 14761 137867 255427 48170 242636 107913 274596 30313 544318 533501 36093 119513 559914 322192 513366 350547 458870 269503 77125 457080 296166 288472 150310 536626 226779 29003 583970 169479 169294 613556 164021 306436 78813 345507 297031 182370 251325 345676 533522 183466 402345 143319 368736 133671 31458 80566 260912 266675 631303 259141 159155 461792 167337 219630 341663 209689 292461 381405 210839 533360 422564 89631 149572 209542 317622 484012 584587 368563 65714 118007 118136 337717 55007 113281 329635 102649 473379 179228 57248 185346 340192 116762 318439 195162 564980 533073 10189 452882 155450 173043 185936 136035 185211 264148 647087 512042 218917 165010 125902 109942 265777 125 467071 91508 97263 353786 152335 117907 276463 6413 84373 191746 175658 122369 585556 667686 25622 102483 289937 159154 32867 394103 602079 328660 336319 326762 349857 227356 47783 457786 48897 514872 27947 434033 323398 307583 213169 185542 739151 165462 307704 692633 488967 19588 484706 658652 386978 203454 337889 269510 650071 342258 369096 97248 136149 68989 118674 216675 530180 221237 687117 582718 367910 456367 476959 630105 365581 203658 547332 551946 83598 215973 37689 92999 212559 28224 252582 175557 215652 408321 328772 439746 282309 236294 126876 620749 702825 510369 306236 199363 567748 250244 178676 56352 49519 176565 150622 742250 337093 461818 171451 553573 38387 345329 145398 268641 91412 718279 499747 233688 289729 34255 273160 132838 174186 224083 135845 252905 370799 417306 664264 631936 631352 503298 384988 169594 22662 118551 192152 266899 390855 252821 302933 382970 493940 620200 37531 811519 484796 393364 205183 453481 265797 199690 43079 209749 393901 436946 14644 58371 107775 203359 275328 194336 266135 83456 385176 285981 317269 358986 618066 2303 581505 145751 541552 609248 62029 276531 445448 739981 299344 236877 344187 144637 785576 538754 424625 122553 93864 95977 215479 12710 407212 457415 823214 667197 260534 642462 442779 275466 256269 263611 23141 1784 197495 49818 126125 207391 83033 56197 115135 53743 344752 185127 359583 190221 178466 232070 361561 153664 334438 57791 131445 197419 420936 202134 515023 244821 462215 174248 894 94122 494497 643258 102049 361663 97998 213360 355053 50308 322049 206484 244221 188517 281721 38955 586288 237809 445163 264975 698763 233984 74480 81283 117658 165447 243903 360277 304020 239512 120816 92976 52119 362816 441985 57098 291516 68644 612150 285841 251861 294799 520426 283222 246776 154219 517594 115162 656083 333407 83298 159878 750035 531182 424161 375048 442844 226623 561321 124976 782833 731358 227571 80966 8745 512614 630118 375984 711345 603958 318316 69407 264777 330580 266424 538872 132265 240546 598720 591874 339484 38167 644241 475259 237899 264130 54869 3519 17749 319293 22524 147425 608162 180638 2881 657391 221692 68136 121411 102680 99042 369081 132622 493814 300411 325999 75836 101784 176900 267153 634008 641339 104363 374629 434305 193423 514563 104700 183945 269809 159822 149 161772 11768 504428 688143 539993 197691 89565 359465 317485 616108 38359 28401 155443 90137 513572 356229 172675 163056 585868 503293 219092 310682 355611 107232 66387 284726 140189 43179 484888 607168 197863 204702 205273 217648 613414 231189 180968 199183 550550 685732 108465 195208 191987 35988 498262 375287 544911 713404 715987 47731 299843 35291 311718 418899 425641 438080 304509 770333 838222 8218 55201 187487 262387 290868 587944 293170 6123 200101 73226 89426 86507 377300 326619 556934 359193 292284 128184 334820 192271 91876 214723 486247 92135 280854 111573 22359 645202 466859 370622 234671 104860 277565 351442 406836 326439 508405 768728 616394 95347 457497 105300 525524 347478 712002 95604 287059 316785 125230 397176 154044 255896 100490 217556 304485 276024 444517 398008 456698 61707 91560 236669 364706 91334 154845 36745 25489 89364 67011 474786 366380 289368 273627 61136 226296 495025 428440 359199 489368 133927 400562 407433 234528 63783 207539 266581 315712 229504 149092 133099 539338 248519 147541 80429 68983 214656 603286 413339 45193 472398 517714 13391 163618 318615 112305 135660 244043 451707 149676 436202 233911 463592 291862 68460 430115 3110 206727 229268 722917 383132 499946 13890 1820 70532 142755 197277 189268 231334 1433 62008 415920 89695 112040 229835 95644 498071 138584 366116 67466 424617 106464 121402 454833 182274 319876 439984 574919 143264 62651 404569 134504 599704 815513 194970 99673 338103 391752 420559 484557 451432 271564 565816 242376 431331 63733 657558 447696 150531 88457 33711 398735 365957 57045 227508 337208 562751 413570 89984 282486 558665 440222 9932 88278 178677 444813 609420 654819 317074 359736 49302 315219 166576 451636 393385 279847 183682 620474 470163 438301 58648 595272 24869 141302 84299 20562 544572 357340 206320 497264 245475 109783 105249 204661 324779 188786 448208 140722 22854 641614 19060 70606 386094 319731 37882 147101 666173 315280 141512 417969 412010 1881 18157 22993 223846 240904 469124 707367 633622 464794 66507 33305 326277 572369 720146 97389 244451 546948 580014 514846 97541 15810 23957 174443 508129 170497 277788 350176 367046 358932 94595 167982 125218 17778 264359 191812 367687 39132 670433 358713 779578 533455 417760 81334 114455 703660 119416 669250 551895 253796 472177 646182 547347 12978 37901 208551 98679 350068 270381 277815 366986 167494 81900 341105 541691 25215 88354 366973 105784 345338 581934 561950 61866 334750 278677 76063 365824 173973 136816 330510 173421 332139 78330 316154 401459 366618 429840 454521 195010 424886 196211 140508 422920 300340 76792 168356 204413 49137 91463 15263 294840 241763 574779 214949 485017 168763 412476 110438 524311 597629 513049 497108 747140 143375 323493 435399 347931 258235 166384 231163 36513 379239 39737 289559 280180 95813 73342 591195 500508 274206 392294 662239 69487 66083 212435 458908 53592 343079 384878 332697 485134 13201 372276 160640
