8143
998969 999552 999508 998728 998783 998147 999406 997396 997305 998732 997618 996919 996887 998305 997283 996806 995383 994025 995698 997710 996983 992584 996940 995100 996511 994793 994131 994735 995517 996624 995575 995973 996120 994849 993606 989772 992052 993830 994548 995113 997312 995003 992629 984908 955604 996559 995545 994551 993213 991962 993629 992408 988516 987095 992907 993100 994733 990137 987741 991471 992345 992887 992947 974272 992107 994787 995878 987771 994475 988277 985658 988742 988588 990852 990242 991912 990818 993630 979863 980003 993653 971549 990257 994306 988911 987899 977367 983965 982173 954690 952767 992887 996314 993123 992236 967708 981944 975671 985934 988380 990164 978892 993621 971045 988396 978567 983258 978846 979771 990646 992774 972792 982252 994196 994235 976225 988034 979878 987303 972904 980954 988414 991424 992523 988671 982391 991493 970130 969172 964839 975715 994499 974519 994214 992232 985015 969285 973078 971778 955956 985764 954399 946107 969062 971981 956955 985848 968008 966786 940410 979747 983057 980065 987745 989922 982604 988745 979159 941966 939113 949790 992384 992234 952509 958114 978532 977353 968464 976338 988817 897372 981098 975535 969593 952002 973527 978357 981223 951489 936342 936281 935339 934753 982328 982829 979803 933902 954041 963530 968670 991255 956411 955838 970239 925773 954442 960787 977623 984731 969586 986335 984717 984569 963649 972152 990417 959409 951817 970860 972271 977157 972746 972274 973439 975359 978497 967927 967339 957353 974560 977609 991473 968793 965880 926700 948435 970808 971685 982419 980514 992166 949538 973723 979849 953393 977297 972736 976564 969692 952087 964775 975620 973778 960612 976756 987561 975772 970228 990705 973259 966766 965087 948416 991153 989675 884904 919923 947218 957614 952828 937368 966968 949111 872297 987719 966124 962613 959063 994034 880240 967977 908804 950540 942097 958981 972389 944095 969292 959517 945855 945160 957366 943504 951214 918034 943364 892292 948128 903289 904132 904957 955294 951363 947242 984622 947552 918504 852918 925951 902004 940335 945399 945135 950768 980610 962856 962120 980949 940360 923875 944436 977188 982084 977499 950805 908788 978689 933936 923482 916823 936463 942376 945459 982433 975098 964955 967037 925498 916341 954996 930705 974762 970503 962573 964898 953675 968183 971583 942569 956858 977578 852964 853542 977037 955504 964696 947375 951203 949918 923107 939360 927412 962995 933229 962744 971537 976246 907718 946172 935664 916066 859858 923837 909447 935170 909311 926841 941347 919781 966165 965661 961713 961338 913994 925292 877655 942324 959392 890202 930554 928263 968242 987426 826622 940971 927176 925794 955033 963343 913539 921807 953877 933708 923838 954707 937277 964837 885885 984629 906985 828550 972924 979159 935505 925888 983189 903895 939255 889798 969081 967065 929418 972604 956935 948083 950000 939895 958478 810695 954364 905595 790357 958251 919249 877468 912605 908168 900024 971299 912481 963815 931072 972059 897440 966359 964427 964548 909600 909356 968293 971730 924202 938015 977932 941928 946568 963237 952726 891566 847687 904975 945155 942166 958754 959084 924088 956826 977327 974814 950734 979855 929349 981551 948486 927570 965333 937945 912528 928643 905135 937445 938144 973448 939144 968741 889227 958367 942820 852681 924364 931382 946644 943063 953718 952039 948645 956677 949220 949530 971007 968854 982197 974565 941438 952505 944317 965673 980707 931553 973138 958851 964088 890664 926408 924743 863114 937730 926719 978297 937443 885504 840364 881488 861071 895843 752535 809605 953729 835419 947591 931598 934553 927435 924874 929864 855731 893843 871919 807058 946988 912015 863348 908838 921407 871307 655617 958345 989607 992267 718852 786557 927703 803980 803835 861429 862856 937237 942080 940873 946541 950394 853896 778302 930663 942673 952405 941795 913030 940136 932113 897785 938975 932009 874984 918962 888815 876011 884812 951175 839617 830391 924910 925013 862580 858801 946010 913477 873325 696020 888117 889256 833622 884503 905515 949881 876947 797819 818458 946638 915635 974633 910471 918217 917721 870137 806657 820191 888172 909539 898292 866516 882981 919373 862424 929831 928612 918779 932131 881471 760380 819427 954184 829032 952871 955449 926831 965551 933617 868778 921675 866101 837028 818828 977170 783887 973460 818691 932293 773470 899561 931915 814592 901567 952543 904606 907670 913498 606911 817944 907742 877948 929656 809243 940043 933851 935928 879517 949110 908965 811360 947112 929330 941237 935989 873430 901538 813789 899185 795384 847150 904664 770476 833795 872704 961043 904243 957076 928580 936010 913760 829515 850539 946298 956165 914428 927753 872875 908657 905446 859867 915994 944414 923293 848513 817606 746951 608984 877771 905889 954279 953917 933863 881972 887812 946693 950513 672692 928703 944750 903187 917598 901688 859885 862189 832331 864904 869713 867478 802882 942870 894781 954900 863004 958970 954856 809612 712734 851866 902054 912766 801646 860013 733059 853533 787808 894725 901819 690043 744511 866569 780454 864157 873831 902139 888068 732388 883035 827000 902909 947016 957222 866051 925043 898206 888734 866967 952326 759909 904866 874424 784103 877126 794237 897018 941707 948341 855877 825720 835891 871266 868058 910081 911120 943944 930957 975067 894453 786930 773081 881645 903680 918114 923614 831110 889480 929689 928369 929606 956540 766568 908285 877149 872416 783704 918628 923975 893678 856633 878328 944718 831199 932009 901552 943602 957444 880819 818351 777647 915847 899850 842944 798172 730894 955718 886830 968058 948910 927215 923424 904045 915808 921887 919075 798008 861832 772519 916077 849600 887186 875517 863339 905591 950999 908933 796107 797526 953407 919531 836434 800720 939278 912222 818502 903065 911487 881086 884824 786922 737048 803371 928158 898229 857510 750511 788589 871918 877912 909964 838218 835934 823395 908819 907744 858156 889116 828502 823545 939164 916319 909265 893740 816400 890758 893433 890468 946982 671836 873229 888617 927134 916784 909592 891645 922067 935998 859633 846048 854664 848654 920384 948688 931225 888256 898726 910286 885352 857468 962084 969100 798882 904904 930091 805013 912239 931567 952262 892746 776844 881218 809744 807372 851685 870584 793550 845422 904787 873229 926123 921682 939820 941174 885167 897736 906136 921361 918502 929445 935687 823713 937473 922676 794785 959414 790748 901669 974492 981366 927129 926045 925806 771278 942949 890825 762057 905431 867599 886317 887887 906277 855342 856527 856146 885799 869795 927844 799119 954988 879746 937414 967921 864037 885217 799814 948048 936135 921893 871107 848042 834452 863819 909200 913215 770807 880559 931080 821869 923726 947304 908151 917976 898556 762842 939253 814726 831674 914993 861905 938835 833851 952583 919145 937303 838895 923211 947123 913400 877803 905437 924100 910461 924048 894146 926464 937912 928114 871532 972880 899123 909898 941648 946773 952898 731022 905406 870764 797917 787087 882855 853708 919840 767634 732844 851548 935140 936589 917546 853232 973372 954142 875554 801478 832510 519993 809623 716829 825972 827085 741298 827224 681882 835585 573486 733424 593326 740406 859111 665229 672132 738395 808454 898230 805684 874500 772696 920796 919930 746506 923621 901877 850834 913368 745607 834183 774497 890992 772180 809066 796792 781155 886962 873416 645025 822572 738094 837271 817730 843173 640310 796405 698213 823012 579162 537683 766042 869166 939981 948517 752813 966248 634150 573071 608838 736444 790343 837189 691570 799599 586087 574856 726223 834601 687741 851728 843786 900375 837942 659672 749105 825243 909420 921754 942382 742896 641681 436164 760601 444267 834018 758412 898739 865041 769397 862099 911975 881252 591710 897376 849369 732282 877713 925918 668621 825931 862446 937217 764346 674155 783999 828268 765321 886167 835457 797324 838503 609735 853231 675824 642608 729998 836335 800267 817792 792990 687568 875834 846330 907046 806397 795863 812742 760933 912605 920393 881557 800729 769642 808563 673420 667004 617708 846588 725571 629350 787298 451510 842445 834277 861868 726514 897455 679046 817685 458124 717214 664798 786552 804608 739588 883800 847422 821239 802754 863614 597366 794265 769672 826487 669177 671941 559895 559092 764070 718237 691012 690012 533092 612217 795606 888640 598041 880463 777304 649622 698131 855263 842306 847498 679871 827702 833380 927845 786773 873021 908913 827126 860059 816054 857504 577160 717076 745255 461398 748662 910368 916372 774616 803776 888716 878641 761708 916826 813373 792543 874914 738494 773427 920496 764478 817528 776389 809796 743569 806923 611443 800296 789255 763418 830407 930365 778464 758043 756709 904072 761510 783887 785302 926632 693063 771634 891931 730225 791817 746066 780376 711524 687078 851389 879170 813417 829722 884346 885555 783740 872918 903451 486878 601329 752390 783891 804486 826093 848474 830114 803037 923136 619086 648932 922945 919038 701072 924742 726553 915581 793767 812798 857432 901890 841302 772493 805846 751084 916227 798926 845627 852455 909957 697877 751407 736798 832550 859983 872671 850786 716831 669297 797853 849187 739238 635475 623581 681210 866074 670613 635393 728347 721349 738409 850051 836345 721787 895111 722581 885946 944905 771563 796099 743973 874451 913994 834833 879156 821859 579663 785815 829996 881539 922608 621466 724118 855008 844696 817736 703931 761324 858035 893247 619879 826600 752566 673441 758704 905594 825060 857850 848200 884488 743846 754692 695848 737702 756700 679237 702782 559804 580644 855398 866537 838428 751587 791664 846367 633926 950340 917638 872009 828077 875877 813674 837078 777262 820132 845364 616412 643320 666424 916167 804369 922575 731847 754572 620461 792471 715371 875395 661573 669408 842624 819932 816838 743981 781150 753596 746070 658420 744617 860587 766800 792850 709919 690016 860879 781779 772384 652043 853919 794597 849791 929160 859689 906959 788454 496080 780052 685961 564393 805731 785198 873919 696574 873894 697631 683572 698755 800439 840716 713780 679184 796904 415145 776818 635239 808239 894166 871575 686477 627898 674881 741069 569678 805981 655920 666361 611295 502837 753063 852474 775864 886368 896423 764275 805509 705470 723075 866185 771718 697892 689611 831186 676254 925088 886728 915764 912134 839381 837007 854130 806644 496321 704269 887258 874087 862288 842812 786877 915569 515078 647835 873191 903744 839889 750064 623558 476828 611251 843142 541331 506212 836705 872811 908922 721098 935167 805877 848914 765464 818440 669380 712037 699060 669976 824536 773884 855277 853360 369297 872993 766415 676767 615416 806797 760337 814772 855467 884850 893623 555399 719174 644319 495653 656864 760510 871899 880722 656212 891782 892943 550517 744763 754539 757594 861053 770130 865903 906463 848478 768149 828258 875281 925498 745836 555506 805739 799142 646802 801526 865746 832409 617990 765541 714159 846258 854704 876914 885763 779367 758490 781313 787483 681880 840899 694038 825393 699168 681187 885604 838837 610500 911324 935053 935625 950947 842636 718443 815845 764112 703442 686842 823617 729315 791305 399970 763851 703347 774310 742397 690598 670130 873385 899777 816265 235410 822473 877132 716785 863989 852419 775356 851844 877102 891491 880300 848535 856486 826030 844000 677502 878042 341476 779815 761301 811987 364206 625688 798675 885961 839774 717889 770521 755613 832418 854558 840933 636428 862308 808393 814457 906133 859428 904003 780163 755546 789224 707529 932621 770873 840648 882661 752382 601462 565973 605313 914202 736676 902154 818276 734059 656434 862598 874422 794279 910508 846788 775587 862819 859126 752873 649020 481043 607126 723953 612078 859264 854538 762974 864586 842147 853700 653193 735602 741664 761220 738575 824678 639212 768232 900777 842547 683106 765819 661274 628415 772059 797855 893395 841553 795984 844253 819773 809892 850727 742840 683789 684050 655377 773990 760514 920872 637021 898038 796456 858100 849953 796468 735595 769972 881174 658218 821699 744240 621500 866205 871131 721144 570485 670880 832498 861558 744840 416165 905815 640909 809834 908974 804538 829223 835621 842889 913358 858501 586110 864785 848204 795064 754966 822252 851437 846991 725189 729568 662358 751793 707557 834276 914531 855740 850747 825031 746292 870754 862171 853140 881522 819211 779168 579626 833099 920162 951076 546787 747652 710947 762555 900503 789455 868130 710231 702557 794698 850734 880740 781115 427496 820503 522573 721885 753370 764095 839467 795769 681606 694425 787012 517064 785277 844892 680949 857445 639288 635051 556148 774953 843441 461159 802891 776613 541297 848900 905742 843490 803833 714113 853814 853806 588915 848636 798513 818401 552075 892858 523301 912635 832571 845244 765608 875381 697612 715963 448930 300801 894215 868534 751068 775703 695190 729646 774560 748706 682955 538818 883171 783271 884500 865486 768080 852811 810211 784033 808049 781542 675119 868763 754366 724974 927462 908283 875782 885457 757409 723659 815895 842889 857211 837737 619056 718609 658690 619262 662450 888415 854538 749111 780937 760374 789235 689810 754133 834266 653729 645882 709695 919001 731920 707863 744486 766867 802807 737840 904062 889032 907331 888878 792754 820685 862260 820485 737717 713216 803411 936687 723300 702396 919622 873913 601047 849240 692638 833389 778635 827927 786428 548234 774527 877019 866344 790282 736435 475909 799719 712465 846034 878601 707295 807867 891077 823023 777419 728289 874863 723840 811819 832250 892010 876186 466601 676925 800386 799359 764949 787334 728974 540742 584771 734794 849725 835923 781559 836537 722875 716977 805072 885626 871277 863375 712111 907449 797491 811180 760212 815966 826099 850587 838274 839293 672539 844825 595138 505303 883911 901078 881063 648287 874890 921019 889452 798015 880408 908293 831032 876488 899830 778154 870742 676616 949958 689302 893417 451541 880061 703599 495771 737147 864608 898789 930121 588092 672708 726744 827776 814779 710313 689810 692754 741393 666835 609260 788230 800382 746891 751238 754327 852984 598320 761460 731791 689376 692868 801024 777834 691437 902523 727348 609618 745278 669902 720312 439984 947145 905590 868547 609418 660904 506190 505267 552478 777746 404838 449413 737915 461904 290302 566116 825143 763361 607644 751295 632754 659648 652934 731927 590435 560535 746686 538395 438110 358871 666748 623574 586241 470917 429463 640117 848895 793758 518008 358459 567477 378809 672655 569786 688746 333596 228699 856405 677260 161501 729237 499362 753123 321204 684416 872179 777465 660022 711978 613490 299093 789419 744055 871934 814569 811156 641327 688655 224202 701160 395023 589605 590794 706539 807914 400641 675990 742680 800270 703152 333742 664727 537988 415960 391741 482178 616658 389755 499720 431594 666031 801867 634376 722944 556897 655930 449199 431792 262023 212622 353637 588176 273966 704714 335505 574752 602691 642914 560026 329630 512096 525644 620130 589407 635232 432790 810648 935726 465555 928785 463248 752087 658547 489548 525032 569971 403780 446306 547680 522304 583191 624696 573102 679890 792315 304269 585804 261959 470878 778686 410254 562890 563692 544162 643147 449261 350618 607838 232259 396165 426250 476030 828210 738358 529789 866429 432907 766112 482944 469796 474588 73700 759615 540731 339466 901872 751474 762584 880778 769031 275999 653848 589881 609179 332038 344689 604872 743728 440168 439101 617985 714391 524012 687393 787019 779918 776733 666248 256040 652450 428157 514186 880595 724779 711490 832529 488777 448682 748612 530253 612886 463419 554201 438384 831744 861321 900494 769890 615092 415041 573411 546773 685245 742558 758149 662614 332973 480550 550474 534304 576612 672468 786267 811321 732672 644129 664049 876261 788896 718767 731719 669388 641510 752671 584813 465576 828397 383877 534002 624552 404172 584155 631067 709325 791732 550145 453744 610109 279416 653599 764895 310728 334293 446696 578314 715323 505486 473081 651904 600221 747787 482303 714597 275778 527599 669848 756097 654966 553672 849160 429878 908380 554310 497414 615037 733733 759159 568199 783297 795245 420247 589502 535790 615921 537308 557208 811124 774275 359484 437647 318542 387680 357847 742033 447675 219249 698283 258893 515804 743512 447107 815836 347021 716389 876912 496131 632108 538866 366891 521089 320664 376590 561575 559768 429171 554129 771829 502940 800919 409278 687274 622592 614522 795783 546917 727786 806419 635549 710776 774905 738464 775706 561915 378616 405470 367797 559882 463439 564871 435441 649609 668258 482573 595004 334816 318418 536290 538030 540868 482378 545993 612631 642735 366120 462209 615021 343588 469022 401734 584027 469069 693816 749758 693744 476247 582764 757082 422810 272319 503461 638837 573311 665697 566900 833166 841070 796754 746840 767802 282217 639625 674557 658629 252921 772788 670541 762097 839935 727765 696884 699829 405354 588467 868972 540929 527416 581798 524746 588622 508419 507846 658902 165641 423245 167034 607860 742245 614073 279070 333545 600909 680780 817143 902796 488939 835267 560900 761828 555845 710459 790688 760983 480281 684243 238407 748786 690529 311377 478249 302859 742382 405570 335795 699813 483300 550603 631588 568644 853527 710654 644390 572919 714362 650851 545167 549399 330458 300434 224090 294282 402031 638238 597546 334995 561532 488759 441466 709092 543378 422396 549773 810430 705748 796230 405809 768510 278716 723654 666112 652295 454906 613437 682424 497103 624386 672001 435254 757692 911564 684935 477020 549585 675763 762957 444139 432161 704814 599525 692109 633358 665197 633974 623243 490734 518556 330087 664877 514718 544490 776734 845635 770859 516483 575844 570226 650587 863911 552559 817256 846492 474749 315515 810476 857542 767792 551183 369262 454633 419139 569135 541307 475643 765449 498368 801961 624603 712280 529236 270757 619594 764211 721839 790695 673530 619987 911630 421957 474103 457419 515458 904126 281805 477914 663363 364267 533882 837218 868368 690270 563063 768272 896815 659813 781113 571506 763332 767527 487172 808887 637479 396651 713523 618991 745053 579425 662699 263056 330510 629729 791308 776559 644192 29134 583685 756019 667137 766573 886202 467669 433714 661458 702964 543230 440233 748213 783058 596049 628371 644828 781454 504490 638033 644659 705085 647146 536560 512286 545186 369584 548546 466192 524272 466874 480854 611509 503438 468271 566796 591116 483151 511353 519001 585957 472200 480333 526081 671208 667454 437895 698867 807370 713143 611647 375675 542568 619367 757686 682887 721820 673977 714882 877201 902443 612950 536612 611061 391444 504253 533887 654703 817928 856364 409621 866575 713931 814184 845886 817189 572483 694018 436443 564908 713857 575242 678600 829386 612509 759024 792112 863629 489690 539360 723726 418998 773003 660376 655025 693742 534914 696194 541853 442220 496406 444851 483008 643046 822897 876163 601954 540441 806701 793923 740447 604825 505835 357866 697543 748281 763970 806843 601376 817616 692274 842641 558995 775125 514217 250780 627954 211828 648616 684285 667857 578696 700483 686114 701152 718630 631172 387789 260774 639028 552124 551158 569171 326988 838419 601028 133889 702089 452027 522748 451102 664530 719686 656429 779539 692115 314078 358122 931124 885305 780850 478768 383266 867536 362485 442600 854187 180793 734718 482050 725581 721081 767597 529989 608137 684167 683526 751270 505903 540856 234372 494866 646707 526301 883846 742204 740590 460875 805684 629745 716964 583129 567077 561705 472113 616271 769823 791994 225867 338780 650142 450594 462229 563251 616489 448073 655520 566629 424633 804293 598466 550862 608609 612795 338671 592215 613546 602052 405619 497929 636940 599962 396780 664419 823466 811937 497387 650094 648557 227112 471583 705628 682622 675467 779270 741707 517977 224296 718413 710476 297835 127287 644063 362262 603804 486945 418941 777921 925205 573905 715508 533079 891559 346373 779384 780308 328100 467567 683592 593989 587192 569958 549370 331349 618819 529149 784186 673813 794083 690813 641772 674814 569619 517704 520409 435334 622151 579816 280330 677991 664756 573692 376315 362516 539395 661729 572256 650429 615994 318206 292276 350009 482623 678726 220705 264608 434969 305967 574108 807374 710854 680376 606842 602276 603258 605396 516231 446236 603110 445322 346215 539220 736295 797516 316266 217798 652505 434422 140020 535632 465495 167896 190323 596454 466779 626164 250699 471923 656407 772920 685447 447230 323618 693770 243496 631711 588528 683049 658711 353604 720888 529969 495418 525048 354809 637178 616606 327347 571509 781107 239650 496263 833425 767936 446919 257625 608999 885798 670837 387874 486821 270907 675312 572912 671600 734938 196254 781516 223261 395012 536431 357124 840789 345399 609281 730135 804517 403672 835058 386607 311537 511538 476712 673414 465521 422265 462172 571485 789694 603265 856513 781729 704085 773666 575632 346658 509151 364387 401014 93519 545248 605853 365976 575769 309900 493366 490741 491535 555093 327536 589657 773079 135163 413178 327132 593861 760194 932670 649314 497681 848527 546065 686438 643119 668109 709806 484279 526237 532876 671002 618130 476176 305395 662937 450118 655874 680746 772561 800411 735073 800416 652858 284860 308032 770298 695187 393657 765205 648806 635292 443651 307842 507774 534076 752006 274915 658261 671265 580687 283892 717216 823037 736858 592907 513023 407549 656830 453897 192199 522222 492650 474280 493949 499140 444172 584267 760730 837207 413682 857428 408698 436636 657287 811814 759824 330016 516931 536247 667498 692135 737186 662996 750111 678531 361833 443983 648488 645048 463142 758072 759161 441982 755194 816370 439575 739404 724213 597273 479778 322182 604467 621336 346259 692962 376302 99665 450352 657121 501518 550617 422270 224920 395119 516541 619944 658873 666840 798394 401148 386678 592629 641692 342916 640187 453944 121524 694960 570069 744838 812077 664351 863120 394006 101940 665151 458030 349956 780738 512797 779277 600824 653214 595649 809827 485736 555678 753367 817499 352432 509688 659641 307501 852847 498635 729682 700345 601543 593546 910834 860449 703992 831529 935594 693989 831879 894911 444916 544238 444325 489290 559063 797090 706003 405115 562126 654017 447493 458791 681917 812202 665953 470761 446873 768736 358159 226558 507752 650738 664898 598782 608377 674324 669061 694722 604037 581915 645581 516373 676674 862763 885849 394952 441195 451143 102595 191266 705901 735822 650828 788259 603810 515196 421697 493261 484574 839120 555833 678074 722662 807221 748576 861027 741495 659128 777026 848642 616830 517902 634909 415467 697868 758141 605488 416433 494435 514250 862901 255352 333688 312033 741531 600161 301135 694578 546352 753717 278937 327762 448654 622504 45346 480564 690253 644961 614059 764920 558075 256797 757308 733783 469408 709182 708294 822673 764913 835731 767095 741989 470015 331800 860175 695150 546555 489202 489300 467438 161631 427425 655026 448087 117226 776311 552632 555818 491875 428602 342310 751008 685854 620178 171473 923235 613161 355731 630909 785745 312602 211746 614094 628415 298466 405195 319564 449679 514632 472980 678971 783227 627618 660855 751401 478044 649872 328365 410938 452696 518136 325632 703121 793391 829864 847349 209278 648213 557022 503819 584329 473055 526988 475782 781726 620965 725880 807482 676909 630310 569857 454567 470058 263716 519577 449413 704387 552264 534897 603721 787077 838253 501246 763257 626242 321626 715653 463408 478230 522788 826170 602707 574438 253585 706282 687361 611867 440198 685855 736838 608448 435837 545991 780435 312213 258636 613866 479436 836543 526796 695691 779212 429887 386732 466138 483594 327737 434079 430797 591684 360729 612497 770749 710577 717211 517782 739805 729701 417270 712620 739941 815866 521844 754705 805663 743096 180978 808038 649802 227102 497803 591562 651611 590561 295325 443499 773904 706394 627025 701273 620820 768943 358153 467136 312624 845581 576256 729836 517121 739247 202133 686228 596452 611706 666033 733433 762909 672687 726873 631175 630009 218204 807065 510590 656621 580431 223820 551853 653939 771146 746610 695591 680850 646918 525168 528094 359621 504782 787492 653514 754364 345934 341122 504620 217564 353010 483298 661282 398829 490599 428562 325011 402375 225800 662812 485347 731501 650689 663389 331644 841437 829770 646032 811708 389549 829827 381317 226568 786906 845130 648736 843205 497307 725259 607942 595558 227978 382166 300851 448252 837269 806207 642606 372039 324281 644983 484473 636068 267626 699094 604739 359207 635420 496934 749887 810155 794217 751593 758047 628361 716569 682221 716621 673678 682952 506117 817495 713953 651060 757512 867982 600033 754905 724493 688827 421882 535124 435112 667919 473163 793322 360961 735424 789369 459317 393348 593481 635921 706211 584206 634587 146147 520610 495010 754253 633235 847549 858043 533569 338068 700802 527585 663178 329256 694000 840832 752614 472520 692267 258114 154832 388158 703531 337535 512601 352579 460018 562957 726934 706445 671431 704574 158021 469716 489422 720806 507261 523488 387640 648932 749534 626828 492867 110981 759869 329347 677397 482949 630051 607511 631184 853250 233919 341415 557314 500863 494797 519730 565683 767885 718817 817343 178359 231068 380615 590175 281806 398126 388781 510294 823745 613826 737286 631431 585911 209707 741536 782817 586079 586906 697772 735755 793581 644859 381990 238580 631428 537530 747443 413964 730177 811513 359442 494448 858926 654808 271574 419616 510662 843427 602125 400280 638101 773127 501011 598636 94576 855977 569087 552653 456706 551743 442245 328300 297092 233774 692516 146198 790997 737198 647084 630027 614282 295700 628958 86120 437450 711745 749477 556345 604947 517864 504051 509473 381489 452904 399275 440198 691927 765040 516760 626265 819713 556116 766957 759231 774561 693833 374713 575645 707166 651785 700218 559886 375904 710798 591598 440533 479766 799231 72831 338081 289882 675714 864007 889803 735453 837059 393663 819716 697296 520988 562359 614222 329099 578342 594442 610605 721924 690190 788493 812623 511906 127853 592136 293245 597485 604251 438608 601881 616682 375868 629883 581159 887177 294873 612544 748121 467138 698159 665910 734453 730911 611555 727241 575154 438960 545767 320953 471940 590048 458124 542374 409544 387285 592887 669129 667328 747580 813572 396639 698077 618868 413615 485751 453593 384876 623865 619419 643605 630571 91654 560818 400068 587353 712037 869542 801913 532603 703525 660437 679492 738668 598418 642045 790639 774221 711594 662056 351354 704793 230449 519990 601912 924486 767071 388327 594994 628424 546012 552844 505574 659825 303908 266188 371831 815789 351743 568649 470807 178825 53063 661466 562517 801543 664406 527029 773897 406647 278476 573763 589518 236664 704625 856445 628317 471339 454191 546975 605626 468783 402408 731929 758004 569509 645662 627193 502473 767970 476789 700352 476793 749596 552005 640534 826853 601790 618487 534576 674274 674950 644032 684753 476668 618012 202623 587312 741791 693198 828401 888672 786087 674466 868351 403216 203613 492061 642902 731889 773160 378780 698624 762457 558919 775776 677717 601969 446048 498405 530152 498406 452696 390151 391471 516187 722695 612701 474473 556960 684584 504323 621869 587855 643302 186075 649569 383072 564285 731200 677757 350182 469997 647015 672833 646419 414852 679636 706072 614913 739858 748540 620639 745670 658574 537809 570438 438143 652945 569354 616893 831906 255358 776833 629832 647939 614589 379613 596082 350269 307362 430284 473623 728125 733295 510719 802321 230194 865952 572432 587577 852756 837798 468141 807018 695274 871967 570540 534957 429411 703265 797497 731008 660599 310764 671304 849210 764844 622500 639227 723508 723573 806114 559091 625908 685669 677802 411959 648097 833518 811459 223057 439627 863596 704496 359344 525876 393565 465754 724091 442096 617458 569362 869358 799060 914865 494314 435645 475586 623888 525649 690918 719946 689990 420515 813222 368967 647802 469026 326458 459654 416275 372104 326620 573833 387239 265177 546069 511681 505030 493518 756743 664872 687786 568953 570963 594477 553716 736910 524098 434466 465987 586976 518184 177875 665153 503419 433080 102814 544010 536022 626078 765268 363304 534836 588085 670956 709800 636521 618645 425302 448894 324640 558401 738640 550738 570897 585003 676204 228941 110142 873768 113373 862271 30301 858053 613980 434120 488716 623633 269878 291118 362967 357524 470168 180962 465784 42757 566685 48961 128260 311458 267468 485674 689149 246503 53847 110598 149965 81504 338029 760903 164187 533936 285435 544851 87418 571356 150564 487800 526426 229215 183673 460642 340328 134563 103300 538483 276590 64277 33588 706905 553567 28643 376376 208696 365634 273925 28619 342896 303185 336923 424387 522291 240911 409363 376591 259147 351676 290203 441868 498288 205430 771801 250018 35795 167272 185438 103590 495009 354719 131855 214424 671310 667768 146792 55406 184049 370520 243112 201528 124299 28982 533157 665055 535894 26196 105048 148207 119228 148393 248638 122138 471058 687621 165862 43325 631679 156595 423455 308605 696421 212225 524457 626167 181337 675696 135105 449679 204301 241312 735676 123635 440240 688099 381596 409037 203887 58969 145528 559975 582006 430557 397623 90548 170983 127445 306525 260455 268546 186283 513773 328583 554472 208217 558435 137036 207326 202644 384194 332763 463061 137189 235333 234974 102361 198801 652791 514382 243597 52822 280736 419959 99765 464142 142527 70862 349516 121910 164741 468968 568569 106806 360606 255316 261181 70530 236951 52622 492188 581998 545671 259362 571815 519150 496643 3152 23286 387829 629516 157791 252495 158384 115968 272927 77371 189537 139120 48040 261586 162402 183295 190727 266396 41511 163850 378073 101289 168166 6924 550230 342229 446295 432820 577903 138494 312466 203807 287407 300749 50631 211265 127973 289192 539766 200833 85062 2643 584686 239538 385748 633348 726665 192288 761382 52325 186545 37187 236258 9510 295151 12010 676916 175321 336700 316341 211923 178123 118218 512548 497675 107528 278926 275822 278876 256922 263252 397992 213067 64670 401505 124502 477777 436827 272676 398672 660339 538411 709786 118836 108560 523313 6304 169343 216074 462840 25881 451484 753133 74123 379945 7049 262167 474413 542375 21377 367818 238995 43668 27494 294448 67554 20188 95594 24730 77302 192107 298997 76589 380330 354663 18652 168164 615570 253807 669403 503958 187816 311689 444653 376382 338253 264306 248904 310809 306568 281287 143733 371621 273860 390469 69437 34498 666899 593257 36497 328967 28708 23754 811073 218615 727868 354588 261894 625093 113426 647029 200936 544287 47029 215384 622724 36881 282742 85294 21986 541701 179596 164488 312676 285115 425520 255897 673927 658873 331517 102082 361399 99486 490291 524316 161798 230214 198220 167620 582797 483041 448231 207413 161892 236859 601861 75795 452768 377974 156804 16581 84946 83694 411924 232277 23424 463147 590387 189979 79473 674979 404770 391611 55729 170044 474352 183145 147300 296274 730912 662377 83775 211719 868 126761 269763 29843 442288 338257 114326 367845 716134 107138 806885 533221 762477 442279 222905 110569 16065 487281 297363 223379 340866 323089 122351 168090 588185 585177 367593 52088 19908 117684 134491 237029 267563 27882 49051 339605 45936 457267 266046 445108 244725 114330 317457 253852 237613 486598 714111 404505 405896 202651 406961 338580 539996 334313 415787 441305 732977 723073 295061 660357 306974 673681 91794 577077 314695 163234 150095 676856 181717 392951 12445 60009 625285 141739 80081 22250 9258 315987 145247 353437 45078 353687 186597 456810 592795 481758 73535 469394 368936 661569 498734 117106 326353 445764 530771 195890 244522 235879 162283 236360 148756 235084 69613 590 112099 240088 388372 346568 425005 553286 191586 360298 496906 123323 195733 51751 488399 469572 194153 252521 253721 484155 476284 353969 2196 304692 251386 20615 337087 190172 241529 592920 644966 336997 540923 324678 223918 58704 345330 477793 190513 307621 496773 891507 485683 143905 394857 423509 548921 346056 495447 556268 743189 165136 206364 320711 464691 219720 680143 233517 166277 27836 384019 347918 153803 200183 458506 605713 38065 375569 314536 334885 718509 372395 336626 230584 111602 31536 349990 298606 274664 288404 51273 154253 200436 154589 716246 60608 385097 86541 24571 17642 94497 675129 162606 235278 405137 277989 420103 653841 353782 312835 445207 654677 65227 29706 542162 213229 187654 482308 123810 286316 424871 606617 512483 273019 245145 346993 515811 392068 85304 104137 326719 23865 223245 310384 340059 475099 195749 123085 218377 470136 697966 160708 216117 269525 783050 44221 54963 383057 363029 146787 65280 355595 353457 53879 76623 168056 439874 382473 653200 720192 750850 415819 394400 514130 427241 113159 139140 224122 317631 519161 663686 164354 264472 335859 279789 16600 278006 137619 294990 239201 238536 358504 121147 93771 99143 224899 299637 24839 362607 344805 651832 414615 133472 111918 58913 401471 324202 173847 244615 162036 91908 140767 205069 343813 11090 425346 391975 293374 346231 132465 526034 90365 245217 597586 238439 148445 416383 83171 592444 550578 217158 26357 51955 199214 223084 13758 575894 481575 21006 26712 564822 419510 743839 246393 198491 558449 66311 254729 361567 444095 435684 625774 320539 386923 73480 17111 467355 296262 119580 10162 324244 214591 230548 592706 182223 504450 153584 388435 218522 146124 640131 167839 521203 744357 660084 371093 65522 121607 274155 500941 481685 444243 9511 416436 129923 20035 244655 221995 272834 68734 608304 310543 248260 775255 261758 461973 113670 449192 41875 161913 143876 239937 462231 556867 735045 260750 300565 166888 143529 349105 72853 417738 136298 76236 331966 553044 420758 3585 271294 128984 164005 506497 29246 14933 337887 278532 76602 19219 51660 12914 35305 574389 454388 69915 157171 34015 282273 108755 395208 223702 118313 435521 671009 773595 542030 481283 300464 255355 35317 774539 28265 16575 192861 350835 539737 153495 189366 148840 498060 750822 239414 23875 378259 430425 436509 411839 91257 224962 537486 672710 674339 25353 143108 706 313487 63557 253461 14240 302937 277127 46005 120020 104730 280020 427261 100161 386649 88421 390955 193532 159121 373140 169183 475315 524701 7077 481594 237258 448046 483728 412079 549276 252946 309856 42338 589770 105709 118691 70068 254488 67253 78600 287026 230176 158339 118883 79484 234454 308686 278936 546824 422342 318254 39712 293452 70201 472304 230453 466777 347216 177993 421754 189377 698521 533637 451653 277670 192453 60173 146442 411304 413010 602645 257814 341656 62685 53192 289312 505439 55547 54527 177666 682787 67061 546273 399586 363059 208198 352571 383265 234501 396384 358561 10885 119482 159842 404082 166577 633747 351534 141422 161398 49949 433672 125811 567795 206891 491486 345932 421264 250086 281711 655315 202539 438748 36870 294814 402310 270947 410611 255517 566360 124940 470351 367370 652062 563691 97298 188504 368869 297548 274116 454040 538640 31254 349824 220897 118545 303237 279223 515912 53116 458346 115265 357797 72670 543962 759836 63372 157814 588882 121766 481093 87773 30564 161403 105210 309992 584100 11221 349033 524422 125431 462328 787831 302799 605427 470078 440999 297176 205018 222129 579653 536716 586086 746237 567778 614869 472361 101727 327140 35281 175375 349832 314789 221469 513830 513774 302217 281626 14670 45587 183010 158381 251916 367961 697716 511485 336645 95364 255102 400576 471631 197498 244741 176825 8878 540577 647258 129194 162181 594702 568088 660859 231584 349940 441164 578310 398792 664005 74932 108635 10417 379886 52662 212575 124895 3870 604139 188444 156761 190291 119367 144415 190966 412098 300980 312744 332540 171996 288655 67392 374255 371547 646943 639983 223808 421072 128087 577743 678238 399030 555558 325043 495068 207837 537219 158574 701601 540626 759789 343256 184117 465348 401248 112015 278993 33200 284622 90087 112298 375130 456033 274493 151022 652434 66520 174028 423737 100846 196144 74959 202082 7921 16796 219202 417274 630639 387180 576792 183533 475816 26997 10990 35532 576035 217838 168306 254604 108057 469992 403722 496777 566225 388992 197450 14720 174619 455249 392603 610435 526032 204255 12685 394230 418967 651514 383245 224530 478293 134865 273109 360275 404294 227132 17040 302595 24232 10613 279959 425547 257128 433803 411365 120574 126580 147172 440896 149110 369217 402907 38600 488208 268094 202906 156222 2914 543932 347893 358594 510468 265335 92980 204631 382161 301545 178147 427293 72140 234397 319471 385006 530975 554028 434529 439153 365649 429706 244492 500734 491832 419099 405732 485938 5290 352070 390179 174774 309445 383922 396937 35612 553774 633626 151784 417192 515862 181881 116328 434784 12635 440270 478028 400799 202911 291753 13 31244 119769 417183 580922 389006 192913 43212 418270 467787 106035 214530 666736 651544 825502 718835 674934 463882 256650 459429 48434 522726 173424 208081 370294 34627 457443 254525 401528 155407 100889 601357 170910 211629 19659 509274 219856 74836 612763 486468 301896 442710 757497 640576 171116 151932 326753 256319 144966 98399 310070 687919 347740 46338 462890 418031 382852 171779 487302 22111 556848 264377 45280 488962 391320 224806 507605 172143 762717 145914 465619 519370 107223 236311 468182 7419 572475 222927 390631 313692 138073 587316 436708 211227 378880 285813 316513 624176 273974 531702 571641 439380 466553 125954 66437 407376 9323 173196 19733 147634 239132 156612 326988 491604 260422 348203 382113 333783 94910 149471 14148 486965 42627 280106 552740 605376 452735 256683 281519 172455 479604 51611 147966 93288 644603 365108 320512 564961 241794 230481 734603 411096 343639 201547 810724 643265 244185 237645 697928 666892 175235 300007 283064 457666 306902 118811 109944 63717 254355 458758 17227 63105 146492 553516 641085 397037 441511 409351 426611 262918 438797 675395 12433 52132 452768 131863 186225 524554 265956 91242 36819 370691 144510 74375 150357 564516 234662 346014 347198 236665 498727 24676 149095 201383 209676 170429 489106 377474 97087 123147 325740 563763 306060 378615 394495 32901 193216 141135 528516 305190 72522 277945 273287 243854 698458 531087 14391 565676 206288 207005 69041 173712 684603 348883 424730 739224 777178 502530 58823 154948 41369 281041 295087 95348 42554 358928 144399 30474 203485 221089 55808 44230 43964 608082 313672 415832 362011 55192 564145 337887 3109 660727 57769 33083 36678 129075 406230 656516 12881 596147 528733 224965 321006 14901 455074 395284 83400 7271 321984 239692 283174 141012 502924 200862 430720 129183 169463 464115 352080 524754 161121 393985 272456 770987 405091 330201 197092 264598 362346 530724 270580 482459 131916 373825 232123 274133 30308 427970 494157 690290 581632 515161 110957 26173 226590 311676 592790 601138 341041 219039 49075 105919 234266 129157 289450 599684 443561 153654 312931 306562 342844 258677 136538 195027 423143 290972 62254 266804 521487 479842 255097 404379 388343 392398 102386 183425 578981 190603 223274 591178 517553 420806 167389 337746 186451 260077 630721 160454 386426 126978 137798 204813 623701 598219 180327 127029 397594 30660 312605 173396 487129 439907 414997 44582 75200 190506 187731 274980 18637 116626 490474 497552 539552 555934 152609 609722 222416 591290 17914 70695 217527 33749 462513 210962 9356 240981 3846 220599 98886 71995 111993 422421 215698 257289 147663 36528 446735 112986 200093 261605 247835 537825 196278 594081 379460 12313 11090 47166 431353 200411 406932 194993 147268 332876 86672 63747 139182 272318 58192 44300 454274 377143 214206 87665 120397 288142 101547 180574 21300 321260 270241 261887 75001 16395 100422 610382 481797 94341 203966 32122 629295 614438 605557 706484 83785 466263 514981 589487 259959 281924 313701 236690 488455 280131 518504 433821 343741 89439 196447 95353 393492 403767 176658 119934 141442 31601 357505 114111 333779 308244 114947 125312 74967 267195 51747 232631 103130 219630 141464 401454 155667 585121 193774 408381 68792 193904 149686 36659 53904 186893 111389 474404 261021 258442 14371 1598 51190 240010 6236 152229 26692 241734 233354 204033 27160 558324 94315 474637 183922 74639 90369 547501 241596 120320 80947 51348 457009 310041 308864 38370 264430 44467 498633 64816 239624 400240 66775 151502 18576 384941 400324 90474 260285 345597 40349 69194 99828 65355 169702 266878 105594 328626 112428 57915 533742 65896 360947 33125 135104 110421 68478 101137 526848 472621 459572 292273 312660 505343 178254 74667 52145 438717 267680 227692 728247 628316 466345 128954 445803 227882 265242 155999 180329 354873 170017 69111 39018 94439 332302 319965 388504 116411 324581 196946 241545 189029 164235 116170 359454 84002 288437 403661 509320 38206 145227 348214 88342 508437 136061 22138 315436 260923 147767 155745 413213 42751 30460 182960 228730 376635 625188 487726 261577 756169 54419 401580 58889 29259 72308 284607 354704 725576 462559 337414 209444 23165 284770 131216 30887 2083 182363 373794 22199 471817 501554 492001 451978 48808 195197 161374 300500 199948 159304 164433 367807 160328 438849 513251 298769 286402 141189 305890 3675 257217 222873 362503 124950 718507 580585 450760 324720 299976 639264 526720 229791 357584 23200 144522 350061 321017 470768 324561 443706 42861 82713 317125 337174 351689 214925 187482 165336 121429 435240 75377 369635 140299 666687 266358 39586 114143 175271 637585 223113 612249 78365 206214 328654 221841 356012 9512 66518 333859 11791 336784 75758 27842 506280 231864 396301 477028 264467 43704 138850 506814 107067 269535 440387 251880 395865 164767 372229 8786 283544 34143 197225 115396 368677 489415 691550 2747 93353 13431 359377 112523 269008 252152 536928 516622 363095 140417 560194 208395 146546 246917 122035 335072 66741 674968 453756 477949 292226 493043 440094 271337 400966 53314 563066 563278 107977 282539 493805 18008 286022 181775 199203 109533 565641 493041 378001 197844 248286 36602 544647 25447 425571 303887 496456 20657 444926 198578 71764 315257 401683 375889 249581 93252 192545 709109 41087 438349 249637 26530 229422 24604 165778 113932 38682 111254 102782 130714 285263 605085 36126 374086 329321 118905 163582 389909 155675 158488 231698 49332 344083 462651 91958 386490 241677 102312 58876 354170 593099 220719 196828 68325 269074 241251 267750 384865 125899 361098 599713 616157 430289 221870 391250 464177 101323 104030 388653 36125 343548 451822 93949 104194 342013 207279 142091 136224 382873 71562 201135 319900 195357 494678 78389 16106 281705 582155 117022 221720 603625 424595 247184 317701 366269 61698 135769 404486 186470 66945 109421 387448 591768 504552 355734 303688 313301 76929 508182 453918 182548 240294 145101 13062 133774 290501 246917 717507 296426 610678 212685 294637 39470 611652 320557 128525 247188 437148 148986 565861 6214 135749 139134 85622 564249 294828 43388 443963 5235 157020 360062 116702 786522 61004 430525 357162 726616 694606 145428 233892 531086 299339 405717 453521 223955 283466 33238 162913 484860 417560 300660 247156 601572 525447 232568 330194 11679 43347 318625 313797 422111 614282 478570 2375 3754 268924 143144 238282 183148 55580 331981 233713 106275 175622 458656 114712 292840 555455 376426 604621 219698 63895 155770 320552 272736 79837 477977 257701 302598 246184 75693 216245 217584 414493 149154 139554 27842 50346 583138 361189 318003 356394 2341 69530 348118 41566 402363 569346 686529 825718 50613 168669 56645 93861 143016 478777 29641 236681 334215 333029 700211 118463 307218 418954 559322 374410 390320 135991 176203 403046 348715 500562 663747 44639 244110 183185 303560 304384 82400 95081 91220 555785 325232 122667 374369 25202 317103 104287 160586 83948 134936 16556 272867 244663 518401 22139 105355 535313 368207 562083 585242 321103 527210 116927 485 833200 215906 702637 6676 320779 891883 754922 508492 158472 682802 579970 174018 691676 377587 6409 26945 137182 126572 98008 150105 10386 301629 319820 324371 414332 695210 189164 328750 62920 222354 427077 358216 577685 129042 295619 18729 70397 57674 428284 549022 363557 541413 525332 226781 249291 98918 274844 556097 728270 77461 310689 5326 175979 137972 351353 265085 392710 52960 590254 448807 471470 229894 340559 510834 223429 287376 596053 145173 272293 91049 262838 485544 464751 4077 74502 186266 515127 549593 439982 384438 760237 539469 504046 323716 63285 38864 408417 144565 113194 93945 69998 113029 61378 87316 406437 378738 211449 465500 369443 630841 693130 517296 575392 283423 369589 87000 383717 26505 112043 276071 390211 558311 35076 237952 120500 259100 51699 165453 234662 359975 543959 659179 163247 512646 427680 139065 490528 129121 556312 639153 677311 801169 551943 341956 559472 249567 105996 341520 452007 140376 238143 471562 673804 457612 554098 241737 443259 103427 193867 315726 223442 17947 192169 548713 332236 8912 183801 232374 36845 86592 106254 727871 437065 490734 156468 178857 298432 45723 600210 544277 390055 81069 210025 111326 51965 95660 309302 434861 118809 364326 9459 3999 3323 304553 11489 527948 368691 263876 535119 507196 271247 277959 273369 384727 435698 255247 11081 593215 203626 622416 291088 155567 268118 511658 12155 599416 127642 351322 682156 473830 229089 362516 90566 381228 3014 72309 431709 71246 88267 289904 131225 71306 663396 372042 281562 120834 402078 135809 476313 9859 57717 230006 171655 150744 43782 160471 254512 637126 288932 29828 78513 41541 58723 2832 89982 288681 232818 96668 108260 247254 128678 63301 380570 39566 209405 59653 7059 291023 486307 345594 82173 49781 121429 891767 478636 121015 99690 345962 300087 2994 180924 381706 48962 222556 173968 116493 195596 343644 209420 82267 101677 182663 250386 267002 366076 277217 229256 298882 309933 140396 3206 262174 76813 170826 280196 220844 19337 169940 488514 352241 390457 70154 337649 232862 16535 586251 394025 1247 193150 262705 309348 85375 57877 416463 171362 39848 48062 516680 419753 668413 701809 395444 728308 531199 343303 142038 16061 146253 482 118776 430380 213133 238374 512645 433453 46733 298746 493741 333084 245065 116084 563865 5546 563366 200086 405460 339312 192852 554259 40656 487157 410098 548718 12142 358135 28862 311548 353232 256635 160586 239123 319644 404753 182778 223824 176441 211353 199981 540092 274565 426307 433869 308611 100233 536698 102858 658487 13348 380300 375129 416784 503768 360053 290812 111423 491252 554480 53947 28238 421593 305826 131605 199226 769273 519181 70399 342656 450237 17791 88763 50901 151202 660583 353728 44637 377864 141675 123475 222997 95598 241992 627768 473243 303027 504707 168083 382977 425914 178881 501995 692574 163738 75377 192944 49485 61211 338902 303261 445073 6983 115541 214666 90636 516136 289162 318439 90851 126847 368760 32412 217138 195057 129875 385860 469609 76213 283800 394225 190891 306496 2537 540308 345357 117278 63301 22731 451904 180922 283611 607743 182943 553027 70866 312793 87039 351884 37682 324597 361019 175978 230216 72169 233046 721375 275376 477143 527003 220855 31805 463118 656150 771387 248813 559113 449714 151234 159543 774568 167841 291532 264194 74387 174988 40559 336905 470440 167720 237875 42538 155604 305794 53746 163394 62899 307563 470474 556782 215036 120109 255465 186486 259928 333526 395765 47691 551198 699001 326330 298951 321617 267037 233475 169412 657161 812272 574341 175813 687188 577068 331123 420852 190689 601255 99581 105585 68778 301810 59189 75171 461788 106360 215539 370613 462587 177038 635514 530390 231430 527930 21488 455261 93623 110761 186178 620961 192950 46309 480419 560632 402894 450714 85071 191247 32645 249013 205965 189489 506472 437970 270965 331754 640681 256741 67889 511884 673318 149589 480199 593958 429205 360575 158953 371833 157590 486455 339634 309689 159784 78146 687893 592939 10558 155694 78997 67066 343758 108527 109841 157648 59521 401750 184950 45586 113277 23292 413859 67709 90181 41472 184166 282754 25995 179564 73870 322813 98609 65068 100266 184714 84790 138234 495263 257524 157987 110557 2003 79669 162104 593155 461860 322882 60841 223649 789548 295870 492677 117306 303422 295086 275675 152220 256209 47331 725176 699558 233629 120730 18564 140967 272476 402315 594564 788191 208090 624133 161095 85229 205177 428594 326689 116478 95441 214869 185996 123441 100824 122856 99323 146958 240552 24804 353755 253846 394898 427581 796883 536674 164339 150130 41017 257756 147238 77724 51938 71906 447715 410539 414135 182837 151942 74113 675021 310173 483712 376305 45301 64133 322847 607077 447238 338538 406383 583619 725378 698717 623760 490343 694411 425690 472558 550688 60231 277733 318038 334906 591714 341252 410080 268070 276509 322507 577082 213440 353385 24812 230083 540950 442191 183930 114876 34012 473403 445594 613641 748944 436423 551629 142199 708298 7766 352644 320760 385533 126308 89797 162618 225658 363008 353072 416638 281924 152693 222162 598874 391744 179685 281384 179420 283738 458564 198704 203549 182450 115376 99125 456599 486482 96540 277497 215081 7383 42647 33344 504938 381183 142688 125818 474112 481795 227025 203815 535993 571249 83434 23250 216281 614494 293544 2410 311790 249738 105158 191233 676023 583425 452410 409437 220248 175702 145223 94540 233732 543973 68163 21528 110697 20803 326205 447395 359447 221541 14398 167751 70454 46614 302911 36474 626394 472443 79200 231664 477960 478238 42452 196066 228918 178451 133152 83962 92349 285262 231150 350257 659249 390073 426591 42998 25036 157157 240685 267149 303271 369503 204991 287534 235904 352424 475360 497306 230683 276089 159043 88689 468847 311093 443809 591419 393442 64241 97981 3114 676717 334620 325661 80856 552324 192365 158908 396339 411279 340490 130865 158192 40609 242303 387070 701804 124750 157794 9686 267773 11174 188993 434374 71273 79371 388493 91958 59198 382138 213776 472419 422020 526419 418630 587425 241867 178344 136736 178737 121900 280882 323328 416698 464193 109000 269253 273056 226421 210055 291676 312001 251305 28314 602176 54236 383177 102171 223885 300092 221485 169803 553966 168870 41851 185125 591868 13519 219799 102771 312852 328595 458885 271181 5188 450596 671749 322135 365063 38938 637041 201553 241592 123660 62324 37897 99143 517834 353347 120139 419336 156830 412733 378121 554036 344318 578748 50184 293414 12581 290006 595452 533721 472 375818 9888 13342 288877 170610 182684 175716 576097 730718 39305 313460 213662 157134 279685 180247 503667 35626 315394 268768 477341 251230 63634 51960 12066 171834 93604 62220 104480 213296 169711 105613 194422 207784 102412 214305 223834 325766 150829 122892 200750 147133 470874 546500 110240 84193 178375 728881 712256 533503 500991 127563 421255 77638 262099 279396 152559 203857 530719 30944 85963 76613 19444 327603 546692 109127 698507 728399 152238 311882 440243 196881 323613 209364 329 274136 116563 105909 248251 296332 331613 203965 366101 167665 3981 401670 221149 468535 707110 83954 81902 121937 101404 483912 436572 761344 532417 437701 190371 93953 185067 26650 356122 238051 557514 488463 142204 323287 458409 513583 334824 649457 484495 159605 109194 38454 30774 477290 59077 7076 687745 338486 388013 194328 232003 419701 452055 169768 776251 49026 31141 24855 322337 259799 159365 244788 184342 188414 785004 787003 40475 653138 46804 123764 513868 347904 319437 298868 111898 37816 93507 43204 303087 346392 388980 18814 259019 458261 310805 150795 244441 236274 6793 502563 349384 23031 525871 182130 254764 434813 761737 288800 157004 716654 508476 243579 115206 12477 15115 337250 53834 289683 475925 296506 595498 454350 378891 62058 212849 141700 125022 78532 15760 323165 306765 370002 198798 199868 724171 243853 49855 237164 475057 216469 665704 221093 416039 109941 102106 242666 8550 278616 588660 679208 724306 713645 420837 296188 89341 353155 250318 306594 371178 285006 12326 12523 2666 157931 311511 148020 300278 124173 414814 324056 247387 132978 144341 17194 283944 325074 151892 48340 443366 275906 230211 231086 164702 152366 47683 149422 320879 315124 565887 379870 137992 43835 174206 293375 72706 453282 280195 239123 123216 245757 234814 297725 400513 601871 272396 255091 94901 520554 85488 36151 187475 257058 89981 216597 288398 425819 692113 270668 386070 73531 758678 117281 79883 6185 395241 241563 545168 161844 636135 615834 641693 646181 129491 350753 348339 231085 391544 35576 106118 64214 417319 6671 100908 89575 90776 116308 220419 135411 10825 121120 113413 221782 385253 112231 55528 511567 77824 367419 90138 217071 300811 533871 270868 370950 530635 101752 273724 311904 120742 315371 42584 401538 140946 41640 179137 243701 56140 200946 491879 430159 72727 199289 309420 365921 85377 350071 173042 37513 27215 10683 629661 188272 280695 530518 248010 19994 469173 516696 161490 409540 505269 707835 183632 285401 97455 156742 73569 122534 86060 566409 49547 90983 326771 12126 777805 219524 454959 535819 217485 171583 96986 217377 249767 105913 16442 560875 105619 459150 288018 274219 334171 322141 737505 400438 77399 301009 267998 600667 279593 624549 69584 191926 213373 474912 368186 376445 516086 553569 313364 289122 383602 294794 78758 245487 279820 449723 80451 435366 22849 259753 558670 8337 352834 277099 629499 428817 336992 206306 522894 442486 281166 662620 371819 405344 243661 560135 43357 142239 74522 435279 125335 530415 670483 653071 779558 680946 113511 473824 97510 296029 64342 23019 365800 526855 179036 378193 98407 1403 137736 424252 571847 581026 487811 328978 556806 494208 94901 264123 359430 427566 358315 152623 237133 375286 39001 39898 139860 562987 359344 573802 318243 441263 277995 212758 61484 524093 403966 326841 435066 140360 275693 78671 339599 217440 62820 73572 192395 108114 424532 225876 109266 239863 379346 358341 238612 649993 89362 429745 133763 41003 516908 518830 625645 458155 114768 84385 12849 365082 73395 41363 111351 230253 121743 420695 224246 393880 296438 169743 159720 223794 334115 53958 432157 183673 94623 147138 129681 16412 363202 570379 97088 640108 440267 430148 386246 308034 682115 570652 201321 601552 363739 646485 377972 5813 453538 141296 568854 516774 398544 332224 422748 70361 380897 394642 376435 344782 571547 126894 39387 253713 96414 35389 473045 54831 560466 433014 510850 192100 311190 7864 184178 333285 29799 52057 252384 294571 67597 348648 214501 211483 203150 51428 546295 502919 33072 148149 25433 270905 148092 24198 191738 97577 489934 425169 350486 435558 595846 84955 313379 705055 222403 279356 65164 419164 227506 234152 507131 266098 431789 365152 248519 274786 352450 145970 504902 497089 322138 517137 490119 213231 563156 610576 81631 92770 128865 65835 436509 566376 694586 296361 488809 218599 280681 274322 122133 438724 557252 204288 538491 2610 505988 442355 233377 177022 426032 145899 75999 544790 187438 73815 273433 62432 758773 678884 404145 326641 31767 134907 337080 274745 460523 288021 90312 312741 150896 277726 337669 387492 15991 206738 41215 143834 142098 49075 437220 325288 354557 120516 187455 448449 592420 758822 794181 91442 612973 834326 357797 123892 389282 22790 137614 60017 601158 166642 245144 407419 269704 184899 75252 555987 380953 433206 269535 336455 781343 286262 186706 109031 569855 242831 175226 258504 273256 252353 209562 392761 149475 151863 306545 248714 281525 181683 533492 142349 197503 163925 138120 199047 21503 452229 216882 464689 490172 121074 363844 461413 567345 18363 341647 13546 246331 556705 166668 104295 127021 288749 197914 250065 35767 306085 68123 216470 431930 359465 266016 373516 116286 394640 412022 15192 440571 134330 39481 111311 619685 324007 422358 366791 185583 142670 50558 79056 207496 309039 19313 268087 586752 177149 707109 197543 67792 196035 65220 506579 173973 228525 457828 240354 687502 61291 565681 409137 124049 470406 153536 304018 68987 288122 288157 239562 370887 497861 240727 292866 432056 219282 104056 269937 550000 494137 521506 417444
