3736
998658 999641 998834 998623 996582 998683 996580 998135 998498 995806 995977 996798 998432 995476 994985 993336 996828 992685 994571 994795 991962 995135 992874 989000 995134 990588 990901 994082 994057 991507 989105 993175 988081 996661 980966 991501 987679 989646 993511 981364 987057 989343 988815 963769 994528 992292 990314 985013 979801 982714 989401 985077 984104 990623 978322 978587 961783 982442 965735 979512 973865 988768 985600 976416 985048 977464 978532 962233 954359 980041 972286 957441 984158 970938 972110 981283 971244 943486 978299 969663 960336 981455 963288 986109 950311 973990 988712 948763 941999 983815 993679 985274 980019 961440 989294 973507 984741 971474 978193 966283 980582 978001 983365 984806 979939 983827 946810 978924 984316 976082 978121 964642 977427 955118 961234 971774 962419 950478 965727 970115 960902 932404 927669 933215 972214 959744 945559 965031 918541 978368 974182 955273 939643 971562 964475 958805 935944 918427 942527 974771 924330 947198 927392 953932 914431 972506 980373 764011 870168 928533 923495 904550 933753 965378 829777 903711 918320 943852 930494 951667 940253 944450 959624 962770 980368 961879 955768 970509 873565 865676 911197 947457 951180 949027 952766 918887 936167 906097 928349 970813 968255 945539 977018 961260 882791 966057 873371 918312 892132 984938 963599 971724 951149 888625 944319 962155 891943 947026 970789 789541 960364 906226 974723 944649 971928 967223 982492 970498 967921 750001 931509 925414 948773 946154 920405 965208 961188 974231 977259 965636 965072 975057 933579 889791 911610 976832 969557 926539 948290 945073 933954 957928 887037 921354 943995 855840 848110 945725 885312 843910 867735 880832 920029 824991 869529 899121 916688 846545 883662 928087 884514 942773 892862 913016 887881 839284 874968 778809 739458 906022 949405 970050 960888 836985 927357 785132 931345 860131 921079 956214 858726 690421 924376 930034 888467 875326 855971 838855 920236 966533 876102 919511 907213 843399 922206 911795 904735 820538 923440 824654 842112 920182 949179 897694 963337 750570 725198 789631 849158 832141 926350 880342 915937 864138 841051 920083 840327 823387 921101 811304 798295 694529 832704 745250 880185 922264 928862 927280 875776 937884 932262 852051 913066 943473 804303 893022 945456 939220 898630 931334 921605 903848 870592 936087 809846 612784 920510 824690 853861 544707 859363 792033 891150 942025 926600 771010 895509 886816 862790 836364 925257 909731 897171 871438 907702 704016 841771 925258 891424 913046 614281 913695 950163 943184 873485 974988 964125 931665 882581 825494 741778 952700 948505 819860 784182 908673 880538 874505 722642 825762 843114 932729 946079 949257 825426 912258 849768 873853 837215 928256 936406 863642 781118 763679 792489 926268 939822 950734 940696 783833 664018 881760 939691 873537 820789 855465 948865 847169 867624 831753 845780 902502 883478 916188 975198 887771 831398 833104 885656 743921 708163 914158 831040 922328 884827 902789 847261 911901 893293 749510 891673 961920 942974 942894 941761 924167 925622 952439 943858 911754 936461 834496 904557 902810 931283 904673 912620 798354 787462 776467 876961 962323 974680 958977 898852 922568 880210 942860 919494 931949 910153 891684 853756 931127 932468 756938 751493 853285 835684 572813 829460 701661 717238 753169 738507 620084 915284 839040 729203 795400 674364 823573 777777 815897 863466 911864 852109 717005 602888 415338 684267 651640 867156 859556 777594 708481 836586 773187 827127 483683 882795 550125 746205 823428 808367 824363 872463 810969 620777 779177 732366 788556 756738 755437 704950 689438 663368 716813 645006 653860 901551 837767 886113 861668 825323 954931 883968 809601 587027 800364 671717 728964 555122 809240 912428 847781 712705 762215 880016 791006 910816 844532 845454 646052 602830 909921 827608 828066 800981 734790 826718 828393 600844 855091 816661 776842 796963 866432 615400 618515 615200 819322 837477 706345 747253 800832 674782 707987 412561 910740 813699 898631 821726 564215 799926 701263 780201 829850 919165 760493 751911 806181 721020 767578 850184 693231 935901 793596 793199 859983 565480 722044 734115 431226 618505 782911 768745 808130 775218 735103 753550 707442 877823 847869 470861 895134 747072 855661 788044 739154 781882 888695 593470 633561 801805 791187 730349 914923 817549 800973 774847 601789 702330 564377 538481 761085 784425 667526 604651 702366 696166 718325 375501 918385 716387 901709 863532 623650 772715 815994 873583 821131 904686 800905 808791 818866 895195 871995 872490 782338 644098 874764 890457 772057 830732 905560 831297 866008 737037 923410 801315 873791 417755 795428 870977 589394 869119 851394 719642 735071 681945 538724 470292 701547 747061 749658 748622 753437 577169 441625 438082 679485 711882 622599 758621 689827 841452 861426 849897 771751 899039 711953 691629 739087 869769 501918 814007 738060 676324 819934 770623 814564 858294 670676 874765 834134 745772 653858 677333 821606 732778 577388 592578 785635 805830 890757 565969 836942 657864 798936 856042 610943 592691 732455 776467 867716 908398 937730 789069 817837 783640 831204 938805 808600 687674 811613 853811 566284 783523 787828 385497 738911 708615 898985 888096 699306 675488 774832 772875 724091 729142 757486 748236 816360 813405 782088 665559 681174 658834 640451 816949 524590 840956 759692 871705 853270 871372 726765 653022 825413 650994 633356 891874 619914 440492 785404 858142 799690 680915 736492 911652 694071 816651 788149 780820 600417 594235 762088 679718 788062 744783 839908 758726 820266 694651 854597 753307 732169 923137 707244 754519 516275 647050 863543 838566 723992 906950 811958 819794 777990 759548 838616 756197 778343 765699 742112 717182 775061 467063 763182 587902 803500 833472 756243 887122 659563 771013 881579 769369 951891 948753 745353 857229 720565 679318 774546 450621 724656 723257 678180 726322 678177 698831 768286 909318 784865 808606 677969 726748 757467 849279 834683 835859 804839 844650 896584 897729 766967 852543 718144 630184 853116 890184 742492 879992 905610 730154 845065 868485 609893 896745 412880 853728 818829 780344 874102 837919 615721 732377 734421 776309 717382 854187 629369 696615 891123 851927 681122 816383 763765 896343 891061 800986 905520 882601 790435 785437 624128 708270 655590 563140 724113 808275 948903 741893 952375 881993 564494 944792 784786 695627 779327 811092 860177 766974 643138 802495 853214 776371 715714 763151 772676 846126 530971 700017 827516 809764 923459 838070 703248 853821 683129 692650 686357 572981 557172 805729 809760 498755 512072 537983 492312 599441 681954 628754 510944 616277 521239 658124 540615 624002 562248 540511 700784 902331 543295 469152 576211 726107 629025 781804 456012 517747 568751 697224 623975 704756 614506 621656 704995 600221 366069 466480 693714 707401 665756 502224 545936 530321 345183 287303 333007 580171 400458 593870 548408 654345 742044 729454 716966 570206 330234 670514 658795 663105 748546 479214 560853 790860 161817 217543 740792 817828 386279 425513 431966 519928 561065 524767 651901 181592 603514 621796 639208 791966 776544 649603 617095 317214 740465 586657 674864 556857 719114 654775 754389 630599 726632 408457 398614 651119 386736 478977 626550 610738 391317 596527 434561 636605 627260 649262 812000 715300 733308 634757 764689 626479 765102 611494 787597 792881 602763 582214 736703 520760 641984 305000 523272 514256 778557 740852 633018 562247 657701 246581 508999 537401 785863 538615 478910 801661 511271 336846 246176 672119 475709 438413 541617 764184 715916 590616 144740 613797 836164 764419 728347 797318 490747 554576 484169 439388 540041 858868 704796 677496 648284 736191 730376 641421 730727 579220 808389 786322 445224 682016 576329 517158 451669 240455 799019 596764 567155 669366 107088 705557 601093 719384 577998 610147 323165 348159 583177 517928 813057 707479 685379 600392 572563 645190 661800 725000 631751 671238 323791 532318 484514 433851 369390 382929 723247 869506 749881 565652 883867 376857 729740 193843 459295 525572 699370 634744 551662 336095 552593 571611 803220 650499 636839 456192 587959 545777 583873 572807 561830 641179 400686 492796 456781 653025 165552 787011 630698 559034 759641 703317 611235 705836 343702 447674 823941 831951 363039 169239 536120 513105 315735 605065 420594 364680 500455 477795 723770 671522 711782 362507 646866 633054 774124 514434 647584 572555 722817 155556 661725 639590 780743 521271 811061 837702 205145 413612 725015 621375 715362 599453 842244 824921 779507 654962 688448 371250 510571 770241 537143 759236 538790 425389 368908 489752 715162 683607 752993 676315 615160 614402 542861 883456 650212 771403 663076 749443 401255 734550 594406 282835 334087 632641 529887 484931 439327 516986 467018 574307 669498 404774 474794 514630 504577 341581 612208 552345 670265 586119 490926 422582 352253 295743 802485 839333 410688 652398 730807 342072 781515 745645 340067 612956 615548 666537 588770 469208 656417 776082 722843 793055 853673 784548 754271 210264 651395 386764 728807 492993 842015 821387 750959 717353 590061 649345 625510 610924 590768 526000 613652 859337 856211 787202 416858 754229 810709 418118 504167 569367 772666 682613 676629 267341 534891 726702 639164 821581 439043 544260 536331 682487 242963 291009 423907 750249 701368 775958 181808 366445 341911 334735 745311 337811 602710 699069 732511 630203 462442 573956 357485 507631 466238 198348 686236 247801 717894 596881 645083 615280 307115 686558 665624 670087 443719 535111 350485 304214 374851 307429 573693 303647 629909 528385 467158 257298 630586 738538 486162 451942 839322 220806 558534 813175 608718 469707 705157 721965 728323 682715 557171 488785 449899 687787 479346 639691 771487 692854 389069 191041 791451 667832 681923 51632 547029 492772 698818 485361 547066 681986 718675 688097 453919 647692 615791 506408 635118 716022 709842 662059 615266 614468 636905 278010 606454 526262 569115 147540 659572 200731 443762 501851 374670 481095 722261 434009 589250 749931 788215 750280 528057 428845 150988 762130 364072 632160 554193 528300 846377 814709 380997 519588 310379 309983 446306 706169 629959 574943 543007 345510 851606 799707 462853 810417 447944 615416 632969 596852 476572 235104 557573 464918 930336 739447 740984 207923 528794 420660 740789 431280 838106 803005 307002 379082 463733 540520 413282 757815 174616 265657 667343 682528 601948 702030 585575 821232 427342 836202 439759 466132 603536 283188 383019 404235 595755 767436 592374 719669 487736 527946 521527 537118 691494 674641 529421 499713 447805 595337 668665 543704 508074 555848 562652 267920 593448 588545 345366 355035 795178 661732 411199 231646 476360 664241 721194 439360 377193 590027 812690 785197 827598 841503 663111 372186 620895 84212 807393 818149 590865 307870 375475 537459 800732 553121 313243 468650 283274 99081 260269 748829 598649 368249 798085 574673 421451 480003 721397 485281 417011 694353 296004 635409 651081 654556 523367 698964 672893 286788 247664 573454 241709 526956 519832 535289 202637 651179 619911 529886 689666 671506 581354 691274 564354 648247 644829 818668 235610 567004 662407 774810 440766 625598 586348 294069 863177 770765 331609 691957 589243 546461 124960 462747 628957 482638 584832 690040 575595 556196 686282 631633 869920 565131 666064 794078 385047 390235 152770 749145 389775 588749 725237 547448 488446 714128 622235 708399 604910 718072 617141 704119 432634 684717 750317 442524 438212 457783 710272 762353 549732 359362 782852 192752 491427 781738 634398 252021 788137 419017 471850 549563 659754 714416 772037 828037 704592 548914 474636 491163 317331 848664 636769 726453 812215 560582 622967 699454 314985 314743 679028 275005 368476 367419 458573 254211 614882 423982 593823 363904 695544 464852 654472 667571 210057 465784 461883 372300 676989 867310 748104 614356 742866 534943 389760 654794 670047 686858 530208 624184 377752 460747 689295 801397 773442 831089 796197 796286 772410 566931 835256 435269 664358 743084 607063 528206 644088 807277 708485 676209 282035 317973 649078 780313 501570 786287 604899 562889 387664 710533 729185 899995 615156 685293 530891 834622 828154 226575 576326 546993 548085 796675 186687 393172 820025 761902 731475 618924 426176 543382 789642 830698 475869 575060 532526 502930 378767 521103 656810 587466 740993 681041 711764 348205 707924 691020 603555 548655 483947 481526 650624 873135 581517 600964 302378 448557 455626 713514 388967 667125 682035 871067 879117 876289 661007 676427 701562 796251 867070 659155 769826 512136 335183 752572 496098 620621 566824 392258 595914 539560 545281 389350 427275 621393 580708 385847 814794 849582 364191 596832 371268 779036 778077 866204 532292 291186 637714 658462 780742 294276 573531 265857 361649 772216 693847 708289 423088 532969 715060 478197 589051 528252 555141 693043 609846 502796 561041 545252 659088 557510 756534 570491 437674 703576 676527 704228 361561 405016 570316 514894 574421 461301 789802 451324 639307 861265 751219 729419 570691 183092 823742 638102 345490 596245 420847 643903 391280 411273 455342 293314 273272 443716 56163 293928 565336 664227 296849 70023 344568 290326 521553 413370 263149 152611 285627 426721 259492 499229 199937 401153 487105 397282 368400 238533 428307 35408 542976 619591 498143 256995 431328 556432 220139 39228 72771 327930 74996 458121 323016 77222 479661 269776 38769 170566 181865 288087 207132 296734 255618 463747 620568 261463 431137 177375 89045 203163 275405 173117 365067 434091 345468 578732 170704 589071 267199 281640 175640 77199 3267 320217 500778 153583 186714 324947 238984 442007 45244 230959 644228 240834 68780 404654 249014 384138 73224 367016 89745 426330 333817 332827 175261 192229 108231 316079 445581 236579 123649 17052 411873 403751 231900 391155 252448 236512 139161 32093 42985 410627 596007 240787 457390 417652 237305 259638 309927 344902 165942 73791 629937 602429 552673 401776 345328 222339 559641 522808 311648 471466 120469 101152 110516 156021 132147 378551 691011 406540 156673 103753 406995 25671 425061 406015 170939 25728 3037 245029 76012 282888 492487 547946 10194 61801 286713 131332 384507 238103 591483 57778 113846 398708 536005 269147 364509 190455 254789 37005 20194 289283 106291 101913 514227 407983 529895 93638 189049 416525 110420 451136 505065 228706 303871 81256 535546 176988 507728 451505 264718 63020 32895 61161 21528 547378 386576 339040 415678 180768 131859 431131 57002 151498 297443 25415 247249 15480 143468 11572 492778 106497 534373 593783 190733 232749 573800 285248 631256 69381 161522 222574 104624 634112 74548 46977 614533 306000 521474 692112 105473 551603 582533 107271 603159 767711 457947 494605 20670 537513 620322 221263 401322 484781 576219 486002 273797 296160 96338 252953 48322 462411 243449 42420 148702 662342 29094 392320 308084 389342 523561 653281 85726 153676 373361 491971 527001 494553 224504 30505 326347 375641 368490 195432 88572 641424 262985 326894 51718 320366 186052 97467 50716 572251 99882 378120 143892 8494 27444 40809 711508 103287 286900 112752 305097 209393 55725 37151 308787 1757 713421 481584 100957 248093 383675 556915 39466 545877 199553 447856 362164 47394 332097 316808 196206 283053 352611 335178 735610 229122 216423 343712 599770 446926 461681 239422 80060 113648 15937 543621 166995 378098 531614 292012 23100 323801 477536 28398 607773 701490 65685 244573 311864 71894 414451 372006 201629 462633 47689 333655 68385 122309 658520 70071 454327 168854 199544 135943 254680 315872 15353 37809 287684 3939 160453 96039 621920 674428 411654 563975 99929 220874 37259 29615 337398 153247 581862 289599 178691 144601 252875 88357 469692 388544 85527 635256 172853 543564 480980 487117 348585 282109 36032 365908 533963 307351 451392 110369 169104 259519 129197 16007 119975 223777 442452 275588 254033 328719 260670 11126 115336 124908 468148 436758 168434 613222 703872 421442 327188 383173 250166 165316 124834 43603 645931 11698 147500 42443 136808 15872 515349 285925 681458 585069 164770 75132 18747 135029 288022 78029 137041 290240 289309 335955 776015 43626 368121 337347 38162 135950 291616 319140 499968 457761 15884 486149 182090 363125 532675 41330 108985 184982 122184 342835 198789 147930 451949 384427 244065 241544 121410 549053 126438 141665 770243 35608 499791 518551 204912 506360 669569 741419 455062 143534 536216 578649 637539 200909 52241 286885 367966 199647 345692 560378 360149 448638 60183 319547 167837 61370 348640 315915 369491 508035 139426 252156 222777 123767 149825 231878 15947 163243 335638 162431 21933 319853 457058 558698 357922 307959 552604 221810 130489 167764 617590 371811 398700 401707 464127 750761 8208 492021 592401 178434 179957 339227 424510 202765 151994 28541 389176 242016 12627 39961 629016 109564 442229 68992 747700 332568 147487 159210 100983 179048 10921 281358 473394 469851 376234 109536 623571 335179 182080 524654 518124 428705 408216 544558 774989 626889 453482 106360 330886 245588 292570 269125 109809 292893 294557 449721 231871 136105 56090 415985 331434 444686 220928 188322 178339 211157 44432 106236 545688 610147 6298 413761 416583 643999 348518 112322 234852 204049 129511 30199 269936 426429 116721 762748 535739 378764 353286 628136 243584 591156 339612 340065 24003 158561 537079 93784 514371 574494 255278 230305 187182 325716 269295 586574 278156 357429 67014 333758 111898 296592 410076 122217 213145 115579 38470 288752 486936 26069 219928 102299 371593 154971 85734 463959 44760 410792 164061 143443 425986 411714 176049 214672 152206 572652 462264 498581 276467 94410 311477 398999 284784 229310 245392 52060 639596 502590 511387 333312 396385 245830 360955 42964 604747 506278 295089 92592 436850 578821 706537 591813 330500 280583 43924 204861 517289 206326 516900 138731 338392 526625 281418 328125 469157 75554 573172 302563 629188 304657 229270 599931 118319 786825 23370 621778 96798 437749 66772 179103 292439 54386 80112 1764 347094 648061 446715 39634 333317 388920 165509 730944 156399 616403 269223 486767 443004 374614 633568 177602 150301 116690 479467 166758 48620 68647 179982 19368 561508 546712 232270 184535 281175 290612 557559 140413 413208 313469 129316 101553 268438 651638 181428 208693 229946 123124 514206 228342 206550 171280 666598 354423 321327 256993 238007 264208 162062 345848 436439 661933 543417 67770 574322 80329 159228 369582 22702 187883 343463 224723 227875 415536 163440 204841 91811 83882 330157 263493 568749 286344 584158 559875 255403 510644 126975 60330 309039 24660 53110 122062 247808 52592 723915 124080 133418 161981 228126 271644 139771 642095 645309 704974 590221 586955 444753 226239 327859 196297 116559 40185 132561 50346 250346 153842 163539 42943 516741 301357 228927 67256 255436 590066 283922 141658 58903 414917 347148 330829 72191 86105 652563 493662 490222 101811 279080 631315 201487 379696 87442 266564 107281 124015 8078 34630 174826 357726 211937 2094 211073 328660 204229 287576 292364 15175 393691 166779 239047 394405 72787 97988 95596 308762 351465 545625 269449 122391 97677 399256 178577 788023 85233 92202 350894 328203 205084 588543 600326 406177 26415 170121 679231 699601 28652 466372 407535 696433 564161 467297 283404 408107 404657 249782 253303 416636 680253 311992 73825 184625 186166 111712 266568 411246 124904 210108 348881 193757 104156 183110 152685 624947 138956 7278 619048 471786 14210 10651 475734 472791 191037 64551 16073 684221 321702 129209 212645 270607 381954 87111 268818 456047 67123 580207 435262 332786 410352 273012 518098 314904 5526 247853 347798 486305 316293 234427 216268 332886 613754 608010 34941 194347 273498 399282 552041 86264 153580 274182 387545 69090 62720 417387 403950 447251 32472 13774 591138 433433 145055 114992 2092 60805 242275 441460 282504 287339 368396 323058 632056 646444 239710 199440 264724 231178 665298 716427 427790 247362 391555 655351 36760 243272 354005 116481 110731 103451 40522 665979 106343 165984 224968 336969 163814 120132 476505 526505 74325 612270 13002 447732 206444 357821 100313 61866 243410 144882 51745 13708 21940 397890 196354 246553 260408 199385 505227 544880 352117 20683 33877 63812 815686 673244 157433 278368 154396 253914 723446 794923 354063 403202 313603 345731 21556 22950 196648 389817 189888 301777 1277 97236 150335 282151 77007 148336 259750 201370 603960 340412 75520 46910 55517 1941 104254 325855 235425 226395 133895 465703 333334 371380 826865 200637 566698 650210 13284 147145 146434 260555 302796 39407 446592 498803 306731 305982 165183 729363 136951 70469 20228 90460 227253 583619 523847 504594 496058 286820 338145 692108 310039 550838 551360 602213 352951 379680 603982 389114 61366 417456 425968 296724 179511 376960 6954 219825 312909 179851 310647 87164 568932 152033 53358 549076 399536 323377 682499 126273 234327 71220 2444 7977 301810 116607 123437 476009 473364 560144 201224 433310 28177 99349 385633 61172 447527 17498 497657 262263 216563 209983 82024 108871 352277 169578 328639 292751 177188 286224 97005 193976 26666 325361 152766 466282 153756 344456 64894 189978 240294 163908 290206 617463 326923 128351 175450 139627 350677 336407 599488 35988 529750 68236 30278 15125 353389 27010 570 414497 811307 521111 664303 473647 440342 316214 672366 834104 607816 501581 98879 82020 129033 497069 47191 66116 210564 390324 623957 587939 419037 361187 244288 46249 370109 276254 181875 516855 348090 618510 295605 546861 165548 178851 419536 175120 27779 125331 74102 28185 28069 190269 204719 480182 279773 372172 115778 197542 215049 227656 442204 425383 56591 280607 269215 265796 601970 479984 231867 20994 351802 185284 132539 603540 52413 60669 202336 170752 116686 120643 450316 355995 33255 413074 409791 428394 232888 651878 12116 176596 111041 163599 27691 463514 213690 186513 73899 502909 445842 202619 203966 534677 88828 70972 440364 424179 128445 546849 77732 289760 237570 134948 383969 351411 549410 462942 446567 206094 214843 370797 249705 422710 190515 343515 159305 242090 84921 158528 156550 448657 317256 123662 157047 559516 156563 310254 451819 401484 551136 288561 227414 185278 443847 16580 442557 165830 175458 221330 684964 196957 312432 44188 358167 256752 47628 7232 179620 57907 294808 298905 415356 62032 452645 460809 462564 480199 27487 256441 122990 422657 470608 128092 499912 204421 276690 430268 281168 435156 146821 337307 281643 679663 136467 67899 121621 130449 94655 14660 74648 737025 140721 38882 161376 333397 282699 454902 252970 372701 242241 114158 515084 5825 294549 521968 182250 396305 101659 545513 579961 466978 127533 331262 313903 89415 165974 204592 451907 83493 675807 2082 203792 224171 238184 255424 145358 112855 542537 671714 346790 266552 306882 537918 172157 330527 682836 741594 54472 912 326052 372515 52614 393765 296656 188553 118914 96750 702937 723169 388303 246956 434162 38148 56431 222177 408785 628460 327069 356146 612945 381844 17277 181056 203190 38793 283854 528983 241410 420573 43545 97799 145794 195985 739641 116216 564189 193349 156866 706657 230361 404332 120290 337748 219393 11128 581916 55864 71297 156408 184829 124203 61254 278072 38838 111109 2371 163965 128591 319040 158126 238804 124539 97244 298925 255415 375880 271538 3529 510689 207181 245217 81947 485173 340402 453423 140439 581678 52582 224989 175819 153431 263450 359195 79972 135914 73071 192171 611788 542107 181102 5532 201957 260752 577230 132880 259358 611790 442563 428263 125407 276068 371443 290930 377178 223265 505627 491164 350258 207725 164973 178993 55986 66438 350050 258415 529505 429423 507501 281032 289667 343137 640473 465047 535777 661421 412061 47879 99545 700754 5679 115710 683533 555350 85495 9916 41556 538624 413664 360372 168621 442867 102436 126176 348400 165829 684127 566045 522398 361556 6589 410345 229683 189832 273149 183694 168453 592963 537090 630703 491306 424500 494424 428303 363436 42243 207196 506847 277686 61648 282344 619840 31819 688776 577910 225804 153975 479831 478343 51834 242071 83154 627738 521105 145557 30621 42076 76579 495405 55770 328177 32837 537206 62788 627922 8598 60701 144567 32129 173262 563467 224025 661229 189137 246945 617857 597903 547231 393206 71771 540985 532176 47687 727614 109654 663755 215406 262192 561224 43740 396325 68869 473891 396211 310923 142896 393496 211715 408949 548308 421006 226713 611585 496116 96044 596297 9471 217462 70686 47364 142512 225724 572249 672244 569211 338190 452830 399642 142331 108588 215150 337454 634915 150499 545933 532542 525722 421784 174758 432833 78358 159548 411172 41585 125340 443731 494903 116995 227574 291702 110091 19433 523303 281273 838827 11568 574752 13079 203072 657866 194139 558925 217930 43871 177826 426761 580862 165973 442936 684217 163968 295345 153458 63316 451006 59794 214492 243344 588703 376115 477416 104398 149257 217940 453944 263006 96475 348400 521100 60602 351577 54610 540320 215208 294006 129331 47674 156631 114320 111178 513645 202721 190082 200295 387440 367969 24397 409929 213173 256433 307494 423126 17928 24393 586264 214799 127326 283953 41242 713591 98821 401372 64135 266641 382770 439671 216520 571507 642835 102623 215316 82273 549656 89166 201348 27658 241098 232156 34719 607561 228374 564523 429976 477670 96470 377363 326803 423383 226119 59431 403430 56898 393428 120348 133430 181561 314260 394658 584273 71619 37988 266886 189209 442735 454576 324948 88009 263420 179422 425417 17725 333633 224336 104415 164039 472861 199328 102413 182172 353758 298113 503876 269889 394448 130711 145922 183399 111613 378820 16755 178814 474124 166627 183251 126770 363739 572523 145607 213883 443234 611663 68596 553924 472462 493381 169816 54630 552649 253178 178087 66453 146235 465767 105384 229546 504054 29234 151768 204857 40245 237922 345801 362181 80287 121188
