6106
998836 999329 997494 998664 998017 996967 997044 998170 998339 997889 997692 996961 994532 996541 997040 994179 997205 996144 998287 997382 996728 997066 995324 993511 996144 990848 991362 991228 995268 996824 996913 976277 990360 994429 993463 995702 992618 995010 996016 991968 993443 989833 996067 986402 995437 991318 994248 987980 993192 995072 994131 978820 984642 987554 985402 985258 967324 994793 989655 987361 994230 989012 972798 966187 972833 987339 981070 991562 989853 984069 993395 978809 988616 973490 982053 991258 972632 994915 981685 989932 991640 980584 986333 988924 979941 974081 975481 974059 982098 989395 993188 990899 983371 989843 977955 983341 965726 975542 980724 990867 994859 992194 983078 976720 967766 954572 959859 965918 965571 982384 974791 952619 979319 954798 950343 975685 959271 987309 969046 977166 985397 960544 986856 958059 968843 958086 969197 964443 963560 965924 955143 973070 909766 970935 940161 988801 983447 972367 971768 958143 966237 983192 988528 934352 977276 986440 988345 972753 967461 970171 968929 971461 969819 948882 924237 911652 968626 968560 965504 964993 950950 976512 951177 937244 974077 964408 976028 982333 984673 972574 965569 967417 972242 956872 944244 973419 917554 973680 933116 984464 987162 988421 983770 987721 984552 968132 977182 984797 963830 963711 973399 957176 957874 956328 953001 966095 962097 924421 960683 955700 969380 940650 963072 986980 931481 975571 938061 946588 970163 909594 876693 950965 870439 955548 948658 936040 865895 951940 897609 969363 977674 965771 968378 942951 910004 974409 969241 932318 946657 902793 943959 964111 973519 958284 885489 927183 973215 939973 966365 963551 908894 904187 984653 873674 885799 911435 949063 896176 892337 966818 944144 952898 957978 957644 938640 930352 905548 962657 958973 899264 910508 939562 929388 897624 916381 899917 854780 969561 954088 933613 936282 909703 955986 847916 977524 941033 971716 950141 956639 913621 900546 958729 951398 963238 981602 917589 920292 910321 877702 890932 964879 948915 965203 951002 982246 967345 961229 951377 960220 961138 959156 945477 948407 955139 959640 936570 932664 894794 904936 857749 906006 888754 879688 825359 957963 932707 966683 948469 896160 911396 953957 942541 941875 954689 966171 914725 937682 848823 931490 965603 888959 910013 941701 945214 897826 958981 937918 979016 916267 954990 902798 942911 906065 861476 871382 866456 928100 940685 945633 927599 923529 947240 925248 915918 912998 969635 956761 857126 931971 978729 963448 950819 986979 986192 985508 928170 980204 966144 955381 974808 947870 831313 941589 975136 972308 960660 947947 954444 939411 910418 905935 773957 911402 945329 926369 882955 903552 950222 869369 935926 898086 902684 900346 881248 941462 864856 921219 956378 960582 800572 929910 938484 842138 929184 919122 903351 780769 915924 922049 920692 930617 901048 885159 934120 872664 933540 905255 961716 837274 835930 889682 811170 871586 823033 941122 745271 826944 952366 950099 941310 910095 928777 893810 824682 822059 892151 917866 824726 871662 956986 932858 940403 819822 965306 938009 963811 930651 914949 745049 909510 720790 881393 940797 871059 956154 870968 924619 911626 922891 874131 850700 732432 838601 926477 946910 954740 961236 913726 936425 852230 671098 885172 925105 837422 969339 888707 900774 897045 917637 910715 954461 905915 847044 813755 882135 961956 822885 833513 856215 847746 877858 862594 873268 919569 947703 786806 814223 753212 880554 965519 958573 912013 922121 932335 949244 862609 926375 934380 951303 923690 919113 802079 914188 898705 869526 891140 852253 917396 715675 897171 862211 713519 907516 874681 835228 812963 901815 880994 879918 879673 784326 765076 870429 649659 813923 965967 840667 919460 920521 925373 909788 886412 936164 902464 886899 899440 905978 792348 828746 918482 937654 816758 909718 938688 950427 903760 866135 931783 929667 889678 913505 619160 777347 930240 867730 945729 912626 866598 847845 963042 945972 891228 891183 904024 842803 895405 813416 831465 860068 878035 866479 956127 926149 936360 940806 898282 956544 943692 919878 906938 944404 763561 938128 906578 822999 825530 916325 838527 840157 885246 927946 897989 927050 898921 933492 928792 924575 947352 950414 949563 900284 922734 895336 929324 790248 802559 888698 892921 902955 843657 826198 869415 895475 675060 780374 817874 867600 786623 791495 817474 926751 853884 830235 878006 910306 919690 861007 869090 838958 701051 893334 939001 874774 937234 937890 877291 708703 802613 882589 953338 880128 886021 872925 907716 925490 844176 810530 835914 749462 882682 687605 871584 810084 864136 889304 876889 934155 836221 884327 807460 884936 902269 881154 800288 915794 851258 952797 864497 862390 919129 762901 807803 840838 926327 934226 795241 876154 773638 733078 862980 821093 863423 705396 892794 857488 923893 934325 869919 920491 925752 924811 806436 914365 926766 942935 896884 915809 781752 787237 862492 899039 892683 964739 939165 899044 770766 837557 920627 821057 964644 856868 878731 953271 928048 943649 818997 972800 980839 956870 985146 980502 677810 900506 886256 907091 919441 872743 921999 925076 961804 966241 938358 929810 732796 813911 930310 920531 905281 970767 868264 913607 927578 928609 612633 922036 941628 872266 793700 854149 852225 855740 849075 871369 670570 749511 598908 754845 835429 793141 794844 649779 828430 874743 787018 839688 790790 876152 825086 609101 672676 904225 850781 804806 861067 801878 871439 896882 796523 790125 941400 930414 786815 713152 825425 905531 757681 933203 960052 786106 625162 721147 829926 924848 687998 889911 652584 603903 785374 774110 772517 882200 875730 867323 718858 751925 901807 641052 825646 904835 908725 904728 877138 920368 839327 861364 867906 655701 773148 756697 795601 845854 920458 713158 821950 858398 924902 945847 756507 789701 470069 805617 743841 662776 711659 692834 630877 784923 797448 719913 849543 815174 663660 708338 780240 686507 620360 918917 734252 843571 903268 883744 820526 810281 910499 918816 710654 790588 739061 691447 705251 524603 753121 834566 872144 780817 816596 734025 830470 841955 790035 714715 810704 910882 923048 772885 641910 662799 960988 855692 770104 474432 649022 907779 894613 872430 550987 637100 521388 718242 849967 857808 708339 684141 741793 530048 911009 863988 859882 782179 952447 894164 589731 756031 403499 689820 838004 823290 822790 773775 712796 859737 819110 834822 577169 603038 817451 628256 793112 730331 768625 825068 895342 584583 738101 910660 723752 652413 902145 895573 851544 742251 646272 501329 656451 848971 886954 788417 665282 792220 929003 852890 806697 478512 609131 771637 711540 491005 760178 828481 680668 672183 906215 918363 799838 757821 608359 782113 751420 809469 854535 812810 727465 899137 652619 784921 768325 808029 681181 381815 778545 703353 810346 795684 529745 861693 859654 737927 905228 708162 900844 812649 704381 780521 693709 775647 708071 515309 877465 609284 957323 911037 862128 865029 757585 910300 902428 905834 762984 896106 735913 670986 853360 846426 898365 724211 896521 779855 891100 906820 906551 804631 827994 893742 773068 595785 653576 696919 768105 827932 859831 746046 850773 733868 616661 835545 715014 740641 649288 646819 812421 723341 844663 848085 618504 652348 889133 796021 491908 783312 817829 786038 789426 800302 774159 897203 594281 726834 793221 869097 594981 860013 717096 781893 637972 611423 844511 821638 542663 608581 799077 702796 682381 949552 509180 766070 868352 914020 898053 916076 883623 863117 905128 905250 883948 812664 914414 826737 816696 686423 876984 630834 848041 835116 874819 814815 737677 784082 550575 797913 880731 866605 871072 821236 794883 771291 827022 821086 658473 814015 898699 630490 843871 899779 857606 797710 889345 790388 789286 902154 805895 834729 906189 829667 541290 432748 630466 684928 827372 753907 708726 854234 840571 858520 882401 760528 837244 859256 817372 787706 910831 872117 674550 941152 809385 833588 808147 889253 846490 809680 798237 842717 834819 787503 799083 775270 815129 754961 816002 727089 658987 703581 851811 852807 827505 836107 848209 869799 935734 794896 859226 675087 871532 837923 849871 851481 868863 929365 879435 626527 854659 793604 817027 926690 598280 685624 903365 799613 785219 745467 798467 799840 786599 819577 827050 791423 644519 704765 826218 821397 744058 799622 887203 797477 719823 751738 877135 842394 894308 594020 837577 799733 881391 927193 763505 810639 434684 725440 941532 681804 801211 934159 762400 704235 827213 701605 846615 891797 836838 884173 743797 579897 753657 693344 804045 871180 861896 698438 881035 815566 770476 636871 814815 809540 837438 832979 871600 714178 608347 599456 757392 757155 763702 813286 729247 664495 733523 765056 778780 649642 483956 808217 753254 913223 715953 607556 768272 791645 716920 657584 909751 742933 907575 869554 798048 618680 745746 759970 608580 793390 662555 697796 848020 879155 917259 838796 650952 825747 883541 765959 778935 922518 785594 609556 651175 648533 748936 794737 786171 791882 864092 810659 545070 790739 534385 722088 740892 868310 906414 899888 718311 595173 807749 623235 735088 735624 637948 772150 734405 382240 826086 735158 677643 531143 849639 723971 753574 530076 853076 854120 835547 661710 772784 607439 931224 646862 755257 811298 698407 860305 747436 516862 850092 855793 862308 844508 804168 643777 461953 681831 893284 790869 773200 553954 889599 900261 520334 860177 847656 858402 812407 840093 688082 716291 795655 804008 411714 616176 771135 920452 819297 806860 689792 751231 763229 831919 658640 742388 694763 591860 801695 851806 764732 563387 739900 751644 650279 645462 688132 769856 827117 752432 831246 844210 928066 897132 811957 834061 887726 653237 902486 772437 828346 894842 693238 755054 773129 910017 846212 888913 736200 867241 826420 745281 784207 811713 683862 743566 537771 581286 840945 740073 866779 555838 847837 866746 945492 963334 838813 922182 806047 738272 689037 770764 800376 791858 782677 919896 785458 820818 578548 823828 853380 623901 869125 842993 618991 823486 710255 795345 886610 851225 769162 743694 926964 918932 928872 958446 931189 751726 963730 910486 925252 572902 557185 623794 890538 692889 788295 689063 743551 892815 816460 706714 706354 802870 732069 826138 888914 918586 849644 925191 879499 387379 845449 739366 892438 645575 666851 637811 434021 794976 768883 913428 747720 856263 716202 593650 937852 963506 848413 845590 897262 781297 779720 857706 923788 861834 551339 277115 865237 822911 571927 715380 747421 454020 743968 747384 540255 735875 789627 672131 673521 766121 844648 637853 868492 604858 495025 536678 373007 735630 548032 496590 655533 561683 766226 801312 512782 547533 635604 526443 579497 625320 384463 785256 351815 817327 720532 533275 750970 527217 516782 629347 733028 632184 663148 794009 440866 544205 398000 642662 772224 528629 699209 824262 749517 430081 795684 316573 659460 499321 347196 786442 751776 577581 775459 692464 495470 627903 827391 904931 609225 435149 621633 721275 504616 438849 822372 707174 760665 809622 643455 558748 742776 566682 943833 816228 741539 583779 535111 240347 481083 659587 613368 560984 865573 881697 305602 486023 707742 574362 650436 461735 236877 570761 764077 779413 741672 731981 748667 586825 650370 778500 591185 548813 677852 854290 546523 553881 161040 666959 640297 500694 611090 568819 638004 501018 828331 549328 449982 699286 723296 884134 872928 828935 758812 782198 381035 719425 567908 545313 717307 823592 559725 516366 336086 405931 605027 488676 567610 653691 815835 678660 909274 281209 502253 598109 570018 658631 649027 445534 581264 454291 863014 918950 547333 593616 589509 698031 267679 404874 358871 673104 320469 625467 647535 537989 574132 685045 649173 675291 505211 470110 528812 580501 701390 631466 646572 643369 324777 710796 765706 517619 495376 497101 690616 674695 431400 581947 571946 375664 385092 337952 760015 728843 640143 727921 658961 639116 807320 810018 783715 826887 653025 131653 421748 442897 868750 837109 819130 880771 526289 543960 616912 625743 666415 641521 676386 419433 559231 536150 468382 371664 647497 599058 671534 394945 445280 695779 552689 522394 484065 705472 611334 403969 602430 769118 530842 276512 714815 236711 673399 700632 292937 711314 797453 859046 787581 904787 635716 581555 483043 484345 656260 505304 940652 818507 663890 481274 567014 725962 447769 419294 366367 406622 730329 868471 776089 539005 543220 586110 303904 359738 557793 625458 431170 407624 677865 633994 792030 528675 504405 728537 567638 630772 557970 581881 727757 708323 503588 162848 694116 817112 737120 608043 655046 789897 670459 385068 762829 853582 888219 289036 445836 516633 377246 392827 376451 234692 344397 499020 377542 468112 686696 560043 366306 312561 551319 704983 658872 603577 796473 530393 554899 761688 781781 627770 553508 327656 507905 398876 806243 534717 415049 622851 633810 312414 594244 537838 298913 695452 360831 792434 733387 758504 577113 475378 369297 244486 518226 819907 245312 428530 646507 503154 292716 497759 751597 713978 236028 835964 294844 497615 565138 417973 266022 424558 596967 646369 697617 689332 705111 416488 619956 582111 162233 490881 675741 738328 280381 582195 718781 799602 639053 793781 391231 410473 196224 518352 255342 579545 669609 692713 424704 344688 753530 682121 729394 386221 573458 609957 670544 567386 827942 680428 556375 886210 692450 332257 549727 499566 453160 331690 489603 514551 489837 594342 715438 767615 708341 736992 202049 662451 616913 503705 653381 612731 495391 605391 735488 199523 500122 395293 794108 323145 668216 347421 224320 273517 671138 670062 670954 676326 703187 85969 714005 214059 392355 499092 835223 544063 778784 573914 648344 692059 404739 657577 541737 519045 230635 760018 776659 466065 455609 538891 415657 608016 517292 430117 599066 284763 412472 632533 360152 410273 723040 807015 427416 179931 464473 641256 773019 881119 803278 805552 803403 845861 683742 683361 723818 857250 690386 692468 591442 557403 565324 520559 413515 851446 677188 627060 385198 516528 573015 770383 455804 532844 822926 630041 515023 348536 804811 746262 696369 675805 709800 630137 872954 505011 711624 657361 467872 771032 751459 617473 696778 697317 600322 764665 592219 241146 342883 132168 576611 673358 639976 717817 600635 384246 730390 853761 279234 428176 822591 705662 649531 174673 485608 399561 745466 507492 540773 685213 457781 513345 320453 640429 563862 501470 228319 570556 565725 491664 752522 736437 492963 526378 602051 498546 476293 592617 606695 777922 733010 769051 407287 482611 739400 767697 776022 659174 611810 490790 672995 781126 519646 799952 713979 525188 757275 646046 436927 566968 711771 258618 762154 381191 620356 772579 474349 509714 240472 814910 356072 252153 708827 199228 524265 582859 610840 288285 528324 776562 646877 714761 486503 437253 531290 414518 675690 600628 594139 450469 634912 429561 559073 878606 215330 433862 669352 646032 648662 780846 556504 888761 767821 689932 436711 909086 274290 750636 419693 794044 884120 788128 685619 649958 833943 548914 737020 569221 737248 780470 651215 708378 573302 744944 649394 410473 709039 637352 474881 327204 701838 414859 682520 784894 536141 791825 807585 757415 486541 705613 433015 362687 516958 442534 699779 775139 622571 812385 397747 555608 830897 522652 738710 603082 723367 467301 767331 568562 470376 808842 607402 612810 488626 315097 731107 754470 742966 690430 332823 475274 803089 557630 795817 794909 761774 832383 533659 583952 505273 868385 455136 729972 432727 752450 614789 528009 658883 440695 756635 549303 640625 410637 283824 466114 426155 516156 416560 215420 564164 629352 325667 266208 600100 476400 725905 428499 563110 271135 457611 800071 528923 624375 835412 609533 593014 853678 660679 431370 796247 603295 770398 228480 681434 462984 753239 550576 372087 894251 802332 828925 611427 401479 374173 822716 619690 406896 545984 713046 598047 744574 758381 499358 633756 538375 654880 777584 754348 718231 597449 287340 716155 789768 503015 573589 726657 618176 669619 771024 525907 49539 686915 320395 483336 393163 694277 711109 605022 308685 657681 546439 530653 777063 251484 621858 778696 770269 714803 785420 597767 685830 770306 504942 179625 458828 496382 528856 760016 394947 619064 662235 674737 817842 752967 782327 658074 786828 557725 630424 707571 760197 579343 162071 641479 692403 449739 486413 778121 499136 671270 596120 718789 555058 808217 473794 518285 535647 500704 684436 160089 880365 556829 514278 765014 113767 707257 646624 749677 154090 762614 674131 406297 242140 630052 608864 573929 565862 587309 388179 634268 421948 613041 328059 573830 788700 782297 673134 362622 371426 756409 772551 680029 506571 520066 796749 585977 485032 724984 594754 823761 799105 706041 595587 502446 537777 120252 515058 638174 472614 668434 536785 730330 651131 688317 521473 481034 664055 669570 652936 218211 331447 513701 663201 820261 806092 433785 264979 471432 551945 601405 707235 522555 716497 672833 659360 418379 135447 635996 627584 587336 637802 759284 335363 784537 544287 369889 815353 738317 695481 354570 302968 326205 351635 292702 610208 54314 461828 538795 556415 339307 540576 126686 590308 455810 476342 764351 778682 532860 760772 296238 499331 730452 813216 673096 719744 547576 624392 663599 693533 509030 805694 416572 671766 539431 530877 444586 435734 364674 256809 696988 547011 306232 589352 702909 738501 533981 666073 430663 325372 363616 662560 668065 538951 731679 658822 543839 601452 421568 377030 773533 627729 453345 311825 864774 718496 495575 692675 568828 422051 606494 606924 687757 425943 323879 669752 591508 596423 827667 570429 249284 675318 837168 663407 233885 660300 243386 765967 410474 564061 351626 604920 226120 279740 527080 561898 600272 636439 309685 476244 647402 475703 705019 828576 726390 538547 740631 838945 753340 683597 604023 434700 777578 378190 831962 721220 558153 654372 694973 675864 798778 810663 440330 242478 457574 365859 641304 472451 506012 530328 404882 320739 378136 310179 742290 610815 729896 509279 842167 431126 760205 317703 462722 463372 763739 259316 499009 301012 391025 282616 539818 544929 634563 365857 718732 784297 809638 886345 423945 462157 507469 581324 439305 600864 512482 576008 674613 466546 642799 613074 525949 498850 616978 598378 688591 729225 277553 309633 571690 807789 427063 680144 651030 572268 389141 259780 549534 758706 701602 571406 661070 748355 199556 484253 819132 778980 708367 732106 787548 382070 646885 397358 495745 563600 583553 529123 754061 461465 533323 560323 610570 578382 499121 805135 404411 586273 726083 810252 532226 676360 371088 349885 844248 846903 848383 736295 805949 794048 771180 759465 533024 413343 213804 525673 303177 253324 468042 389138 691162 605073 790759 744280 755401 312833 504005 475311 96260 273466 868350 677088 343046 474327 627155 806579 564387 411704 744103 707587 709589 765151 714498 806322 602099 671892 249175 599145 617645 674868 658117 376260 389527 344384 596152 341848 617570 701764 821338 749360 329637 744346 676772 721009 261384 448013 494542 605019 552042 561230 507712 505561 632675 610664 738824 544165 396134 228775 441300 517586 736215 385808 415464 810243 664219 301648 242743 376513 629027 398507 321549 655450 572621 647151 316756 619068 414915 391895 637748 736108 733155 699712 514940 501732 603733 719176 742158 754861 529483 404350 568177 203856 444150 541301 694073 387791 632369 847026 430295 244880 800180 327310 633933 697339 665566 716501 766485 559683 453029 388629 436498 590257 725413 584160 763149 904397 592679 730190 563017 876352 629320 579286 640404 593704 520648 695574 712389 612566 755008 567868 592306 367947 471978 600451 391030 425518 525361 385313 480577 569956 622267 776923 564973 697094 775366 492448 551451 311517 329368 777300 242277 736233 928635 693361 930402 876748 692298 802763 789555 622082 805451 566250 615241 639914 503403 459385 582132 673925 638975 594021 714326 708147 627185 727071 673198 746838 701085 596504 422802 714793 487248 400484 752535 400283 844901 648318 569116 583930 442943 281094 842128 605225 541985 574446 622624 566700 348106 606342 687188 370561 457072 653423 722316 737493 696514 575824 692138 458111 602331 609295 850342 408623 904247 425910 725362 764165 889904 523006 568226 716224 920860 627980 506030 894020 669732 634332 484489 449602 493466 365944 262498 522057 785416 753796 656742 672159 597604 771816 559772 627644 657342 701450 701665 797739 723054 747071 669404 344893 521508 431614 660740 289713 589702 538872 817790 282147 719276 854113 677488 616431 808582 753192 642758 520422 848543 858389 371297 382272 366693 700161 658100 420674 770353 736672 623571 513707 666316 327379 544155 601067 386058 373616 380582 479302 624514 762343 744052 568275 361638 550390 809973 486428 450522 510016 546416 357640 662677 499601 891909 750893 362272 489316 743699 327264 758765 855321 552069 599425 692453 646224 729594 762094 292329 723455 826165 300898 550139 404474 276053 229542 734606 852042 699560 365826 559299 463077 424044 588972 271833 595899 427445 450467 584276 666041 566583 439639 516814 448969 434958 482156 598786 692516 515860 380969 653156 582455 132151 653039 784610 790360 295702 543928 863093 574894 211337 334512 374026 70502 193204 309693 169555 238569 697152 642556 78016 154868 18674 46579 48894 560630 89757 552217 202286 61600 275448 33294 189199 176490 409536 99541 178708 6780 132602 48964 345633 107069 110483 406408 4616 207559 773772 28008 26091 293579 692555 293039 192342 417457 471563 503227 55492 394134 279827 518612 472479 286574 561401 414926 621134 645701 515686 494588 74312 230837 119930 712294 59277 264546 213755 390939 123432 347346 581342 486455 71971 675372 483703 21833 105229 322831 134411 417662 469705 699099 291774 190398 143146 5321 99553 106296 538361 91328 108403 125982 141446 109188 200795 550848 369101 282926 39466 466842 298222 372933 86743 192967 52166 59972 543719 452636 11698 810650 113983 224304 255465 494630 405488 105862 11529 189077 424329 526357 40716 272496 380922 199591 679621 220689 160862 267618 531859 267117 717233 80562 526945 166013 166526 490763 686384 332156 12583 541445 928351 712768 132628 72218 382799 390718 5203 357041 431 305980 134279 76910 297078 327167 446965 587132 174366 259710 445967 353374 452065 761865 698075 863715 20788 156292 226342 337419 478331 647117 352314 430855 281035 164141 213425 61300 47055 159586 404517 507771 555411 417577 516858 174532 587952 380169 83584 407186 314203 559642 483579 335614 256537 41573 190026 198342 198502 222657 2764 479007 203335 595946 307875 223992 324509 288697 389790 398897 138413 76114 248135 545801 175973 321620 356361 303726 317476 549260 568454 88519 185161 506020 246399 110421 556300 713539 198808 134491 256899 328937 256399 301088 137231 255264 800009 444896 819372 861894 550493 171742 338212 292959 629922 486559 162141 61277 204673 238475 349010 79155 166712 529288 524140 398389 251115 28521 81233 195819 360629 115125 5148 102409 302258 248012 490244 38917 470364 424267 493138 376141 448757 251537 136408 433567 451130 65787 680436 539720 14469 104477 264129 90973 282857 281132 310797 379481 130840 590226 512151 483190 110480 320124 224046 97293 405041 193779 802226 204709 90068 25812 519814 322555 159091 508165 293152 211134 212861 194186 111984 68080 289775 81839 111514 77521 375412 385263 271293 158950 4643 320645 468217 182807 438289 106127 239814 38195 352049 633092 433619 293580 350172 87654 231123 409771 265976 281555 158737 181612 372033 465200 559645 467755 512858 63383 348044 629697 203535 234519 192843 110241 563422 513024 348771 744613 128193 131729 449768 36102 195687 27178 37667 268874 547682 201986 431106 18089 238518 174232 395252 358029 136643 62073 122767 278300 333550 282759 677244 44636 422732 385379 85825 362464 696695 384827 44484 95207 105349 84723 591576 804580 477478 27374 568587 646837 379760 5946 376560 249200 74396 116008 89384 254274 408649 426264 524282 27347 239104 629781 605749 737440 21652 522971 418917 224697 448239 103776 546585 545821 206910 168191 116122 268249 121552 539745 46540 619881 353272 378708 348207 271589 45178 395629 290898 154601 207106 213144 264933 531776 211494 130896 33544 186219 297667 134676 48666 224822 217708 678825 423697 24140 35999 70041 258511 329547 77467 380680 418812 151594 22878 376110 371798 548766 475822 308396 89067 457217 227834 258893 176321 408440 213092 213543 291415 32246 583856 535383 195737 13058 607894 237299 489786 644965 656477 372043 94264 486926 656775 322189 612824 568114 272757 8238 456603 247812 34288 417774 393483 94799 471898 373352 653939 278411 567099 515107 282166 445632 250238 267660 424367 344045 265707 471725 363611 239731 204428 135766 219227 237330 305981 192866 263992 61087 606905 521943 259802 83805 401544 484023 474377 341561 177867 351788 233588 19656 168465 345477 167737 402667 56637 274534 306179 429181 57708 400209 429569 41981 537057 166398 504676 370733 344684 459415 456036 393916 620701 696987 121719 101504 238257 347653 306589 239258 526790 109126 318426 96968 65403 99669 172325 475946 68536 29926 359631 585038 252101 435182 421105 308723 427597 191477 311817 166332 422646 441679 445070 407838 290201 184352 630519 415040 144781 444364 252718 558512 226517 60622 215329 189970 201866 50501 116025 294267 206704 331070 138147 15072 188677 153156 12050 203492 219132 6834 249436 277285 35855 231354 494664 20143 28410 146883 56145 201970 41238 137274 272502 447225 318066 378138 642139 640651 267234 338835 60292 300248 42697 294818 307573 275641 505241 749472 491151 283383 134767 110064 239388 337879 294246 182622 184060 200582 220622 156465 303008 561946 91340 305205 198701 359152 466809 63123 200528 264945 25704 285428 405617 386923 422061 79755 172421 249 394043 519818 350601 324492 376795 659864 641635 571927 652250 383117 131747 261679 2654 209557 21301 171194 205483 142238 312865 438066 86986 413053 31918 43121 239879 135791 108440 100413 428535 88890 15608 103010 400146 122782 357073 748257 417561 386181 121367 31434 672572 164342 96687 266311 185039 117206 109305 471670 340164 189246 70452 216484 57320 76434 79994 453532 318562 568936 55868 147934 282531 244171 143795 236709 408814 272322 567691 252920 308887 365753 47787 6023 425148 174822 19690 547339 443770 30267 66123 194274 339352 538230 656524 486788 714367 288032 431529 17875 502482 252335 60450 49450 59359 117360 56199 48839 220930 185738 236851 98086 98066 459073 112152 623309 582111 662472 71687 214532 19012 262546 176171 628203 163715 372414 267653 34461 254842 317753 12391 108966 176623 473289 623168 149303 25464 489464 671517 551673 339044 247377 509527 27974 268287 518389 168965 531110 12836 273629 430667 83100 291815 149988 445621 169954 75653 325145 168663 79928 370463 197979 434778 441782 210358 539338 201187 292718 362340 562351 415195 116022 164091 231500 138839 61756 154665 654368 158788 428681 85802 300860 527105 648403 481653 71619 4782 389967 330535 464663 52106 609495 111598 138064 453606 229093 288402 4422 730712 284564 109290 150700 37841 74001 296562 240991 66547 26283 182709 2977 333436 557076 257663 276185 664924 632734 320708 567515 579912 538389 36066 84872 456784 154397 6905 59506 92534 253359 261345 37959 215679 390778 67604 217771 704518 674906 39758 357152 606925 40697 99237 173880 125751 213921 76542 258669 425050 367694 65957 76303 40811 91877 742571 568646 99424 200120 169513 58806 283270 133170 171721 400006 274476 63151 297181 14119 430531 163 236931 324400 442688 93687 52810 174007 130350 214125 418108 428269 72634 71516 375842 283882 605216 398227 734387 656888 276852 217662 56905 170270 22785 246959 465194 94337 23255 651622 450818 112473 514331 621355 780515 648585 396681 532466 636184 696279 163447 426629 196785 92494 299788 713159 111346 376957 343577 299735 427218 283608 541079 61679 536289 528553 97242 444821 229903 32071 281128 312683 150722 801285 641723 253074 333269 540143 335301 356558 98968 57578 492972 297473 626400 92412 31297 223057 457659 92527 382446 523074 405729 379258 207888 397740 191450 17957 695547 40816 742284 175149 500915 143272 120464 150957 117320 334334 513296 298732 705127 266635 401923 208278 352643 405554 470477 69874 431696 52003 455203 12849 94541 448062 277700 396276 275699 547288 253438 373773 221758 145627 374866 369462 134646 305932 116010 162550 281126 222663 88617 8014 152089 326619 429532 654898 184189 195071 602892 304702 453848 388473 325186 156872 534453 73199 185472 91512 36443 278163 279343 144179 255867 351477 448467 483854 574085 317983 73326 81231 377691 346273 208145 231742 594155 173331 260277 327570 437032 257572 525399 605931 101271 319355 134282 289295 166167 82752 527987 45342 507033 319987 376355 262653 117393 134264 384654 329498 146776 314784 133310 238095 10769 705797 731804 626756 119482 317465 315985 445409 469596 428018 100177 394505 242986 350679 194996 97733 193687 83188 482688 240541 305540 570007 441228 511992 13749 283141 390163 214672 227893 344652 25664 634128 13008 706552 159619 537216 363986 429355 102657 298581 133730 409254 438639 459032 67365 359630 431129 619308 582310 574600 144782 114022 118961 183183 435135 337318 149049 131286 62702 71277 264290 14084 178252 175515 77936 715205 267456 260529 289357 376714 627342 557361 270032 64770 210058 4400 126928 143732 800819 796674 327852 115920 141012 27745 32221 489210 70853 172095 388486 104212 525301 70282 596368 502868 204075 66314 220487 386512 454960 99766 241478 578696 292629 538422 214581 484533 388899 315401 279009 519933 238274 111014 354477 274207 154905 597164 447012 588901 2052 193844 465549 28516 156211 56904 79959 555350 721333 431253 38725 69630 306103 158979 17788 335665 232597 25424 42144 36943 101204 46224 147884 156171 876075 771655 308593 417011 503481 286497 66148 386527 429912 568599 153338 58669 365372 160743 111469 84335 536774 333801 852695 49963 288224 194801 375625 364999 72128 520680 401434 794020 234575 83186 599897 416971 145710 510590 346469 150384 717118 6914 222244 44496 333660 662515 278564 92450 517259 434418 215334 381515 35039 46067 663033 536952 16931 118092 327022 91068 271511 128977 196243 166555 63209 6725 573068 557935 415906 293007 455636 431995 64456 149537 32888 343242 60123 113427 394660 410364 36093 349212 317368 90966 127996 42970 57749 323628 315157 330937 617508 67423 632392 287864 529177 318452 445344 67531 39496 160022 336007 8794 184516 250946 154870 168889 205790 482732 27197 288750 477977 624031 292800 247134 101151 182152 235523 504476 306635 196876 340059 691740 182645 87898 356683 130705 427498 33426 22361 171246 205345 490088 2724 519083 31122 699448 345088 279070 319503 103438 30648 213373 403598 88841 317056 370731 475094 640879 785856 659663 264170 714801 118002 527578 132905 526309 267797 360917 240061 265750 684553 28578 32644 196209 231789 598709 295787 180785 2453 91455 603453 170041 468415 114051 354793 43284 191304 62399 220929 682438 402028 7103 372428 1629 293580 286578 102429 95691 145553 383364 102385 53584 199451 337011 191086 94156 113041 317 440677 423268 230170 470040 317843 18728 33558 46291 208602 253159 302972 190787 697155 28373 114590 302078 137923 535928 2183 58781 169357 420521 238061 53690 351807 211430 327065 305018 763307 542700 571994 116813 498242 556594 494093 525558 501902 61862 414126 356905 158125 471663 317315 243182 450428 231588 148346 211970 454060 531476 355895 452214 382708 142908 492127 265611 216576 316927 663131 222045 556510 653112 453636 180303 272517 439907 120624 151779 356228 258090 590654 615885 251241 227829 186337 138883 154227 103489 540192 38617 501138 423204 629544 408625 687089 300056 163427 408792 38006 84912 304923 529113 453846 113345 718866 727157 402465 329607 37000 85415 408948 270415 52305 10982 355270 172626 384950 340058 261831 464474 451407 161634 578403 669422 374041 31140 183705 24932 601177 459421 62618 382187 21626 12129 51961 581029 275524 107257 90377 125653 300496 273087 103790 686611 241300 347430 435584 437948 282016 217794 541306 55977 28437 365339 299017 69240 226808 88533 81298 61677 276231 360947 47241 587816 44643 407182 679727 469757 710330 180346 442211 166772 62696 406517 633155 428207 145105 449472 61650 9504 449778 371561 189203 472168 122181 32152 614506 738422 178821 280179 46670 76446 586089 427466 463023 261096 334529 756542 531190 427905 464282 744247 282553 318442 32910 180461 331315 444110 576209 599641 44855 208793 588459 391498 147389 62470 71707 55965 91837 578079 300660 457252 62762 147059 97290 124078 293634 185036 398093 478874 66094 628127 195752 541105 356349 493095 277293 410994 41512 409055 384157 75266 20766 491355 222582 398620 90727 174139 367697 348594 8436 56652 635086 852390 458733 385706 463762 361683 745568 241424 99366 108458 208506 454934 637084 249704 455461 301229 135942 147032 497421 130417 280086 625197 24855 304418 109100 66067 79791 627207 335377 11686 486032 546997 145473 342395 360763 231376 149783 164497 570241 573641 276591 176988 430956 56173 217498 11791 519172 122707 432269 272169 132308 726020 577294 17265 235895 280808 138604 299331 455984 645286 169813 86396 583401 552527 19557 196783 506648 198628 355436 423889 392260 398808 89712 398977 232702 383527 466255 427002 647414 409649 508278 512614 149562 600929 505029 15542 124442 184346 322005 83698 21638 96027 435014 139531 459375 543813 225257 140958 160360 138648 217442 465748 466958 89347 390510 637467 302592 119946 364021 469238 469949 416198 451431 152180 338261 598607 630040 395123 22627 192844 306416 18281 208101 103462 203807 347997 585104 620002 252048 621483 35707 59245 168110 152120 166933 46696 514620 375285 298765 563385 472711 638680 384612 247675 313198 653568 549587 187875 195300 299011 235198 292890 89057 95146 62840 567823 468709 189200 455529 503442 243283 565469 385551 360842 136938 222846 745273 679202 249408 315318 10624 282558 667690 378885 625317 66537 671089 185082 83926 253460 219824 121662 52512 59669 66540 202617 33036 97438 450554 562378 27186 24501 444127 227692 249900 50323 133587 52010 133424 129525 441869 513577 61248 75907 145372 228051 118786 54772 256491 460531 660034 225861 688507 214509 315924 316886 754692 201260 247302 21620 156254 109877 308366 541239 357075 6703 164966 437533 591347 506349 120091 245208 187188 419684 177157 9291 618799 30900 171642 121994 375997 462837 287516 319775 349111 330086 76506 417910 330215 350981 241659 45423 105705 207465 356577 202313 110869 152855 924 33840 90399 535736 156651 109449 245904 476729 385324 641001 453635 356891 457232 168425 9123 312220 175277 291031 278807 296585 121762 244475 25332 45697 448224 359593 327759 213081 189535 84031 294407 43050 131069 272319 591618 426463 302724 12540 229350 36550 646986 450896 574761 386513 135202 335020 196547 252666 686879 92249 531316 123972 5886 70995 573861 78632 23110 544485 173369 376011 377059 24516 535534 122508 552274 546913 29132 72832 179332 217599 583027 461374 534368 585389 583768 336443 550179 609503 25984 249004 177029 247946 519912 393316 484653 665893 370731 79981 94011 233444 415390 162651 119960 78001 542545 16695 277089 304414 562222 483432 18176 93051 50496 433167 116181 77924 96655 86138 207186 201920 458635 170308 502492 462180 136616 30615 21343 286245 411443 105086 360376 294805 354148 293305 459400 107000 444995 342947 718256 74984 286527 159987 368517 87479 824001 456657 14698 714281 244907 464750 399927 359251 279370 283426 28586 733947 346834 54161 312714 606677 647270 68757 50163 66030 95805 204771 478149 357860 537471 260032 134151 783757 267379 678587 261636 332463 240818 223475 142947 115759 27399 1321 493061 92839 343360 297117 310996 402047 85175 501642 102946 399053 13302 158495 167227 329047 100780 86360 638047 295896 567196 9787 444938 476600 468461 263420 624456 63971 28980 375460 179128 410897 154856 288094 323499 184992 194789 47882 224450 416814 180314 234144 385585 44856 21805 197844 83158 36076 79572 129618 71462 240373 457818 505170 542800 90345 229561 331668 354846 284265 467938 567414 696819 441158 763858 390191 404318 363230 342289 337147 416999 41312 13489 47293 40525 173678 289317 419893 43851 500547 254555 219179 443007 498166 288619 159645 314927 359793 551692 395934 220630 404978 9472 428686 485629 4512 48177 200152 585646 601453 495622 41041 191743 35847 30706 306115 345406 561764 20365 15732 344735 290126 224075 529 274722 468961 164864 60114 313424 188523 39899 13485 221813 419577 235271 733899 448605 269100 151187 264732 7521 3598 502624 633916 163932 46552 314643 153108 97078 92598 734684 574738 632022 408615 244482 479899 85695 407876 321461 7064 299155 276664 149984 40816 144584 209120 148271 458803 63679 76104 396111 184802 201709 553663 361494 128320 307409 324301 155373 211464 342452 241453 372046 21504 351201 448456 310453 468004 64074 303478 310922 346281 498229 694605 104960 78518 297908 295369 611051 118209 252319 50145 83293 160225 28231 127550 521656 460479 843475 64173 672437 275689 557868 706303 468133 394996 586826 450337 368099 281926 226633 99565 53151 281843 148871 12729 496521 521286 56319 257117 12363 45632 416529 276170 44025 344975 285240 198144 459653 302025 536140 224242 693897 60455 8778 415350 734 1558 452779 434483 88906 66062 57563 69732 171182 191494 265307 677484 197223 433272 106311 271924 231546 37112 328269 436138 24355 283265 431211 532779 321642 146842 448113 347545 688267 128840 305321 393663 632388 407636 634859 637257 283373 380512 337845 441625 516293 179550 167885 109272 485872 288264 236679 488529 200737 489881 619359 613540 57363 241471 348436 151361 47076 95473 452344 412580 232788 23790 505740 351722 490759 568411 454266 397843 29933 671276 246536 276198 413761 563853 385057 82136 576545 645684 115701 235379 107066 348047 250731 257906 254289 287758 7287 442327 280524 463165 14474 348403 421980 285409 548015 99881 566067 384959 169986 698274 512620 447441 127879 308675 202531 99948 337492 70228 5778 170072 630241 35841 264444 59663 27772 298212 210742 282059 377219 220503 116499 194406 30777 73791 34001 210157 517229 566001 124749 343222 116029 24163 537149 168511 88074 144246 509351 476565 115955 70125 274826 548407 366305 292037 240585 49260 510443 440868 451805 309977 318015 87100 650338 207151 244565 327154 203878 442370 447455 191350 128318 548710 438624 577579 481369 524565 526660 17270 399342 395923 395548 127170 41893 17475 85937 426008 11294 315324 515248 12222 239204 367653 70021 368968 376287 313232 14805 98550 244841 176123 111533 446108 293384 115207 513368 52551 25947 650162 374007 518155 224005 592095 760156 468025 466277 88947 278879 306367 64169 169068 240069 345256 103433 215866 120282 556315 194539 467718 670411 36489 503344 780540 374502 284617 696838 146388 276309 212432 224496 632438 336457 580679 331521 225736 318688 460151 197405 215346 128142 211692 305189 146551 172794 472833 382476 457176 685342 555202 89726 309882 565780 318915 54122 214281 424496 457404 30499 523328 104224 11944 340195 253477 215591 404672 280202 339902 171658 190983 255399 414501 343017 262429 271358 694892 304636 274579 591077 137085 130706 59642 290862 361865 363907 148737 27264 152973 186992 118075 758621 729549 199920 51625 552652 413777 62200 339200 215085 626322 479862 271350 289869 528502 589429 53957 25440 768368 1279 529764 215090 505380 441810 430687 37952 60561 518761 208051 523986 636951 227994 212842 250761 310990 416076 74829 318971 278962 456904 613529 116635 593296 557315 397662 30969 273202 302799 588232 511154 335408 341717 282795 476665 206980 227058 74329 345162 87804 43141 161138 319085 76391 333531 278117 17258 199140 699040 164402 311109 273977 593672 497659 556684 196944 541438 126130 40349 433349 228063 7786 14844 118561 72625 389867 594974 598380 40542 450059 7525 274696 147983 531 346906 150237 121496 167012 130677 270701 490244 234351 230417 13274 71820 358946 130134 443626 683218 638573 461002 309090 191808 609906 199818 161504 319553 338000 125093 281068 514824 595498 234740 525277 128729 675565 291969 297636 559317 276737 12337 370870 572564 148490 272616 415944 128687 788477 139305 351198 546634 385240 238143 560183 161746 611260 277894 179792 314750 338977 33004 390804 381867 240691 9802 609646 418042 322221 212535 131511 489947 322875 110051 125803 235537 201112 55303 290492 439001 698382 661942 236321 634919 4493 175265 196676 204290 71288 768133 714092 502950 398796 287968 570727 498687 238713 533380 661894 478910 407258 581021 755387 76195 64237 420515 589310 563092 210228 253894 42970 174043 123033 198080 296478 162441 341268 89740 67463 449420 427123 450067 330840 618019 324363 178990 71581 486447 280284 719403 268993 52143 155467 228182 75166 479352 593482 207738 240151 459709 414595 314194 338472 554536 379046 41323 580038 68574 328397 321597 83197 224474 79371 266328 29832 344352 485959 216995 31785 42810 251389 527064 347094 385629 505064 458972 66745 284056 55335 41275 133159 464644 57282 481729 399807 129274 82372 342811 5846 43550 59477 3688 82185 136912 155421 213237 520810 347081 340517 55287 562137 28172 4893 340362 89297 523608 18137 145788 270025 207442 63246 53481 212639 333536 27456 242493 96319 656396 1237 129382 252722 362869 498157 180579 29003 193198 255507 401605 37363 516074 647691 230475 222964 402792 471465 395871 531688 352867 362978 128534 288351 268303 636660 229836 484753 546173 685368 563859 705852 104196 167736 496294 254608 529768 249572 8713 161559 507670 11932 21737 79085 16162 174552 129193 43467 573066 406200 452444 248386 102718 41792 189818 229521 42352 116985 462682 225284 75441 187890 533210 420008 226833 76621 559595 33756 79973 156104 95861 233785 57089 219316 240188 299306 196751 359166 179237 27257 123267 105952 270237 399864 247848 214712 297679 219215 362387 262476 460127 323009 344712 96308 232137 301447 11140 100381 555611 396306 24470 122 428367 560775 72700 581069 13575 106613 214827 28983 148225 421420 525127 277869 384825
