7548
999854 999986 999879 999731 999389 999239 998244 999486 998973 999293 998519 998884 998776 995970 989821 997819 994282 998612 998314 995154 998080 993683 995879 994235 998799 997951 996979 992525 988289 982834 987165 997274 991076 990505 994202 996383 995397 993125 980978 989484 987809 990969 994851 991742 992936 994814 993661 990077 992658 997091 992790 994710 984881 992509 993680 991498 990405 987238 988071 944808 979108 976537 983282 997148 994919 980244 983383 985446 988830 987979 992347 951684 991727 985968 987388 990978 990861 976385 970526 981967 975786 986352 981551 988844 973194 987688 986352 990694 986983 992775 981128 986159 977611 982794 983736 987635 988993 990636 989169 995123 996242 938436 985386 980071 979347 984569 981528 990971 979616 973321 993430 985949 988410 985436 973938 954066 984518 976342 957002 925084 935746 962320 971481 972545 966492 963258 982000 996386 979623 962508 981522 960776 974995 953077 961135 980571 972314 984315 979220 983580 966274 957525 983099 951247 942443 954581 970791 984392 985543 966240 982670 952379 970440 989236 983738 957256 943253 943167 966406 935757 973963 937249 968345 985703 981017 975483 981280 978086 983093 949676 970372 981645 985694 971258 981863 979334 974106 968597 937452 983737 990750 956055 962881 975905 983990 959387 961347 947064 974145 972741 962596 971003 984732 983978 988211 975655 940197 985092 978174 992102 992947 987775 988351 913649 910566 935384 983838 940979 971480 971343 971437 983297 966274 979387 975178 984306 954095 947909 955818 971911 968331 970763 987173 975450 944936 975691 983759 906796 959254 966312 972819 952868 925139 980259 963961 941456 938748 838834 956743 918226 868699 911303 885246 945362 942957 942072 925542 918649 941140 945744 953354 939886 947104 935305 934882 973607 992684 950103 964753 955861 952477 907003 947861 930975 947343 960100 962836 808825 821059 910972 960782 978252 958903 959044 852229 964812 957921 969760 974113 950028 952412 939270 948033 953192 936169 947444 943159 927320 929429 934263 941639 952414 869219 956970 966555 949483 945592 968972 912349 927622 937498 969825 936368 888848 923212 956550 961826 972155 954628 967522 977266 936333 956595 886102 926447 892578 939598 905595 958223 876394 913526 959918 927814 863424 929667 955875 957661 943263 962149 970015 975234 947994 956651 965260 968484 967031 969405 976262 977135 943190 820783 944079 866316 919212 925089 932248 982976 957784 935702 902135 956894 955017 971676 935552 972739 924345 855383 916262 899674 970884 951254 915608 964922 917796 953028 925779 955195 974866 971761 956579 909328 939768 953028 956079 829322 920846 923406 958265 968305 959523 940935 900309 952550 944864 965222 934453 983998 970810 905623 987604 975892 968259 937559 896712 938043 984002 969108 859517 977462 834032 979992 970793 968482 941503 955676 929536 953665 904601 866770 890472 899687 929404 909870 978467 908362 933840 922394 919995 969135 921601 967570 946622 970721 914272 978299 962909 926272 940706 969914 942547 862866 963781 967698 931335 952636 840756 915342 875735 913920 942167 967604 956224 919084 909401 965993 965095 914310 937321 909142 911397 929403 944787 963055 914407 957863 894635 884672 952586 940784 917467 915555 952614 916033 880589 940130 910029 921360 973024 856164 955913 928705 894477 939474 928588 923566 706370 831881 825050 929458 856359 890224 619454 840740 881274 900309 854117 868273 829580 837943 907374 915102 773286 906774 903639 923932 866182 829556 816354 852547 931719 945459 854325 900201 932907 897403 827850 814907 838480 842555 927739 904280 915473 957114 968826 936649 907177 792010 893933 902388 920816 898203 913341 845007 872134 642894 940377 829920 762894 873576 765522 879268 825963 958574 877908 957418 802612 804686 775941 809735 800858 894954 951553 827520 887573 926610 916582 914430 926771 774369 844249 728868 922276 963601 935857 947492 732173 920707 900949 869953 782695 925501 898441 853399 897342 934310 854177 896180 868228 891388 783559 903928 907325 908574 932427 872560 780786 767954 896247 874297 908785 905362 841351 853067 933634 917120 868222 840057 894102 787904 911645 903594 923905 816135 908072 908324 858001 885090 832749 737594 914721 868125 794036 662026 959799 853915 935151 869787 872309 883650 896766 901239 952596 934320 948330 925756 704320 971935 914316 939720 921506 851393 719328 886341 859441 921077 927998 923267 841023 778687 917649 900095 817721 876408 882072 931499 844933 870216 939420 956116 786419 867404 885024 903981 933038 942842 927393 887768 706216 685031 899829 838097 861771 801310 956287 941308 865904 863975 880034 945982 950261 914001 958324 865281 944823 926252 944578 929114 957465 948522 914694 943564 964841 946729 797007 918284 951784 955701 949978 915235 894805 809277 695336 789738 863220 885862 727631 846589 847509 917358 869948 851995 929075 887755 879979 938365 873973 953902 842872 836571 889154 884917 946202 940940 904146 943162 909377 859051 928628 909613 929089 783034 906306 916010 743672 829327 824438 891514 856154 880716 854458 941315 831910 821742 812381 885420 916417 887547 839192 762898 936644 917798 921705 894505 911804 895575 859845 727156 947600 939686 903761 929965 873726 851816 918303 936779 819850 915172 863833 944173 811271 767730 803951 909360 916653 822983 910390 901813 961060 873588 904397 951270 893830 906628 822299 864385 855940 854105 909702 806347 900949 911907 849436 920491 804860 898781 853805 876231 903640 839013 986331 961075 946931 964118 960351 946091 871517 886512 787638 847775 917813 925468 863253 914612 961533 957527 813756 818280 946997 943473 824127 818733 962606 954932 900331 936163 949604 968156 874788 913393 953368 936935 926359 871916 847817 845079 822116 839894 861451 824894 836534 875197 791056 890142 919332 891844 821418 861643 818296 935378 893830 846130 885801 881175 903476 878530 715299 692428 915186 965557 786568 827237 958331 939044 898879 904201 967234 941501 890063 892297 908401 969636 933480 920521 898913 894048 869571 924380 789591 919739 912487 929613 803457 820159 874584 859525 915553 940311 929456 914775 900852 919579 716867 719199 905009 778266 864618 860690 807021 866488 872009 916720 835367 923609 931971 931005 835412 909280 903231 869985 871711 922397 884886 857476 868586 900805 922322 932312 903613 874447 878406 809160 864572 854538 905034 914234 883377 872937 905084 884217 937168 896398 666217 815273 862877 868392 869113 951145 826588 852969 915228 861746 882761 792330 916237 899159 836249 743199 838608 718024 939624 918718 900621 787745 874385 867401 900459 951981 816648 796312 953618 831767 922870 871805 870141 890461 831557 827156 812215 807831 908717 893241 691378 559380 750686 762667 616148 663089 737139 827978 843924 809524 717055 834430 586577 403855 808754 822985 846892 811311 887606 873601 608072 802026 709641 729640 767962 773205 768001 753472 881857 875762 775457 841433 603831 755600 835881 732748 848069 748962 611749 791335 861005 748226 827430 796831 721497 782395 656498 838233 915781 800608 777243 848710 694428 836851 852453 899244 776403 783566 823801 462072 783983 656385 581876 803650 629035 755919 667526 788258 826102 688128 578190 723873 869869 802986 686633 731942 943574 947586 738587 856620 839836 859833 336603 723639 855510 755686 724508 734152 865580 782183 392454 571873 638829 721204 760135 783100 701643 784319 546198 596193 924353 887861 783522 786259 686451 633098 401030 800418 718817 705055 766327 792618 769216 659850 823627 827774 656724 751409 829102 941016 511194 476675 783561 527997 511621 681088 753813 576541 520425 613941 462808 610828 858571 906083 791966 780806 759142 853033 709754 869448 795079 907795 644095 905943 747574 676924 674676 703249 711457 745123 549434 572924 817081 876192 928571 926282 801461 794303 886793 658888 710827 731414 916477 912476 720783 813105 762602 856868 717400 776324 863051 906784 832091 788542 819059 849863 873885 872900 730319 877896 787317 792037 801486 484575 764497 707502 801724 790134 677615 602221 830754 827488 746326 809288 869214 899424 919604 759909 803357 651683 767726 541144 689229 700861 882860 772137 797165 692356 858044 839649 815047 822762 789097 827429 664187 847214 899014 736856 864414 728119 807308 791128 772326 838288 850844 720795 713673 609319 889077 595285 826936 891975 913573 824011 702934 530426 815442 766001 864355 778349 793699 430599 835538 699274 817000 795484 625713 654575 871260 890146 830389 818930 597062 721297 379370 614820 743764 824458 783999 808643 913956 843066 866831 858216 702192 669991 700782 824982 883438 663850 894460 862002 686113 896878 862104 853708 846031 881969 859644 811111 657679 629732 809964 799738 647504 901711 886412 935789 783049 756635 660306 768048 714291 697809 826409 560299 799004 808827 516142 890828 910731 857448 822934 777204 701626 457652 753539 476213 907288 671931 733478 775809 772731 786606 849992 775881 869835 863004 582412 840711 725692 757630 824568 811753 799919 835724 909872 796404 699260 668599 808211 865104 732876 884303 794702 794797 882822 609563 882245 917154 781275 772224 753247 753613 683777 697524 607786 572223 681742 781175 833127 828842 849639 777628 440406 725439 744877 890562 889674 869436 841749 848483 798169 642586 832048 876988 884824 838382 919152 935652 809417 838944 924539 894330 662239 812726 917202 769949 765486 899901 909998 908044 876248 925157 783385 903920 733730 863811 708412 830919 907274 899172 924105 655583 901534 909500 792518 775810 683995 848090 932615 912785 805625 900629 887409 691490 729781 666924 735295 803416 775673 783256 651171 682680 659328 727105 720116 827085 841803 696086 542073 668990 750150 607942 660368 546579 699608 517414 702734 790598 665220 798039 874775 852938 847193 690432 872171 739826 899568 639453 805071 807397 726720 916551 775692 781054 812362 803669 861271 729090 881348 771609 869463 811075 892556 648177 782907 759191 780646 913638 898319 853027 768358 620769 849498 537566 728270 755104 764681 902168 704833 416423 847867 866578 893820 860532 743638 529795 791708 818475 665206 764398 814918 852259 765819 831328 754891 596944 839062 816744 930773 930143 814754 653021 804880 758178 586800 752236 778773 705357 914327 837397 852483 848313 816899 825332 726291 733490 838484 916816 774066 762849 604298 871616 884304 884247 694350 775072 787145 835972 849192 642354 720258 706966 876394 868239 879320 884200 832787 893443 880493 916480 772026 608645 793032 841858 889897 813701 802090 712821 707780 737240 914275 908919 640464 801399 939527 434679 729822 741448 634965 755205 776692 729489 804550 888007 793256 715578 634468 817253 782857 787420 817987 815096 923295 627239 857749 824431 902642 794617 944887 862964 739077 868465 605530 898179 729710 784214 854652 672768 843662 817692 759441 791462 599424 878639 775011 800256 843256 855178 784537 618391 843313 572278 716352 617554 745975 761735 862447 789421 653044 674738 820383 819830 647636 830769 628740 838640 971707 954481 851148 886096 798042 662627 825714 918704 820005 817246 396585 847705 831305 818345 841484 858489 779802 776681 818917 462136 855577 890865 806789 859335 799019 665581 630786 913324 922735 803721 850914 951287 787986 723015 633169 713448 888192 946933 768859 752596 714667 780405 810602 717292 746677 876712 842857 799920 849060 820150 925104 726333 918041 887566 855176 864772 843494 870285 872564 821270 911259 915079 872265 830399 787777 915831 838105 741126 722148 773102 801299 650666 724359 785633 801161 484478 727110 622003 764007 719264 578179 797129 868127 833817 767975 626428 792996 880401 503946 891554 771175 447968 660361 768377 752796 850539 787218 800863 927643 765543 893818 819112 790690 836315 841025 803477 757929 864788 873648 844790 658080 871762 694129 611103 684150 688262 910142 777477 840922 848206 561127 664462 799110 743488 612356 941719 884375 807031 618405 849221 607642 901547 471953 961493 817840 935847 803947 886533 773503 885147 789542 676684 735863 727818 932452 858323 735997 917617 570648 570464 797316 886215 819432 597480 859423 783420 498219 720302 697190 676192 799509 689888 901807 597361 650096 746399 786629 667885 796847 863847 639423 845853 811407 613404 854240 776088 884582 832556 800713 909233 683370 792353 673776 825731 670493 662082 448145 679267 893174 793981 715935 740932 709379 738711 611218 848769 696838 801277 827615 839835 757311 796721 832379 613493 790667 800824 758446 800201 906570 914400 887139 924632 808779 745416 820368 878298 804266 845200 765568 639378 804280 785219 771453 865630 787252 639492 606920 838232 805573 821132 776407 524352 796829 732792 803503 908026 788503 825881 850527 706105 559713 802344 629774 713835 843848 747601 693353 693812 589569 744914 773755 898109 837077 798283 764532 805180 659145 770857 834506 788592 898591 897206 702196 881116 599628 584260 806835 782050 420267 748920 833036 758183 807439 856817 790083 895789 715470 630339 464114 746355 892611 667734 808403 815021 794341 812504 547761 771008 834814 904439 736028 843364 495074 712603 649344 679435 830579 827638 446594 660063 573872 847518 871347 746914 860428 899969 507108 583706 816603 570258 830365 864766 614311 764639 872228 871364 785425 607549 602444 663801 895797 940480 733706 745145 867544 816745 750511 655157 528843 827334 640858 519745 271508 660348 470687 740547 732429 687095 522215 698599 674960 483077 891302 773614 681193 690529 465771 453358 541055 405548 602599 715157 527291 346619 290743 481092 378965 614234 494260 725632 825750 812300 506376 727567 623549 633426 601211 260658 421275 535261 90345 363774 682123 783747 538227 603345 608703 379188 537281 586101 830618 553116 751876 720519 592573 402623 643306 587530 538010 607321 571734 585984 488729 386344 633249 453802 713818 582065 437867 359761 852741 469961 570186 676294 717558 611092 562504 534987 536822 534047 502058 446807 705801 824303 510203 719994 777230 733804 717533 321991 332974 574433 768799 603709 796567 493763 570904 656705 811423 647988 388137 410846 599728 689607 698103 723812 123533 239591 662817 557144 355768 875758 634075 299632 696031 645013 404807 621247 527292 598794 774609 827140 817463 540310 770125 646903 768261 523657 464172 761256 770574 761030 373550 451220 400688 539341 183185 600188 454410 540635 688116 359300 416734 414899 397463 639484 305685 601808 747848 490260 460940 709854 344870 445898 576450 471924 547544 342822 118012 845565 567035 550137 192305 520286 470770 497966 661426 813299 936579 748044 607169 511582 699540 563614 800415 702172 833784 431081 323152 249440 709839 403626 747598 834744 300964 605783 629755 566421 509362 682610 815023 585301 545768 175533 259906 298008 388573 115620 622469 536348 668145 513393 584524 672117 507905 772732 660269 641671 722723 345772 345763 390992 473302 541243 860083 734497 703216 491247 776702 669252 589188 473189 567521 369598 237561 449365 348467 233904 484939 785848 693241 498091 416965 620427 305620 752063 378548 286956 555199 319566 635674 572204 633729 680795 642104 496574 361842 435858 584145 666801 735840 535321 707277 659342 459989 468257 361904 379659 727118 484618 396701 469414 223222 310868 461985 671684 602716 685874 226441 282978 451245 443749 464164 497644 171031 408494 423739 599999 629035 771606 360031 375435 504011 735800 687267 444489 707871 640055 763457 438510 593721 630917 757225 778006 490090 676410 765233 868331 623033 614408 859276 459750 691164 710373 650620 576948 560873 526468 565459 558899 491234 525506 685015 694991 381900 198613 382253 565902 805312 605475 692066 710947 756592 772178 895104 779324 506714 684007 365795 426454 517400 821220 228062 505823 697331 188717 544589 514029 769010 238066 843016 829032 454156 417659 429054 484226 605845 607728 544168 843164 688207 573054 547482 629315 795073 652386 654408 741219 831171 785587 657456 627604 418951 206873 620190 749744 776779 181555 643928 750796 449593 707106 600262 739270 312075 730226 577957 763594 658381 455090 359370 306688 753191 427168 415594 581464 723576 657811 709753 452377 507345 481048 360594 291244 487287 711172 766151 674591 311538 691645 534538 471986 595639 439159 777799 611446 904646 410119 678345 627624 502341 743428 298544 482141 732752 417271 380656 414571 680791 581353 657477 452391 645865 793438 246266 607918 605167 466396 691434 628652 675277 705676 224301 451554 709143 682224 717533 552379 334657 724447 506884 628825 311165 519507 630865 720446 752979 760953 736296 603028 537137 353622 602383 549811 722742 211724 668561 662273 732721 463253 679027 786912 754927 584375 361101 286442 252144 597253 234836 606815 779853 349456 568131 353732 170851 379167 634199 875313 863171 786442 437396 679339 684619 649383 462957 510984 509293 775013 396012 223988 670682 819314 753561 514831 360999 335168 398790 357396 807319 475385 598981 553390 778726 238548 417919 767007 448532 609690 617153 294335 853713 807130 721483 862308 758855 750354 657946 697747 555398 579566 665370 596850 301266 208185 610215 392217 662420 687264 729522 735168 563961 573979 781725 664521 719774 644501 607432 388243 849493 811369 507374 690336 450279 613150 611985 402279 635993 662394 632390 655759 466696 730930 568864 380793 736073 699676 705163 315036 443453 624680 675884 704586 804265 474822 378468 529772 742982 650829 865521 870559 563809 602735 238847 648005 530355 598943 244109 540946 736300 543351 382914 725325 542701 572896 497579 758427 473675 645075 831096 676932 676896 427292 573606 372984 546085 626612 717133 692077 536587 202442 130958 639858 744826 653269 169475 518933 748300 488228 467924 623643 498826 405145 723834 488178 768311 416095 659157 745905 737171 593802 654761 693870 563695 559592 149731 243345 522117 589383 283853 411609 510760 687872 499969 432829 409794 570396 661477 512362 602533 400082 651225 672217 718212 650829 605900 574946 405067 739572 769430 678795 510661 571635 513926 433393 659737 626157 672834 622199 631053 747888 271614 482192 778099 360280 680130 562691 849373 700942 272492 596341 669452 149309 587944 433804 482274 220538 846993 724450 565128 339152 350689 506163 761937 646549 794136 793160 661492 706610 598029 501311 554455 538552 699654 737652 538369 755210 741618 565669 479451 224040 585046 724457 587740 404736 589279 411499 582166 540662 561470 160951 206737 675004 719725 716833 690384 617844 558999 793986 668534 514667 574480 630864 351431 85495 462855 467853 401933 322312 886706 783428 883174 746332 536818 536476 672472 758628 575067 599072 664175 752310 456067 359747 779444 560275 622762 847656 637340 634473 546641 561646 681511 896604 835468 891988 628949 752282 717027 638370 806745 919282 815729 297213 507087 631558 801600 560224 752567 691125 401829 639207 631896 719240 777356 843667 570982 839364 818172 581246 685862 746091 242097 921253 457000 492620 845827 848748 316369 668687 596834 597764 534013 350198 786917 819803 894886 800080 779274 827769 655141 837674 569578 625048 900115 784507 357902 895405 557982 411610 555523 747652 585267 500943 687505 350026 844147 746928 618556 805701 781533 758522 806846 860713 876817 671287 489833 592456 232155 657196 562228 518559 217603 535786 690829 438511 697075 757381 564271 600894 579116 548282 385530 246281 410441 280923 561997 610257 514626 656368 817371 523130 463773 768325 399054 368125 463465 502347 485272 612398 514170 635298 546596 531950 357550 647980 438112 334473 550507 696407 228209 128702 151853 413723 209352 505179 520202 610062 331532 470791 233908 191484 739853 802063 661724 773733 679923 546820 639452 317240 635861 710273 784246 877207 605929 272817 509708 546267 341770 786732 392990 630181 781687 859180 600546 765388 399938 727210 713974 667492 770897 768200 744895 453545 713728 643002 762041 535146 558337 683297 491761 570846 666063 580960 558781 813649 641474 359909 403920 484021 561415 394222 750013 207425 867735 626655 856699 872035 718669 678936 671626 608366 429813 340698 771868 798323 317949 369003 669154 246389 600880 644986 656490 297309 526928 444841 673559 381352 316277 415268 675715 741690 784226 494193 440754 461231 674955 684135 389485 621053 366710 420077 636219 577354 259156 576335 597325 454404 505451 686045 291690 755786 710833 672165 592736 308292 437540 280137 667186 611493 136289 544714 831316 585245 485163 765796 247147 319966 615570 752758 554710 642206 631206 442172 673569 464649 473153 205730 173283 553893 503204 668176 406058 591641 571505 597577 913659 614604 748745 512724 811917 744698 598720 833960 570691 495195 555390 374722 540120 644871 345974 254505 798558 622389 833758 835310 748958 712781 744685 676961 287705 415939 659006 410713 782381 820126 560215 554457 441104 499430 661257 626907 561706 662445 586113 804750 778801 764655 510262 461208 609420 381476 244013 515777 817096 836291 231592 225232 764509 541049 840475 846881 576851 818620 799347 829742 587900 277736 696377 465992 738476 459938 481875 548685 751863 301830 805667 316632 509879 861805 679090 558390 582625 791761 614687 434458 459042 626452 571194 659785 770720 660720 881190 776885 416380 229413 796171 753649 388543 833114 252500 357440 511780 674727 577278 678085 450626 506390 459981 424027 359490 733205 656855 625322 336313 720320 872224 871282 542020 462915 658952 680237 458664 460957 734131 569190 772004 336850 775595 773222 701880 402585 666669 684498 667272 672610 459045 260758 754214 760270 547594 492075 857470 898002 745273 744438 892578 806200 297353 824155 597795 441195 827637 554866 282672 477213 669196 879934 635403 438473 451651 464470 433607 766641 577730 622455 775689 760450 566009 734925 511529 238529 462369 504719 514952 399391 651629 809422 512477 611056 511155 248619 817202 738994 736821 764038 735322 540858 301667 612047 657649 268562 326945 267621 448928 594989 275413 378397 650107 275420 654587 614005 663238 730081 535181 448766 501863 601702 606423 537618 750840 564241 811044 277367 627358 556176 828564 762487 536707 526577 528459 750449 354471 374277 645049 611819 701313 827729 422658 463408 772889 609867 489800 646072 741016 822133 543973 850748 362032 806615 651125 336224 363966 268367 611457 735826 771989 764409 787350 771830 647803 704244 700964 455468 347435 638024 491142 638693 679243 462488 292916 424315 779719 743243 678113 676809 526627 755545 687984 858493 656580 766947 607598 345801 266371 560008 887784 710038 867591 862688 732802 715390 304016 686484 768753 533704 546018 500733 411567 407089 617136 493176 641165 691323 253748 583222 767955 511586 443680 426671 627095 683260 497872 443358 530506 632434 730393 396372 606110 452716 698779 725988 532967 837660 796761 375291 488262 677231 732665 736541 764819 716598 677747 746018 557360 403456 618497 706689 769057 457874 649516 610342 746408 858306 709601 592790 722321 479476 728502 557106 814902 629359 679016 761284 900354 762205 804936 547053 764673 621817 521820 772398 441669 716145 817488 699788 638879 664043 616097 713573 682040 347947 770835 576944 370908 630371 466029 614912 779184 777358 378044 789860 423147 450796 685374 643509 494496 491596 434550 275508 656554 502904 521547 286898 317325 335713 628405 860563 471013 529894 687753 656401 331503 465667 674664 665251 594307 521167 500919 389956 480238 770465 548444 402944 404877 382680 586009 466768 486587 397678 705151 597779 783544 836169 694716 522368 783421 680351 891442 645228 588624 612014 825882 870791 650868 785651 750983 508227 569381 492807 603060 840721 739261 483564 564393 466223 623557 804876 837334 625843 831805 406839 571916 638290 564479 868690 640470 506093 380453 576324 628881 560335 544532 565060 728086 838803 700289 544483 527793 509566 604263 669754 434796 546879 554911 569611 426009 645456 598902 439084 315644 577976 217175 685582 811098 540512 798142 767908 608131 550554 721663 274881 522577 559654 888995 456462 387447 172340 669248 948696 804893 658502 842022 851543 730482 464796 517062 726082 688106 427213 595293 839091 665738 733358 659586 545853 517462 385855 712739 463393 676751 554834 620626 707641 676099 566579 433870 723783 332572 496799 510538 447053 734690 748439 781139 669275 204099 628599 463094 524547 453279 739484 774454 316346 440420 484157 228882 675709 99600 403634 435675 613129 790826 565104 296099 597305 752085 702813 332428 198998 517705 517210 722619 375960 517134 565589 342017 364855 498691 284906 657481 817145 452255 470608 752697 363475 708513 738968 551618 597841 799276 424453 734654 617830 692320 709845 731004 459386 480709 663155 629963 811440 514728 275683 461280 786487 348957 559236 740734 824925 293378 616887 474765 538692 309438 326387 323095 423454 668677 889431 784458 660360 501632 705009 614149 734654 246640 662871 622275 487781 603445 479479 834898 776474 687372 456727 742491 605182 680582 620566 767449 732312 632495 671435 790800 607984 512483 428894 403260 329812 561856 611237 380385 608119 409268 438605 547001 728716 635830 617228 848180 892391 789606 460533 744774 744758 265713 602891 581328 423619 750070 522872 831044 739953 588552 701607 663808 628377 714261 598451 558692 395480 740124 652355 702038 642883 503349 327464 747031 493623 779439 565197 210288 607714 597249 124235 794577 815412 495851 411344 655443 805157 648244 694548 408263 321736 514403 420810 694503 485322 522299 708948 886120 496503 768562 503938 718579 517282 166222 535537 653300 696790 344957 527867 618127 703562 627059 487925 501053 323985 414920 580265 343863 705550 392055 606755 335707 394794 115759 412173 372280 723676 638347 712543 449776 640350 458632 257195 676333 272599 710675 713499 542537 669730 560492 551627 604983 656096 780828 789472 686868 307639 705978 734782 804640 834844 618777 397688 740318 225239 420804 487555 465667 583218 773527 695298 640779 678600 163911 288000 713576 344648 827399 572866 653586 691185 392803 601032 510457 514753 777000 512165 793566 616547 369550 451739 437508 330477 413198 142522 567126 614057 375553 576253 542156 497119 606888 306633 371113 774280 719676 575066 792802 579940 355047 529050 401361 385660 711301 539904 817847 813885 352082 605755 632589 452831 414224 444623 678122 671403 333213 433934 637086 558423 798236 580446 679988 553624 434083 336357 634416 240566 407982 538681 538280 661489 696110 352255 650421 437863 521185 341313 811106 591666 436792 315369 581270 447039 789069 388196 377819 336020 632741 634447 732181 691145 286033 545819 607282 321787 808690 837094 642513 405951 498413 672450 564588 467976 332410 595075 253048 633854 796140 531659 332572 909915 694060 605620 532333 639195 655797 794097 525315 627258 615189 267526 650976 228321 460562 343194 710431 707958 95691 377975 341125 244319 117026 109080 269897 29746 460596 37425 25122 440932 360930 229728 63467 424416 390208 60370 8225 629728 565630 389220 413380 257207 661282 34069 644095 430854 389970 360211 18075 92666 81952 293862 439042 445142 210507 529 242578 297542 369371 29325 270262 101878 480627 122432 100393 124983 137364 185681 437828 475411 224691 137834 74469 390176 234168 34658 606840 439953 19655 158660 255256 2013 66303 216819 7004 241735 245223 343842 102957 527153 432995 567299 248345 73559 64022 273239 346632 113407 29765 60461 189448 163226 105127 148340 15522 730905 84173 30608 164535 411365 482300 17428 98141 369448 239492 276127 14935 473237 528880 71930 414859 121534 156519 298205 221736 24067 542870 528546 331759 328096 2222 436530 70108 339771 134243 42978 348421 539870 229612 308719 365175 28235 207367 233234 193402 95779 121263 256140 383096 126563 445971 426982 18209 382340 219325 172534 198736 289370 571299 121433 180633 407505 550118 638 329732 442626 589996 292959 475703 119607 427803 262764 417195 56431 474543 315782 329393 450718 158695 415232 149235 272875 268598 568478 63918 426427 87817 247040 2967 150978 60172 677932 159111 632821 335545 57088 300909 245697 19266 226012 136778 564911 668836 689245 76740 513799 488953 311428 18788 222182 412372 434418 150769 596304 30863 521549 343216 493327 1368 298401 317354 28533 477218 264210 58032 113681 249759 222170 32652 69538 47195 108251 40688 199202 385263 218609 386071 84156 249904 247961 754286 370418 64817 321914 275689 269140 515744 439599 629742 591146 133079 4171 59778 512551 526700 523793 197203 20657 247655 88259 37809 511379 7511 611127 401799 251641 205095 197759 311607 108356 316060 415199 270273 77949 78051 374144 389621 582998 65844 525106 350869 176838 229815 212284 151449 130435 375767 23519 85037 339744 172477 79114 264758 316599 208731 206545 94120 102400 679935 176671 206417 41021 174587 134253 20265 184074 396743 204939 233242 106837 133783 178323 526431 461735 36927 411100 29363 414214 293212 70008 179300 473136 175790 29283 146487 25716 544793 409231 19632 294032 216360 121943 185777 309752 93155 10393 448725 326985 311197 130308 460524 366086 167754 172187 131819 449769 356393 103196 236702 215153 310862 486361 186380 637254 741464 364235 400204 582470 272044 414131 389312 55522 559989 407020 405946 255532 625494 550713 579958 588553 266308 101497 21305 343435 281316 304877 204503 190696 561115 106016 103968 265664 79748 505422 438517 329575 28345 175168 162538 137250 256294 209278 310876 92357 205427 56255 129671 577417 525866 253940 40379 53895 150502 17160 106989 71804 141945 113320 209176 140728 202163 186066 110619 37982 14578 26529 114105 513981 18786 142416 498132 402311 521744 503266 228585 38729 76297 331456 104014 127342 584181 419702 386257 550258 212630 595244 158867 221623 9998 31298 371140 224805 133050 210424 192670 37121 722210 806500 436858 576422 183336 305213 359963 135489 169514 462351 659820 99308 360394 23044 295900 233046 379367 25017 272323 160320 115668 138006 312965 20536 174812 83371 172715 182165 197156 414276 753245 662622 173174 116047 138736 99550 260530 61533 72983 214723 222846 85896 419667 582823 27046 230417 32112 179744 376363 230422 25294 68294 308769 103304 180691 303609 156705 609936 360757 661410 440061 260114 215234 237162 130051 110003 1249 288509 266396 328529 172758 326023 219562 414156 229059 201296 459763 279078 224939 326180 249616 323925 94466 105151 199223 92634 206161 229899 106476 603940 230324 329253 50440 83 233249 238425 39808 154872 281592 207651 54846 46458 438296 366144 263956 129107 56479 334886 166723 203473 58989 202 206410 129993 326161 113047 323304 393293 54900 151188 115958 130123 347129 252170 298977 358442 503732 415964 465631 122564 571701 1859 45004 90546 65485 167633 310776 390541 690590 188047 355493 334602 282891 161637 372785 224196 276691 137252 606644 369859 221038 6163 244823 19146 497757 223249 137835 650446 613712 67188 175178 489520 588904 264058 363563 136279 227349 558436 334455 299995 385153 44973 508260 448278 114207 412505 39299 339272 575026 146157 455970 191329 341335 294286 121140 546271 170719 190460 183853 252247 309961 322851 216625 455825 138996 293827 118711 329700 650728 287443 291235 366950 147321 48405 71501 57113 263654 320521 297790 3582 501206 474035 41856 171208 259369 89533 203147 708249 471921 501688 728513 867095 235844 607314 224516 293143 196422 149026 318052 72435 217084 273955 287618 196442 34288 539062 123295 89743 457213 439647 516546 562878 132749 100356 157962 534901 33853 502866 145084 648730 198852 13223 775550 825896 496783 132807 259873 57143 128302 63746 159131 17452 293865 285974 29505 101350 231706 66695 477406 169351 664127 88183 343424 682916 435020 560066 260362 515028 115262 80658 177368 269959 282056 58419 622575 170821 547392 189913 612490 189904 329769 552718 245794 483506 510162 255501 165328 238567 130963 150441 296217 271595 179391 656440 452857 47785 88159 1853 15507 329893 236041 635652 30547 351112 232902 85585 282778 268905 104556 101769 47255 56426 577114 303809 264974 272046 267500 558647 532603 459462 256280 94561 133672 155812 79921 201122 262026 105693 253900 359157 355270 48976 178569 577708 613543 331536 71881 513916 606356 108512 71792 374630 370201 403503 408595 126120 341592 102052 287375 258448 209654 139020 385716 152340 54391 211497 545007 89489 227648 106524 155817 421695 203217 18602 175670 43889 290089 253703 196502 129182 222853 508987 75992 411809 558754 859975 250958 74128 215875 667202 36270 88411 317279 10601 303228 525356 97081 210700 274797 292109 639084 78858 86015 40302 378590 178676 16855 374511 610474 577421 120477 294108 65253 458538 329662 400459 250696 470792 520606 312125 37706 17203 229751 597608 104026 315691 297489 351136 519154 464203 354412 553450 75108 253580 636004 254106 123794 166893 362994 439390 674922 577983 119939 486793 470272 713024 389510 447623 132708 235797 194439 570598 110445 145754 456833 545649 78705 305307 289876 169818 259162 554162 373132 480503 630150 460862 324187 593161 256318 154896 424308 84214 284397 238183 313968 128511 497247 241318 77412 514207 342552 659342 119892 151634 29030 614061 15956 640259 157999 263192 137101 219714 310683 6427 292735 436164 566005 215774 93524 525923 45613 322880 95452 260012 27855 197306 562780 544727 205773 10616 345047 313642 74264 746562 264534 215190 508129 515273 2399 340943 11444 118075 327077 211571 258449 247985 66227 280878 251835 113168 585970 129083 428453 112312 191420 526928 341431 611895 31505 58376 73224 334890 227180 43275 450504 298590 147014 211601 24916 147095 34819 56861 458155 573892 53645 194221 339936 89231 411036 314330 52627 320035 294544 109803 51835 140854 312546 320472 554453 581786 42471 467386 334598 159062 374363 285683 525215 636865 96835 224636 9271 184077 108784 282447 29051 78168 522511 449968 505343 557758 258513 68435 697258 689500 108745 23068 374487 361219 627198 545951 496679 408757 531424 295095 512894 466798 602455 104492 296705 125352 446624 518133 499945 460749 400688 223008 35237 278300 30426 129416 62424 387429 361132 46831 620450 387362 280063 408635 28408 296580 137374 388748 457163 342462 216666 216463 477391 201740 279403 439593 667348 434618 238186 548317 567201 213465 280934 247761 26723 593522 676029 649893 171855 42797 163445 51636 103102 139889 464016 201407 8631 563476 242678 149399 241724 591892 275051 513356 479142 568529 126996 24035 249048 14278 627836 637149 155942 166284 25349 155574 653045 586764 71732 57457 204153 121937 134369 59038 107513 381733 549241 376563 162963 32502 673642 264657 95991 415767 71860 398137 281846 160244 139475 444304 186393 294632 596903 472959 689723 81974 418560 121305 152155 351247 365998 508272 6018 14383 373045 288658 384560 4746 336712 170363 213325 210613 412989 511226 685508 706842 388140 392500 69378 173166 369010 417941 241299 94887 29932 313686 74805 176125 494246 242584 77896 106934 3958 500907 380763 11594 56695 261302 407550 93193 137617 379541 88364 572023 304278 124262 349679 483568 426747 28856 597599 200062 15155 50045 300039 196528 179679 182828 16115 82288 371635 493636 313312 432658 182292 597835 111181 84922 61812 394778 454915 271600 62183 183508 450665 245674 69083 424950 130327 50138 147552 145565 257681 683239 482152 348149 25737 749833 90758 233071 423515 405355 515859 558899 452218 617059 53310 174537 240123 286652 88013 434353 354413 101449 265854 403914 58450 11974 17424 71614 321280 11755 376954 572134 268099 114452 311410 399768 137415 502050 452858 111506 91379 435821 380038 199289 32293 213074 126682 126100 275643 302293 24642 503834 443016 365543 4868 123533 449813 411341 193488 551121 641075 362826 117116 161018 484861 476917 458930 571562 88556 175089 92787 522525 687109 326422 391395 287212 268649 201615 97065 563436 378560 131226 208267 56903 284715 158874 87699 323127 157499 474968 496914 381375 235475 262710 593019 715179 93685 238681 86004 383736 703189 410982 257470 31052 629363 67375 198423 153458 232705 381291 175056 261654 87105 258911 209380 23694 390510 584174 145235 51558 200070 344777 284710 15050 334353 411938 168697 103061 27189 472214 12909 568848 86671 233320 79066 165239 9556 261303 456500 419618 159963 181768 132326 391044 276824 436039 740662 338422 554847 581958 399113 429133 292134 311422 355277 345002 195088 4712 485224 451561 210957 21204 109481 276064 144885 3035 727974 223378 737933 94501 133116 161800 4278 197169 146075 170039 409286 548322 698792 104076 411238 274947 249636 309438 557194 34223 353236 193610 537602 124430 350636 450954 151115 54677 57540 149767 30370 103469 329572 222964 82419 149640 166674 209003 656859 552694 453311 243764 446990 283594 657764 333121 73487 377739 426681 96502 457664 455762 128972 185028 10227 291354 82985 43783 354532 103906 55819 242757 117082 95821 212372 191922 106896 517372 338076 588231 270463 588168 281911 166203 73434 66098 163119 140419 570873 523373 465666 4952 93919 403514 322131 79240 250004 382448 680629 524436 450177 226122 278784 84717 147090 448334 464025 398547 616186 459297 584327 89076 437431 110897 419746 257367 350625 455277 141660 119413 665750 318249 433548 121346 518918 706334 32779 670846 401732 144109 607857 136121 43165 34431 432827 414534 136626 527708 112147 637852 41772 281675 71162 96346 441172 78619 214685 497038 207741 602336 300266 148754 449819 631012 628284 579954 106674 234188 157853 469156 541738 502321 424977 42768 449263 427977 422888 603647 472801 321829 399919 499424 750182 57790 194902 576915 121923 565178 438214 177680 137105 203868 823809 857916 187252 426434 192670 395268 468010 530604 786407 423761 230316 87423 83552 45906 287791 374550 506480 277211 24676 448071 85166 114401 335728 430628 231131 710972 311085 433426 184144 305201 362467 302594 623465 47001 270611 349799 361379 559436 432339 230569 253421 336443 666624 524697 290312 153199 261150 134113 11167 596281 108990 105116 406549 285384 508607 332521 160402 202398 525411 487973 201000 411891 295672 329800 31760 325686 278046 705000 475030 598795 293900 338304 247664 601679 535817 404201 378906 485618 645841 765663 256447 105626 487028 701564 561930 614067 278162 401302 588852 1463 171105 164361 86216 179197 475946 306462 190414 171721 24718 62945 207634 104383 150082 203698 422889 243888 402911 245590 194695 510922 481262 520111 107633 512748 85838 113959 91870 28953 190626 7041 149291 15978 289770 129807 57137 145172 40307 368310 300835 424515 38941 12422 475593 159748 698493 230743 241839 360609 45257 392156 127926 501504 258152 169719 221359 227070 13603 317056 301815 65319 200561 303061 479634 174494 393604 175948 145488 460516 541888 262267 193874 145033 207901 291431 391414 71909 189593 376006 281869 212979 420351 411925 491532 507336 226946 140271 114003 30442 111618 54187 352336 253877 202147 17696 39003 351713 451123 244891 366178 540638 192920 115052 61248 50786 146712 69225 74736 48741 222495 629432 435702 458059 272064 625320 584034 154837 434143 19334 117738 68100 190272 638817 284127 183438 121782 21731 557763 539366 643800 678012 871265 628664 393575 295869 245554 16792 335771 83940 315769 506384 321368 63576 107531 427516 205443 324326 344976 67176 381407 335554 802675 274951 257217 13720 323664 403501 188244 96505 232001 123976 92379 281185 45331 583761 127116 564988 410209 232937 344501 160048 405022 1337 72187 297741 633692 526996 483327 687708 65572 297013 323966 385979 403944 260035 112847 111856 21980 479393 321074 67466 543830 455611 2120 92470 403416 503242 174232 579988 224824 310951 369558 112934 325647 324904 13713 553882 28660 104123 446426 275605 138472 135487 63483 538909 217982 162050 398499 729818 151173 157545 94174 70983 497621 58983 505914 172058 17493 93004 28965 180800 44116 299104 498449 206825 629265 756735 192220 177696 358357 192017 112182 104616 48274 70404 169298 176109 327939 255096 604256 401564 188810 53723 256853 80074 174958 424153 124882 134310 35870 255523 11322 169578 318242 135317 208544 369625 647739 81241 43479 654383 385955 91915 372961 402558 387905 156383 162571 9859 116164 608258 371972 285977 295054 192145 312148 218830 386545 49498 100651 205184 223033 437359 44674 124122 356979 248154 209166 233929 272990 18412 79946 378924 519794 261945 24571 7790 270846 433277 297295 617190 336135 136545 298209 444382 167542 183046 237471 200189 252838 232965 511835 384395 330777 527755 19907 121560 130886 79604 491701 578704 343432 559750 203892 324265 106551 431562 204533 29064 213163 213870 320768 118670 356154 287502 379042 320901 260391 273238 225302 449613 152374 256971 455980 72796 50285 284656 252602 116875 143070 171662 144596 24272 282740 71683 181462 118075 661969 55854 64278 252745 360699 280104 304909 141417 594785 583212 19428 550530 98344 487920 192657 90257 474606 236114 239377 587967 153326 386034 380603 386208 179277 113599 359615 342490 149974 391018 255697 34181 313608 130169 266844 342330 243516 619753 388 196465 104877 78597 700131 696940 316455 451648 678784 730616 821089 497716 133121 30579 589407 147468 567078 467986 543689 22401 8464 280214 112865 282374 267775 483111 114717 401224 617805 68950 222359 406106 464542 68043 378931 68678 125290 49486 424944 49011 561423 8533 316452 392388 430986 215480 271545 41856 124785 195644 65052 431284 314360 126245 49394 688171 325039 35838 184216 329891 16052 26274 167316 69229 68161 104820 280000 429860 657273 537201 613253 354061 50109 174331 184781 69085 96292 514694 119000 513454 531406 265541 224097 754286 258352 442224 97520 709099 369840 781045 732231 512150 569374 57021 72513 16435 263639 411631 403981 66795 267123 699433 127719 15453 65227 357019 44931 84558 20507 174498 198277 219303 313565 429182 61142 295895 99365 398027 632982 480994 296815 323260 551122 429091 388252 213396 154435 507077 593594 261713 84424 25796 196562 7079 474677 334182 243663 235064 97678 56601 713162 295130 114560 390929 76381 526903 402113 770465 342856 330619 214769 184260 430998 396211 508015 136144 312670 271108 193108 184256 145691 204354 68754 165103 41903 486561 649548 246968 528317 147107 4627 395920 380770 129914 170340 90536 133792 41859 298992 369224 336680 191184 513856 697983 513134 6058 45205 145496 294313 39496 214947 86341 746237 19167 266687 760583 415825 455336 194259 103219 554849 210852 631107 406868 355701 408219 30569 109541 595847 553297 111795 535888 308997 487908 130951 111508 66224 336811 548593 487959 95469 548807 268051 312127 573854 34649 347939 84080 515792 145904 513832 106325 134453 139813 232193 247959 601073 114018 216645 335970 63618 271030 67045 164498 590755 518890 883199 226904 364546 646818 573841 96393 316585 39472 145105 18083 90915 291473 92213 387871 569160 343945 369765 166229 729854 599262 345752 64553 138968 101917 331392 66144 285554 517435 611192 834232 507848 252427 159132 107147 292167 60329 57805 441033 414244 104170 49673 668854 106225 45459 382468 536827 705060 495215 471443 110370 353195 85742 458561 617532 319322 27631 98874 69198 63508 1695 143160 87688 299197 261400 131645 19309 224300 372364 688127 137884 86689 435703 481507 580491 127607 384430 88041 198889 671957 415310 156038 481422 693358 407893 465287 621199 459979 336908 210034 51864 286533 108542 352254 209811 491733 135195 161041 27007 2294 194785 41628 199944 148077 365033 571496 422357 15149 108 373974 169259 382483 180915 70579 15800 6259 356763 530009 586954 650672 369067 726652 502736 277411 361415 289965 77322 348714 157200 459839 248668 223896 588893 215865 312766 261430 540576 275400 69548 673728 316515 239662 129921 332946 480582 333960 228025 678809 815417 677633 158361 42986 149461 332974 303505 4178 95806 44516 555295 224134 142018 341291 57853 110314 433512 104051 132258 124490 551581 72098 438849 274851 211115 105753 248216 733802 607593 100967 525771 312064 90526 390311 109904 519302 429472 595888 746041 402447 34068 366393 334747 179315 61230 618114 674997 284489 50135 55978 221135 332911 118187 126429 153501 285909 204755 686334 590306 371866 408868 286662 235335 108137 501808 54326 306460 381328 395303 397118 273831 219163 152116 145992 238194 170719 128085 136104 87550 443432 247969 101930 107309 453116 401124 395770 457351 132864 93582 34858 420783 391963 419954 603750 113778 465505 345940 185316 633668 278760 452444 124578 474063 91297 418812 580513 428814 345604 477386 482960 414745 49594 112060 313611 305776 7657 75134 138024 395412 246505 579798 278575 356607 27274 126478 160965 506408 133068 322643 273001 24971 120003 36275 640861 577286 91431 40243 74027 374095 142973 129892 121391 186134 261338 147956 318281 301505 533580 444482 124217 244882 266482 497403 236928 322310 155942 224582 441441 190938 646872 123059 120583 501632 162968 109750 101366 73679 488442 485956 643057 647526 497257 7094 151727 355082 427205 498977 266238 510972 84563 48744 168587 168563 129932 456884 218014 289942 313329 133861 361955 437824 350496 284010 559153 691058 748288 116986 44595 42818 350370 8484 197764 23254 500029 52178 450140 29718 764019 694308 248585 11902 563460 70363 47922 270093 70141 234760 372241 292369 383981 321592 573513 583245 2616 550532 38225 456005 144423 27260 359905 515158 124525 379892 792436 496010 253775 598493 444830 481481 451621 721682 134557 464896 120030 88793 474589 274404 619675 769114 281837 200700 12071 363692 748118 24338 16201 403022 585091 409185 417126 685059 341479 449802 74987 245339 51466 361271 113595 94756 599976 422717 22877 266344 433622 356785 219363 284379 507573 97726 401565 102559 339716 440640 5732 255655 7101 207810 293136 195097 239748 20303 248501 546894 25873 337140 287413 66518 371205 173496 169815 10852 549251 215148 589369 332486 495998 481665 1253 115016 155513 524989 192267 274146 117965 268290 454252 566625 135587 630074 60405 55230 36340 142773 318334 362864 48435 70134 303348 316411 346120 263060 301845 518878 42068 285851 287992 77308 34849 287620 58968 521260 635349 232309 457367 173293 478793 91671 195859 179052 469875 214517 181262 141242 419327 350719 592959 397733 554931 504808 160818 451771 385750 501870 267797 110025 380235 44477 195923 317474 618660 530855 94915 2379 130511 134893 342914 258085 38832 186725 519542 242766 466260 173326 182357 482141 87630 105020 693013 382034 349575 511389 353207 115787 700990 785975 376847 659967 372881 407329 200577 549576 609394 376657 880576 136737 348005 399916 401911 528853 155007 103130 297064 664551 617454 178766 390560 162235 514736 507416 666535 107311 62815 417754 187197 36187 384896 408353 264906 247808 395372 413776 704530 141410 473711 245011 285322 308116 88752 40345 18172 329259 260858 549612 135766 775216 252324 263034 435565 542119 86026 376178 481917 492550 363508 123282 323936 259121 355527 803874 459113 333575 447519 358495 357673 338109 56303 553416 22818 293678 322289 199308 470702 256772 191073 12738 34548 164891 684675 578737 675136 546068 284405 432943 370581 246699 32041 55892 354731 547503 94904 502245 69268 79236 220869 260321 422371 109099 284881 300963 283157 291507 319443 200425 83123 524477 226663 194553 1321 40504 505980 403519 195083 124677 411525 611357 698041 723510 206125 486006 401473 401243 258065 538951 531310 597971 382612 245729 468589 615096 193483 215537 113750 394293 56891 457338 706006 30749 258780 318480 294903 340521 40711 115923 283412 90031 834977 398986 218641 639390 525085 434322 688361 253337 117450 437840 171922 666274 252407 150246 248230 166767 372588 29983 681785 662218 262296 174586 37705 286356 776114 751001 484404 442451 387930 34827 90964 568165 236380 306002 338655 44830 344019 108378 12727 431202 157445 306505 488191 454390 269960 303714 294882 6586 151171 171016 667057 536388 26110 485989 396571 22538 584153 322848 61768 303797 312164 240988 416817 229919 213005 439507 456006 537318 378244 270189 402222 744279 100928 123258 178626 46893 359371 429287 308072 133648 379232 60911 108319 26910 474493 276168 180845 275861 61719 133178 150986 50013 79152 470264 192041 213417 226428 671327 65259 53353 221751 188526 177980 307135 363301 552516 351436 609180 456935 368646 184916 105150 158321 365803 42700 539848 318994 349178 71174 80002 80165 136661 288098 440659 344485 345381 705671 549261 174482 302343 337346 247614 257132 284073 69753 166924 58078 231228 258753 145348 263729 40551 397508 560839 295052 652533 380056 1539 319680 189762 132981 484847 67415 103386 156955 76536 388752 117011 444875 433009 241715 142909 653625 178138 128172 266705 399236 656047 20193 80529 196338 54324 542600 586489 353467 275112 354011 316177 367997 398171 63545 60213 451891 375622 779905 534900 281610 191813 210275 155542 87995 113029 41073 290046 42622 346967 417172 408597 184063 72827 183645 446709 224757 137925 331031 119577 216893 212467 269919 174589 139673 262218 14672 155058 217126 162457 286551 74803 116040 91506 171223 273663 404784 242099 476665 406971 271180 310934 673052 545381 578396 16215 653476 558748 203725 48492 483895 443762 395626 56389 92380 448418 563891 19555 236957 116021 717234 364219 621312 378381 63554 166991 295820 434136 370584 285417 41457 478094 177641 182920 356103 66750 425585 634748 237507 400581 254902 72962 411389 160875 688554 129390 412367 443268 461394 219218 325929 312879 186890 280204 146367 263129 62346 55255 425981 252080 80098 280818 412392 369615 397609 116899 237514 224976 199000 494981 257049 306837 554823 323247 10457 218062 9314 99582 734711 186431 519457 371858 25305 343460 377298 384321 737124 152691 228252 38439 13794 78476 369980 55134 293598 404890 549204 738902 31432 8591 148057 589021 19872 590997 460825 9299 109136 224684 330717 617770 375720 483322 548429 159450 136251 581909 353820 465416 290858 106528 712530 317256 54979 632591 102744 682097 538743 592104 286545 344474 276348 20414 382856 572259 345511 486971 44867 611809 416537 204714 157449 13493 15385 405722 460147 542627 34272 93163 637777 467491 738170 597520 76306 368328 331434 13876 179692 282286 266339 404065 327899 238825 192065 594761 297457 291778 299703 71069 8936 391696 249517 237732 95428 595506 430835 432837 484150 489724 238334 322244 727055 604150 184183 122617 270233 424859 88594 386100 470925 403167 26627 262196 156784 125130 77613 373025 181882 170533 563413 459988 215631 100138 82698 204529 594238 375183 225296 465297 140892 559582 247015 155939 342300 19671 144526 232673 8553 70785 96746 76762 232625 326913 265758 292216 28949 361809 306629 275997 133656 260426 119703 126372 107671 43890 345078 328192 350767 223686 553345 31443 51420 636302 28564 564244 94903 414804 390773 123790 368086 421928 160192 221232 576587 168278 87425 2892 348944 638846 222383 37899 294584 453002 457815 181227 223446 308947 196319 205625 589354 459192 153081 104729 142505 270141 50616 711794 480689 79734 107661 109352 27379 379647 710056 130922 50445 542994 285089 36501 111576 150206 134400 92021 470676 194004 124580 177814 329496 419367 385369 402919 441653 311482 253398 477208 289317 267983 423966 680104 327114 624338 390775 21757 134010 83108 61126 186047 534031 614553 59807 146831 561738 587285 162877 184428 527286 63165 20001 102310 74980 105196 80455 237132 263544 361796 268679 514660 583482 436649 133040 136553 428253 295295 143305 11610 239321 102339 405914 29794 361342 46556 47814 256191 389379 270146 30585 46406 331391 106258 477507 215530 234716 56904 524147 265123 107401 174332 149729 412125 226383 579295 264267 58872 36103 126936 44486 105939 236139 187287 332647 564855 550828 22743 122939 378696 144966 211684 72872 492614 203555 323642 332780 154403 564465 93917 114946 51318 754285 569214 288655 677373 158880 20165 185670 24421 453387 442755 226131 27180 304751 322524 27557 393964 323888 483361 197934 602985 56117 201879 281982 217475 457065 464430 255173 165332 642708 89469 284219 198873 243504 575924 522079 130186 154963 109430 299856 206264 113310 99226 60181 168782 261931 320139 213078 211766 230256 323079 379353 647842 237987 644004 27062 3272 633724 471162 250716 229880 502351 214231 185751 49228 615183 80607 509124 469538 352482 115643 212857 71285 518986 408106 169175 282220 213342 691623 367379 44215 43712 43092 332202 275354 71915 331577 363123 619808 579685 80863 498577 161477 35804 244422 191087 444139 557743 345805 319665 320846 92570 220921 14767 422595 585014 455095 21071 281864 318434 455921 450491 555007 56769 139620 347197 283184 92562 78554 494018 570920 127692 102584 540707 556416 75575 265707 65047 409942 11467 243693 206850 185038 313486 541387 393007 315 388714 331482 213086 566961 101002 2338 626747 780264 202272 491289 252501 160693 299501 33285 203707 83829 140153
