9242
999917 999986 999909 998465 997419 999746 999268 998019 998456 996345 996766 999593 999354 998695 997565 997037 996104 996378 997049 993693 996050 992945 995051 993284 996917 998641 998708 997691 995742 996557 996791 996715 992426 995440 994217 992855 996377 994297 993234 990249 988629 989135 995295 989139 991139 994728 994381 991178 985740 979432 994312 993850 994975 990193 997060 992638 982783 992232 991042 996157 990558 987820 994421 989318 990036 990309 977766 993384 992947 985000 991614 990390 990040 993855 992634 978022 987906 985736 978413 986205 990232 982476 982982 988287 986142 995047 985469 980527 968330 990276 982059 982284 992308 989949 989869 986726 990637 973531 984912 973740 952079 986200 953323 979410 984371 988322 986147 982076 987824 992300 997022 967603 992380 955889 970003 982602 985039 971046 980206 993384 996142 985146 985524 972143 987237 981443 989599 980924 967010 989548 989670 976388 982850 961104 965715 973730 975340 987556 985808 981698 979218 991377 987850 976081 987034 987368 987581 968235 976132 989297 986472 973150 974069 960812 977866 984037 980972 956194 974000 976004 971855 965145 966443 976075 981790 982551 973272 986606 978741 948182 952959 979194 985315 984706 961248 958297 941495 956777 961629 987071 974414 978544 976090 978703 955735 973783 988569 987365 948978 986357 973115 951521 962346 971100 975514 969047 969150 975350 983989 970014 971260 842769 947720 978946 973443 949225 952547 971111 942585 952202 980818 951311 981999 961506 960562 978020 935178 986107 956787 980629 961509 977816 995973 959495 926229 982858 970264 954952 942317 933413 947504 969671 969784 956354 983735 965236 966997 933029 943542 987803 987107 973232 981053 962675 967773 985185 982183 951114 962679 978959 954566 979324 969047 974295 977807 962460 977388 963032 943359 980920 978761 979360 958258 955288 975587 970674 961144 956887 946797 962169 936275 973461 948726 925621 961774 976405 962379 974310 970497 978876 969808 978950 971180 973337 990571 987566 978359 967083 941449 976177 986529 960051 966006 934879 984946 954592 964894 966375 967087 942124 975358 981480 966185 964662 934390 856646 954949 872033 949025 959225 960892 972326 888348 979341 959615 893372 951638 889225 907896 972911 965365 963005 900121 964546 925145 957320 906529 973335 953085 922712 939254 919604 908872 917440 951498 950290 967408 930214 942788 903649 936962 893917 947260 929850 974176 863596 905837 937811 971244 939757 896623 956559 955258 913346 932783 946118 943843 955763 954217 932152 845396 966039 966699 929971 945559 925321 903660 974655 953677 941689 906909 893021 957241 964181 969230 976737 920044 914420 945291 982846 973016 961509 959796 938924 907778 950789 939465 858242 955939 942802 954192 933429 955518 962461 947602 954891 898245 975803 978258 896913 949727 961849 966606 800734 827721 921833 875734 921529 974475 938517 966714 862319 925123 918620 870881 954179 954144 936205 940109 864155 866478 822257 951041 915023 944568 972098 866361 931223 923628 921389 943416 937867 932937 922221 836910 979919 971090 952445 911321 965363 880577 948379 954026 971620 908521 963999 959697 926528 954386 913095 912669 868066 944597 931813 960859 945482 940652 926222 838022 899184 902666 940497 926889 933613 966460 953636 958547 914393 898348 950431 970364 889785 928783 944956 945463 893851 929050 939820 931697 960944 945965 929280 983189 973067 969455 971227 956204 922558 947204 930450 942914 982396 923118 954674 930915 904947 920064 910008 939570 974965 956081 911395 878867 966322 915950 968225 940586 858867 967157 936413 973289 838389 929178 946420 909385 915443 955827 927662 929897 973189 958807 977084 955678 977835 950508 945177 912379 922222 949432 958845 927548 966782 960611 930043 951117 952677 929417 932058 918899 951123 953728 933907 908160 948612 958623 922709 901727 798626 911226 872557 930809 920387 920689 960299 962115 965598 945902 920156 957722 975019 978179 961504 965453 971170 976936 933466 890964 867657 925578 980514 977266 972036 978802 889286 970861 929879 874362 941267 926628 947104 876978 972450 981953 868498 942900 902221 919632 917507 827579 968764 965746 950049 945516 925731 954559 900019 931702 824826 964230 726031 796530 964524 896393 893896 981368 950125 939575 936088 694468 901368 861726 802758 855717 849915 943257 843774 822933 766305 892058 953876 854407 937666 908538 959710 943894 850030 875175 962882 889135 935996 857690 850812 798682 910681 929981 875150 866464 889679 885875 944112 956430 891843 937922 913106 884071 842693 900006 927656 951454 906932 821992 953103 905062 898713 902264 946009 853499 948121 917175 873574 910265 918258 858395 906943 904488 836783 870691 827500 870473 920705 945342 892935 942138 878443 942993 921781 865102 816118 929724 835256 870482 926455 842361 857308 888994 887760 798113 925879 880549 927329 822978 853158 802101 892657 898145 924880 886809 863934 905126 782310 931864 804576 832326 916921 926708 948417 857779 862861 889689 910474 869260 901155 881685 867528 912853 950416 947232 787498 937441 908989 809020 763675 843066 945890 964589 954357 857498 926461 926099 932641 763077 712714 924022 734694 748530 899030 949231 923591 910945 735057 869849 862823 768289 860091 814653 919193 946335 918435 933972 950910 953394 969764 906504 878774 817993 837138 888001 934141 942213 847983 945352 971224 962465 942234 796694 935799 909718 899786 825480 673252 833010 922836 831517 840044 896269 847024 852322 860027 743126 936155 935357 797593 950803 906107 800217 948294 940958 955641 940789 913172 907405 924694 899195 871695 892553 906376 916107 876829 964465 878850 872970 949334 928689 867117 844205 916693 928222 789902 781607 775595 787108 882320 913926 870819 870661 876781 863586 853648 961827 905016 911046 926824 932966 853493 860723 903139 919266 848861 897703 847649 811305 934045 922418 913866 935604 915552 764461 865905 937883 840458 832248 830080 852001 821565 807284 905320 933823 805938 820303 925463 933164 945827 796743 807253 779549 921822 867700 911343 911818 746385 853594 889116 916371 787203 891353 921870 930932 894519 754603 781038 801179 943114 958803 966457 962586 882984 868121 847258 885345 942374 761106 784468 849438 794253 924823 891443 882962 951231 859501 856895 832134 909795 928855 923833 905790 865620 922228 936002 847768 767204 876366 885727 871849 833559 859824 822130 842170 916161 868758 870777 877007 930664 864886 864080 848334 908361 815215 732961 784546 845388 771301 897610 879214 888610 820033 864782 915781 920737 883309 944716 940854 832479 946983 914544 872327 797401 715801 893872 839315 847372 760808 741367 873816 882452 880948 863475 890160 927132 794952 940310 923851 870911 818112 891764 928120 805952 911901 930225 890038 955271 947725 931455 921398 896101 917992 980128 962330 929481 852844 951542 950317 887231 923233 946346 800533 904300 868064 944877 941562 763419 907328 848204 870938 896923 978925 871901 903989 885684 886929 849680 921856 782569 868046 892300 864308 780561 837324 875095 934824 786708 767763 947473 930671 866256 910357 759952 865646 871074 892036 785409 861932 931031 805708 932294 860292 830024 805261 858183 923088 886068 764359 815032 915997 761332 766671 920847 924503 941497 897982 902559 900322 864491 863890 888065 938232 900012 921533 781063 929857 955881 822911 941438 943876 876280 904872 933655 919879 954495 923999 914942 909853 940606 942309 793993 817835 904315 804556 857268 926883 877666 896190 919310 888022 903520 873601 957973 922279 922178 917542 906090 945466 854213 922816 891066 896920 903100 907898 851194 918474 741848 915525 951334 919543 870425 926570 881102 855829 891515 907140 953083 891810 918562 822967 880805 834417 769362 764533 897541 849880 719412 806405 922351 876168 902974 906837 809526 900050 951762 863710 909244 919612 877576 903499 922112 928947 721956 860944 881706 933066 767835 965607 971252 862974 785867 936023 889351 838879 967222 957189 902301 877581 920713 919701 849327 748803 866209 804503 923914 787360 764950 912537 876075 951095 938638 927414 961178 930551 816329 880391 953987 953168 861731 897686 831884 853993 929119 818056 881955 771652 654966 543195 803087 735134 911720 918948 900076 952849 600588 833338 796860 791311 871326 765373 744850 736106 898938 881502 542642 823194 799666 937871 841205 932453 722725 877378 771292 840390 742473 778284 823441 952723 752659 806306 841355 666599 604805 505782 882990 960024 675458 589571 759516 794650 929269 766243 795133 707661 858513 734109 700834 825667 819271 938189 654885 822835 749224 844586 672878 684178 801679 864613 772581 752689 729360 795992 818461 799430 802692 838126 850855 883740 790297 556866 817126 690836 640725 607073 866282 874332 747821 927926 789538 553048 829861 768346 489045 669301 841526 946144 812956 930228 443192 817817 803093 712190 947151 823957 842067 714951 860948 867472 847124 838816 740654 849201 774251 794103 830387 870556 836846 780836 420526 398804 750908 834518 837710 782355 782059 730083 880142 902467 776665 942976 879011 777773 932313 879355 826926 900302 749678 698589 781318 528915 811193 803131 884304 882598 497594 542484 858046 720374 595745 460546 840858 701436 790952 885132 866223 897183 864079 804121 867967 842334 823545 800768 680361 859395 850386 776641 773943 815210 845746 709528 801854 886521 807103 760637 707543 516457 459349 772838 785060 691828 829135 675131 496505 538057 837997 790095 826593 731676 647279 878317 579215 699575 910231 921266 844411 836613 854164 654217 907847 791800 705938 741033 810949 716839 587416 891360 742995 664485 764698 608865 635395 789262 682483 688720 690787 815503 643660 856329 820894 776689 656095 795773 787511 898544 871639 875964 758346 807381 813921 818082 750108 581525 702519 636638 651757 760646 857194 894407 839884 876403 702762 736123 816542 664304 867116 567122 751293 753319 725006 871167 798732 586060 746895 656816 742364 853223 755508 879411 779834 946872 800204 759314 665412 475431 694969 799477 842517 799089 800655 729834 769231 672522 782143 682459 805899 690165 904751 865440 399056 945009 829362 886070 728224 781071 518215 906796 743574 715527 805951 654475 723093 594376 830152 804188 843797 769816 881265 791641 918019 906704 834744 838467 587421 575743 912152 796541 800211 818539 418892 467174 428639 532328 794900 894601 430804 681637 555953 696628 832518 683830 925885 942117 871986 778896 727017 657247 304881 616668 772051 805764 860804 810082 672213 723341 686588 811622 765676 750417 801635 759778 674730 597503 865021 877079 866763 913459 924781 851687 668751 859278 936428 963414 787168 853362 859216 835296 773260 787553 828509 835070 833834 834844 869127 824925 752024 900753 842284 768034 942632 778854 944877 856013 910548 935950 877887 879338 467078 624376 893172 417837 865840 780936 861873 690212 624295 685218 663426 553365 816832 814235 881722 893095 673412 640574 790925 564180 743885 723400 809814 805406 723563 763953 672863 792258 723915 711498 836148 619883 832399 885308 776813 783906 938341 930174 873003 768979 709517 620370 893740 883514 816093 897274 815227 776273 891721 900779 660385 767736 696426 835508 877302 804744 764157 849855 851956 835728 636189 644818 768884 790276 616968 628365 835602 580526 955051 938494 841389 859927 688550 681540 915690 781287 888626 573152 749481 857998 725752 570604 827441 616847 781901 856230 785539 691141 267770 758147 718296 759537 771553 690979 763208 832055 892659 864526 648884 721014 865864 585292 867284 601567 461149 810052 594460 742059 959659 941940 473148 452296 658823 866395 799556 884515 840196 824833 746513 838039 703042 705588 796689 853533 866564 902824 740055 655339 653020 890282 713816 835391 765377 502501 735552 829054 865413 671019 789280 873403 900196 829965 850653 796693 762357 730747 746626 798414 843761 931008 840419 708213 829583 705477 773448 682927 753650 815411 679205 727796 442748 623412 788312 815051 739571 791277 701291 774618 642794 713112 909493 802072 878919 910643 885722 709645 766029 701217 706806 659722 508696 762966 907266 869339 839740 777070 799934 852200 840340 858985 684866 732146 767114 755672 826396 824477 914192 687164 678871 675585 681315 889226 874795 843093 632658 922911 764134 784019 447921 471027 633596 720600 545414 766129 780134 819807 572444 769409 807999 942238 878232 672704 831690 684653 574387 859630 834275 735228 866377 829864 819268 901312 629897 539496 730013 690486 758136 798270 657576 718466 872914 836136 771596 781675 861895 773741 937540 915921 769088 845680 836319 781408 751926 719041 651708 761775 702934 843894 916386 764731 896513 648994 722598 715502 900573 770940 750766 735869 530824 789089 766079 605502 694519 754556 770696 875132 601388 760941 639232 651316 836610 796430 775516 674649 636464 826387 854346 773124 861418 753699 796884 765193 607091 862931 906522 878098 784043 860890 860772 848140 608328 809278 723103 866430 689536 778287 707675 563989 495280 745799 527866 816990 756866 742751 781661 808174 866624 837929 886066 857529 818981 813098 791681 791593 849634 825255 888231 480251 866400 786982 834359 759435 893182 922219 824869 623172 766028 905678 659870 880979 840464 863672 673942 718869 600934 713607 762247 752187 826462 831926 828954 768404 665866 604837 738645 591112 572868 780215 833277 738810 857109 795766 463456 807407 666519 857014 907529 894283 691622 785624 822564 920292 879353 890907 711523 607387 781058 722655 891512 847062 877733 913778 742860 671334 756815 907061 740431 872696 866514 889279 808230 928253 917715 847948 793234 589359 742775 912277 723436 828469 818217 847401 800282 899029 804372 520720 898625 916327 496785 739312 678915 687032 907023 926585 616769 859586 898480 893337 937166 894050 773843 740669 845775 843264 816663 702055 844128 864808 890639 448323 540037 742610 857587 810921 748017 844526 748109 786233 833033 808697 862790 882548 699179 707931 713158 744499 683798 722357 871636 620081 799264 796963 871980 856652 764672 495811 863462 825902 703859 831841 705996 860918 558387 773853 692120 806613 854887 511699 754596 778469 586964 637936 600883 675090 783278 881540 772190 465321 846555 778164 787173 877822 636685 755302 537739 710849 837516 802908 833316 691861 744722 757922 850969 831163 922278 738090 729444 719028 866616 891911 832841 825816 797133 806455 804611 609411 690233 839362 757733 711735 852055 662986 617501 684263 812437 784546 802592 619840 685023 414372 690690 657328 896298 907617 922323 850692 904196 908965 874159 606295 853377 869235 807488 794757 746583 857493 799735 544177 862938 721232 818179 611601 889683 698860 918802 706835 772327 494115 661319 911522 910781 951484 535780 766522 870528 846821 843934 877320 793830 735203 831041 761364 889402 931259 757796 742780 885449 788354 864459 786189 727730 761988 906598 801994 856500 885987 925973 728637 780165 621123 716949 688052 829138 790634 629782 774823 764395 678716 900256 789843 667684 849827 822155 474050 833407 836927 677762 612683 896324 801042 722040 647503 934271 882912 868002 812968 606983 809074 898378 904247 818503 889799 934482 936166 851154 603254 826723 835901 623825 833497 803813 655643 858940 829480 873247 716553 749228 804989 843320 779536 730494 709357 704003 905760 753980 919896 836013 801063 843139 831935 796644 912515 733750 780837 784223 706173 611197 729425 805588 705233 910973 709550 863510 813395 826485 735602 529526 751537 736436 748941 683984 744472 606231 533273 705445 735994 839513 514834 813488 634783 695785 694931 699570 682150 867241 591666 710535 797131 873399 777365 776168 737167 452190 676589 795329 835276 913308 801012 701084 758023 892988 870393 525634 830780 575448 808199 885899 785330 892883 905766 568397 920569 580863 584672 856896 733962 516785 680621 744987 839179 761830 699834 621043 939924 637181 924830 710492 790909 596529 748737 806374 894027 675579 760829 650750 834192 777607 827336 902213 749011 865078 684032 817964 857209 689696 887620 822270 868930 796429 828809 599467 743757 799494 856071 555913 711523 891443 851884 584780 620923 738959 660697 893799 908341 851220 866796 933774 840893 703072 900235 865954 822853 774777 737002 854982 922384 618596 715745 846356 647566 952499 768695 840563 938777 848674 653662 890438 860147 795357 818218 852856 517588 807212 603446 297335 748521 690103 847136 273112 661193 636154 138801 421768 442675 793722 108231 559212 571370 748941 762556 822649 638727 535909 892414 660892 730978 536071 579052 811165 765708 699245 704544 648087 527691 425254 592358 198431 554252 744438 671945 661969 731020 804132 766948 433070 593265 428220 513053 644372 767598 373546 625648 326630 862467 504141 545643 591036 919931 648540 698015 735585 706955 350177 338344 582210 679230 612101 685430 73527 514794 799322 652681 838830 712036 665414 296733 438337 794061 651976 642807 226601 468812 323768 502535 273307 429837 573251 814692 721675 775806 638905 284017 450645 553701 466748 577078 564908 442075 340101 850549 724504 488005 767853 221563 520370 468006 506427 414044 676384 726979 361124 301439 803240 409577 649985 790019 684188 553754 513999 428689 610399 452827 495393 579209 832138 666879 428631 592955 504740 667085 651235 251693 759830 726553 560758 503254 566365 738270 493641 298484 600705 501471 806946 688422 741878 795130 786727 787122 718189 782111 358633 821478 754586 779218 757599 695601 470462 496733 742415 640063 631489 636085 417222 314523 590338 574555 865739 640804 420988 868162 667797 302266 419339 701203 766460 615504 433833 530798 404999 669268 541894 726747 341998 291373 613602 547294 712202 820880 397175 760367 749629 648328 911587 906779 408647 265491 775620 807730 790063 473569 578260 439529 841357 843775 740663 819431 424768 692764 681948 419585 781741 598734 676144 694373 765629 645494 485936 609469 458837 330905 440808 630301 702947 551380 515548 685886 578243 684426 713674 806256 677644 834291 336515 557077 161162 408137 246156 385378 371276 508494 725834 832289 726940 262127 334730 432346 637389 623197 688034 658023 523054 637358 593314 745367 760833 448107 539629 520553 483480 442832 738367 765685 789353 884120 691716 687312 342282 607828 782912 854217 606218 623732 686634 540901 576411 731933 405380 473869 425426 688685 732449 717321 841474 836223 474574 781432 415519 467654 529031 304796 740763 251833 411375 661896 484495 537721 368515 451478 426356 804912 631777 668961 498593 416088 716931 881686 821203 850351 849194 410293 620563 446654 736545 332756 609085 851140 812644 761952 779658 658865 610978 460181 565297 587204 576326 746973 791411 730854 484500 721877 733219 697109 696349 704337 752155 707008 692301 415320 757112 520564 740434 526573 613842 640835 585110 733799 650409 650325 415152 253019 393536 174319 764580 754687 626841 642965 672824 112363 392615 649298 446753 400309 447405 130508 423487 454034 697280 833125 692078 458207 670723 459940 346981 76258 480428 360836 668154 868307 533335 544407 477610 494761 475141 486916 789613 832670 430370 120619 503454 627261 305338 575871 400552 550421 851256 882421 599161 647549 174315 433394 498738 636594 657230 376311 600194 576294 560347 489183 763710 791826 432666 301598 652264 619041 724900 528077 269371 553707 494528 572759 391804 683996 571310 660446 637869 640501 658796 679010 703794 757525 574724 635448 197929 745683 675425 543073 517707 212824 510135 361566 243361 644616 389035 692467 847377 897434 431296 805290 522967 524666 531563 460204 499295 567375 492267 281080 730274 614827 730802 240396 379046 200520 672560 480172 602552 295332 397065 489484 632783 291424 754836 564744 769568 893721 478103 713357 607816 326091 661702 553655 726305 472645 535499 785846 512644 591322 749398 548495 110529 463873 634810 66315 644826 752272 658215 676962 766430 506673 587330 749886 534027 466788 607038 697028 403100 397654 420340 708680 644657 681372 376001 484453 719388 299108 600939 187625 540865 627151 521897 708402 562615 645389 446608 366409 150970 295861 410199 135537 554277 769851 792243 455880 732714 337615 268978 529422 514397 715374 402700 717730 148043 515227 723788 447905 575409 512468 783207 743330 396681 591024 619156 395660 750743 495995 351084 381323 414216 559134 768347 459288 524174 730389 453397 604408 681253 691203 434296 268492 589537 633060 714913 621061 365351 522007 415417 367340 244451 644943 692605 552225 455777 398392 435192 605934 625471 793923 530088 837958 364549 706259 875785 878804 532166 722640 629787 667987 656619 769419 804289 815600 330213 533914 458662 484472 242021 575122 773427 642416 116789 781328 660728 788916 340064 557696 372177 393950 419678 202387 396785 384427 484506 376684 558630 668363 865927 760818 359438 169809 590749 380763 360848 460619 451912 531357 455711 813488 498634 651114 675925 549108 253420 867414 719975 702516 413554 523955 714825 643937 376516 480422 103047 181505 466622 466088 534914 287981 801644 573190 577469 695318 787412 194447 606361 658715 589370 556513 598195 674447 793211 275525 209114 521052 480313 734346 658255 532026 715742 651499 632724 530954 521940 437550 764580 829474 522021 757332 577685 584625 436558 891483 788809 691089 829112 441169 495604 466223 746266 777954 326813 920337 594883 790446 735218 706354 751277 603382 765240 592719 698167 696557 694001 308758 540430 235790 576686 730239 816700 792045 831514 444390 497949 694650 790160 383657 587592 584383 600575 608695 861476 761049 498614 674626 722541 357682 498437 197527 680956 621002 774770 882263 712526 783429 312040 826228 760646 737976 802837 812833 831162 788207 362714 387229 483034 498043 850090 727451 325991 329553 398060 733461 583642 415933 581418 646979 251402 653805 567946 235623 434291 398033 603398 586122 520671 203961 456944 605165 560520 779609 758360 427165 665101 887972 510280 641213 550460 576958 695579 788648 549866 543289 595951 703068 697599 364827 778904 384539 246250 486709 689549 356370 722472 645651 176677 577500 463338 598991 312737 470940 685391 375588 523001 664461 486050 513276 622335 594180 430558 802737 716685 763627 412830 706381 910246 771100 859710 253655 728210 659567 691578 768253 624316 264750 475712 455170 684350 532688 790582 748977 633079 372445 630494 894015 742807 330541 326497 680340 848511 847796 883087 753303 507846 605050 729023 702641 520837 536768 832632 627822 474387 219463 706879 712875 700850 704630 372764 605547 848254 590132 366459 679866 464245 562619 373635 575423 309272 643587 687831 780790 478340 422105 525094 296645 825459 731802 489410 393868 655705 637716 620786 389695 608827 508566 590036 731903 590595 573499 275463 593591 774844 860400 580973 701508 872605 645661 537591 529144 739164 210636 449224 524013 589670 484739 485450 437670 827272 461153 577417 572790 564720 722792 846955 787102 777535 704949 663375 638990 119505 266092 639054 319125 714550 477877 640512 499391 520058 450205 669229 649948 321913 732210 625181 751539 496141 588886 702058 230255 493761 645861 685047 712222 735607 841340 467889 319288 572295 353074 396601 546458 258382 400986 637162 364659 524319 323404 502059 703430 335269 565705 864297 723607 404181 394192 329370 399421 482247 440017 850933 511568 634972 337756 705031 466408 543964 742918 399875 719141 254322 731833 677639 694345 635577 632272 403359 375226 681457 158665 759316 506557 682668 630253 662897 610892 660944 537441 483527 578896 559238 243574 682400 385014 636030 237678 780028 686713 689782 567346 224262 229111 625684 686044 624281 757764 357673 502968 637760 423226 688703 529226 457429 292110 883428 340113 817261 785636 750841 813344 313267 556731 586586 585626 504882 228577 563902 297598 764756 798287 775925 361998 918630 836476 752227 545776 408591 550968 710138 590415 606321 492517 472651 438562 584488 546347 702626 740505 804838 723934 400526 399578 680056 681282 414077 252426 461589 155899 424242 687291 645179 672480 700103 616073 444309 649361 620611 690483 728643 490486 529453 630810 642424 688255 822395 529266 368103 500752 598392 486181 849468 835347 769523 631707 441726 440970 761287 750627 462455 608525 338245 698721 502827 393482 419962 340042 356208 326500 314743 859354 750278 830826 632315 580833 658681 758782 715641 697136 778867 566517 717399 624053 746598 511094 382655 590614 468147 570900 439576 608097 751678 536928 621249 357161 812273 660895 891054 760428 217879 592693 592273 467184 541339 477560 421643 535697 788216 707585 680886 843063 232136 762982 473958 632390 826953 878084 662399 223076 644059 651608 393074 416356 429043 337232 315227 603802 336944 665459 237460 404222 723919 672175 378964 592305 537039 559293 465344 244481 742033 618206 607699 671127 773416 673682 707325 518507 160502 650790 589836 754321 417472 670804 258119 385221 429544 828064 553087 344418 463469 320156 800910 526199 528100 582432 634288 357885 799287 450408 586691 389922 160100 463877 568838 692326 472885 572425 384374 705318 582573 483109 579472 632805 542004 330333 711849 710169 335646 476310 640059 653428 412884 273357 625453 818339 453615 640862 478927 367861 617680 825944 734853 650742 486167 794561 709311 554165 524217 771153 714393 696638 53941 535280 584209 605088 596616 544218 665186 329497 569729 339131 602189 291267 618018 666258 490806 776585 349388 639929 393787 312875 633481 457389 881285 522148 561413 496109 667495 728016 695605 615865 400712 483802 697413 357431 471246 284323 373009 572743 533562 248088 474053 608894 620023 480128 867923 655899 520352 454772 599773 756854 517037 388474 642732 425977 305907 451588 794252 66629 724603 694038 526838 614741 604048 629457 264444 583712 698584 798316 487184 749561 668491 376285 454988 603874 690457 765565 529897 449360 553102 509853 378882 560418 889733 440570 514247 786598 452032 402883 729465 370298 514983 801798 467258 764711 396585 466819 681855 806675 635948 491455 710809 511434 531855 593946 516657 620821 632951 322570 437233 513885 330491 337252 723627 706837 310932 330117 787028 522686 319616 690686 332496 437136 725488 529356 716133 603045 696905 603643 463217 698943 648966 876191 628850 831722 652429 634236 513597 668507 268379 437812 640663 570981 837123 783680 782727 763378 820757 794717 456416 466563 743143 753127 559007 786268 542930 792445 689086 278301 729405 498148 554123 854040 649671 815511 472052 513318 715042 688546 448182 660008 564559 649886 402673 617039 821199 528834 812471 857811 474137 569430 418893 541873 455170 442294 651884 540514 654110 456389 634052 635155 799555 590662 675858 721543 348199 785412 520062 295051 406971 463506 456864 356494 694552 581801 411446 560385 461259 370843 508129 235257 597619 757640 737034 505341 790395 665871 308652 297906 358743 425075 429855 554478 637353 629725 782342 731910 676812 636847 384417 773079 261814 662672 508819 647924 802551 793457 504206 863566 496218 394074 806601 887135 683409 677411 542703 536142 564332 173350 682483 336396 155403 851566 801785 840159 572404 720945 708194 766587 239404 362612 568860 587279 739548 276473 804983 869558 387721 507821 833536 517306 849688 732036 474049 637823 496833 552570 882105 779391 687304 868844 629946 663146 557619 644175 181723 411046 478203 276161 411538 851386 689153 462751 785264 721702 615295 551475 818353 546059 746295 735705 671134 656223 316402 782240 331561 499569 798362 886918 827655 677639 355974 440529 531227 653397 259574 187500 626700 500198 452552 602543 749944 402541 420750 481451 846364 549542 654134 896750 749587 703560 302021 797998 730413 753977 731515 298829 365297 399815 777396 757588 731399 490561 607378 803767 698225 467124 705062 455062 819614 826708 617756 765929 361803 368604 462862 438964 675119 233489 701889 414982 800374 691276 707578 504944 218830 736782 523591 618946 747936 747830 799780 574837 596344 651461 857327 758524 489699 841984 266972 630877 536039 670360 423914 185993 551417 349022 410654 256036 548559 408035 515809 492182 451146 483506 667355 713017 689473 712707 871933 799457 159978 740647 510825 735131 300798 479043 611313 686317 739045 759197 418708 255860 762816 784513 450890 702569 563309 419135 493060 446493 630073 455568 535541 685069 783077 393218 824474 712830 444994 477126 609861 546687 723122 555726 366897 357863 530813 313036 156579 561506 526721 567723 768874 769535 767360 304244 471533 700355 375634 459676 491171 836226 649960 368630 626442 675012 807397 698679 516486 626041 696854 592500 278738 461256 310822 198642 750563 798803 552948 734129 727028 751383 571312 400542 430774 284560 751839 337402 662608 816238 476809 520149 859826 866176 721328 700494 626643 625460 170059 560038 726023 765235 751389 551723 656285 195142 562898 437233 391609 692584 345124 716184 688094 764998 434501 560068 675696 603079 802940 607470 360482 478138 458115 593799 399463 640491 528950 236292 511533 597693 490599 331444 650410 595562 622364 508840 388116 759054 388784 433134 650327 596792 200423 269194 574851 686651 264060 426986 455274 848459 797373 889591 808318 896347 703469 646692 740775 903119 439767 858945 408791 851971 605929 300087 139109 336256 857742 126059 418517 414215 661283 615875 584265 550966 710390 830094 675556 726216 541245 531984 217940 799721 668999 466987 605655 634465 468965 555126 848138 685030 688398 627652 694017 708132 512822 486545 606529 355878 336724 484990 137717 629468 531414 747140 729774 236690 376844 848549 515890 251557 508431 658304 192373 688572 846427 443503 767309 759425 562140 653664 468738 440041 499164 501074 603467 453636 494559 267458 634142 877710 633967 906392 647960 521952 557444 736090 800573 818139 656639 776862 809854 610641 572775 695280 507666 712771 581952 630749 590798 903498 496809 463038 424756 712542 774748 883720 658108 370286 697721 544518 457283 647598 443117 363760 198796 368155 640182 495569 592974 569203 565765 779074 571286 489126 461103 341093 690438 640497 429722 601383 615103 602904 484676 498871 476326 583652 796234 747791 811685 330509 233155 328644 304520 536748 800514 539467 406446 509403 384073 352062 818066 807682 774129 706729 446201 290669 617003 481410 703153 429170 657729 814554 704909 394807 797968 559335 590022 379909 689750 556998 761607 779282 195117 894376 648988 658378 832368 638918 584781 880370 670954 382565 570564 411839 289885 517072 723543 753711 736863 720645 581470 611058 816223 791426 644765 469278 578054 578918 613876 808445 688469 772741 511536 303011 435392 710692 724350 536589 618421 571719 540796 550403 656437 754081 442906 393396 645097 494640 701203 483930 853425 884107 536620 341183 668235 841746 667341 672374 639995 510116 722975 807416 802895 804406 595121 425984 634151 758053 381538 362024 503401 647448 377770 654926 621393 403881 281134 394831 619343 547541 700690 755027 652147 148801 519159 721041 479588 619008 426207 851688 757838 400701 544184 584315 318511 232434 287202 285000 623836 462042 695937 715224 650222 553955 572179 570869 735580 688839 485104 528401 506980 472891 502273 653277 464936 635585 733569 707423 364268 466517 805629 462824 463614 592126 330486 429733 316964 509173 618816 469480 674343 640018 395464 761174 570888 497023 642122 471655 579530 708569 417710 75190 599059 269943 766663 612481 471530 723951 178357 249415 606715 631433 555294 586145 574382 762625 867009 616938 744314 439346 396415 376890 548543 478189 773663 868509 744264 467680 257227 386097 740847 826534 282576 440930 474690 684816 829701 869439 625418 554468 617517 596213 745804 640149 150716 314558 854013 827492 499891 395640 551721 522870 470248 535121 722318 660453 382245 473196 656770 527024 627362 505324 743008 496154 746547 709708 417450 525361 570218 427361 577247 778827 462538 537268 816712 392752 685908 508472 754849 770676 304254 531124 374243 609773 592194 768038 532907 564510 572481 482551 644143 406812 588408 589097 412380 807687 750594 709015 745786 693289 807722 895086 306656 633599 829127 566561 279597 580986 602631 563457 616543 664044 595412 687875 621378 760237 542564 568643 763195 650920 739869 195899 826193 261495 340746 572542 672901 576076 769071 721947 434739 855457 418788 428153 586169 515737 708701 563360 698728 762633 527976 560854 388259 367562 594394 361036 596860 355726 691383 661156 780982 772711 649166 652021 542837 276871 910603 496591 819685 718856 296189 278643 344711 372398 863000 857878 723550 390673 476820 729334 535375 623448 736949 600555 903518 816277 596978 437324 701867 674015 492745 753859 556922 399394 459952 628988 383778 595915 505186 660193 934234 618840 819413 702002 487176 611023 628422 558718 785107 485704 599011 676953 457739 560552 381857 657039 67552 379167 743455 523022 554580 492004 60148 155556 590713 65292 14063 91736 464742 608018 77900 69945 484516 67121 6693 362033 66490 78081 153980 363455 89153 350983 576457 478486 59576 84001 159141 478539 127384 551365 743430 169924 385854 561600 289967 185766 20775 117900 398370 184110 614668 181886 379287 516741 278824 195166 416679 315697 98458 6677 47588 80844 527463 546319 374727 684299 506230 246033 231014 543960 70848 478314 322629 199757 63225 393536 13102 36255 519156 11537 315434 632406 438732 210398 623122 80722 396775 328335 558624 475061 135072 412129 5279 219094 586860 510719 146632 359231 284161 84079 216177 609573 548356 559845 8797 145427 539185 251330 107081 42673 750085 806732 237166 81458 267133 183741 411227 183252 112028 510555 388087 546685 684857 461291 336734 558441 56743 678153 85566 99926 43853 5779 292983 146508 649321 475041 388877 604870 311004 486754 63147 37583 252906 413069 343664 495866 571949 361868 442785 722595 621760 266759 50196 213237 294398 184413 110797 293200 604388 387394 242660 206837 158567 32497 147027 191466 384608 111792 129231 189883 464923 165693 200110 16305 25100 288952 561084 432700 193232 779207 219643 172469 741960 45179 241167 374845 163123 65882 424261 334076 148214 222312 281179 46374 141791 126683 91876 54194 60578 337138 173281 79078 39101 367640 324647 404641 280188 53652 623583 364926 28348 111818 93512 16181 210798 168322 254612 201537 144223 288551 340274 148006 369421 655303 89323 104424 202236 248068 94819 489604 127141 253408 121627 6602 91674 116414 182694 477201 370732 314425 488544 96833 9202 337105 52441 389220 100276 88752 241235 22113 36509 56032 448435 742506 324680 242886 181950 315266 291017 17770 420548 293602 515285 264131 564705 229690 59305 115575 287471 163186 680495 199889 343434 412698 12914 227646 519855 58694 335062 245616 199939 77986 33286 211138 70217 206604 34724 318761 640397 689486 340915 290414 308391 149863 716591 612117 316002 345815 208959 72838 253368 221002 436003 217022 51555 12418 521499 706854 492946 432073 50384 382975 164945 442989 163149 527271 338925 147550 141931 495754 520628 181003 105546 284598 406630 174636 136394 556295 282532 191144 21800 34965 544693 429847 184253 164874 569706 306865 622962 389295 155897 345227 67151 123349 391182 36043 291261 243556 111329 69489 537624 348414 108796 345330 578392 395459 17470 410052 300142 362806 89014 248810 593609 442902 144920 356782 298395 238782 142082 321143 99113 47804 56427 532421 102047 367150 452647 513484 575773 51086 298522 328628 635998 119089 495656 102429 587270 233334 163519 135323 409426 895086 385171 57828 165656 211563 235004 703344 19995 772236 762419 127161 257687 182199 431109 515455 124553 232610 392632 368424 156257 501744 177856 705247 393569 561999 190052 76725 276948 341258 138143 474820 306418 170349 582913 12541 373208 217386 671824 262199 260665 504219 286440 665445 287147 356218 404433 219858 104121 503995 425574 419783 5103 48720 336799 49800 506384 481911 355270 62815 210817 531704 213672 216759 462125 595414 241426 302277 59012 570986 521491 197867 243287 527267 163781 434287 510264 694729 323122 11151 55436 181399 127254 140906 19254 49238 120245 142134 292150 254223 92955 202721 320875 61898 560755 440644 372434 170690 179236 709665 206598 148479 132108 71853 365471 254821 37930 211398 615954 256112 141435 386583 569806 189731 227115 413473 91740 104609 342774 122596 1798 698051 511161 166812 317876 324242 347656 264743 43285 510848 385212 168942 114239 270452 283369 153744 722018 529241 257230 14273 459332 694145 566325 690017 286396 552298 286676 117407 595640 273215 738322 262727 213001 578577 265866 169562 218636 574086 464985 166994 402063 143634 375160 486635 41304 595232 403582 161109 119021 369812 66908 20633 581073 596494 525573 392348 115279 289184 806808 149996 39605 616756 7245 281183 652463 387328 363656 32419 200451 429598 326597 74260 104809 72965 113393 626799 126734 14927 263892 80557 317899 440308 55038 81549 229508 144361 75050 13608 260968 413738 343275 263104 152066 653894 341307 584700 117158 647902 421355 172745 98576 306305 226243 213802 795693 633594 506620 40887 635610 272613 229890 410656 335066 227386 224699 133809 138530 91639 187872 655623 3900 251434 390443 518705 647752 427900 566089 156680 417258 287390 586331 225828 552262 182185 595844 273121 160683 372639 103301 257971 265985 155167 314231 100677 667492 443894 599046 224300 353762 79014 101119 311708 317302 55884 623907 197561 356050 229183 22929 117486 15497 679137 658271 178928 701212 80003 609673 244670 348332 362502 118362 323970 438684 260473 576838 88606 172591 52093 9828 426570 171221 595801 366049 451359 138173 360646 573196 35071 352558 519106 203876 192051 10716 223242 108149 71868 40224 47340 582580 201332 741729 540493 52679 238489 412028 82304 399531 392487 36120 68626 371551 87553 213344 461694 401452 251678 293808 157343 204708 347019 112187 89988 84366 7099 275725 110550 191203 69121 263099 372771 648214 198869 115890 8190 314016 405822 320002 341044 184471 340670 36665 12489 27516 297639 196106 5750 620816 116785 254283 834326 191286 189536 444266 288720 112633 405084 475495 143977 420388 10972 280537 282459 684466 698152 5380 28802 414766 54177 99569 81653 298040 215968 88707 591783 173972 215424 539461 224363 279008 86338 392790 244421 70787 158318 214139 662922 153357 207832 625105 389416 73447 117138 397570 138070 434461 60344 183507 461522 151727 248288 205685 185564 196741 501043 176217 74098 178567 386393 485534 328543 29659 656162 570253 771910 227838 27978 154548 37961 251239 492455 403556 500150 323446 565908 144115 423091 25829 148707 531620 92378 49636 309176 178648 557657 117359 85991 184450 218610 252778 165452 502344 577246 541081 72401 53854 411371 412211 530566 591143 537233 379158 53401 400549 467882 90576 173516 63386 63732 183331 76165 457610 287759 329743 426949 274195 104467 59965 226859 104605 172195 185202 243939 69990 170181 121827 37037 346726 223509 278949 190764 235650 189641 795359 25069 472781 8896 28701 95544 712741 138768 74682 30185 74913 366071 387584 120949 403287 366608 295460 300223 566301 109097 220395 178565 139075 117302 135906 639088 287111 213154 96691 283672 216768 143272 141645 279773 68725 8288 205721 446049 125210 415863 455242 581505 19349 83433 119789 370233 150912 300985 430080 410517 86459 82438 243000 386212 545818 518686 428317 119742 513356 26761 257160 170698 330159 491742 304247 153385 91619 221178 368749 10813 354776 237760 209754 699641 157842 99810 111569 99495 525856 94065 392296 278175 91392 191777 442733 190249 65561 529001 27711 9910 176327 434913 262690 130655 3925 18707 116535 86382 166881 93651 197434 567810 628120 47031 55337 18433 411641 358214 315381 480161 127908 359786 76289 300721 97499 226566 561077 119375 692670 662595 97808 1210 219231 239313 78177 254338 636515 515467 9387 193342 487157 672408 285921 221954 381072 112025 217079 692415 99913 238519 184383 396685 15583 108261 22746 5547 436047 55235 67329 190552 569555 697019 555798 431876 389665 166402 204795 31475 242297 172430 36871 11571 260645 264756 358914 192731 62838 81882 420277 276871 174337 125818 311246 425321 90202 285361 132476 282883 111482 19317 246403 131438 17016 92459 336495 333736 385844 72691 176810 204045 219195 624760 30679 100993 227163 514213 92308 531477 236443 314120 354049 342372 272382 445342 252232 129430 46700 235636 213690 174033 444632 201238 343990 109737 56877 35530 650992 238977 92527 128674 71610 117400 278036 194686 201578 366044 549572 232886 745117 324942 366804 151457 410490 482812 613856 298073 62764 36191 332739 330189 495434 57030 387301 347241 607 363252 52320 25443 502330 135027 163293 29943 404424 357915 407244 110437 133127 290130 369391 173325 191076 314598 11606 340574 175842 88990 181431 639314 230953 128533 510351 431885 251554 239827 302136 35189 161412 131315 307592 177982 313820 372886 642636 630950 183968 516727 81971 64946 339468 92508 37601 469902 268319 826170 120515 563226 266341 232805 652817 329827 540171 431420 504475 415649 357519 78991 551860 275203 268973 460193 551967 64084 234419 68545 34742 216806 334911 150792 360536 323827 12928 192427 93879 59699 139597 331150 464843 125152 115004 54353 645608 318663 230316 463295 547322 182302 10872 258930 83129 221706 116877 298609 357842 189417 292232 174878 98077 117959 281836 267265 202676 213493 201137 317179 208993 147158 124415 351076 568255 644011 49483 757091 259228 598999 49091 116136 29142 160985 85654 219786 72804 31425 331739 235350 134584 72148 374189 382592 64675 236480 249707 104416 27443 643880 115162 9453 639239 124338 390475 184444 317902 304285 185766 199080 648721 801858 316802 610186 602630 15406 218971 193884 412612 44461 456062 210371 401584 415784 271233 257274 135484 194502 88678 20279 42573 92446 17288 163366 139943 394129 232267 99393 253829 202936 617311 642641 566665 435286 384838 91474 679660 349836 742773 579651 188350 41322 554862 354628 63973 416576 65012 96557 125089 209130 418987 276548 157496 421555 72508 119922 133027 250445 102228 175890 194951 121978 42812 434902 71510 37633 179804 496794 22879 61674 177750 631780 175620 421551 630531 521240 203465 354357 468847 352711 208271 401225 742159 247281 597194 79111 414365 265962 626942 154124 504184 395375 396368 539098 251462 171327 390046 268292 738372 399229 669817 401086 554168 193505 357487 101414 443240 47834 30442 205995 657697 727371 594995 427924 268108 201909 217068 185774 446670 432473 347191 710066 560440 547666 368032 390696 278144 261852 591799 112067 142134 647253 260051 144643 239134 694681 72959 231940 84946 449278 107820 150435 46177 403740 28615 219119 339623 423121 118528 135091 342417 538272 400638 756523 179262 519179 230585 331785 182256 33833 527987 616061 396908 494744 159222 30480 162503 138821 555698 507281 396555 244425 404072 557413 632457 537506 244359 565786 72478 215024 573977 332450 283316 104654 195974 286257 7824 14514 70947 196486 335421 468663 394196 176409 618748 244792 172053 309150 142969 526956 462897 307271 168737 106012 300330 90405 96812 83653 12959 521124 482910 137585 391106 789844 596974 804281 570933 438971 288842 260952 221626 331115 370894 232770 134057 459284 477139 800455 535203 529956 46848 308171 291024 127569 329454 308218 527799 728857 156537 330259 125179 26606 223925 338596 627901 639695 225522 67639 416170 220393 15674 509189 37982 127615 232217 269805 320007 126878 318664 591655 10278 415525 94574 321953 135731 180732 81439 225743 251673 170716 328674 230005 299718 68745 330331 549398 121795 315161 23829 565851 395284 686966 277534 188784 441946 258262 478259 382961 523555 565885 222180 518182 285420 317761 140946 412210 536560 434166 509695 388200 43039 607080 646789 435544 87816 44388 595596 647725 13762 62415 144807 208340 250285 415020 418447 481431 241357 179305 348138 67967 93723 629773 137927 117596 251404 342723 28129 358560 469530 184282 218231 53419 128879 25053 416181 313393 355933 334208 3818 125307 273334 105137 442045 366535 167609 454725 513261 342484 199837 260856 411677 353517 9683 484713 118048 94374 191166 519507 399089 284275 98825 457402 475931 883055 242807 140911 120880 129160 179059 203833 361405 182876 649232 120017 212206 502388 517502 717660 176795 207629 101457 191304 218844 211053 8683 267356 312569 41319 173595 346743 551397 270363 212733 83595 405831 41473 359399 332167 188989 478002 244559 454070 20139 97283 198760 289500 185534 121900 362767 314652 645286 56327 278693 14257 444091 257550 713197 109948 366263 318163 22047 227232 723460 447248 306482 673136 137572 64938 429257 298430 105043 799566 596434 522964 410658 291765 105162 117964 565074 419571 106918 514715 355940 41135 338800 159948 239772 273041 82803 32838 556534 521844 473256 207719 311267 82137 417328 162413 400117 291467 522223 53688 192305 203848 153171 380388 11693 84761 124872 269246 436877 653850 374724 169551 389528 307883 17300 378290 460785 448672 144740 7430 493625 87816 77687 600142 257247 73699 340672 282371 437326 279603 342060 177703 168667 190592 5302 114764 215415 311555 351314 51033 342380 65510 276704 664678 462126 88296 539147 142094 11749 87346 33184 23525 591261 427485 776038 310245 354484 149558 604550 232498 378328 345439 234652 355441 331331 9289 23129 161016 192899 221961 74382 137416 201140 89799 91636 136917 114801 219851 116481 471544 29701 451637 385020 279638 478225 32642 232132 32473 344924 364652 282302 267569 552154 122679 322263 72617 672288 308305 565652 774166 676207 511062 667944 400543 73006 121467 158755 151377 55365 42788 53110 86277 276257 297119 118566 37944 514826 225636 430881 327481 174353 622802 474901 240802 126516 51998 386664 232171 376983 585170 144325 581100 257369 160689 540297 51806 93880 499517 338159 632241 461901 463129 249464 390577 141155 219199 199379 63343 485531 237926 148990 611354 110358 406150 357857 479074 536666 293366 160348 644274 401788 56336 255261 314937 187185 243096 12411 343235 23599 59215 201905 289 7001 125894 225107 157624 58558 214687 172398 141628 231753 460508 257253 313885 83069 150662 145063 296954 194682 80718 536385 87098 534904 211763 664671 4069 346685 322430 308953 334901 195782 304043 236176 376906 418795 414923 274811 162235 204747 422730 338121 354020 490060 15314 192754 44083 590964 13401 367431 248520 502278 298862 292972 100475 234026 285086 388177 374735 58830 144563 449879 246686 448750 188728 645400 330075 465390 374162 285989 59912 334879 222752 245478 282138 217608 474325 11795 114761 204493 523513 221413 265677 384480 607147 44148 222942 316804 447716 12974 89387 604031 247979 276168 262012 37516 110700 127562 113470 452480 538583 231575 242335 596389 63042 53117 135913 438594 396039 34938 129382 181681 26383 336190 344718 498270 362875 508192 265278 50800 135338 200869 146733 409894 618266 369982 178659 399337 224043 46921 384359 243136 310955 316944 14848 112313 5140 64604 266049 104167 366536 183788 516482 56191 229893 73848 121008 3272 689235 265198 164688 230468 658311 155483 64179 83629 243840 454532 267286 184313 299416 156562 291797 96985 559823 394333 563570 4738 163018 21187 146945 519333 123201 63563 183470 124308 107159 742905 686808 488484 469904 292895 293332 344624 278652 27745 275222 128546 163609 485624 408404 334968 199105 171544 57987 181929 398526 239103 103906 391160 156155 464783 367140 186904 321563 90438 89112 272519 404778 3178 299380 586203 364171 681511 705681 339299 669407 82703 257477 263568 100609 38595 239379 50010 300375 154225 531373 353831 371952 172740 196845 90884 209280 130223 42586 229054 400639 49488 336930 17589 330264 522007 510761 104992 27527 195067 67225 411270 422117 500466 191004 104659 120524 333610 488956 30653 392699 148038 397200 449823 485320 198485 204723 233287 431332 139040 247882 568708 415782 323403 84476 58329 313391 58529 111985 262852 470719 180364 284376 80244 312732 383746 672375 383632 223835 505935 259307 248413 419839 155411 193757 498779 629121 703897 577435 83485 180042 258031 476976 255571 68095 516512 313701 305283 466254 205355 12840 326865 323172 145692 223396 262051 170443 200679 122480 181394 260950 49896 66709 482802 330735 220137 650859 373808 566715 540286 102066 598771 573146 44284 560192 181012 168227 366449 677588 129980 276016 518776 164838 389766 236663 451750 20518 73873 374189 127967 59283 77461 339795 78529 472017 142472 431271 106231 41145 211973 296519 229804 500583 416649 377171 316548 173195 258901 447363 322431 229368 407104 374889 213768 106499 401221 280194 186205 562404 51236 8434 469337 583922 64530 583387 260377 224123 98561 30824 444873 443164 194502 318775 143551 450426 286636 502624 507148 145233 554865 85284 391872 299939 84730 8984 345683 122507 461631 30262 211474 618619 132129 353408 800581 453575 519483 493169 137258 97914 640149 389312 282793 304763 97105 18096 263487 49202 153240 3728 46742 158369 287226 12901 411261 67652 60897 142394 307197 275585 32158 95733 137989 104110 295671 698318 320533 214336 149640 258738 321862 423397 15651 2185 430815 425350 12594 289793 39666 157073 438515 374005 325298 574551 286797 554589 143953 383350 494729 100477 475166 219106 491924 602702 54323 164450 6624 64304 463185 561975 411683 567906 29237 681921 153188 85871 618847 374398 174716 191210 202689 190420 182508 267768 729434 719890 524228 484269 275088 338703 99574 447240 318424 69663 724629 301607 461705 386492 487778 222751 491278 228278 299208 111897 356501 297981 686452 129720 138533 240632 426493 274823 226686 207027 97439 42724 250280 263630 402516 486124 251189 475980 147207 271247 197588 548649 342346 268780 660119 26374 331496 311964 349614 290269 245236 34077 105463 570086 504114 317667 232981 321033 54573 136600 38242 635697 314750 259891 435521 311907 164470 432124 523997 224454 39323 261427 140207 183832 471026 212784 73630 124433 68456 426019 439633 47450 230583 44938 318154 147819 187098 246226 116371 549115 110384 414450 260991 259824 403131 113145 23062 720740 455259 47476 64740 318955 160579 6904 427674 220180 551031 490116 426518 357059 33341 53659 287842 463682 414816 266360 363271 394791 337451 23221 339900 166436 995 477431 60438 295495 287262 127689 79503 22159 496542 570315 191590 94814 206545 236960 627949 243784 384493 54541 549305 456763 228943 136787 130105 305803 253010 47586 180990 15410 510886 294864 339591 337885 822307 822318 214275 253568 224319 194054 428165 398170 282716 394721 402852 157701 400069 325038 511144 593049 102923 320042 448416 241324 308642 156575 147771 119838 209238 220656 152183 203029 83757 179878 241175 281445 39836 277424 230006 46983 19328 290829 51382 233416 332073 556503 302822 356806 696155 111341 15222 436432 7988 87316 285452 238082 473347 16717 236795 181564 479929 27836 57901 340943 8784 220732 348287 39495 245135 104178 297782 153716 550452 145234 11580 64717 612128 491983 387169 513026 489712 393582 9139 431912 456429 292606 63450 367480 87462 158854 69123 31041 527401 465581 272992 321536 145317 108849 334342 31778 89711 266887 361570 107083 239425 375312 456874 223934 655078 12288 110169 499300 8330 390255 168752 92340 75493 391078 225915 220639 85360 838 50555 133453 31015 414687 429210 123630 101622 136364 204508 222117 152994 388629 44418 8801 531588 569701 81192 191288 183466 307728 68796 413970 82920 442393 409475 176036 375559 181587 37256 401348 35890 599711 351066 37511 452809 480020 189140 72529 199849 225828 178620 435390 398832 370690 44776 187212 450035 309222 384047 48760 372371 403094 305838 16261 396417 32651 427732 99444 54731 288425 180344 160224 198700 103210 240142 482103 267495 193430 323472 35239 440464 778874 116228 256179 45711 172789 448840 404826 75573 253872 131875 413420 385203 484740 388962 436500 339576 533358 116146 146580 443483 100797 322929 82224 349489 389148 511679 418155 398417 318447 500739 182189 539583 124517 338955 91185 266203 209736 565901 191168 13448 203664 650471 647299 140877 131696 219068 181800 348427 329981 451906 118183 462258 638032 599979 150058 494066 593275 287798 135709 252489 517210 11163 446810 170904 344836 447299 63707 455467 216556 476661 706981 189255 483102 753787 452604 455488 15254 204333 225827 434808 515428 170670 261509 499529 227006 486734 150598 147264 140928 18010 113150 51094 233839 260315 373375 258746 97224 498016 120089 523732 140732 472069 680246 150332 142058 424663 476495 54327 27197 354843 460841 315623 180144 454492 11353 796391 653475 415326 114372 481704 371230 26671 504430 389622 307933 679 530114 62856 208637 338974 411695 196345 449913 405121 79342 603762 419441 237522 206725 518683 401323 118777 343827 467258 187687 37155 280837 415366 558586 209275 112477 660160 420675 641815 35047 72214 343341 101609 176600 98106 142513 63982 177740 63381 88356 260507 437447 269819 230091 11374 206417 10220 454937 353920 430154 160901 262081 30969 234701 433284 144581 315941 344286 454748 131110 45999 79763 12609 317223 677707 32069 375519 453657 444681 335473 616362 429384 543332 174889 41970 199154 185665 263218 219614 212791 149936 386358 119971 381542 290603 204898 68720 216377 602149 237786 652359 425625 417418 55660 85068 96195 390455 197718 328247 65371 361749 17248 171437 93758 439509 137815 139098 5444 414909 240802 720951 342427 353061 686547 174508 42965 424048 343097 457514 487673 343183 1181 62166 528868 5187 63805 666794 17841 134079 539241 291316 160559 406680 432345 116395 469907 142261 123639 426362 200084 17411 283119 93665 91250 695280 6696 170610 486011 272357 174326 76289 511559 217856 477614 210050 407589 125612 453940 214425 41295 163536 139495 170502 315224 201501 353472 567053 385902 138044 252816 200393 389434 258856 162077 24338 34567 251042 496495 751125 71098 401662 46569 28401 469143 428740 483278 269732 73133 381856 529336 18213 160376 538196 106380 223567 555739 349334 703228 466920 97952 395257 211188 82116 609783 145566 137993 232407 54862 215863 293916 54890 53614 343147 5637 148474 411261 205032 31884 391435 265645 298586 189612 263451 220426 181252 350020 41859 665483 420971 350168 381761 219742 58952 4012 656649 194291 478414 366999 5643 626487 492631 401514 225309 532295 547983 344687 181341 42913 276054 474491 254728 314321 118009 132392 509297 769471 278580 794216 409830 183990 604555 155550 11875 122444 424431 378325 437153 245774 415766 361886 107632 73381 45723 123628 140401 455174 109884 183631 326285 223133 322477 127066 390991 196790 359273 282458 347057 256154 49817 244037 414197 762576 10160 453819 270353 342983 241504 19343 295883 644515 95367 140924 201155 89822 767887 225254 683328 318307 560571 330142 366946 560107 83151 155780 196068 219225 154097 250405 132316 641729 511768 223237 264230 275986 413815 221674 415788 303880 314829 343406 445568 495575 227316 361644 434904 259805 91725 440797 754340 760519 555345 790171 333214 557034 752405 634805 71571 169675 161414 151805 38333 450838 42132 329904 73621 256909 76624 210556 684253 117592 305743 382793 185846 254287 476246 69868 627404 135527 390367 168326 5820 169999 119847 513314 198899 275600 365491 362002 383716 377576 705086 118784 358331 357184 407042 334908 294226 404752 301840 391585 253093 589769 97100 203380 157171 248522 1026 167498 209619 32240 20271 143528 321045 493750 117698 510409 213204 332463 173853 127539 409758 39156 98972 282095 16637 174108 248530 220248 292730 40616 27836 176209 309048 510364 182195 455978 436805 300746 112924 362061 463860 627477 255568 96262 636721 302430 529189 4508 252015 787655 97196 104491 79159 110667 253328 526489 384100 315814 686857 678214 227069 263415 121642 56660 487889 602959 666471 528419 623697 613431 134234 680256 117472 26473 52764 106415 669206 722929 774195 293735 42232 297842 84290 260348 20241 15645 372994 354450 355949 201161 359944 443374 510230 394221 15524 449640 68379 92780 171912 428486 426569 519090 29047 210242 485153 403683 653173 567113 275835 47553 367226 57600 52463 86872 366444 21713 656799 693548 345558 527854 54435 136571 10411 19728 152162 24618 93485 107691 73475 46666 199614 353354 517673 362505 108600 13981 331454 47723 655790 28726 85000 710650 25048 69147 385879 149585 82149 9372 306511 159445 178806 338708 244534 168656 784994 48215 471522 530461 160084 354706 90685 508966 566786 480021 305949 706343 8441 363304 67761 428028 472637 45883 679060 634421 33298 533025 39356 75824 430216 171002 15707 88351 85275 197030 687644 530176 135916 582786 7972 201660 578961 147858 634561 290265 149685 250218 521735 6420 44276 26704 360868 112000 231620 32460 656125 131575 57629 38457 58495 639213 600063 22666 107017 237074 215900 263265 809257 149789 345581 786908 151872 656188 270023 347804 234769 473767 30377 610323 81775 22424 353745 1839 11499 259326 512558 408392 127235 478175 204551 76519 87546 588729 92747 59338 269875 482446 97543 279799 256099 17139 651696 433468 173841 344048 179533 349268 681632 622914 432490 47026 380975 415522 457263 389033 83326 537878 447011 204522 120291 203616 424592 75114 293375 294601 252990 214 17499 263058 350568 84817 267335 346256 127971 495815 75944 34609 142816 212013 37359 249173 134787 38017 206367 471128 176657 262612 379936 329232 387536 95292 130401 357593 286852 388508 142766 113212 695645 541885 274247 249473 134808 29909 334528 282049 362960 141924 176046 111437 228646 218947 94709 187050 516234 472932 17568 129436 222572 136573 125958 357323 614930 839380 354748 637782 146563 485534 328780 276710 742568 835051 524331 652292 226069 261092 126942 352947 43299 555478 65667 96288 676884 643052 49836 266150 281683 317632 129118 417653 73291 38909 42316 125414 128764 324372 77042 143946 22436 73343 23985 4088 371464 214598 257751 617665 174293 138243 48654 28385 520657 537179 634830 431020 381543 461554 264616 68598 597596 139260 90053 143991 504046 87345 73145 95007 436695 278734 588773 355825 455353 329424 541659 270144 74961 406576 333064 323855 51193 553899 517036 56823 535929 656332 491145 622586 592079 238249 225903 394973 699438 446834 247725 211401 6084 386430 279418 330529 316664 157203 140397 168828 474172 288442 93724 48051 613714 302104 255677 265 511201 32456 11647 410077 12468 75677 243513 140650 428112 443867 48872 240184 225550 17289 42451 88314 315484 442886 183769 66760 100501 535833 661623 74614 2936 344246 585961 157424 406916 189057 381975 87774 536967 443833 72477 16492 107168 376053 22883 455906 202516 450929 133795 419904 314743 11882 84978 314848 76268 155270 372068 148877 538699 337834 570553 377005 738206 320398 404980 377820 126653 245006 524658 145857 339445 91223 614171 457830 577385 762731 205939 322928 527327 209192 320570 112603 522511 133406 240791 46772 289648 295737 98602 361745 579953 535515 327176 182119 536159 334074 366797 455345 647544 410931 67893 110248 70673 113883 211549 293486 312401 427215 362920 384743 625942 365940 495691 327528 122569 313503 480981 537631 370616 1908 283646 134681 73833 310953 220223 175370 270943 37688 76544 145732 82190 75710 419668 237432 65265 275642 426832 327838 561651 270775 41481 294093 157794 63475 151543 70567 406581 244743 376672 63301 130304 126406 5967 157169 53028 424371 218046 230133 74113 62375 377166 240043 483275 64648 285382 303591 217422 450516 350785 264574 226687 20316 23181 598751 79556 100012 491136 345415 270897 273031 202895 175028 251346 291058 184171 85220 27444 441814 461317 382409 125495 380381 238750 192576 213333 344369 182354 292084 269746 183646 175701 679931 48926 151083 285570 166688 286607 263548 330513 148850 88202 100590 41821 14249 25982 381135 487940 455100 344445 287932 337306 453831 484550 372367 173451 285199 122973 266991 271700 559430 177470 365557 390607 531932 314418 215141 635760 424204 310688 294629 612831 548787 73891 361903 107587 93100 338152 328225 562685 85815 397831 603901 111710 511785 52812 20412 1963 253983 45532 297600 399380 243611 286755 79325 487162 30893 142369 155183 56556 233 240910 334383 694503 231975 611099 314066 85648 377827 695604 689691 41632 159806 182924 40945 645618 134339 369649 491275 407688 576005 200447 443110 575629 234374 474017 52495 270948 34389 300358 660660 525774 575978 269003 12584 348740 253863 227275 17123 168638 82769 369912 647039 538769 552787 390853 12933 191022 332120 305133 306014 81629 241402 201187 171951 532535 432821 53157 650096 113685 2181 70459 6838 1170 529349 109928 366766 422193 564843 40039 105334 569114 549217 719951 679963 152468 397819 330245 208367 334551 343523 565038 201320 542771 608569 521687 551796 103518 413349 488074 322051 113774 410520 338596 368826 121101 473224 108333 400359 54745 421966 227870 64482 502336 172523 126843 536735 63338 328518 169203 337935 13841 167438 124797 416671 319592 27099 2355 591691 442917 176199 99326 279891 140901 212007 203040 47800 184499 50151 472030 1537 308156 29598 234022 651515 126555 391025 4517 77689 9365 271722 131110 137927 397986 316940 198240 20425 228368 415737 124013 590617 700876 707516 92296 170382 39659 266068 190575 417490 192968 127972 195620 84069 88954 11212 153468 180198 180146 94896 235291 127124 174229 15293 485574 570068 277416 33187 297657 300090 230856 344712 258147 440538 706023 104546 301261 492639 36302 380296 290379 408925 292831 434814 232840 420576 303618 181336 192953 424735 89840 113115 220244 333430 442726 658891 369801 672028 126549 267144 197802 312748 531112 107549 48854 455957 319734 305147 275848 504382 80128 71826 56366 417956 162850 83182 437093 411779 117406 8773 180096 153392 219765 32676 154311 457452 372954 35922 413536 722970 59730 293663 436482 111204 509403 30348 249740 242220 564500 30703 462611 26657 30019 39064 28345 12201 556053 224574 264376 57331 36306 718213 250329 281204 282215 323617 597768 47486 127581 58971 181246 106308 175099 331015 280926 548892 71328 33309 145287 359199 65567 241472 622121 644602 337762 824116 467559 213836 176983 112316 193605 273633 284665 230527 135880 82189 293990 32203 373012 189412 41710 602417 42518 767476 390608 631903 156617 288607 154777 32114 85267 305841 244123 548044 819171 283684 152042 188979 67907 394202 429351 462569 530324 175710 826318 9900 260989 156825 148863 331230 410054 107244 300243 178882 135823 400377 519228 538564 500647 325567 58943 57376 292332 278475 413437 391099 577791 719886 224112 445922 125495 265204 351040 452065 68797 69272 81906 57006 151263 57268 95252 523007 572465 367612 141996 256649 463247 11517 652110 437715 32240 369170 514072 291613 317043 46766 12137 584985 100650 295451 366237 380779 226729 153693 219422 182028 129710 346591 242940 495641 421332 296288 463899 233871 110799 346325 107714 229782 364359 315807 525428 751810 366646 23828 226046 438157 437368 283342 253010 26829 541198 263573 257700 65970 36496 278941 258047 148938 151319 222705 328443 322158 735742 109607 479514 4709 151932 370251 239002 169325 13980 40269 358563 295187 203897 400965 516338 45474 183192 298022 294321 189792 227254 372790 182691 477126 137819 161605 194737 605184 607865 124040 545389 358168 565094 498772 101804 90908 576250 239617 327674 173355 293759 103204 267417 159799 394468 295784 543691 229116 533503 110566 588365 209348 610439 250159 76043 136236 218060 30502 374961 164723 553450 591315 277531 369163 418772 510726 185365 78588 602625 371376 93616 456439 155974 153164 136318 225996 179845 147614 239687 314652 474624 505430 259136 648010 485861 536779 357425 574128 363431 182095 152372 14787 151638 152316 69978 66137 396942 395698 292283 65870 216077 256170 92583 337529 432682 188655 48364 106119 132990 751074 260241 186894 340914 335564 337481 176565 65067 220631 319478 168150 266097 136826 51693 157605 296635 101443 315362 133339 465754 260761 250449 56129 681274 464505 481416 467839 580363 272433 246128 471101 248170 70145 178629 507884 26288 270935 618294 208910 150133 409251 295848 236776 80834 51885 166078 310132 206911 215365 539987 781837 660720 102096 458935 252081 43148 329038 284401 62960 543888 562167 369822 403026 383818 33388 583651 651715 479482 200708 90732 876601 96130 120495 297363 596667 390095 367586 22337 664759 308858 371028 199128 47207 155208 390271 503851 290637 137291 363599 458665 356623 129075 336665 147877 82556 434497 311465 181146 354108 361034 14985 736310 569535 114292 311694 531856 339753 334455 51199 212463 83113 516846 519774 117557 350211 41515 94877 159265 308947 481055 121478 286761 388598 670931 527523 353664 428043 354217 186043 13812 106967 585642
