7142
999938 999991 999988 999578 999718 999197 998022 998138 999374 999366 999647 998792 998315 995406 995862 993032 996429 995687 997864 996256 990966 996930 994536 998180 998485 998004 996466 992912 993941 991851 991202 986648 992351 995481 992641 989609 989967 995665 996569 990622 991958 989165 989482 996255 996198 992139 993941 992108 997436 998052 994179 996373 997346 994878 995146 984121 992429 992888 991974 968552 987660 988078 988792 983038 985391 992158 986415 988300 984040 991499 990049 981823 989356 983691 987184 993705 985978 994312 992135 984958 987082 981314 983069 987702 972854 980620 980949 993212 992882 990156 990497 982988 988477 991834 984888 976624 991176 969131 992508 992939 993298 991851 992710 988261 991653 989826 985382 994752 986821 988497 982501 983967 953083 974959 981630 965679 992456 988452 988320 917233 954252 958395 919943 951553 981547 988380 967577 967437 979082 973496 979325 985631 971236 975706 975766 978103 965332 932813 983767 971662 979196 981148 976772 967923 962749 984728 974718 978185 983081 973017 964415 960852 993341 972761 965483 976032 985306 991181 983514 973115 977915 983228 986114 978828 976125 977415 955207 974847 981952 956091 957400 973700 979395 977776 979475 986724 977881 989857 974244 984665 975699 990421 987939 960261 976458 953828 970331 980694 983856 982199 974437 975058 959265 979085 983734 962869 912719 990696 991286 990542 991383 978769 981686 990876 974957 974317 984717 985916 975002 985966 977902 983626 984504 965019 982349 965071 994238 981876 962812 977386 942809 979115 955747 962195 821174 790100 940143 902045 923073 875025 955580 964130 904364 976357 969518 966931 968087 968302 971663 884056 908400 944929 950974 891517 950586 910554 915559 942531 926005 928562 961778 981007 987339 947652 867905 964595 932315 842945 903908 960912 970491 973905 965316 927796 950112 926893 949069 972829 928138 958558 903537 973831 950173 948689 947313 932242 862260 978202 963409 946296 841329 975824 970779 949921 941540 966789 970802 943102 963354 887497 961307 984601 964112 894209 971289 957666 959509 951256 970952 972409 934056 919677 951223 909741 936444 987957 962862 933649 945919 953436 953447 941542 964710 978377 929737 972191 972826 939710 929737 963204 879645 954614 930754 958225 939331 975595 982030 971828 972235 929896 972963 976583 962966 945958 925137 927003 920791 960724 975640 941337 922490 847015 898934 811288 938441 968180 933461 968836 951018 920069 978759 964450 940128 906399 871035 978419 981902 970850 923350 979864 983888 953552 955821 945125 958413 955963 973932 955786 923295 935331 949716 844438 949616 969873 957577 926251 967876 963391 951529 980171 979014 968271 911812 941345 937259 950907 932785 949583 950857 973836 962093 942853 881772 889862 901194 986187 973547 906877 981000 936279 986783 881385 984978 977507 910508 892129 952751 985346 988404 963481 935910 934396 968698 860506 980191 845523 969429 966373 955704 949855 980293 962149 937577 947841 910029 982136 958834 935724 924944 974860 980712 915350 962783 987823 936482 969184 914163 899434 953907 974506 949065 941307 885925 969320 960254 902072 919117 942505 888942 740983 816816 689846 726542 837516 939635 834167 888643 867507 893079 801742 844827 877274 930108 933261 920793 876236 854539 840461 970714 909105 913063 941977 816794 902001 927841 957972 929479 962396 921092 883721 866470 864105 859917 889185 856497 916554 833521 845844 773250 920016 803983 897609 867645 827183 843336 870181 924963 887517 691281 923913 926937 947236 921719 901297 884933 792486 954719 877660 939489 705158 834012 896598 935793 914394 902873 839532 749926 810048 811421 934085 795518 934909 967580 971085 948737 934545 904785 794765 800868 847076 921246 916519 814475 942716 943053 957809 968931 913881 846059 895297 880781 835921 855853 972564 939553 863324 949887 863376 889407 918248 922008 707202 895458 642344 817959 942095 917081 932347 945117 900252 945727 836388 821432 872036 887418 947488 908727 914008 877130 918370 936261 925167 934227 966402 942766 941914 935698 960704 952109 656262 721849 882339 916360 976963 897200 932348 944044 798013 884056 942648 850024 933176 892416 911312 859463 922642 902433 931787 869569 919044 861444 874114 878845 905855 903909 832956 923016 794943 888352 874056 824218 985105 953216 941074 895353 904679 914971 925876 904727 938300 763216 857036 938282 858989 902505 857637 914947 917077 943162 929356 899861 925790 892201 852099 921514 768808 936909 883528 689817 870679 938989 791708 848575 854925 949106 836495 806180 899240 913668 882992 908327 970539 971648 936209 924579 960695 918789 879210 945076 877229 929186 953074 960901 893417 848153 914057 901140 891970 911620 871857 883147 889821 875435 868651 855837 935523 860392 757419 958876 814970 810919 791815 808297 817858 718587 859229 877380 804626 712672 910168 890711 936680 695241 932891 909132 949180 922179 875724 941782 918936 850916 739079 954481 898541 888905 912722 921789 906199 735058 866998 856876 874009 895885 864997 979817 889836 961078 666744 845224 902270 946741 934795 941174 911914 822571 928476 948351 882957 921474 942521 929050 770686 914270 895636 969212 921621 948027 779393 918122 928372 912810 942595 806585 835044 756277 852279 934498 795413 958836 921543 663790 777390 733204 955351 900368 944374 924137 923515 949869 932145 933114 954952 966476 954196 773094 908675 848528 913234 914529 936586 842994 919344 909941 878569 893951 887304 858200 947233 936763 935016 895650 941608 752594 686654 910789 859652 868550 885646 870730 783960 885433 975703 921927 815801 933640 841282 886085 973201 952554 893684 845424 984143 818458 727179 753024 929633 970026 900130 933811 897097 848035 866732 866471 944400 702371 779896 936569 905214 803032 921904 940818 897841 845337 896925 883159 899441 723002 788965 779381 842561 935185 839723 761235 968330 901022 934357 930281 928577 907144 795510 866286 920569 929174 935840 954224 893856 883010 773066 935035 799621 817823 928065 962137 944471 780605 813140 915467 832975 909220 790149 967999 914442 934838 851147 869823 879666 935910 892425 866892 840559 933047 812350 927751 899701 905167 848763 772138 944546 886937 973939 857178 893861 903436 878113 913069 830706 885916 913160 959364 867912 951167 876790 804137 860385 810595 909928 918980 829358 527229 634244 516259 771881 753029 677624 652991 697137 686738 785323 671612 838409 763122 730991 816888 838380 845683 856258 815612 867576 796097 661301 799217 731780 796999 747870 866850 860302 855347 792771 780526 819155 880275 802276 771699 803639 846721 836341 757022 707042 679668 592594 754947 734237 774501 787813 828542 760397 779305 891042 801116 793886 629377 946263 865206 871617 915872 950144 727844 817304 735401 845764 875372 853757 756025 796658 743262 782576 512931 863854 847878 807876 702064 821116 848377 810790 798614 705971 528504 769809 747990 880162 736938 769275 787771 518642 758348 718174 585044 699157 513280 820075 791901 631515 780708 901339 800444 705234 747135 668929 540928 712388 755109 774899 904396 809261 945326 876524 918796 882265 896974 875681 870852 577255 583500 914396 729452 713406 688099 903355 925768 663490 537192 797556 600268 889407 771229 880416 887194 886494 763006 877127 836265 761109 673277 707982 496706 722645 802070 807994 791728 564904 910120 793334 655021 777685 845252 803015 948974 952383 907261 938618 914426 766159 853616 729930 601325 698330 682336 743630 767745 408427 800889 818106 763812 830791 713147 740761 774490 825247 880454 915886 914802 649818 845914 817322 904870 779349 913803 831599 779607 814240 742294 808869 816502 831610 833581 720545 774429 970954 617960 932377 917653 846651 853007 675453 674703 678545 777804 839778 863958 811706 892648 838398 746937 507149 483797 638085 881809 504244 551152 739612 721460 852952 750219 897104 914101 835856 768410 840297 897749 645139 832041 662508 932095 812642 834368 643282 812728 869460 752961 802220 842573 940077 674930 767664 793465 846452 681763 869533 833543 784409 802408 900239 928868 887808 778464 737485 846026 812612 952431 558811 895707 653792 747172 851460 732032 799762 936774 909665 851206 569017 521467 676714 528705 745530 760803 603706 452025 859166 961115 672905 819341 506131 868005 903753 812653 776978 561605 779519 800417 861812 610131 762477 498336 762649 857034 890386 736741 898582 542609 771344 772249 783085 900736 899111 899779 732147 244865 645075 630692 889282 899630 606394 546737 739730 761419 751136 875838 897707 816640 891451 896628 803220 679706 779189 663348 722401 593946 733976 731415 869809 720183 749716 811054 928159 608785 928691 812996 911863 737517 756866 866963 844265 563384 491846 841974 905648 887663 754638 800537 812811 926150 630923 734581 809745 600780 829820 618337 716304 827726 717259 902082 766153 616381 862951 639257 897642 859747 839971 934116 648219 836650 800939 740607 819306 678880 787872 865379 819278 800130 717827 921509 596434 692661 927778 774061 799663 442564 663497 515405 812156 864427 847146 911079 781593 781697 794930 839964 849658 657903 939954 884871 704145 725821 725613 783567 734740 576882 784664 884999 819284 862566 871030 497993 914112 858299 531869 787375 929295 825995 825469 633534 942501 923586 846583 889281 869390 860134 801828 877197 839425 835095 742875 827153 759853 846827 750347 936248 879829 701421 805459 802084 890302 905339 754122 891398 825723 813575 874254 770683 782340 737892 712541 649760 445541 637732 714343 705330 785958 706085 831805 543308 926572 932308 736601 755109 730391 728081 627243 883687 799253 732620 739126 809328 766140 705580 697308 718098 591637 637073 654697 635297 689340 766321 834864 795671 801574 720829 708112 651531 903998 780060 536421 854723 909969 667972 429390 668657 831529 924268 908976 884578 898642 744492 747023 650766 711431 790909 940275 707959 878898 821035 834111 822518 577847 710001 829547 853473 777696 753065 746114 820044 901653 436702 887068 707787 875352 886210 425630 562609 841296 648468 852984 806233 839710 831481 884921 818160 839927 666178 925288 568440 811553 715539 942988 770454 611524 399332 774524 536610 736822 895290 776845 717010 764679 883795 863467 931556 903149 897210 653335 422023 887715 911574 720307 918189 756715 714845 871415 855621 734490 864409 720497 910391 749698 660139 784408 901094 798717 840774 637983 936325 715667 824303 903270 670785 585671 759229 659144 726950 917978 892118 791867 820303 938236 807540 788256 772547 616162 624141 662758 532789 851030 510970 875370 911422 511926 597718 935992 820378 527187 830761 635953 626452 736796 743257 674406 586547 620190 839883 888843 875217 920868 778639 684071 776726 789866 888106 813449 915524 891422 924415 683911 910760 774128 918970 719508 813953 758759 816022 733144 653882 880536 739901 658709 773553 859490 785786 649442 679098 930054 601956 809364 828204 822895 666909 891017 647652 722568 718114 845250 849808 821103 780506 799811 695921 699544 876452 834593 912967 880874 929315 641364 668570 866566 759805 674094 652944 605807 657962 890375 774789 839675 784771 837005 800758 819733 855706 675523 753855 618915 686666 692834 674768 945445 933492 848347 916903 804791 750992 782101 870552 707763 769324 826726 855413 843000 906283 949435 945130 850143 712556 622343 798058 831584 854817 751168 750372 633223 696238 673109 734735 869060 877217 963969 804568 837344 621023 703497 570747 597201 827292 791510 525123 711671 615773 837667 822248 888834 754995 683832 581360 602378 630052 868928 907674 677508 786223 666199 747045 839212 716347 902932 598359 894693 560823 826804 598290 879230 742890 814337 526780 854912 881749 468857 675044 629734 678487 608725 544253 668446 737445 918267 749474 579300 797382 632933 750699 772477 909403 751869 897897 523546 794221 813853 911458 883141 874288 807425 822041 791612 724923 799217 804677 856564 885892 849911 816226 824060 923375 929293 950025 841303 827960 674389 727810 769116 760119 889503 890191 638328 753697 723679 694229 859845 733790 960670 931102 931440 906743 726967 713980 759101 740791 880879 769068 820569 791707 735846 891909 758505 605704 864667 856199 775951 908030 894274 717878 684318 795438 693337 525700 828239 780948 544560 743815 879884 620631 855508 694270 622465 834160 747567 858370 683392 733782 899364 791044 611180 814973 691458 853865 614371 747895 736699 728205 815437 876608 636961 820243 779992 951852 809481 675040 680996 848492 762041 784345 685950 811026 850541 782179 791528 791489 667243 862627 860233 889149 719075 953963 779930 666870 691577 916761 702642 848178 471385 573591 715840 48468 709331 672588 558136 880806 763659 740230 534532 256438 522597 139150 616800 219534 445077 423375 648259 271520 612176 730310 448794 671641 547451 331258 671074 534485 676612 683227 780640 384521 273662 663333 552195 715316 542570 756399 441351 642898 339884 728643 731140 837020 677488 841729 547689 503062 484537 637939 862725 687074 638181 794138 491226 648080 466062 750331 404506 431066 284755 281728 722251 700104 761314 732698 503496 673165 771092 544235 667286 458994 406104 777539 796236 818426 625053 598284 530108 630443 689781 671956 751694 662827 585763 276031 753013 338017 691854 702224 694207 388517 226793 375855 107195 508466 546131 331449 479984 507335 392777 736090 505224 755593 823901 795543 745884 389575 706014 689796 853176 729625 761148 571428 510858 641337 532740 490493 630292 303787 696065 657265 400085 835700 880961 853543 815105 660872 346500 382638 585565 775321 484926 588307 777160 405200 328063 529581 628009 794190 740156 548188 636906 499492 649842 708557 677579 753130 452888 402806 808896 614255 823989 679495 654148 515192 644836 450964 715856 785496 746159 751681 376249 334676 712806 692068 327376 554104 367345 516988 741813 324624 663490 597921 767191 850786 581078 646527 209037 747086 658892 766221 498980 288856 660439 488063 588406 318773 546091 406940 651436 405171 189630 298327 774192 585496 375115 410737 551980 617933 766535 379700 464251 543083 670575 721678 470922 677503 610090 642513 583739 582935 507077 519609 355444 593813 444396 754656 678244 498421 716830 752952 579839 529380 598288 541044 742673 154736 696953 743682 597254 565900 509296 757900 767452 679377 458862 170246 441966 513368 545590 547103 280535 806918 335004 335317 530740 713195 331695 210412 695028 638130 298422 881096 647269 556493 522326 485334 783658 768824 333163 190403 815173 846765 310478 622901 636143 831151 685405 839606 872704 759025 761363 725460 749348 823793 795222 632720 478566 727112 670930 375622 316517 612036 494395 464670 189040 719339 698498 765326 719724 595194 654238 731104 441117 508800 856549 784529 740579 490783 615027 508689 619570 740138 578282 738864 631632 688734 177497 441678 806318 897272 551075 691583 899949 836578 573762 794835 726566 729098 653184 638848 545562 712319 516315 439774 503820 635105 170746 459083 637332 470289 727125 280445 328829 368241 393085 659829 745242 746227 347475 709436 255565 462183 259083 269490 226660 674726 353200 636555 671896 729919 867993 824239 875590 912994 846849 880397 156073 577272 386187 826401 787140 605300 454747 884792 499198 761602 533441 805865 829631 514711 767289 487020 542073 668051 706707 642841 623868 722336 747281 232832 712644 786518 616666 665954 698560 583155 734309 534887 956104 963072 253847 183143 914160 372068 886674 182908 552524 708601 658061 831163 405263 500153 498720 651281 588759 109908 230558 698064 575732 818504 627498 584881 760821 414184 675940 567632 709983 442353 673193 559950 459558 471838 477493 431607 199536 427782 850256 780155 475129 397761 198621 417626 713141 575315 690819 451855 338076 616494 728079 705270 808056 675793 767055 652063 742513 758596 582860 719271 776113 812153 690147 796227 257905 420379 772887 357473 650328 633939 715145 790125 559188 745941 394251 677979 610392 318960 630751 183304 836111 286479 608275 733003 498814 654983 466774 771263 857939 436286 478723 118234 627228 619639 692690 785270 670621 633713 441688 482492 689430 866593 684743 681209 478213 713905 745375 427599 633565 162052 899666 907833 656598 603416 567135 534160 409147 657098 801132 637602 678589 506362 348121 334875 395382 457357 719437 405931 305279 587198 582531 611313 472157 759721 154973 674737 542786 772340 897904 654583 829236 691989 800508 818788 246898 269708 398768 345021 602760 526775 345187 373270 722816 618380 583882 745471 505681 518416 215812 386901 467493 625931 465697 515852 455668 563662 355643 792834 191561 442151 799104 571495 825146 408058 797042 361828 588504 508781 186863 442962 616339 551902 563170 381329 796605 690117 536125 280688 738676 589397 331296 328368 629050 570932 752209 366935 292405 787112 613327 733675 615714 486064 395077 475686 694267 341219 666266 581405 712157 576355 653564 644617 789670 719266 502799 676039 701875 612237 169609 111706 505770 420783 621479 509215 496949 682084 685387 329101 370095 564709 523937 492673 444263 665088 481695 359114 459361 315567 657123 830534 808522 639562 323941 774957 858514 889035 384280 450268 372057 203097 425862 524929 322303 490200 302389 422193 305405 566123 552118 323097 696665 582561 643461 290666 782592 647685 461500 648581 582275 167969 539319 671628 924257 820301 507141 238559 903063 876801 467186 696867 542373 818484 666475 525167 574182 601170 743108 789772 798250 792031 540709 346331 341110 404368 814914 608113 780984 812429 597494 732977 691266 699542 310650 707348 756675 364141 669605 553827 447122 598068 637696 427266 202369 132480 483043 482950 634702 684116 462173 379455 370172 592735 640427 606715 576357 445117 817735 753977 506748 750491 551936 615393 643356 858628 477018 531159 578139 796804 841004 754055 404397 380016 573981 916277 326919 550620 723782 787955 492964 799663 657677 604976 306075 572127 626835 453537 532523 619034 825758 852550 581699 382644 746293 321164 558099 650476 426899 648326 376168 334108 396751 480905 800631 742622 307302 530448 548728 793352 337164 304478 484585 644718 278229 321018 318892 622757 801402 727543 634211 677368 892354 687632 175422 730330 312604 755088 646569 777148 683466 322120 699478 679004 523270 653086 774947 854864 876194 548611 702757 695095 720824 311400 665341 298216 188060 590741 626698 465540 180316 528100 673593 782392 423683 552196 795455 572072 772580 668651 639907 534898 381450 306260 781011 720130 662230 775530 441937 313222 621501 502726 921025 843827 298680 577779 707688 426449 346449 599900 577172 545146 517673 290225 832716 363920 853899 273884 763671 733588 589615 601273 602480 546664 240729 790902 418438 588141 705553 699527 389029 389156 303593 652855 572435 720462 600480 249106 488534 705704 739367 874146 845601 586858 598894 476648 737333 706401 391657 317484 795183 607840 588931 398066 574567 631456 748398 726680 562781 789396 479403 353394 570087 715686 433516 703343 206577 322221 736542 589937 664882 352712 250381 631133 379804 405230 535279 504742 586981 683920 407973 511336 492329 689890 647266 552224 606273 690581 429775 451366 907362 667558 821107 741405 685899 698832 571626 446123 634852 711023 683828 664181 589564 534617 746645 178091 624366 731624 250348 624508 534228 728448 287198 425471 668885 619209 693953 600921 535230 608485 694385 669936 485325 494822 441882 573741 466500 542426 458644 632775 459636 213470 740039 712117 365748 618995 705041 723775 624289 781978 662143 357159 549793 663677 346919 576731 896924 746336 550358 660668 509953 470306 742320 602771 605515 385359 522645 657877 359842 413510 478531 282913 711248 604968 666631 858227 764714 777564 323413 861780 702670 748682 610249 679115 691702 583684 622169 585623 700801 700411 248378 673403 764685 440526 689525 514238 306997 805132 768216 699143 261879 530183 419189 498501 522341 479746 671141 640779 634388 428264 650838 802736 200397 754309 753057 512245 705770 691084 395673 731846 729459 555865 318176 389710 698869 845232 548027 494050 859653 587174 651863 823873 277511 160890 268962 481049 348064 236783 570227 640372 850162 841864 760716 677695 265253 731883 581931 673403 663805 481278 561788 473895 638952 377988 663891 121562 575401 737161 443344 554785 732607 792445 543983 426846 586002 930665 643130 565652 518325 537437 115484 358898 509126 479522 442617 517974 389485 545997 829365 842700 509477 364561 604425 697529 650340 619744 718270 556604 816288 692284 727167 662423 847088 342640 848232 796880 393194 141164 280720 378303 765848 883814 490909 877231 647312 290332 690580 691995 697969 378461 636425 238039 560877 445609 767390 790039 537835 707313 835496 856690 279665 644253 832673 465382 544585 633287 225995 375916 775925 731925 870742 715900 354134 579360 699473 761223 583113 482087 741354 764438 424769 599368 685233 566752 568044 798974 400924 502325 388900 402289 411563 694628 354001 616221 657601 518714 287701 635316 840610 412898 563646 746793 559900 661441 928690 928529 771459 798035 545669 503684 763191 215026 450097 463082 389648 621717 576031 630563 191187 284066 189141 475135 497412 297853 590406 515661 601136 892159 443486 139240 577493 573852 492029 766566 583457 768668 420789 276835 504681 590715 630197 530285 347877 583869 550259 686570 647055 492435 648883 493283 585859 557044 355700 402070 727871 741232 668887 860271 771264 658550 811452 567095 453594 360986 604931 648983 654504 669593 616727 614979 341570 826819 787705 735138 669032 861772 781066 836469 894388 877757 540440 580205 769629 686051 534356 604066 824434 672658 676043 688687 684256 666513 756917 405821 688653 779502 594975 340985 492657 521891 467660 552140 454983 556840 570144 530738 514456 626677 578382 659697 734596 510811 592532 556824 645132 584000 886300 621864 587729 404419 714512 657200 356637 809981 424939 248600 647276 452100 639752 844844 569690 583315 627774 637682 695139 152030 581679 635882 781812 791717 787848 609672 674457 305541 763414 502649 679774 582328 600877 681144 613636 848305 735827 708915 695985 614674 868481 866647 849098 529255 495137 474180 269429 407129 838909 185284 651343 734705 435267 644169 557347 497524 150978 354174 559805 247781 696869 789766 113586 687190 789079 831678 662196 695153 415193 637543 575179 782245 752880 512595 670074 535909 611381 641142 529513 750368 600255 391201 644874 386917 644044 587468 562298 615689 853730 803344 676114 916023 719959 829113 399582 832927 717944 490639 708876 723971 567434 518694 719716 713810 523610 552078 317238 611580 752244 516979 213002 590159 519627 704306 451757 413562 925086 722498 631373 710490 674718 846527 615535 382630 550390 456892 763665 765356 794151 712799 486197 654629 668795 746853 653460 657778 366494 331805 649213 488673 498754 422155 280098 731587 497958 791971 764696 651514 473893 569721 674532 763583 134042 834254 486159 539632 695058 601016 517967 205681 301866 556317 796705 603964 523637 401435 454881 301131 494424 509944 357440 591524 551908 741384 766051 534832 289624 437956 434846 653513 193125 352333 566151 442974 498536 545904 412359 307762 808168 226418 692733 900729 241320 506102 384503 781047 309491 538071 423105 315767 774638 403677 185333 611532 869794 394659 415644 430261 872098 218095 522527 298275 445734 529276 504091 526212 672739 647676 675600 384118 809798 731255 485316 415942 843377 467710 873797 805601 447267 228470 424573 563977 283708 614236 654286 561279 289813 441401 509908 431783 466847 613918 638387 730307 901842 654166 698130 311500 491954 396452 543775 715142 457538 523111 647987 695718 587142 628325 512121 332159 590334 399963 804907 187331 410688 434914 415530 639366 803713 104613 842520 878776 609416 876967 564332 740224 393943 453656 801706 617673 759546 701887 581189 447703 359601 358578 537826 741009 637662 573445 873964 754629 642041 466643 633656 547523 533814 792769 582727 902155 854023 807084 858050 640565 755770 629119 665549 414183 512116 518961 673315 650362 751493 424141 561251 674382 804875 547959 445580 790455 622426 508118 420346 720956 680767 361106 547453 237871 755630 705585 715767 478856 954424 702552 247101 842264 764989 485950 675998 890341 451362 592021 679544 474190 755048 674222 446377 383081 624427 692603 469685 532062 619726 415182 475753 160076 426405 695078 846177 622858 501237 633398 552550 519268 546847 612006 665348 810042 747751 703008 796871 873073 427607 684694 322522 652638 375465 662238 335583 561136 577071 491072 502733 506510 354540 711639 748705 523840 281014 305924 742160 483663 549140 823840 332150 485278 411473 579781 487910 629634 523728 106435 681539 437162 566503 708758 655232 304679 598390 552639 708184 657213 795849 416521 595421 757939 564693 382703 519802 553377 225690 497166 672527 748384 521169 535332 404835 375717 728039 394649 400762 510197 800248 618658 755901 441403 604030 578646 445416 800791 646636 470947 754555 620546 502167 638108 537639 621322 486493 491455 503746 488102 504869 524770 783339 776369 543889 671063 744510 379615 585749 674233 692047 595121 493147 642825 722330 640733 644271 542595 455740 310642 792624 766944 584430 758989 486192 672324 560454 809370 655822 454024 534199 78616 523591 426937 724671 675232 399313 583146 592091 54902 392121 376914 135461 448882 37031 123201 34000 3708 464962 263345 423061 560545 59305 128619 390238 331925 436263 543414 709861 136702 160655 355266 169778 45324 431811 190830 17599 97316 381167 273874 111879 78458 346369 379652 226809 80244 111798 512694 93414 91356 219718 330635 498255 290025 258922 396568 667327 556945 191177 459381 19698 153987 495936 126006 169118 93160 23372 493489 251127 134533 545679 541457 278512 77654 181439 45998 101773 206955 345331 380931 341386 232229 337791 223137 264001 354303 76761 39385 532283 519579 74013 127705 314211 484673 360120 24800 87834 463841 340606 83996 207240 562985 156972 15562 471062 265298 433784 174152 589566 185138 3942 110212 462828 422069 493628 252970 683828 202409 21530 342098 410777 41655 329662 328877 195673 127318 83587 59711 425352 329510 160385 10924 88094 116860 111644 353793 605645 428383 224561 398549 445211 185478 496956 160438 328273 233302 498119 149625 356977 480936 425262 458372 41261 310229 369500 53914 520363 697329 258559 276241 213943 409777 373860 381449 104699 82290 338399 362583 464316 227539 114454 463085 57815 577632 23822 390857 90868 227479 134851 276335 134660 199743 182950 324920 7989 228399 270645 608800 246570 227459 353910 124935 340246 335170 58825 55563 12444 232759 97231 88620 12617 85556 309908 353070 20458 295104 63869 322449 270487 233642 117537 147102 411339 647769 198560 251712 14451 70551 476132 270494 468698 81516 510882 419271 224278 90225 365861 651368 580660 513197 443672 572613 235784 714236 293404 747022 403371 348643 460390 311538 187147 587933 203950 141758 31244 483861 87178 3935 51925 160820 584775 447261 144505 226257 348175 350878 483528 813155 274576 187957 540890 538972 208125 305559 5695 635455 146365 36755 102649 295692 201699 137859 273989 159538 117407 473012 253528 55428 553888 150201 176698 298310 237167 114060 31690 393410 273552 398697 720971 304744 53021 696809 386487 451879 242403 159332 302826 199599 585813 527576 417885 130558 499522 645822 548886 662745 224084 10745 312651 59966 356155 235984 6247 259833 8765 762535 347914 397029 294023 561478 246943 433306 321035 478030 123000 237363 203933 708036 111566 19366 488052 132598 665640 171015 366495 276234 74338 114159 230717 107140 331334 406795 209513 78954 406416 463939 352217 154507 86199 169394 424153 33896 102857 225073 573276 520451 76088 5679 730098 539466 153648 460329 144378 513289 599524 480281 111581 90178 618762 547366 18763 625859 187756 30048 464292 244409 264329 108351 475158 386724 85519 455254 120751 176530 103012 187365 442757 90683 99680 364068 601008 112052 282392 391109 41565 71559 135283 290963 447620 15422 420129 425168 199293 278101 189522 372500 180913 110391 356917 360346 40092 228874 373531 14158 178321 121642 340278 527561 250165 159990 431587 680603 435480 85970 356837 173961 605102 399523 245895 615578 157664 38497 425621 375614 242202 251876 203714 360646 97025 23895 40820 107974 286236 335224 162939 121871 513625 497788 98461 417749 145199 185315 585065 256629 295635 228682 519714 484928 250418 420551 392991 259165 626337 542649 56799 79864 695390 635004 405730 7011 8545 49680 145932 365106 282081 374270 279130 190645 125602 762991 11559 99602 771 386396 112002 57842 3477 140973 464149 318919 229835 294002 207829 357763 38693 145055 378205 712724 261652 302552 297231 220325 137550 307966 232429 22017 139565 34270 54062 12843 103164 26842 447114 262688 63968 123068 500032 758044 410353 242440 485650 413643 452532 386516 285329 27546 186939 370805 25000 268948 299383 244665 21529 15543 641986 495986 94434 19101 180802 181308 503558 457492 255416 314733 302711 663606 194718 263680 620853 417562 217603 247335 339620 702579 638176 580716 276894 184503 600181 73090 117584 133886 186515 410850 539025 623329 129920 173762 613009 705678 453074 450677 347827 268263 277957 306948 501735 477095 7875 426424 421674 418728 188502 149376 467913 494817 241902 380161 61706 624532 493675 548756 423803 395869 501085 594634 195805 76008 407514 163383 192542 15256 508147 623415 282994 149118 103858 129107 88798 80733 574750 466309 310877 85566 1940 610493 422787 307539 116433 508592 451210 288865 214029 9130 341616 630686 90394 146522 293880 275911 596651 212415 648872 888958 325701 481927 51457 471328 442142 123161 653938 148694 460992 502650 587775 476333 220417 541726 202998 109123 288329 134475 293791 434456 415735 17763 675345 299531 349194 8648 139108 193367 434729 330588 44837 195499 2536 81426 282364 237656 346459 22385 420774 26381 579118 4592 6069 229520 230465 13991 181634 90212 158741 279626 398696 302014 237594 231437 354030 40473 271530 177046 94532 90083 59473 225180 123875 260025 156398 122864 240188 122143 111992 120589 284012 302183 245056 138438 265222 608962 118861 320971 138316 90073 646651 138363 449254 660517 141265 791363 716730 741865 190424 146040 705836 169998 37766 30754 423663 413704 168823 83023 775842 588652 618116 186152 64613 123123 337588 121148 400209 581382 343608 307719 273105 101113 468047 173809 645679 113616 601223 444435 288435 138793 601495 616846 27323 263857 520211 376248 393494 587088 23767 512133 27006 480457 603755 196545 574067 525924 318859 536516 7677 230918 692477 705181 178311 566284 364728 502454 339862 509404 383820 593486 413614 34859 96991 475943 130944 350053 679767 718906 851159 23202 208035 183593 11721 61920 503710 692523 98279 46651 129990 612031 114396 26674 316660 463803 540092 19303 495844 442256 401974 310458 278239 274574 432027 338707 138547 378654 399640 17255 68793 201024 89545 101867 95989 140274 670467 162846 216976 387177 50745 269907 20136 449094 541870 545047 714557 254265 396080 347199 590413 622969 549948 108290 398111 246462 171200 91418 546198 394203 79143 173262 151917 219730 30199 467341 68821 71980 86632 29543 75840 154239 17364 267292 430863 199506 356859 87712 413675 168522 172841 159564 57184 14580 401788 262414 485028 178806 89245 320903 58682 58753 257722 290139 217737 59528 83869 209635 364441 113989 369767 563289 278645 166651 612408 410948 306415 308800 465825 526213 220107 186920 115780 254435 387796 350510 501620 108399 746734 705821 445323 796770 541776 474333 321354 50353 82408 250758 317239 387093 478215 132480 275908 208952 328402 244724 33854 521934 202338 286234 136870 138706 506753 111954 355413 160678 65562 305346 256544 441799 407616 559339 150007 253305 522946 504702 5821 26832 139600 111322 85058 268401 607131 218616 391657 159814 109079 375151 603894 542249 133838 196175 252239 463532 325218 695604 423244 424672 361686 120296 45428 43450 61805 383298 570692 387540 70876 124990 260207 253062 559216 524756 313468 609057 236334 157806 78021 113354 474870 633257 786790 141643 366282 253402 468059 92996 279072 358752 69635 518702 523833 656651 313319 71660 571597 522466 57050 102322 357143 318546 556350 745943 213055 565730 138587 14934 552121 96426 243862 226623 175873 383282 430342 473197 84457 716492 206426 122494 167106 153062 281814 481943 300947 60281 94749 218436 336080 329689 389729 258404 62571 645452 305320 169173 125745 129653 271027 392122 471359 570774 189628 111339 123725 448255 429323 565711 46379 115812 35126 114586 180866 129244 655916 26233 198786 265094 473520 107632 137979 231926 483844 261682 533870 463353 335391 214323 229837 170634 81339 96549 185117 23385 211319 96167 428084 478295 401760 249507 242915 17370 56752 286927 278758 320671 27514 166651 346434 78589 484781 394791 450824 216363 401858 341829 129948 112022 332122 114050 135465 51094 154095 463486 382392 200822 12275 110458 222758 276955 482071 2715 58093 225827 417428 363043 29980 62438 2410 264516 477570 659370 298192 386833 478598 596850 164312 190154 382936 381097 67533 4802 514065 549211 171892 228465 138511 154514 46283 263702 276028 87185 524428 508467 306850 502007 221260 60983 92890 643036 460025 521141 109954 12590 172280 128627 559966 390531 143181 468374 197862 306205 44901 316780 365463 597771 103582 560346 17637 33871 154393 6880 241885 150327 193091 285607 517747 136775 269316 499622 63202 361923 183978 91535 78759 357919 109693 342685 108373 340709 78452 20551 158989 237739 496771 266638 429344 579604 247065 255696 249799 430924 544315 359191 491285 535030 339481 643543 151326 397227 157295 562011 66180 693391 358270 545474 78762 167439 91620 20718 387052 434102 73490 417119 327455 178970 67998 339945 151530 191565 316214 164291 516640 220247 126351 43925 260626 236169 545280 1329 11982 15435 48806 8578 25394 51413 565710 280732 87116 330310 267465 236978 23759 168793 261130 153039 329313 411002 690839 814847 419507 132588 7678 224637 261869 14235 330307 635134 432921 646603 773030 492532 331954 189908 212568 425764 251822 346053 114302 52850 342293 336768 298284 500951 155901 315020 80085 91113 170588 150589 414310 278217 207497 174617 318439 309312 119823 7234 240673 261014 261618 288649 460386 489240 131729 89010 276231 227433 384704 601181 149141 197122 157770 250754 278000 302762 99388 418803 65224 18663 137880 129922 59311 358841 378190 504058 539226 458680 452225 90447 195546 74202 847777 611070 257476 183303 350993 27962 194333 556150 487161 410198 287251 90784 347637 31252 499231 493215 528079 96045 207110 127026 432051 511353 324933 640710 188770 746584 296022 727773 452850 461054 210050 96671 191310 84623 387610 338006 341814 315027 297791 215448 513441 642491 27594 289256 107379 420146 335385 429825 91699 150881 365908 251156 11881 155877 353906 619201 118313 751538 66754 112893 349006 7264 133007 279545 248870 287461 585466 492594 365772 578867 329704 238993 120003 69373 97194 73517 257489 33016 132480 24181 417940 127947 660082 600533 434724 186728 7796 220622 3536 49247 233508 511725 319820 570771 312110 238343 468884 86896 353638 391978 520217 287832 270015 739315 132684 313347 404913 630283 158210 20289 302706 545115 438033 578778 74545 672835 304525 320564 139622 515467 214783 192195 37081 325042 818952 377296 444600 525782 133043 19896 282723 223654 67724 122349 627740 497120 230666 158011 90088 297473 34648 227818 475156 326005 271109 95483 414042 527401 356386 385782 247001 246520 49900 36640 61673 481880 307399 164536 429399 350401 129054 294968 63544 280787 261068 512779 454241 332059 435801 146838 1758 221210 469160 266037 69020 261436 377942 11203 392263 189058 198488 326884 81129 571762 2142 141875 136008 109895 9760 173840 326849 352539 188171 201996 210906 588857 67066 41561 46023 21726 173817 121587 386713 411978 784 235289 285497 253977 481038 150324 291887 629527 106610 235388 169362 59580 83945 51680 260490 11960 47244 193910 512717 95671 603473 263713 375036 294563 611356 628448 367842 115954 142154 41897 603794 705049 244909 21011 466764 91579 231525 597623 629673 262785 671827 72540 258698 217921 15020 157310 609630 60168 264584 496503 459111 457663 309624 185022 432982 264519 586764 619495 320637 287512 607584 146917 300879 83288 28669 414400 109038 7430 258182 216143 6740 275739 177307 65983 284290 369648 542886 410433 183691 131050 1087 166423 523947 331658 218298 420111 765814 49051 9876 127232 427037 299908 248953 321197 276777 156638 300466 96629 218333 553671 80340 42502 523733 534158 143790 83394 287312 205116 532474 777848 590582 336650 653951 18492 83096 109428 399760 400066 309504 116119 597277 80940 452036 486036 74158 512400 176212 520707 118381 85165 395356 456901 84643 659898 264925 34156 75578 229075 227060 165641 232151 442172 260857 159153 251920 91669 173037 133245 443768 535809 44300 44943 4460 662116 189776 194668 308221 518797 674234 589103 393975 477127 539567 471822 498041 199952 324959 436485 55620 147539 387758 451684 98705 338423 273005 161482 341867 219564 134003 83156 292585 32204 289064 70691 42043 148754 280232 122568 235750 261559 710442 585238 450465 49877 98346 46936 38875 176885 243727 183319 477367 565213 746246 397646 337653 368363 543578 264438 9076 76545 102931 456391 598053 354318 296052 529201 40346 41216 271085 150990 430553 441841 587920 580861 116548 470803 156497 304004 317652 124772 331501 134747 167146 631159 511187 186275 258592 121069 235655 743814 379747 388903 197014 231797 483905 14764 306935 441218 369193 343448 483672 509375 191383 197070 22851 39422 118345 735600 217517 372900 131771 110746 345910 145414 128264 85303 400529 484768 334049 268652 86984 242505 6802 362695 280539 11862 578007 120787 573839 475280 318485 214120 290625 97505 109891 154881 273778 628045 7471 80763 463512 370287 73760 127742 631188 327601 160093 57036 99933 450826 651462 492028 637000 261255 660635 16944 631007 453516 493145 625776 323586 196071 377616 178643 362033 336007 16589 82516 446401 296583 667099 286110 121517 344650 119029 49974 471543 31942 383082 387597 100312 150160 17603 320511 296361 426061 85318 166394 348043 285686 333261 233374 390766 606717 167160 164866 43672 40672 281847 223695 218209 252947 186120 675941 14171 496068 490331 226630 137392 506035 692360 190336 314084 638567 61345 328129 390270 32037 335312 63334 415829 552418 173907 4582 421099 99700 400053 299704 473749 496547 435602 159597 29319 154002 154867 61625 663897 8749 344866 318002 388450 396737 67032 196679 720079 36387 621368 552307 487788 518877 46745 629970 124027 238438 261639 467437 176741 225215 169526 232098 531903 52204 870560 754904 535272 125786 392688 438737 90862 418104 499956 360515 10860 144715 711759 146481 260897 115549 579539 80678 15830 198251 190967 11171 481712 5407 103320 9082 271271 218001 458977 331914 267462 116786 131742 144013 462091 254148 417513 632250 122926 566179 268459 338692 188054 449016 236691 256125 543361 125023 415212 135440 640133 240614 33564 20060 125507 534445 515924 87463 267368 480263 180315 525827 210179 222294 290909 479223 296474 676641 541 47155 307351 564722 215492 653230 108043 177269 500911 18126 476186 231001 162965 253757 668183 189192 156168 313625 16878 66052 150974 2133 67590 317628 298854 328531 266793 402133 60170 394368 60249 382464 8656 84901 310770 625764 418060 446307 372201 18916 191614 588707 568475 81083 55783 69436 481473 119001 576777 409265 369510 309215 506425 86179 494736 258999 371068 327017 465307 113632 154564 238135 449357 197446 241841 214487 154758 282794 440714 237384 712312 317723 76534 219550 95914 91526 125570 803677 342862 423330 587404 559666 37903 302851 100242 14900 159078 93087 134310 207182 351675 96188 115698 159943 65050 23029 84156 181529 69954 571884 604652 415209 305056 752656 502085 72351 355107 147267 125805 233739 86752 406365 527726 165266 108773 281960 326547 637844 221486 106539 259052 147861 229125 320426 13330 126938 110615 196832 212189 272499 24380 95059 317272 446163 26849 202844 226499 141007 387011 314058 584201 684559 140432 316257 205949 26742 187061 405374 382919 274057 42047 593731 48185 485912 64322 183205 378770 261568 157767 4313 77097 15243 231820 229070 296794 227404 157994 167679 273295 372047 143125 503098 209625 334623 176186 3666 323696 566746 87689 610969 89233 468145 291968 711 330432 547531 686586 622180 216455 306561 400152 442184 387932 167024 532373 502354 464880 571747 107150 537536 372677 165922 264685 243856 372317 819511 241717 309281 773165 801012 342841 739698 257178 221664 75945 35388 239112 82448 223594 327679 172876 293930 245537 448918 346111 471680 836010 680771 338668 8240 224061 132472 465228 670601 266847 339360 568796 511614 246346 321205 341866 574688 48338 40645 35656 12804 431574 46745 598503 101063 317267 512948 172699 443362 92329 193880 824120 407481 786738 485235 262755 143721 80583 155697 86703 697650 146746 184217 193105 313176 569038 343498 206993 77568 15297 136550 752337 447878 535961 377199 728013 604461 580851 489526 165946 121836 322382 70260 471243 668363 521621 752611 217581 295843 205308 328583 521748 658027 591255 635573 398760 299617 322635 333872 669305 354732 142799 385937 488540 251282 250611 412228 8543 41054 180105 159974 27951 147864 190465 203833 308034 121832 282706 471181 98546 229948 461513 55156 351339 259042 221106 65416 2534 269096 64873 90453 533730 815187 365200 146093 149766 213620 77044 117140 177311 396394 516638 640608 751558 890498 403723 702877 456103 126389 483392 136664 290332 353374 242339 190853 569314 201999 208166 168754 237410 304144 214795 71260 364648 65681 444282 11280 440585 149737 352172 152335 128758 72607 16806 157103 98225 157239 299822 231498 325110 36888 11490 19334 216925 27276 241523 448453 183431 504562 108873 317813 312861 68455 62636 78753 197431 565892 116778 531507 414874 8481 628180 618255 496282 368628 659066 203729 249116 55935 125301 67931 257909 17133 8059 50150 376604 64787 242411 190049 343338 273838 12269 469706 192506 90540 291931 481151 644454 496585 207524 447454 608664 501340 298894 357692 56945 355415 534021 373404 181213 83389 75065 318831 695565 184569 352303 196606 218789 626120 9869 117095 643801 448390 212034 257776 432334 533174 316060 24435 134592 320268 264996 118343 455981 81478 125932 157988 36465 103987 471193 260349 305358 326008 71971 150834 264007 288095 261430 430265 539131 126374 227433 122699 452573 398012 683983 729726 346918 618872 493357 340968 581722 664229 530591 606948 293747 403443 141891 386292 705445 652204 624430 172139 22321 395640 392018 556325 290181 31869 220086 224515 479455 330382 389241 659963 278294 397227 522501 454681 55849 576120 342297 251986 580205 420378 614761 412836 571339 442017 51799 138587 291069 219299 389233 211714 462511 164373 57991 523885 144983 299646 455316 447041 277116 271481 91884 144521 26143 61171 22336 352691 105097 432595 411443 360451 180127 326680 492996 318068 590387 248261 98214 497258 474680 119739 534671 408823 795779 663864 458689 499906 533669 339799 102065 133621 554671 415946 22352 79674 295426 290699 284154 692894 286174 259333 135376 102516 646579 183114 349949 3222 363702 607318 565522 955 265295 461247 569410 403648 185491 427710 289699 601371 194855 38898 49756 140815 337709 564366 298385 23673 28303 464255 98330 233879 722128 518509 331179 489071 63931 674168 244727 44431 615537 374709 273151 5287 647290 283501 100905 370577 490375 287091 625542 445191 251658 50475 827481 283178 322293 432968 460334 8355 253654 113470 104628 286716 336949 332044 797828 71036 839506 634396 189730 328587 199556 81900 312309 45382 119630 121627 349516 180884 659855 510594 72279 50904 129864 431525 359296 677370 172371 7096 624718 165819 17356 499828 144032 215428 96188 97644 85544 117363 11226 404040 100566 5218 18710 150834 416955 623653 17871 30730 117681 658727 132125 193041 490017 584586 179899 339149 55108 393112 50264 307271 330031 630601 255476 374079 444152 58620 443474 657612 80778 299868 306531 537759 94087 200705 436652 14128 216088 232302 391363 525854 214724 728697 580037 486611 381911 80360 627903 434601 289826 207811 455943 125567 370823 155929 384863 52125 174434 367131 439093 467742 483161 350710 89889 496805 422713 878325 575378 409618 80702 280365 43593 291753 450881 15998 529974 216518 29857 192465 413308 639951 132398 314809 230869 24815 21443 352772 185643 27435 348053 329099 361697 51475 398084 364910 82376 42616 27860 127350 166486 336139 358124 125766 64475 201670 539190 78624 477639 131770 610293 461511 323100 226122 91066 286502 536532 639734 715896 687818 167143 583911 349562 378321 436586 174464 221598 194336 8012 50372 26106 345029 28031 353784 212587 231035 17114 207718 163889 43225 316082 88741 15009 581761 104210 147477 256533 385423 474822 284098 671804 508309 52663 433772 375140 31631 48935 296996 44353 75281 291065 199679 69073 7880 106508 131167 385065 26333 29053 155177 346340 153842 488826 52729 140730 568358 644703 5659 641447 141198 181487 401330 83668 126882 276800 269148 130562 210381 318 109267 555895 395636 250597 9845 497209 414677 314945 238862 556261 32190 515839 77778 69550 13276 196706 91847 303704 61818 350033 401833 459060 484596 443080 496905 315399 12058 233699 46454 61137 249541 226167 42458 41306 156846 263355 109760 521502 490190 453137 396281 310141 285827 288193 420997 372530 71861 286041 194992 431348 206765 198884 109253 464566 651812 77434 6311 155981 288477 79397 489041 211845 319586 94246 52689 48260 27723 390812 255519 236047 82952 777524 804333 89328 77329 297699 279211 258541 215962 237440 137283 63202 366994 1900 58328 378173 696270 243229 297701 346259 440580 20853 161136 98067 148365 380830 705572 183462 392234 73754 115953 510532 477667 466986 772058 259111 319120 60976 7388 336444 389078 840846 522828 212053 1739 442153 423309 161841 295430 290216 395599 118224 242327 257532 394024 332000 475443 406667 15655 160861 416849 424625 531022 144836 364749 439413 705290 86406 360400 67105 106511 378491 184697 137569 101885 175357 216149 662376 726711 740076 383573 252210 127021 133698 219022 400867 302891 421382 359744 265474 251264 406069 208302 583226 17042 45321 511950 144905 20487 243989 37883 406889 295514 415547 320158 292591 452863 189877 142728 62323 421903 566705 282236 204323 853027 39034 95382 501417 28059 94141 170803 432262 91742 197230 311749 71630 21921 593821 290095 219303 101818 398563 410088 332953 254337 12335 201966 194930 546707 334823 264924 263439 102797 192615 206191 36316 569420 298695 108312 334537 741646 72089 555 81813 183282 43959 192762 395272 285091 123209 634203 484132 115303 34177 57856 489586 754662 65220 221888 600666 549149 11210 743324 554853 466895 595890 480756 145795 161082 35048 252906 415255 133717 247571 314691 572023 106134 596534 61912 50750 367310 326025 134355 234175 169273 117167 202412 92804 189862 452616 457486 547614 72467 210898 120062 113216 763149 267480 657551 288117 354179 248600 265685 519021 55567 278451 167988 399709 376254 156252 248700 259573 122670 66667 555772 142485 177507 656524 767730 469746 626311 310002 331848 691858 679653 211100 116256 607782 213028 154707 385121 145981 67393 10769 418785 137426 203089 619170 410559 517604 603451 357430 402646 536971 130901 622758 24111 722363 761948 273475 451716 106496 79455 680509 727282 890 301350 492049 136556 173939 238675 706149 608411 384892 100363 205842 151058 56640 366436 162458 96143 201061 70385 49338 464879 311705 560617 141574 201040 286916 666874 14312 460444 164394 140540 487085 121473 504750 29192 465807 350681 334175 487659 210408 264278 212632 73911 526941 124088 327661 443908 301850 1710 358867 148134 347887 97998 433790 259496 165880 197175 493926 409018 595699 664750 354370 333408 480205 433793 283155 247551 122770 412221 316531 365437 43801 134675 162397 234118 305134 532820 760871 724913 503823 432939 131522 217585 202436 237572 143297 436722 169358 299893 178831 18478 539977 447479 663153 151063 598927 515294 439521 526681 210805 515856 298151 312550 516713 47650 255073 28971 269405 118103 27647 18296 620021 414974 223475 26906 638701 288365 141553 35574 323661 374639 539110 222173 25533 222364 327007 436669 356862 333173 329112 20343 63392 203069 98521 721807 366577 244504 127938 255378 216168 100435 153602 416117 207511 247177 347642 484341 100567 431940 9910 33432 316302 271311 230845 127294 565290 144140 366238 174411 349047 591221 77127 374069 68826 46984 619092 448959 292562 146737 369602 404569 128954 173489 523278 26581 152512 138803 424957 113489 106728 30782 11911 549621 316721 248374 419252 425015 31 8722 470601 442256 528333 259799 217986 317930 46748 179136 139906 189883 286654 143357 7860 220655 444293 121934 364730 495351 601491 226262 162042 307698 301388 220641 261660 204236 56709 117738 221195 604757 54192 218464 151963 114616 156636 290959 530191 105331 280257 542045 1415 386127 138257 201376 216778 69276 5543 77 432177 250416 654960 317535 619928 79855 140077 40401 716039 738609 615235 382046 169337 471392 560110 182581 528575 135289 199080 148086 68050 108134 372816 323765 46293 70569 453382 295262 457225 147569 100368 436567 587898 467357 713376 93745 401738 331834 530214 6943 475751 658243 324829 141581 235390 314934 352988 536226 422211 381335 221203 283778 380735 225328 72605 4618 277587 202114 147427 558123 305617 310961 433819 449660 87390 168101 98096 92446 203889 293548 585141 104228 536921 249321 617402 35934 145680 290031 188692 497398 441539 275901 798212 30426 126537 624999 81273 148066 238398 80560 42581 74942 323695 181088 228397 386100 371324 545307 95710 186374 50018 16386 230593 64684 197433 323528 26388
