56
327187019 569862102 21435508 49832676 440398709 434149567 782193580 124242601 767366665 729286328 552515047 404306269 247185425 201824532 950731530 275687590 673969315 671089713 458429250 704586800 726643194 175045843 783705314 239996806 178699585 648934357 372549308 154805885 754062700 922202009 914680196 776936334 214898062 400419789 10654299 401504951 38690694 642473418 410845393 444596933 614380764 14023847 963145885 839716143 391947084 916093011 643995132 426569504 260162157 813724925 723984033 706550874 942072159 303554012 619005328 713579968
