51
271009375 123024794 749747937 941612047 530689704 987082748 377883706 720060309 769207195 591625838 165670869 372962948 713542620 684263373 583818989 100704185 962032510 523643691 360716141 206949966 833869104 110036391 833492857 513873205 301434104 806481015 619695570 315969774 527542783 687487767 423537387 438666324 617812340 733254461 485619979 713697976 585519757 635725942 80568165 866062126 151486441 662167194 427657779 703274292 382516304 860917733 914178782 872779540 108479129 126413620 805105757
