71
345457611 919944135 836107155 74021903 358212685 871313198 154482303 447334108 779655464 706428195 355532100 407945087 394580821 594393007 814184807 266777642 402656894 637754856 266594200 824411800 987708455 847096610 831020764 24417670 991417853 495786922 597557702 760344857 381917030 997253867 341706691 105047287 126368881 366110979 586474017 752580600 480472340 793822200 967911943 564688955 235441318 166385569 651618859 129778007 815237332 930596840 231661274 645600410 415679354 573118844 543999273 801442550 895717008 12208404 542035376 477213308 749582704 189773883 203616585 133049085 884876457 524141638 483738353 364036045 731285383 437554623 599330314 119589866 331481349 808794606 801570161
