1564
473698811 354787093 163527083 834699738 920572531 616022719 626272817 169641993 393181673 532849761 237601742 266323595 817168357 796542713 836054282 943742324 327155268 65762088 849652584 983836722 339596755 319194556 13076204 656191124 506745481 859078842 507876744 790294180 365603873 994239301 20333833 101233811 193983118 658588980 943462264 630298715 430761039 852169787 554306400 856113303 356531252 465189406 549636638 742180129 970830352 209290334 314590514 59215354 955899667 400134597 943322670 958685100 323283020 213180158 147252347 318463859 902130272 257719864 597513444 622118180 973208812 595551518 25564575 817671825 676055892 308037611 410047501 119225832 912719971 581394693 745590094 648293960 330201379 50405843 76192350 147157874 114224138 323826840 153644443 294625490 693043781 672535158 191742474 741767997 876686623 472102117 791135694 952166463 182781709 752416556 132616717 613560994 788748253 157420067 761270983 518741247 335358681 472942198 620728688 458676320 769218490 775651836 282568413 467528217 690196630 744592219 512729513 118376268 127312017 592044596 952285525 298855645 74283086 909771272 234404995 758575759 417673885 262820245 768849918 725700418 34199584 161548378 745947121 240197177 221568500 45414932 256130285 756366092 469594366 816393600 498921346 32659607 15381536 936844444 733087708 744171121 655422341 424580578 674323805 551525430 762933258 150318659 131258263 433501118 65747446 229201909 852103481 304037804 130800185 473243148 811881429 683732796 799528214 221398242 573049175 267068057 931687676 899144184 364509834 26346983 654315103 798457214 301051511 801400223 620964620 865338944 882926500 134500660 157651109 543901962 862967264 44262861 176895525 211862408 285488735 326195615 222079641 996385858 183237814 503584389 720967785 331646292 398831674 508461712 236857652 233086520 293101227 512164680 241236527 507789610 783769882 359528165 567797309 119026002 111168787 499942818 857813286 269750203 229413905 566877847 771051865 737114244 235380074 164278541 631120000 101192243 524727465 356597024 87583806 681687348 591207242 220803982 411381307 976103766 312430161 141499181 634079155 184880984 41828070 892008724 687401342 526660173 261149220 194433831 71997062 157648279 617151190 262028966 677157542 998284442 895885254 745564077 464379748 10528349 654322804 996386896 824245597 746372414 740960640 662023210 680952484 337569696 822423958 828641132 321785118 437830331 35620243 117564773 872079349 980266615 863614857 701900852 796906577 30756632 922162545 803141388 958190531 474986000 765954063 449977234 309997323 160068227 291411402 663341741 96230426 623534972 545089940 772079144 580948386 287216744 201388342 262827987 680711232 62059082 110632601 797458990 2507307 780436215 332764348 362757157 413787943 185731121 47494725 669609273 686411112 763232719 743227287 909280647 553958346 557784179 914605359 352758877 292930724 251672004 526340458 423569927 980222792 910777239 852479457 334869538 608333097 85460024 514842573 701293523 913007896 626551943 729912077 87435944 149340466 739537627 733459737 966013975 153330328 827186279 115159644 328838443 664943463 666792963 908562584 12358559 344010172 309496857 887726617 585914480 801081282 937853393 837048617 346508360 357664589 664356764 586400992 144898848 390111071 41864340 268606522 530077668 755595703 525253580 837269378 104505583 599187072 334667638 90345371 57012841 99578938 696613321 272236255 791775222 460157166 231853926 31489749 399771566 166289941 817698059 289268112 854893770 310686288 167377968 194466635 492560302 756029962 756019964 879326263 636065582 684977484 728559488 227036657 601483140 432423605 951046746 905743060 146889077 784682785 115109870 732059408 208806669 995133202 32339480 681343651 281727793 839329262 204218476 110713802 682572253 497991518 913214048 523893149 497245604 993811348 273560613 882164855 835444309 909525506 98665129 322659904 213092741 272285258 869698588 89246605 176381263 233291533 595511407 377921884 561708586 377143703 811355889 989060903 98398163 103624465 716263881 323726771 858822536 678020720 475087127 628429446 588713709 81615221 33313957 483550839 672905891 767264702 760963334 513590113 613158546 990909581 640399594 486578481 332020351 277819260 636660950 403195823 330981014 576593102 595214635 519635809 190886860 106036888 138276920 998345435 407343941 81364283 365118726 256689649 595167116 60758718 695052755 728407800 892520716 940928306 432112159 806237736 701957750 141176637 498551011 682957599 647140359 759618412 791932706 750783368 302407602 36149402 586579662 140616744 197744640 568694427 682946734 415236280 716759059 239922515 62016833 378846684 323677548 314267854 157259468 193876281 17383937 592520629 766866616 930650051 888933344 165547434 767325370 364566057 663662687 423461181 940285772 109400693 258866129 674921316 184113317 87605058 814306669 339067973 837269250 802130155 436783153 119856176 224911616 268384039 892452252 28334237 925532510 916290754 624585275 1960243 488641627 491819799 450553466 93387061 529426472 457589927 214674613 906981038 713966685 881977879 632543969 885443798 345590154 412888446 209923599 493679100 365076709 79417869 94446005 282598233 722871364 989623520 562420655 223184149 102214451 247537614 645701312 964352327 730741023 19195915 608460429 582100845 841645682 65656986 440113426 313836395 731261219 846625599 942064120 575401363 497143826 506219102 263971902 939459202 337223745 459832796 24983487 187498354 171429524 420845636 658139976 357732332 655831612 547295689 52707574 607269461 157102399 734655730 964845168 20533234 398385616 796901401 625509982 82748423 184411337 669786619 885629835 243936375 784010535 604419754 93175634 659970248 901606388 787446430 433177349 381601205 246018650 962807613 395085506 752047041 295680249 616687122 567618122 877374248 498071116 381630282 451081997 381227737 168640800 301628626 24311824 983069231 949225317 976766949 451517595 642508223 358320277 665953953 70880513 188671129 14376915 983512283 312602659 370395254 603291329 36275577 989459234 365323711 366354254 575331434 315059065 978701327 50269777 27757753 243034145 91483986 872605891 415187704 58253368 174476164 78835561 432330274 731821543 557369035 544658234 863395545 396561827 621518826 124505612 39714895 128525168 392390907 548429513 466036732 428451639 610604516 191351506 766789584 396888017 366329419 633892414 490274741 398599063 849882914 767799527 898483059 717707892 175548111 20126496 18654477 720191278 524704809 104070266 820252408 726483953 581605150 621628731 576953042 412146716 297388273 52924181 470569636 626699129 337605437 53359813 238707469 498998832 159253574 892483518 810597726 136542642 330953867 896588192 813542020 292881716 147068371 356606285 863786917 846221014 734895942 888839030 863608600 104164600 850823955 225721291 755214490 107987542 189942508 741274675 198106769 419804396 266194634 301445295 524821909 285442323 642135288 463325684 90733242 415241569 953047255 461616565 325159302 552400109 367571034 43725405 312552513 936184634 428311408 568349068 232056239 412988328 147842233 81896085 347128642 696700611 459738329 37773934 39703856 619418860 207530156 144818119 926330647 938967255 693590846 383639183 675754225 253703477 458048284 606576247 425489721 892930487 525258668 405939655 55184753 141658724 396876530 986709561 40534095 62808806 257563192 669355546 725533706 711727087 15877995 159623086 688206523 370933086 454054836 90389255 75667235 139435161 144349373 606704759 102047870 779543678 879916903 592709972 540770896 309886354 250629107 873432531 437232013 888256041 209189103 923151688 620925925 103755499 921085904 99774130 267271466 712528614 559379211 391309139 970806600 908754127 667318074 374373203 162174098 68546810 335891248 766403984 855029143 149265203 798032730 523386441 628286490 669772544 856048282 67991093 966546301 153852927 381787084 474630518 720260429 230471191 848832769 566340163 600843479 564793624 899933177 785465455 798522316 924584336 958736249 129040841 746320317 588813906 958588854 962092759 499522186 211548185 749824945 351234722 529834431 587398696 905537171 477643797 776420082 951931407 388121976 429057782 822474856 963168862 709557869 317826576 380655004 616876852 558672185 783382021 99195951 395113186 674184043 80597666 993415509 581564257 528488539 590196403 116017595 740369279 270939601 769995547 535575572 149287993 160314661 521818507 784949579 493168242 462578462 622925102 298391788 625860102 990832410 851728469 273524835 749994962 718155425 344937442 216100123 140929507 601331336 961868091 9040126 94711887 368156262 906356929 709760224 344338245 55183820 119707307 41344615 955187997 923395077 528972632 812114153 306218531 909015742 427966031 562207373 855372629 182776781 659806086 25907186 880327168 765777531 833467872 138729936 254621096 151586291 208784110 997456973 738997953 137967421 126383904 892993247 85196725 991066783 691910336 56368153 199983017 675596007 541503584 622011900 403857314 818533271 627079408 3137162 896335604 602128690 799058556 236633253 702571794 152169495 948042657 583824921 994287720 900544084 195395917 782417954 929921657 256241348 844042959 718259436 365448767 85630018 667750686 347088398 430596836 694349771 115697183 173304893 344180538 471146726 308143737 709464334 917902373 816683686 273533011 213618771 474480193 783030714 47690267 529006786 580907949 717467039 798194256 270532684 973542843 818446049 457695805 791385433 784880101 640157437 934872957 393310431 900022284 192271564 759156075 217965419 97770182 310303775 637490004 949259262 148500644 421361046 153314281 357254148 839252953 968855367 878828666 762819854 33467743 192300593 99592603 886800956 221847404 840520728 823953855 285640682 99565905 655506121 748889270 5676922 810726721 466442911 869499204 943065358 928158651 394673972 778220775 632605540 450295665 473506717 494833014 466433306 752858621 344636800 126582412 222634181 284381298 50814374 750139593 6588420 382439724 47354550 436604467 808811289 551881983 919375883 552144321 365277534 145110351 769342146 932821 247255722 350704048 980746515 26776382 251935280 439213682 296977259 843626287 288978325 839906896 12503760 509289530 549056484 106243795 186274829 763415109 199865095 521033381 802717418 564459377 882946265 143234864 142268719 254923302 214703433 473613952 76304039 603317604 448123232 9390886 815961612 651438575 948201390 553592241 214373212 373872698 893821722 249433405 299826803 813788620 710627218 184379041 993693324 842431568 451363535 126263643 230342521 131316035 814831413 760324918 46475597 993824952 179737027 951083728 596957257 830365844 386281252 993342102 125715907 693158745 865017267 371799230 75354177 813495376 672151516 579806176 970040971 312364142 922160021 784002353 21907756 311773650 74848584 9763216 758209066 829683407 867877235 718258095 6314238 298951349 950916648 971446872 961907888 589752730 115254243 169844110 334563570 235430890 922413972 316006645 798445784 156025118 769533100 132429149 440082014 726131983 669580851 374749319 825683688 454928011 205211954 368526178 396825125 865432635 2672617 530291300 157402850 60448251 665044184 239852196 799772109 11254595 446510599 267214208 821235652 959315287 607773058 224183383 300255362 134767234 241022825 265578063 501910915 22927734 459656448 842821677 954583994 593853341 912156496 409833468 547844454 659685581 709534092 171690943 658209330 567419956 723346898 338134627 677198235 413776386 930952551 755435384 827841594 673237889 550373414 913055363 238510572 662184349 588338405 85719171 293393516 179459703 730187258 877288718 844092444 106179876 757814121 577797653 263714943 879601970 314167316 675351222 897270410 945804181 542022933 314681139 381582699 500685006 114463571 381295078 524947987 761251100 835122199 919816611 720274349 988740344 52749767 625578284 20243324 12520971 914635372 189053338 536086050 167101737 283388170 160625939 873839023 761636643 749269087 303938333 385526883 950446362 365513467 158191334 904364182 166655087 830642366 266896960 355776618 716960946 226884906 941360117 756332679 140362792 14868377 454152581 18808740 439053664 672424382 678712458 380538487 674441554 478015318 966409372 550226429 579905586 643522980 677166879 905893062 345862323 746452990 903182865 748225289 865452189 994377990 150137215 255748792 111141843 103321778 267330934 818851556 627070317 118348740 899946376 718075936 92173428 861825607 230867875 397064455 886371362 163933790 829846707 429240698 560934147 318843292 309311110 578832641 735883588 867225267 143730084 504419900 811719311 644814682 798635187 165697058 983181330 536404040 793370942 736569096 540055374 536598978 57343955 560067978 257594433 232215799 110969514 884134452 721418350 515688766 559871193 581307369 583011848 690658817 833733630 266064640 136094813 9158373 615700046 944273877 117649839 898845296 914158562 30083684 103207549 979379399 371891956 504565444 931392091 333854130 128531857 992683416 940223174 559052183 890645083 13639139 609577173 962188000 133402847 41134789 296090736 415576485 415705625 643084739 300400890 288105448 486551560 190130652 858704827 131185921 6438422 910469568 835928318 259885197 364164209 784891554 308961128 59246934 410783422 607282594 37131185 208355141 179302169 566565969 986947840 521109056 906052617 170900295 932730533 460650781 25885359 81307380 609379343 440242779 17116141 549817305 26152787 912992740 672220294 670629931 853787196 834589269 739108751 492206649 851708497 781799936 645425027 13885539 777506219 74734787 702054006 914025884 529298568 679518673 976307782 425100433 836932542 434083670 349269995 890642510 729143949 632267076 851479935 931624718 203322571 851553006 905353618 223233469 516402059 462132012 149612979 561038900 231739789 467900409 870755667 683133174 828102063 748649522 970662180 414645417 967764064 144623220 714407642 133904737 390480874 512384876 127745748 643150402 54919566 200679606 674800412 776290481 402673698 373374624 30111782 566194575 45527447 202923740 492705050 331028198 213996784 475749122 816986872 57149435 276535105 770634948 544243363 73791645 558954377 589072245 90230754 159261079 667035342 465376088 751332145 980026106 181133067 9122450 545201434 66698576 500577410 42302536 644462457 330861510 974006035 30656883 639856848 769210768 553271884 503844573 821366434 220067849 631562739 949482644 420477107 720819025 398796167 617128482 20710969 176165348 224356129 347083119 55118256 293111757 989415868 726073139 873904012 87780815 151548066 375343069 289254427 256076689 939825631 546497363 240707099 331237186 573800724 113180609 202761609 14003341 9232328 897017224 197236523 73381575 950988443 390021250 296312157 913618614 313516468 278213177 365420057 19061455 657936745 388941951 155856026 827533534 321470704 45528019 690341701 825324840 110769298 510451819 207356237 445618216 692035533 511481040 178095375 261174655 694606003 923330758 247550144 799379443 523217055 744536137 574264147 820589446 574221070 748796195 590018159 905745770 585937187 927800856 590471472 490932051 127457017 563513658 482228300 706353781 954234673 808156931 708125403 876555136 653765600 939307355 906167822 635009431 757237280 652260552 219525589 869885711 49371332 53008602 159158457 603942583 499793722 720203438 411924037 76771439 516262002 221816271 110225837 63747219 760316983 152781161 359866941 385381871 48814553 589961037 803854990 445316023 589176752 766768196 464177488 928645824 36125841 678789750 698582545
