6252
565320946 927152359 689313551 106013129 268651138 733115573 41076929 445686773 93921879 170053984 725597364 99359048 311685501 573198278 784924160 636002779 438691630 976795758 799634874 150094072 975003290 236452204 929580801 74334453 684761190 723084009 404610236 605612858 429216855 952119694 275043201 666999336 472153532 9033650 384207654 453888340 236539027 148691496 570674153 612017474 764655324 805827486 831788034 227241331 341158934 715743100 67082515 666910825 438270669 448331405 328766158 300287992 156669623 527058900 64347837 637198087 694907722 650236328 148374868 741956468 935092127 51332913 736404471 199773748 735456949 152057945 657638832 249572827 471756677 970386729 256969157 449255811 739106638 266239104 288491009 601181636 677210002 644838287 429535339 441722395 809520886 873098392 456834828 144132211 537681826 302810687 204144218 176663630 232651943 170446187 487470811 573130136 39615720 130500378 526714672 2681958 556323990 373675239 734051628 998399939 886813051 121607378 864229180 283261162 177584895 141525891 770782232 360549467 85629467 139171363 980861487 687287625 71299980 762898801 272791802 669652663 8639596 903563284 799283932 106080085 628062528 341747649 7002407 284978975 450488501 92482370 946514612 539546077 683603323 937294086 180495548 786904266 338153197 457184752 718550317 768306630 999948278 432087283 789746688 840581137 339763021 423575017 932374560 578549183 344305925 388955148 62179345 808282645 849730380 765562880 585573234 416680084 208558167 118409504 368806716 709885072 942846429 85285910 216926331 680953577 124177836 413541131 947273243 499596226 667479193 266411438 788477925 647350768 717965324 538796526 164811702 59672197 399772161 363135628 845547083 801335359 742738805 478893978 623924112 385401251 315224035 183092237 630005135 382237837 616695041 887672646 690304398 288419361 191732623 631211382 457722065 514164503 861019521 739663569 679746223 148563662 581889665 86769224 932294807 972215140 154038584 362332880 493476678 901860829 774096382 379579683 157318292 701017525 774688413 215701956 755904661 935275787 723974007 674146550 307229112 220122340 136020054 986523072 976374764 157645790 967772482 477274859 160910771 606236553 416338871 900244921 390787106 958558803 833351881 354117079 4142328 28076983 585269441 871618070 909279715 603529580 846577452 431607303 755434684 418814581 875338766 845927858 196216849 540561632 100166965 416656254 227905200 349962201 229667664 449788991 346386744 234754147 849433987 906004007 761549342 209281569 217560276 161814228 217296028 919832239 896683910 15225611 2599539 835544831 205089350 639444689 841167461 869299980 267876571 272859493 686154753 468960560 789153958 662024680 121530031 368246381 166211529 844603424 839120038 746352376 119896528 783833998 260109854 540349220 64622744 474733303 966769465 391933989 606544063 933139444 933339735 199942194 861271690 591489525 660071823 388596638 752781416 249072161 716771148 167568119 402423693 897913894 153425714 515721363 827662172 871347707 153490395 385764922 96210759 687370461 539697458 274658175 287099196 328556125 817398842 955556568 679778287 567749220 373920209 382512268 726367391 716450686 555371586 526018308 374736366 970687134 711954820 619581302 66069880 418487869 942739536 126902581 767931456 331207402 639306361 465661380 330601900 1188913 92645302 461026752 225165640 898670092 38732114 706215028 948300733 969597514 779900293 479672864 451566718 602943739 23862301 235743621 574224229 351754035 396732741 625659321 340319335 856303012 729452077 933300255 90549800 331603507 869126980 826640880 472998549 765420442 796032116 396138488 146918621 558462972 270352176 571870377 519692750 720333057 173686438 476930528 99340126 21007755 268610359 344853933 590533330 84662175 441965794 168716247 337766897 969015148 181949134 608095437 876450340 504307515 846311958 548550121 980714766 789072495 874241006 410722411 401740777 331076141 305570306 727462414 754238591 843449551 412345517 247767530 127047161 715368300 611444901 627266713 672688321 790374578 837118832 16373189 12609288 893027066 227482794 489918280 800038478 342254237 113255046 273127512 451144906 700949417 624460492 35235083 18152822 255474669 44075755 242313260 370078255 532583298 700540048 339241380 552372946 265095146 906196348 774628463 172104418 407917156 61614672 261688114 171643178 395530436 293390625 925490186 892047002 421745833 28760170 8634703 464700608 488798883 786133620 377064597 14541696 9957066 87966019 761269930 974094719 406500113 75295830 37887007 981192351 479164960 98988035 123392417 412378867 716148132 44001193 496815127 41181488 495037371 20156036 635683841 690888460 356676928 406711010 526434468 476656345 477150343 417304075 879962606 487244665 662854275 191824045 83609024 456167878 852999937 856392841 682025704 217437675 906742021 117092344 238187676 229955309 400359018 98952040 830032020 592662854 408943471 326783869 31777323 276375892 498320862 43167064 28364007 556201972 216346738 722409708 282037794 377854668 38452685 555795042 176518843 150603633 672514286 555301660 947709643 828782651 615583790 138507045 761197088 892093322 526307227 957275390 812297350 778810060 128199938 451080355 955596331 543802525 733701892 934432256 877493660 824028231 565057545 5185459 493820920 156836882 998514626 977480459 854662884 88455937 528636412 958667210 944004655 658688642 490549764 481997251 881639143 695446482 913450970 627186256 519431971 204433676 92240800 105940787 606541900 257387996 873258542 97170912 883614981 447750624 590845943 349907862 606419285 611864927 230360084 543783486 631123710 180435211 320882631 568831105 87215081 509253555 102377523 911715979 299162005 227043663 398085258 934247573 952366899 435798665 563864312 386728994 239817714 635601509 42080369 718226615 136507567 154935325 439354392 856945850 853333122 687617959 547127761 692452058 320011484 741102266 898375693 877511241 513862391 552111941 993950716 441915804 116517408 994945937 263833283 519034689 922308323 624086493 908999016 171039890 865317218 965492797 611079371 772563409 227511765 418469149 77525397 514568943 835107251 407606327 397437425 157257865 33471825 403506416 731090152 905995500 470311825 22996097 572094682 250913391 256913605 295844243 432534690 151591791 849193698 30968841 910217676 751284093 613588112 613722758 784191455 915333043 698697198 530622742 972517899 412352764 203370925 485965040 821317834 477914292 3672762 292022427 370367786 96084909 608182585 466572539 823131160 147953104 677302579 831688731 239143000 727966653 389827433 632106445 158406159 297053363 623624351 245617497 912695801 737531129 90011419 199927485 772522078 179980236 520570093 784056102 465711303 177624357 127152912 518213901 539522024 904986576 355698806 961804081 458018827 629854503 342581604 520532553 505937044 779989482 541144347 828291659 7524986 379198548 186393616 856626702 703353564 821893958 865627172 786620216 329758020 482589799 941466800 791168954 649794179 499896168 604222315 879522070 492203570 410430337 250145113 26891175 266535674 664438832 635391165 580503447 982034395 79200985 295670283 1134583 677018135 533260186 744422227 512751750 728844124 212513615 172073678 815960847 244862608 768916924 279568028 364826304 318702907 86049741 274952346 609539666 628663249 464995316 332694900 705017335 968012073 114192991 842750722 977258185 794623813 543683623 71768081 244965716 886563058 863072859 550934926 847585282 486030760 404808555 537275906 113965478 824791701 165489283 659247124 696819584 997042477 251647088 584724911 672227667 649158839 240025276 428036464 305855139 851372957 333608129 582845276 811859297 188484760 676171871 875203341 366525600 119926751 68912526 150698947 73651801 914884783 825468081 937482437 821247618 593475112 50130672 497594354 566787449 125554054 588643271 403951193 719907703 958044707 835629372 857286716 203247105 621233903 496954928 118384721 448137220 129632638 573796361 501849648 859060974 794321427 90586149 613249582 25218438 885826043 651132981 424925456 354939591 618388542 63550383 938994135 455003382 616488514 853039095 560859328 665127983 858709868 236499233 906561038 168740401 777409649 720531694 305146120 547875151 887673213 204128921 779415528 586061748 97405023 974553647 574783598 464824767 290105548 758916443 308310545 9462577 466646744 739631579 107016748 969014238 218282887 119802195 864305068 138492768 694695898 682692808 919903220 795005471 690336095 326938579 921870445 990232003 139398313 655034873 34386705 85040665 492575348 637759241 991156646 499222495 105805618 677751597 357835144 930930553 820918781 199348424 512898120 303059002 865148982 327511912 784896579 84232144 3187488 174310897 386503484 840275595 818428312 450674826 562749076 995084772 924855413 617754419 836410164 338737852 452349957 765832184 475479921 871199570 935804099 276555151 69194352 95752606 200220504 920952005 886049938 934208969 248385123 400396342 872564042 196591015 596282906 394338677 281141529 253615713 93947130 187904738 708016271 40111675 793403664 995062341 802520822 590877123 980922046 351672809 448297372 329015648 868783146 869306134 448743448 435857968 798572057 251977933 76761584 778504802 294906464 973763974 569463019 896511699 265117246 870244416 133172420 733426625 481800832 916865942 591120859 827328335 392663726 526986087 211527351 686370158 575876328 576961600 725135341 824520530 382566702 859986006 885179466 63075403 246983114 377153629 454756958 910416523 311708900 39429473 505530914 827536486 710991951 547113897 496951847 667916050 842698346 434232656 940256168 363509382 181996627 326758752 244172804 3318326 234490907 67309933 674098065 367051103 218239776 515123594 9074962 108944220 387324990 839830664 676196727 629002084 878381177 125745299 223994628 178788094 430155407 13217859 153723001 198084498 147110934 993166551 154438999 956176417 173525997 324955777 583288368 278860980 687070177 799912187 169225520 331901717 615658242 183937810 946582805 393723804 590729200 337192351 630233240 863937597 737883222 246182380 53616576 191990239 38379772 355918509 305521286 716930032 432925113 426912806 3265712 751618852 702884390 24824205 318117077 391408313 729807070 248518060 535513873 684042721 508922186 460884684 681695753 936165232 511866817 402740463 407153579 501094689 103126911 13436191 244052942 236897995 646489026 165288650 489878380 212255739 825956199 955070178 44703511 352954683 520613156 158381611 412950426 696296548 737013944 658632 262486907 430255152 453120136 32564058 114691972 316653628 497103932 825215484 663730946 985031767 727400440 836844007 197072874 327365076 167592517 434955247 214086012 92249996 513617527 166936022 301875462 914442799 375463589 531618931 734258982 110571815 583849613 296930720 921160815 350413209 406011298 379596690 576016922 894042936 409795593 545120239 909189995 921870782 264301146 615246338 176361554 930247290 789073607 379556739 484694218 396045402 116345612 605937505 220116676 325093792 220244160 334198113 203671179 232225117 840881919 7447802 76789206 517368764 547361723 699958456 790066711 540954662 941853402 241632240 693185370 746067225 833201606 568083177 768294630 517383809 1571599 596009098 185416618 660803420 806313264 424988202 902304046 47282009 948590708 556630823 234612889 89585333 799641082 285925125 506193068 216673097 341779641 776375393 518832541 407453209 613970502 724401834 85169285 215590163 653403583 999803129 744759070 648492825 988734867 884626178 372618323 332405753 517352621 425393534 23531333 64862749 17613360 820155631 644710997 168284080 996006510 687723889 261698426 831003899 64798245 911955886 632092586 758372568 917613936 280984503 784321743 152780886 815872263 591611486 889445276 17692508 805785842 531168201 310313848 384573114 428773791 299198281 121183193 552244937 292146996 165585082 967843412 488736275 220673794 630310967 901472274 96061064 132681021 473997557 282237695 284570534 97962849 909065903 403665343 956601743 512019716 280629742 997589744 824034083 718865064 654118344 834959958 977562123 189258566 339813296 36539438 929744968 325236656 268555060 110258516 844443740 722021366 332950726 742528973 855384821 590307152 749903953 690469358 972989744 980299478 399131188 728142953 981263033 353876874 30740913 698545920 299434272 629704954 72218874 891845196 970166960 465986467 112967949 341870355 89485655 609690022 941244051 404466764 212682983 693275930 411021492 516002252 834003385 211348925 266918666 459577831 700369773 24791686 107226519 632465617 79116705 661416179 944835360 379153943 18493381 273347796 886038047 77039359 988084213 542007238 929785893 778563656 567094057 278517259 378131040 689716426 856174825 928821429 813759160 67432923 329078068 88673745 138692105 91518222 735859455 242264913 755453104 304535214 768426087 201930333 724848250 267427082 362307530 937819175 790656508 782085314 584681337 70683364 568158668 156557710 206502365 153994973 195061406 511635546 162774766 52189400 168216686 231762305 644727736 716409225 743914833 292816717 861844909 42793331 891122984 707517108 494817965 436639165 12831770 166842746 677162699 89286349 212401564 721173525 249792834 304566920 876079361 420894444 329621101 325679455 726224490 211909945 253467783 447841075 779459622 344992457 605343216 721874183 161779276 232801691 534445291 973539848 900931880 343859908 858131769 6995552 691267448 456051 215791440 987213743 812728040 965260547 959394081 934484864 620432355 920791950 988508910 352556704 300843863 405923250 997728265 467586017 887763469 294423117 547617442 886374753 242702708 864906201 148661213 319608017 509854841 689650812 597704499 594002411 24588414 299020410 164963782 509976668 792193832 753485716 574162214 827932633 627064971 411920041 229761990 286514212 925724506 91411406 588498912 501986216 255849567 949447956 729122060 936987500 889507071 917686980 725754227 368106518 569598387 237147916 402228603 81802505 619356083 868644806 871108786 155101734 452349750 753546671 484632186 558961853 846519543 270096713 342385880 363154105 545928385 992599291 116320922 349935551 337227274 737117753 43754682 579133803 228114051 621503295 753490793 680377725 902715277 214852860 19489514 402171682 793520824 447712187 782597578 971276571 102208965 33210786 787195176 135122420 529258553 705901024 426822895 964416579 622603288 976448608 351809541 223550368 142864724 488684136 112471302 816599108 336849065 427160676 613925528 578712892 49487743 652032042 442011189 768988693 676260325 644062988 654059350 826152458 230492489 201184920 637949144 797349474 822948162 648383521 959179026 898474587 463966047 694059144 551652064 410573852 517690908 453733703 408080732 323981179 743281300 553813068 440359227 678750881 490243329 83154866 600111976 938965258 893061464 8817989 739605495 758918879 34130909 391080116 819881239 405466721 732025228 332582190 323321924 230129555 260469751 64835009 95157339 204330542 401555214 123315379 465142015 221968416 648967541 765764984 978013519 847435928 515182835 257777046 445578792 943039319 144194792 138783644 787940705 762145300 75527417 127639271 744826035 193901796 553274864 147373129 74000263 475636516 755504573 251782492 474883101 233925783 141337874 727275957 151467488 828992424 979013751 76508860 897668151 369839702 692365950 174529765 987344566 507140259 987063242 812683356 403273613 140913010 655012305 50773550 32677926 415595666 478485056 27067301 977891230 170314097 847030196 515289138 789369389 686248858 265823471 78838261 995859321 336241536 923086776 673958087 714177776 440229395 85409713 750798003 739707014 534012974 321317041 882339799 969098017 600115184 42826776 159784739 270730568 872118485 552153192 973288300 796698771 435905347 136760517 511048188 933400637 953553949 334688903 780700815 456744598 536940223 703018116 232100160 602825896 225147948 944562083 670735023 369918513 996231538 133804248 452789975 733679342 500195612 196131699 642287911 173198422 721592547 810567632 642682587 326728276 947651943 596471889 128998560 762433304 100755762 496609307 362900178 872864963 29631947 270185165 632847428 238208456 44582873 326896840 64592018 559831297 633619621 678999827 448523668 344014704 449968738 302922291 194963926 120756628 174210185 124763643 913843731 720458267 27505160 241886007 351655956 645569331 235636812 744382290 731627435 612012795 81233926 857926936 90535850 522832764 559444884 216438269 352691085 6184285 790902947 477729499 77208899 371102687 252078365 515672058 764229535 277517300 532373 697240637 317274153 843813799 541363785 717947209 22364967 281907811 904121668 630392956 173775631 418749968 401575849 165335161 842955629 74870601 783015254 864702204 99410819 317600869 790753273 136527829 147155167 527545192 109109611 779083825 466367199 343629628 802397539 405709882 217429828 792866672 420794547 655313914 942918073 506115638 355127707 258414798 932689726 71136298 461556775 683075953 178077638 210782766 404740010 871823460 394394754 478605493 355641801 101937300 820243219 169806067 177413142 987579885 89853336 60025423 990610618 756250067 13357343 463882508 894353856 239177222 984746437 307934655 950172413 776255732 426787081 482517787 513253051 558035756 12134502 820515923 974127135 587776350 120616032 776891295 317786760 525450573 462642239 39009089 431339282 631514567 898227018 404215339 631045652 135236135 423928740 619855933 755777356 528259829 70961703 311438058 208153765 820620993 530678847 216582408 570109689 444048386 337655403 161202619 859364446 485329802 250256564 460907521 963610034 209629027 650721009 960562285 343179649 489809603 543490533 545611715 613485262 844796876 167089052 465296331 172058042 78334741 212868074 975240128 816722923 374707444 119043285 142519065 432606964 710478195 387694878 805729403 589940280 102710029 252322659 728623874 998132568 256464899 572737634 270346011 595187215 322207095 289552547 181853931 568053058 361442161 290314691 437098727 759311854 571589491 828440347 750255026 391530922 634784297 914506447 669258191 411850738 764014050 830295687 629556558 296839757 645553066 167832563 820793476 732473613 42915252 688255196 353833380 929906520 992167169 176814613 313684035 5084246 235124277 104974689 582197433 923963918 553920867 721199306 330943340 70315385 257407655 567624208 806067385 346663096 504945986 379510396 418577889 29737020 590661061 400576428 600493844 87905761 582696164 899920961 904007589 91704831 716736284 892060390 78458702 15282678 725868959 348421742 487339368 5064355 347122283 849635714 669397536 476770356 69288782 85350720 456331681 767192277 436788494 64317591 641210867 689713725 399497265 905217223 829829744 3952678 238190586 906921468 338528739 112728769 189744967 775195283 228594319 113388313 822742358 320332047 796142692 87694058 715351428 814427637 199710717 499681157 322345586 971421040 709251579 71950310 684955625 822275187 789532865 54310900 477318334 870217125 886699439 363169381 114411992 719884402 833996260 640000292 942151015 295543073 398630031 513486622 840068462 960377012 506503727 473455407 568897522 982118185 166463589 102183423 538146683 634643831 625466802 296605225 59741992 484679862 92730534 766085346 577283030 192487127 133730981 583546324 824263593 22108769 943682189 31750650 578247001 437252433 143476823 259717954 478158513 459368409 245401690 207282748 76082032 906894375 548937403 50067718 77352892 388717456 335246696 823244506 140876284 910468036 688936882 405572408 437537905 131305798 953553944 970754349 756447290 422755834 470042682 32012841 707671017 572365265 217781178 574444287 464994622 825156870 63314528 923253179 998639184 57933336 108325357 787285421 692107351 607784558 231337773 86942028 13450629 720592905 403932447 433798000 136948830 648804607 970724913 141328079 242812718 466294141 109464640 543327719 100724987 33525408 198842975 301952993 727145707 457373036 812209260 263853113 687698737 753557218 708359757 915049544 291889397 52243169 886285714 104730026 400437371 543521152 355172477 15694817 213209489 302495512 86074412 95365878 709341166 78660414 856412283 89090775 97942348 731958172 234218244 796993416 60331151 569227933 648442311 240885382 374809339 694285619 663836832 504056304 252223407 103391823 800193481 57857883 556894830 823146827 472412380 162545113 390463836 660572721 786343448 534473603 158388652 279254923 847778806 471593056 123683295 290522146 114402460 767776354 209915359 448255871 660155185 532113606 701441737 808377557 676354087 449258090 42389334 809913920 599595920 938045045 178843510 526348888 948131911 692485782 779567717 983351730 690513402 688390480 265834596 951885792 624140282 453681269 59218941 104522607 936275292 259533966 899964852 496310874 7218173 992620003 310716157 788766232 810830894 731910845 62443004 521137274 925308670 232145664 470589213 182045142 837237621 374223136 745831744 488598610 203356482 573354697 656529156 957495293 428254695 170872872 560328322 536718920 258938124 939347784 87812478 23210283 105651372 460003375 171788658 995916309 919599957 452252181 952269061 697568738 302194071 849516868 764124457 550711455 152333142 347368194 629476728 202408413 156899465 671187967 596702276 793396346 384658663 201619111 457018704 495104808 369610755 236398386 550868876 921753783 731813108 269768326 611075532 882763906 273164718 93131675 464832229 446079757 981333554 913374669 380974691 625841109 987433788 550206578 417723167 205861860 223438116 701795533 737370712 165632856 722899501 624820071 622477778 290812309 573040266 42513761 320277533 284987946 22592864 862613330 221727954 477925367 611761115 427289915 374860870 154055233 673531594 928206403 795457565 279871014 454343298 403891279 135098915 134569351 128070857 594622849 162982109 196974204 475145695 221556166 637416500 117854359 103956417 982764072 277765267 254499536 719246021 688546648 416186413 143811706 860407521 153513867 206883283 635556959 984067343 240916982 202969056 296255201 687025420 26618846 454656485 331508631 284857689 998782902 589688471 375590535 769047705 424592758 419434719 41256302 323261480 241040286 415125309 852896746 510895669 104312632 705181434 679310774 678970432 725055742 534258865 541240657 539997243 971880597 354636753 161695356 832514907 738947076 244083126 264542588 467034577 988470354 275077788 978587657 441002947 9369772 670851673 565682271 588652863 68963639 578207587 350668983 876411279 966761681 566133452 867850755 619720952 795673729 273885704 308933516 478099282 937554585 310745767 614791201 735762770 520467147 237965052 516890042 653500811 347425972 694627492 865529294 800397733 856248071 923353207 603748802 129956019 492477472 971637697 419447365 392385614 513818200 390817029 726744334 399610747 817329956 651797672 481144171 698008114 418606479 44680715 462425404 692728382 664343298 925509497 942670313 128842786 304796016 943230623 648889801 55113424 912107417 417115486 613278473 124791004 812126394 826312105 716898898 419262774 563638270 916999141 579928256 997474850 386098830 211846608 779249622 652144209 804250885 566952263 390976492 600858588 171831299 564518191 312384723 258127185 741049207 882330130 855339787 257276679 178164995 293454649 20140162 768031395 90210170 865676563 362908486 276487870 662432595 426848511 198368714 706856841 492163961 669231234 532701601 874058364 442962527 340377990 173419986 991256946 601787065 944043182 889433019 614503476 213768911 347444545 145833563 645318964 794667642 689912634 633137312 438794947 624870776 546765319 788250256 541933980 288593175 539384889 603750998 15366839 877057138 604359685 792857944 465115941 850786838 291908999 781606234 710526674 290619259 491756689 698741157 852136823 912879428 825248158 699833362 234388384 252929652 853444740 465556644 388498457 874738053 385555417 403489297 406656653 707233681 200851034 330447664 43818964 838467787 313196655 519267959 309205533 627376567 80395106 7428532 44258883 199988156 713718069 732541891 831422121 813215241 53495400 60317818 398731350 540222006 38786259 4073688 853480595 292940356 835586427 123511715 346076976 544104855 378817374 976129153 815930454 272402492 124667554 483893960 426350572 582827316 715760349 240154446 533095551 142389523 494976924 46271292 162031997 126589805 394142307 224057363 598582939 676730567 628227984 688564331 637807215 220593214 172632381 888636929 769541174 772165087 621368439 215396574 608301368 750835582 768996785 390043460 741440725 312991624 810440035 784940682 842050546 482743591 704727593 150808491 563440930 218501020 363423261 431947360 108440237 511924556 329254930 919824891 54500455 688883480 848265650 505980327 540610937 650249152 249333703 662075570 585180298 833993020 476745801 843908586 680581704 318814152 939747357 721633339 398054040 456050393 423484537 170755309 268310336 652660284 13400195 451880818 613288620 302318056 503130431 658920771 821849566 32771947 728624564 496183677 404709622 431745333 345403428 380008877 997155472 619960185 111556789 508021030 934660105 616471359 348326245 256907897 22439451 760049679 301284648 278477743 504568457 24164751 97507462 876233207 409511769 493271072 954285840 809078962 503711360 828000895 610247349 5619093 753624880 253307443 885721422 155953464 935861004 402310444 296751841 607934776 78028484 218948984 272490183 955464478 347795252 588282629 868207092 193451773 514479239 734931799 664198861 722803452 715720176 722789799 27037234 162406733 81274930 704409715 926209963 479721998 121613703 67546644 784757199 646249252 423050476 528451257 829109907 177249678 995430703 197417810 990429978 806116955 399674741 654256019 2161748 718737708 116147741 572432407 933311224 152979781 810914505 205670563 447637519 330883125 789892450 702549732 388754677 110759351 356420663 47369684 551990604 731817630 709047334 788789731 454290451 604007731 301104109 125339908 91170909 401154415 785611646 894763711 307667369 257992939 593615099 370973779 241516596 309295322 47565982 764208603 943170727 391518595 528100058 655988053 4267836 702835768 882520150 193031882 788333925 374558232 69671571 574246701 779075986 827900904 401762054 183692010 312209689 393351581 243093948 29116863 45606869 459139298 286576526 597931959 933014071 713179723 461238074 749769308 779385032 554809240 85926355 100629490 471247493 8370771 93109718 612984164 35578431 673823764 727774238 579955986 237044725 69687955 809932309 66061296 380607021 576106404 388672937 401401605 57589443 553175404 616785649 911629587 334143710 234870469 74662324 385062984 847677781 776465159 777238844 744551096 416448700 73614294 334753968 670843075 512636673 344952092 998758891 961105244 451835797 598145042 809235222 684072145 795658113 492835188 165957908 691864691 553886856 415627968 750595296 477984544 725234134 642302343 13448059 253430000 448131156 437431198 879330722 3978605 372828830 735358774 287798977 517012652 882082580 165038757 651653080 589369818 629794887 787247198 81255494 910475309 382838154 668156202 89200047 887078271 752350982 30557739 419140174 364035736 240205879 893822872 824800712 818467470 210224531 981546023 851787463 63912470 629102231 476741416 20132473 893732229 146665571 706462483 750772575 444447157 632175480 719245859 733781512 563673891 784361907 352952256 419507467 345621835 258060993 409350527 794362125 820347183 748650875 836228434 494159460 862849528 107539766 178689939 625206934 94910127 804577339 679005240 912189901 660484359 418326064 149328295 697970414 753074276 400227385 780862684 568437898 279830339 71041757 464803478 659416152 612519178 700025856 250715811 739571713 793084696 131719827 68487444 783954517 693109579 295881937 146119090 525306679 405298541 471588174 500667605 901503385 47206508 138446823 302922715 743816285 918195096 735306219 338467902 591177555 446564325 732342299 576685906 522579422 496879222 663572395 52296511 504086799 277566212 802827521 178759628 418236574 514906553 950899173 917886679 609332388 670713421 226031272 190183804 24077544 216095915 525461473 716713546 991007771 747241531 771814353 879600391 831134762 974425571 963257005 740224054 460705721 717654062 144743255 418219476 149034409 780189609 212070459 126532828 1433395 221263170 12159959 650773748 296126826 766521438 720131382 309594297 670778454 732364188 947172980 603155681 536380664 656505754 677727789 848229552 976447330 513307344 714585671 602965295 935516404 128554728 713058644 618209986 220812943 379636698 666498876 169868 609585644 643385014 32950155 224548875 291983458 305766535 334398387 181455672 185495192 200971691 370052750 203986678 180050785 826756027 872122719 191593221 280334063 248854871 438617401 596331229 169374096 604539290 353481517 716723061 409000625 480265720 291005282 340985856 115029562 973695318 491288816 895757152 860852815 373470063 354566186 743114398 635479001 980233555 182397562 358958322 590392460 229083140 65077839 798839205 379269351 304431782 269298887 107097961 484510737 520343302 924369700 558072392 762575186 995196645 287334096 920942575 234225481 615812150 506560393 892664939 367415442 733752165 63119295 230979970 108147486 564213810 323776220 766462174 740384452 68380308 934408461 148452845 831217907 633868027 716439749 634479067 622121086 649167018 418064218 678892713 103023003 624428714 505379058 624482128 708007404 425850007 509869186 794597006 472862835 744351911 219460344 307620391 787839117 483137274 410305239 451994650 589079965 693840224 899300397 682341714 791816381 852957996 964091071 985172876 768171657 382020765 429590174 672259884 165924273 240636377 209148667 955202878 16681330 177644893 280370904 232001798 666929046 709072519 919116473 832415955 338262662 141114105 383542804 435880561 104988480 200324111 562307133 345104375 483889581 316616865 974985063 403036122 906754408 42197732 605686883 849638694 365793800 676442296 40686006 339188498 618189225 677511099 57794253 213594552 719770730 751716973 791884303 818535667 890150097 224478455 324377296 846056390 941972054 453664074 404269698 359190904 116366962 219081765 999382933 333517514 207126130 837853359 190544215 276531502 351885290 337908464 645328991 702944196 78381497 187422182 470136416 557594946 916346381 826244164 140312162 502735795 453615071 551012300 563783693 302214382 604694510 614404654 26545640 192019003 781032161 777628978 602299846 979020601 6337038 933646478 112029571 641723275 793668166 522842697 196873696 439495204 524787773 968827838 443176983 606354307 514244133 34729136 883767612 540786307 693966032 623728551 359268655 692589449 521050343 692057547 937882815 15838610 246703130 777393194 783828620 157490207 91053452 744056226 805864115 860062449 11552734 594024570 308339766 386715072 303378190 613384194 354714565 81349834 5869529 141314754 758585428 624539945 116378367 408204717 697764810 265939973 960004726 461565561 999797727 558314732 19298398 980267808 405552785 407769913 842283617 645981537 556921839 407760912 319955561 556184197 531027897 877747495 30246735 717585338 210008120 877015518 183516784 639854784 947835164 960571615 931674881 935275302 399040007 209852818 826458216 755995782 326834958 176727733 285385498 202158842 120407417 861647923 592606782 852040718 856537763 169960895 22637415 481197679 970269567 55433773 656099428 544663259 143149162 681799438 614162868 52002554 964689368 482732823 239292329 714303927 430319203 121782319 302176446 195457879 906756362 687129148 236810306 576561566 641495633 689899975 284834733 972686102 946542105 118315963 631164250 356790786 478461939 941396512 411015811 665808396 304330839 591890411 441008730 758155491 687102325 848230907 515573717 440757564 814019705 430032082 577003593 625054185 941770367 743846406 752974661 919821142 537239772 463029018 243608914 319585135 780253959 598512 324518965 700024124 683197632 557090432 432821151 233903419 426943500 492906947 302554906 654125059 174442417 215978801 76250453 777964828 782680129 918822558 379058328 822899236 829676827 653808849 344611151 66563876 408345231 784109859 840257596 902497100 475344240 147906904 555933406 515806760 801490582 308198870 601620636 817292896 110307341 522519327 799915305 348744279 416828166 29667354 711148170 575000758 800759397 547846912 121068810 698808266 175786062 779681374 893476025 819066278 194015195 819557663 784198445 536732304 989923051 815799903 956712187 437440306 595447315 910043922 609600682 98226362 366075352 740461117 454582807 87489379 501707878 775788887 138320354 944681395 828730507 82237693 152859930 954394072 390236765 752016683 535994732 485615830 526359229 406092457 47655942 105392940 763931668 507004265 798518211 51878773 462797103 391914220 215212198 370577158 128854296 434037595 998484097 148249032 411387203 600681801 661511188 660816998 232494763 541112414 54795903 391425000 774721132 714988116 962930519 611726423 666199973 643515951 261537893 821905889 347261614 703260551 720824208 612509473 920722815 308457491 154028945 766349785 976787061 349673521 671799448 502700869 791253053 681806341 194235594 457837263 481076142 131734030 682698007 899428787 874456052 958108417 940789958 681795887 528383146 243519170 799915908 884958090 783206286 293058110 449686378 569865242 921797456 391120318 799211865 356665646 390484694 530029131 46143201 9189140 821772887 588484405 93811532 490987080 633205815 4054973 959511868 893005981 339828723 700375288 905472830 116613701 926584097 892019974 308106344 487102984 487184198 660464874 811587493 875955397 753772339 419515151 276220178 930996349 977083193 844823402 81216365 837018573 230278824 572403383 640998437 349277440 179144837 983503741 594326561 260553889 476562801 100633480 405717510 578275114 949195093 951181684 696264262 917645268 889904195 674703375 468317304 295261819 965520473 105939507 975273967 438353320 992352613 544132676 1609623 734799470 202651843 168025957 114113995 869520699 207442838 6536509 985206280 644941573 813660073 799850508 129161117 469321293 169800347 845351961 848245714 932547703 987974536 408050553 50745736 45988961 977612996 573215425 647513836 653898552 698517348 910475406 459894621 279055366 964383089 555892045 867692284 275724626 315237404 901920996 147598223 761518462 582564382 129978446 933288758 815791590 713567359 882515761 52579413 560977895 304540211 540871331 402478684 740690032 137825475 700425781 47842374 808698415 95383045 651495894 485362993 45025833 644657946 378689020 234847451 191622777 90807286 75965268 289548721 296651777 213623347 516370973 375839099 496369402 922265793 504081999 747449077 49974832 884654787 639665052 907368628 731187593 212346732 408100164 27006038 11692893 539993999 739555169 479973041 294379076 370403479 251447506 290314798 913786654 464384666 906867142 172480654 435319833 979313701 603022495 671348816 231091850 119315979 411851120 704551229 119348350 858246048 958730899 734790233 803486148 612631501 779323321 777590325 348949902 33035210 190069174 509289208 704165489 405325038 862948496 106345386 400287846 357054146 372175643 399129467 732319824 591560072 267938932 752683447 981334217 327174780 839709564 218126468 573864237 858545785 192742216 680998383 300571241 207607057 920632424 733047962 587818531 940161761 101525111 293666324 354165813 193351903 938817384 57063193 739496084 424999994 757064292 285444811 232956465 919191997 131087384 577466954 699061114 340568010 62453133 793539493 207922623 850290046 865378252 486504145 73662894 321044075 414065075 228122758 63131461 745033480 769718803 216057687 59537650 402985531 632785452 113710002 336410309 626906495 131081607 684373213 514738755 184635781 134021453 871051382 55697115 576597356 755565497 985451205 339502143 67813896 690258483 626553119 640806499 156011437 813822415 589576279 541003360 78628997 345705019 940576628 989574611 864424812 93305021 117672852 189013637 415494425 252322552 687565468 840328495 104414573 898012520 854744549 274897421 242429105 889455484 656219704 128865022 118307206 700202135 160426110 927674363 688285885 659047039 744526144 397868745 966997936 508870650 28053664 701749120 564984356 831967975 357830915 471860056 410479265 203354804 576602092 317052218 213315700 307584386 193185478 372985130 147632218 299763447 536586179 145154064 698342222 910103193 196344729 557574152 673980316 641423529 551356247 61567351 792654756 653995248 878431730 320501663 870560377 983865347 992222316 322933619 634049374 122429836 263062386 520915951 457622824 960844023 186210790 928466207 228951253 134168180 88785616 941179889 411838845 435850464 194028359 719315903 793784947 976647373 119721240 253815751 931562232 803449960 913134394 496735469 88319413 881824455 508457368 419306620 392417713 547785081 840758815 414740300 768831385 637816588 425944914 578585245 835581587 479893887 473702004 144275827 697423731 932001436 66660710 565449156 516180074 573781521 147697582 411476603 527111138 615523615 269108241 849568195 216613562 210754591 200312678 548700492 761957130 462392612 362343745 600384506 458808001 278169917 837990529 101367644 366889090 296883977 625315229 364309347 860092675 182454431 54004096 390131419 565395285 687803213 278883658 782980432 725153514 113794247 978746983 33260005 945493363 664371257 656931237 433550522 451090825 385300113 560436515 609287769 503283421 218331105 365079221 85356610 905024547 498714371 435402142 606865005 748268881 219958264 69875048 642493811 549612607 42727071 214140906 214579183 951365727 743394549 262739631 876894275 963742879 907376824 433442525 875170682 618850091 572805086 218085299 658771848 30870746 65203434 691004373 249129826 158820767 13750612 417063987 373617172 898124135 846929190 877510298 766306539 367629069 678204634 475245780 931059774 770739883 617924553 98186106 956240291 118381515 270568430 835593961 922196777 767085118 838569077 228129330 529431649 666605316 722385681 366210625 425067811 175762099 913002301 590865908 340117096 647770113 748904907 728863080 896752694 569481197 600318041 705513721 194956466 248153677 949242791 907797913 653888982 667584307 87500751 937112682 775153369 669510326 404446145 308769667 791014599 981716423 193302786 466676567 215272982 318930186 214950833 825865884 759280281 511430402 109655968 565745008 612668457 250623296 831475096 186343206 881723522 485870832 121163493 115597628 507962061 732324995 53501850 545481720 294636884 239751171 578813098 248715270 835968369 289271226 851914789 919134400 902712362 835918843 638008773 329802058 461161240 491770399 982673395 136392500 407464595 964388967 126803537 348783051 248271278 94713834 527879974 412209085 832216539 203205745 734405592 416609218 191691346 573059058 19651513 165591624 982912251 942582323 969232470 596398086 12822938 998970967 847837416 221216009 74361442 853685139 326521911 456927703 853099340 238080265 92612979 124335307 734169605 548825022 773013300 573029670 910627593 169158015 61319202 936425572 195275513 22336587 784526477 957480757 831369608 567789955 627906264 394745901 428239270 149908473 21027240 216861920 731116631 87822331 198762298 53625891 837539034 600549397 297456912 207673167 383176736 16839664 142028351 385920184 853765409 896385102 979368958 407377453 389328316 323155030 353149297 249087808 878377939 72393585 808005977 459478629 592683043 521603437 105180042 862264511 518419508 181687388 518723177 586099272 914167684 540219020 296079688 272667973 886853866 814091804 367127852 555456437 400946068 21415459 540230488 246918297 41174022 477428814 610378872 89824236 852116454 13172983 651538466 592378988 148210263 443570270 879700322 2812956 730856693 359793406 98003895 273912103 149080290 210083242 596878352 636127594 224205925 937808778 150440965 84363486 9734531 382442492 601904921 415338731 548714780 882673803 345320990 816655931 473648546 639740727 438686764 341858725 861113262 397914413 621595871 604020784 725806514 301447389 617106199 954147673 874449210 604558345 57935629 395724288 482922714 706046998 856724454 262694713 548544472 52796231 826078768 226763694 382090080 677827426 704001555 162387732 613401049 340096204 80996516 507306823 642289960 982999874 372128396 189366285 87961907 60971760 759963146 479500145 286002518 353105153 737155130 673901914 695442096 415301143 918281753 686359766 995514942 131546743 873136868 118254125 689086786 319043054 113943918 127110308 922842494 655189771 285934259 462782885 478756685 704804978 152328349 579617712 919780865 124466610 831055095 379760591 186844893 402711491 107935987 767226260 384050140 858439533 733652693 399303387 812527185 576019190 655623760 826802264 942402360 501323084 502257778 132775953 322845196 267741606 630578679 832847396 835210228 448650979 744878890 773298272 430746649 747439641 948252544 617880280 512963590 775301581 184766756 55348918 90541460 224851914 758592399 613616081 687827293 112245207 423159715 314563175 474947666 313000550 782837271 477225688 540484068 838404131 385059786 565995128 929962840 50743840 801411990 130949107 638282189 648141430 868244292 613041147 990211315 401978986 664762900 219768264 493250343 10935369 992215332 5563654 884721962 556253626 687435271 157977259 725492619 679827334 226684712 346459920 861410435 471478285 751226920 90518632 194820276 898117766 725585724 966584144 731599667 795925876 610158232 635275378 439562333 232112642 661671029 511903886 794055843 256841863 809134796 477270763 167852206 7378936 79742670 325723547 452910204 696239810 642833679 485040920 990285613 203588172 493046467 933081298 776291416 929828944 457270345 337426016 303069404 947645356 321144899 935922849 264911825 700347669 628989884 248824646 646060661 419799191 984146790 354246528 902447936 925042084 551987626 117579484 552415376 900384119 116162764 902618484 206750701 995653767 969047173 873373991 169442706 459267228 363533649 574718402 691867126 346540152 548592184 316805515 235591818 570225489 683200373 176713259 569740160 254929256 67089059 301548024 4670663 564857815 974868783 387057400 842495832 411657575 798338370 597364504 743937007 766233365 341945295 26783660 397485403 890676455 770953813 84020571 794661587 449052995 526682278 944849966 872400417 904449928 346875977 925307739 902071892 259620778 579863850 521423093 489504770 520220520 69783372 517259449 948705376 153675468 664671744 529792342 556078593 115994208 657243563 929078526 743351444 77720711 669029565 644877077 690260839 67871954 335149015 153436153 496262225 996036993 472342223 331085539 4702880 138614514 993394678 962133129 916946670 811662000 830631533 141370634 974803805 931365744 981544302 768254289 903226700 605131376 982891697 908814693 229286976 470006672 65401871 328968858 838393526 912033738 984800555 748438445 993910187 59293345 117923433 698807822 942211027 328539914 119895093 233494292 254064777 600299643 912403616 710034306 354325083 807900124 141564289 934325872 904295535 659178245 536619304 543142870 980704485 716256182 827299074 943026679 471259512 347878480 313236259 178413080 869295585 778803790 108212477 893564752 445724410 797625196 16882861 318161752 619929873 120827043 957303952 923344231 997999659 508992084 683542173 1389144 733863157 149030281 407221481 248247387 93675421 769825568 559020480 815772117 15635676 442566292 624098046 507855690 709700049 843054340 366216644 476686844 685184852 326823284 223731115 304953071 343163838 48887428 519873048 778135302 771346882 699539699 43281893 713069744 686349089 970451416 467561883 363429838 712534116 224766297 875999915 598606174 792114663 798557399 237338745 191726496 509921851 25597241 624560122 406627256 666252637 6265270 25237977 115508375 669589096 713982520 305123208 439658094 652726020 115013187 173019778 105291739 988409118 834545930 615834068 14072953 891501614 265194730 995754176 315948775 396601497 82084739 82792610 607341036 72490274 199488724 334660312 270934871 406498794 932371379 266676617 371549866 576275812 182053716 115568418 829114352 154928328 640402687 539108783 498641610 353377213 455889396 436976059 826713002 760732208 309465000 15158827 547416487 809046982 174132409 956141920 395747442 843930355 499915301 981937502 331499402 13901021 718348346 284680873 398006482 229448703 761151422 923316178 776616746 760526118 119169938 128442505 309465405 896898045 337470839 285698205 895896631 961815605 573978180 11437932 728618313 8135620 705399160 454409129 777070060 189017131 169580958 247477635 785271500 751098467 893835146 239848597 158701270 193674821 509616446 165429195 970165711 898064969 166478336 534924969 420294701 762631556 812877608 873779265 50549586 303491273 87887746 489895704 281933986 937266106 308330388 292685568 246064047 937344016 167084764 183162638 947639094 312586759 457993887 755286869 895062227 932938236 459633829 23331998 94304682 25842341 926587035 265693024 653169450 69310658 533172242 20057470 767522023 758336160 149006543 736086703 291667609 11702785 507687307 649603694 888746363 20917250 865625533 136118918 432139958 115185323 615914814 464424036 163606308 313997521 963708607 245487793 200663502 863219905 91648962 238095827 794791748 731048039 796592787 66415805 553266083 869958960 384324454 958254048 677056137 195201528 417206950 268279014 689414068 493505840 974422714 285663244 424610832 743411508 400376375 228245945 961581464 920191834 17401723 186465416 912671970 851567227 619416230 770866052 343998043 507701800 255708537 741229124 652457076 714366433 231034562 942895527 201253284 511002601 678218777 732102660 371726062 398691171 570893169 94507224 845581024 160791394 346554912 449017098 167518131 827481 203691855 324485245 971845062 578586348 406991830 305396731 829833964 136203839 858032970 488110119 284155853 594465741 952628877 232236780 610782386 893037742 94639660 627549196 581423690 980196696 757193923 410971157 790436042 687008422 88396343 372829602 998872925 191753281 335424484 613305285 944551046 135920261 117207827 409877159 462890473 106145262 99699507 631907732 909361859 359540487 738324142 805565534 316194831 439632355 39594783 666079735 694975728 453690340 72902236 297848848 519330955 411001696 156182452 283702906 758990462 927112947 206074666 435039176 771383523 107034720 550302452 78635731 829471256 689375401 112111246 269054881 18210606 725119240 882923994 873234660 733001501 210611514 482924587 42795308 877819197 675836121 644394596 242964161 433551770 158722766 110610109 330692621 196892833 98006756 510056590 84415592 505184525 734898062 534296665 565601964 44505859 691669032 266847978 20751911 182577547 77767727 975442181 164422331 379366385 545523427 323976471 152931219 850263190 868388807 467112866 308933562 465440266 87874281 475539642 403813119 861074806 848832288 908429405 463839020 765005056 470949241 572272026 966797163 795815698 468053145 65780405 862519440 27646693 524585008 252965188 340506058 608819833 443015214 884907093 898878901 656046667 807161468 158858233 709867345 583639288 675428507 929468261 448620553 961071509 924596217 71163486 200954018 550981258 208181960 164668423 294554200 91191056 13487259 118056780 840462579 635837607 816567834 630396257 542794693 145649917 337689817 4626949 870095775 804552574 701307460 954408141 666199441 248413876 560613106 107169474 801479595 116216980 143121642 70433862 672709527 601846812 16867672 510732116 379037987 944027829 743062170 518062864 445304660 346385831 718629632 535948688 173638369 511150101 489386083 925818701 622413884 140011100 345872986 26441562 73712540 291364271 153250778 712742042 121443079 3496100 416853396 623170917 69638701 521969864 273554283 300451009 514015926 675971992 145318659 445418052 13634086 750477389 547722616 616633648 981355473 763334566 790097645 910366334 212364201 624290011 357966830 334060670 735004860 967745784 922247792 645051233 488993599 185643834 909550655 237217340 197598288 726531913 111746485 578589521 765265428 89516574 959157029 121593862 950561112 424836553 49572597 680978867 420635163 699474062 453583982 887667396 473219264 90602564 296580282 723714015 8036215 542212153 324196099 61422967 923617812 219204735 455270809 328598024 873594850 425699827 381959738 795210978 332049180 91644906 688192810 819384360 23856222 14003591 474108078 894842105 563514016 805596908 620649492 752638513 994247004 504469031 453556542 352673833 276913500 935265301 744696861 939782937 514845801 867257810 315014219 220115953 997577783 35112733 983445003 124176543 127399785 299402390 957307943 477254699 892251707 433211356 805006277 492643718 895200637 388541540 791998397 104913718 585836301 853142097 252747566 722773664 224483150 800505321 325121559 791275813 188874803 735393065 441446401 524906205 299635741 896739368 380539199 235945801 738200741 41246174 322934472 806459729 880377564 411657567 889621611 380233637 210683664 879006483 990023013 764201196 294991193 790040310 658605309 741441702 629292774 734707175 841095093 692744865 749619648 205205228 541011761 63988036 218035512 692661342 547462791 641578028 975772436 232298933 929490304 415091550 891830582 663172072 405435505 3285857 106495782 36351818 561231550 428487932 771877675 988619936 804291754 642124610 9545891 959130105 550555560 249142416 104741903 806178648 396644176 421325636 740111110 514701438 485803399 618854204 308170393 825496480 743732143 54590548 53666830 415995233 929929392 249203631 359794029 803103675 595240519 674189307 364994050 5214142 571632891 910567567 471598328 669447470 662574365 547739883 591529988 3723374 142009866 314327150 317605598 844868641 22030585 366498231 670694773 474215766 297117486 391353071 484963154 864573519 971925073 430619614 204167545 415275159 800851378 502948947 377959940 11088056 534011362 115611226 605329033 374794678 434577041 121260625 956641013 132945225 20144894 714949458 852464484 284324236 985290686 846525741 259741766 921074627 83276501 357984083 350622366 309134704 475488567 715056754 282288389 609012065 616383820 264867576 581420877 474083736 650277247 435691203 253355516 83552525 298107370 263497539 569174444 601486800 574938730 974182881 795555421 407155957 986756187 203306054 720200633 708412013 275817507 643085787 389748605 868859995 388427426 541807220 730627382 977316908 483970012 456799172 684345286 427632834 622135652 782383613 165532200 974802317 118388118 225134761 532372376 479009749 633241081 848913730 133261589 876518448 613273535 491328048 490021352 47222824 41656141 205629935 472054364 605051660 78021267 658646109 214023701 530139191 273158992 896653575 936745832 94846492 443685010 450218563 706652878 588699305 215849225 363086272 273308989 502340388 769684033 54007694 755610301 952919448 919971792 206254195 310001674 414797344 950075123 837910263 376565157 490529665 111026078 368110664 258537288 918808372 430699034 528526514 206161102 264536886 832855364 678515562 960971862 206416365 561935158 508635404 946656792 270992218 983558181 513644060 440317478 747630023 606319761 982546273 343539134 392665023 842140321 373179305 65010958 897216861 155129224 502783457 142769965 591692073 649151769 901539993 146880938 226398533 131936690 936095158 450853988 162604374 250706187 686931198 829158394 143781360 269245860 859258811 402165592 853509182 136271832 113195227 312028097 406108391 15360982 793061732 577818410 91510367 523681948 823125058 604740465 25333062 517464826 533463836 968311077 788750465 368506721 643925609 603435423 904085301 252474893 266335185 368822386 168767901 465850432 374106626 46409528 119691960 284000109 729524461 529774058 342705358 48995863 180169117 668913893 572243404 621477234 692447799 978989091 701562502 374751943 200591431 907100253 843706795 466001235 203224841 689419061 720555126 908631957 5917466 904502907 888526119 591036447 193908891 820414976 465213962 228182990 379956173 510847293 961949447 540554114 828937406 26486172 68388913 518663741 898060727 570691044 41652580 867692257 286576869 475382976 32940977 963064301 951489149 427928184 54733527 882683179 644025316 971626927 909712466 469437326 675733620 200226612 132998255 102850750 475288299 979154979 823025074 974981956 430156858 7975995 218476326 921210889 115380293 960379182 188958855 162586804 846749856 308130936 499167918 547408922 430550920 362033932 406921999 347889060 347831926 528764747 605726910 219578562 554553849 330748317 596182361 339734617 955895300 525756086 92968960 186761584 209350692 377714096 632936114 864464447 668776873 27175624 496429553 504255923 972225041 907056505 112234932 362984696 49085268 734917405 917578723 84067537 901154453 762860182 376808699 321001032 611495199 654237955 738827036 441901746 78363013 721189105 37635379 351666684 558618371 680556753 715124073 642028393 889694055 869747187 784842871 363038624 473790764 6747307 119431976 723360887 34442634 324151357 178068785 952384773 874284924 389358613 228831245 651660863 743598091 583379959 482619579 750972063 355595442 295076485 41013988 121878108 447130892 888575398 448428649 91611192 964982499 733621807 280824957 453289355 875423875 247562536 307210328 296427157 485937632 914130776 283568672 537953633 71156882 676977105 212046769 601437147 275910257 209694978 339381965 291185053 946813626 800538139 589505771 273066467 642902657 92384001 995958496 842029032 632372155 652350078 588132330 51135864 382879990 626198933 513329923 471840312 863272075 57671838 182890280 743439172 81349395 57644604 482169111 752858141 398750742 531738877 759632332 835688661 927382406 258471681 674543148 311707214 154544553 535379980 462492904 835445472 833735690 227752541 452738541 398046507 587196569 800948535 849725279 246492395 554542962 444399519 474065474 160176660 897382433 544000141 202699129 226604529 851641582 178999533 485560142 816940313 821838177 220349151 428396253 326292711 624591101 641957381 941977491 52115879 583028863 702934647 434177821 409936163 114410445 255775848 508876145 174060061 253513213 244837404 315259744 116169860 706713164 217391276 993773675 981538295 557265216 566248143 909028993 850333795 832628202 17037706 961495116 760002617 679967202 253969421 974848365 829013754 122206243 868729040 965297617 964797949 816584188 108747711 302769002 512646480 546770620 636934959 905205614 263015518 600463759 580130943 155279056 225829139 257996694 358845679 769096665 760748962 719484577 156941787 330909139 410325411 266789307 499162792 655197026 403915497 223725688 15051119 266687386 734291182 78835788 661846706 569364326 301510111 383879093 550143706 354538926 142351027 886114429 449677955 807861237 307882778 759070596 152705943 703446294 714266611 112780204 43399509 534312981 646120605 970599193 974181957 740525294 585680123 44936243 174565565 515199090 607316752 726590103 7182557 843445525 901561908 727318654 128605777 484205893 993423128 656958284 801456701 596262610 453273265 925840464 554785479 991758300 259194753 952291347 891770395 955854057 418384880 260500803 809483825 661682694 353492570 914162036 994206102 124980649 998856174 711364465 461432595 299876937 457516677 812378913 230723361 79595582 866233955 962191186 583998801 304126313 780881547 978932647 433017029 280704611 407152286 423605063 251961608 352091310 890282819 722300516 381657476 704578280 519676974 370385176 683102727 819323707 53593239 285571658 311006353 314258018 206908029 501680341 514067573 976410565 362120776 454055405 1661165 681901852 288216224 807167904 674365366 273111463 810354276 835229964 956223032 670235117 366955009 642306096 978311259 674706843 724100253 492501811 237491946 965718493 100872866 873793449 71907822 221223221 728141846 16515710 245249087 461692391 457976236 233379471 998493524 95017953 176690357 242406009 114605594 544516193 410656534 5769252 743776302 286214602 785576055 979687354 90136965 836329607 373338942 62245524 776750472 656628167 984365846 948815779 865998075 556202298 884824507 206967840 471051721 612125355 283490722 753369595 570724048 351304659 491229172 794162080 723994113 58971821 356351505 513228746 288120414 46271679 592210373 416122797 340915715 497630198 998468311 338285806 633820226 165633227 218432603 47277013 835638262 78772492 238885752 970401106 290210645 415200561 707269272 390765280 160823379 820829331 61246399 129953274 414424548 651717135 616086524 367001868 999324231 779735661 784249290 462460037 361114859 108491941 481850579 600410365 113014803 102464431 498849922 141111996 182421474 345644403 117723791 345875384 342376852 784528925 416341236 563410797 102844822 479621702 228437898 187516992 294720590 122095989 860992740 337061760 340732469 576095952 763003721 309493663 28841796 887426998 98695327 922914713 997327664 447562870 892995403 282771060 431987650 924992195 758238140 57566252 112954499 304913237 603288182 561778809 82201742 283394919 227257932 997030615 703967300 141216616 743198546 542932712 323425936 743679600 771192367 318910625 446772660 375549196 474452495 694387340 253001946 210144259 600455898 791075993 551042698 914097040 951877341 822692171 274208272 25900931 145126182 946402139 636579476 379078352 693037746 199953443 32903303 871690917 605734667 407719718 73940457 99114099 278174597 535335603 131529010 590610135 212102889 977708087 315751156 15721039 683388555 989225576 643201363 466478158 931571995 39805826 54437746 833765975 958223450 472610920 62496137 563425855 657896804 418501520 213821627 525443838 777721568 990419599 132242100 282558872 90747818 566737418 859975587 191590253 637224768 35569600 404636640 599060149 527342346 501429260 226948478 629279860 906055693 878540050 610177763 707842369 750260473 200107135 274567472 39043999 624625690 417082614 16409702 969833508 639844924 4435514 365844009 494503885 529614710 894157914 664848722 223309913 603894102 724836661 840469309 470931597 151614653 504707675 976939755 506088164 906031321 308742144 343565592 213442587 967463467 392179853 504863084 975183417 520753040 537195200 878590643 950962705 506728039 818759764 284504741 881271016 471661349 141027416 887747041 567257097 1138918 329815099 330033362 190349736 706304056 927180914 203314793 398785678 790582958 830430448 925895167 726835383 949671778 891465682 338416648 567261744 460855575 870634923 374350028 236472277 257343082 967606429 206037178 797242220 115683780 187912752 233196689 868025435 532838504 786501250 505508403 254833514 466535253 439791305 424009561 442595052 615152574 584833939 773988460 42401581 314154649 964083905 753327196 892711283 713813467 96611303 677709869 108029400 816243798 832246324 670786280 251044553 293051107 85616126 663479116 713743575 855277063 402391178 52275760 203341846 953100279 564957881 141004119 912987323 613407798 488562702 427006558 607808449 604608630 367285159 678553046 745209990 668002489 439085200 341882620 198034014 755221678 84999728 620715537 709701759 172418236 718619197 958981255 293599188 700093697 270286839 466056994 121095946 589506572 215090319 531051971 855708525 490670278 65280298 36843473 515799951 267660984 220154817 498467135 664447443 858576036 861291314 743331897 145104286 432759443 557998368 525923632 290204348 414408151 526231539 670029383 662429367 679969620 311410978 90658698 825263621 459060399 440956029 703194716 526423354 528144748 650435659 591157070 262609510 900876205 614425110 408494916 77126136 921021208 590227166 524593185 97533164 704410470 590489444 600720063 202230687 4848341 261174414 799146554 516254452 740022783 351382298 977803160 429933273 519375285 946445956 747875056 283365889 540482892 433621310 322571644 289210484 906872027 695424241 396329488 899671838 791954235 910001299 506491847 163944632 461298959 325654911 302611292 7648386 162132095 304668930 798890761 82277812 164095010 148963877 841109507 334583540 224238943 488828348 394276103 1239394 869095894 986080837 926409279 200596793 601086810 671376858 126922500 207062177 142594078 192201783 745175190 44900639 324959949 915191521 539255426 29655555 810839800 873328118 849764234 834900381 565316563 208106107 895060481 537624299 858017770 268158516 463796822 245217574 890812572 451643093 293810327 591405565 420780083 561959357 564783517 695045007 832251331 277978508 184490532 712723954 529116728 339889814 884393110 400331886 666822144 519409445 267741874 827277282 30935112 674829819 924957340 949052653 663647844 292647967 180921723 220307112 665622931 50819236 882081832 761845323 393864301 684040781 446718204 235226462 335785416 281503714 623163521 345864005 841276339 346212545 948398296 746616129 709892167 445030727 772405935 682049635 308093098 443739888 271095869 404630548 447893265 754609818 903360879 399395937 747327696 560463066 331430976 934217841 614086578 263100397 382403829 262828997 87706805 610562108 482764209 548030084 315815151 744814775 961171750 366219230 23798763 934916717 260334183 784862895 937655670 111017644 23362811 614251612 469822643 572327473 249704862 277087829 449793011 688701480 508689205 975139544 353586255 19353171 671561448 469484454 82219859 235336333 162393731 210290154 553359569 675405209 799225652 154402953 419740547 729963842 757752607 45217044 239431098 223658909 636169898 537201865 788705519 424483859 978009381 681070142 808588885 247493016 3191091 605539443 70223757 86242901 32112917 353633476 885605124 988830242 180073668 103898993 516996850 390716037 593599716 911012354 800669075 426886208 986153106 907544179 705069133 398755100 402941753 509658986 894388855 892282319 385943560 155287927 167907436 633581390 373134397 816178588 915822223 353159099 588777574 320504128 130703932 955222007 367133416 124456601 489487785 921911062 243768566 867458287 870361080 895229295 128500192 76945923 998468089 465930997 21246990 319708427 376502008 877639667 815670132 618892856 224360107 284056216 168161523 279262580 629769388 289564973 287394870 111363753 224158101 632870879 23615870 324027551 921415163 905124229 674471795 847025737 711981702 887255954 206687638 115682098 50211563 949838340 236548551 310106315 114924326 99230540 929355364 666604139 116317496 780522175 932661268 967350866 927455039 893955299 159360429 190211925 553176476 124538392 848502216 956260101 202014333 796320481 817018698 209488878 460368373 646738705 823507227 460039695 857224953 958297025 224470938 362319037 697079163 625490017 175685353 658046361 885842187 16108858 39809452
