1055
878419937 527621025 164911240 395786400 333588426 262639423 168968424 778012343 816751070 537404403 12053829 549773083 141448423 401107190 257657346 811238179 352776417 20975764 904865802 990730869 554421488 294560693 79263817 782160257 737321291 15827214 567645866 315348852 591088359 264352148 721634990 394521435 644205732 416364524 791706870 689675950 454464582 607539161 162780348 530859838 561008047 943294491 990679488 784906314 332476472 638693100 705534605 840654551 533214324 637625075 925572946 234899287 689152505 531992100 418809646 469493483 771714688 758579281 727124896 353050564 426680100 668344248 634239282 567867124 266603889 922139125 989378940 331157335 174111616 640747389 728894189 468864538 730566990 608535250 687941733 881406941 52506494 905277539 22230985 691188084 628186492 242607320 810752954 453885930 383333749 2173156 628338181 977588249 449569268 514180742 376652267 36945415 829319871 810826519 194408891 890775470 211474997 353681557 677293178 366304565 993047148 732674464 30965627 171459859 973418343 577846715 853265306 913135396 151889757 712761921 774589069 697642109 831467131 353314042 139060541 378630849 653178276 53852250 591780574 675998134 371628390 38818448 299357533 483830041 707630525 906156479 824898091 987663126 566659721 620842199 155422263 90968666 192478734 111086452 879564822 930040594 521443531 648912351 630358773 321561310 863252633 579889263 864480294 316666698 391593884 266969129 928292698 845966559 191096783 770664780 685734659 611986720 750233200 135314250 379669360 839029211 276785928 905685805 932634302 748790167 904367373 196939742 14149863 687972045 126329149 123581822 826476575 726046619 612877109 726545925 500476001 633277087 54765660 39226829 996126336 40573775 476324498 989798081 382002180 372823577 237854789 139132992 971489350 602618285 982564961 698209401 521059601 42087158 158604699 376764045 701016512 10383601 566310605 338491149 627552946 529012521 98956414 242515475 163630606 770003574 442121245 497399743 163456748 213159937 394122698 192161454 427955398 743906808 471786622 405396417 20824468 630102037 713222440 557038805 846321756 235783283 482819369 41622269 963312885 957030139 436899743 492511061 242257900 167174907 353027561 285446859 996263794 770715543 151752668 366512830 438978184 436039021 326867143 800600831 295154589 161745984 526192838 561858098 856546595 53667110 279427353 531082259 792134865 561759958 462120983 184563046 932131183 728178653 506762888 350812573 514862935 212645701 262273366 39600266 716781186 292041008 917168216 518322618 478976340 643380539 956208918 159142182 549560777 679647617 586658978 22910011 797695079 203595654 892342535 188612192 135434602 503203272 556954503 429999804 248750200 125072110 117563691 825766053 146157178 272500659 672503287 223682668 197520989 363533358 847056553 798211750 521478412 246875224 814718946 121644295 252345263 842461861 585228914 965655347 125030836 419737596 808667428 366843627 343265015 442343222 630996246 175333425 490463577 466422509 759274778 131654302 950156843 807332699 984595671 410421857 348084160 440489241 611451163 125620435 384902955 15208921 544498011 432875579 465446188 792264650 175681406 440116893 927110841 30579451 280269533 338268512 897207535 197472527 440112421 881955346 803832164 432400600 712693745 432945553 784157182 263013611 877023775 698127938 888281738 948584581 494945093 927898242 41129463 811526314 545597853 715518970 231775358 879883970 488664783 166451993 974491392 896878032 122131842 499425977 337009247 380116361 379537627 600972176 691511178 694363119 267574023 178411670 473457077 350580916 32493215 534265829 811103954 524515010 329821142 610967449 276649623 701615634 39582888 754293159 281065569 361080954 933753475 167183965 402717679 244144305 921372852 580722264 150941585 246683168 552318387 171828153 279349581 767832103 664442430 434389405 851577980 754348638 753606660 210892815 872181974 791139640 901986715 351071970 883802312 855341025 216346798 687233311 165550287 282038017 808910845 906288805 396462540 25262616 737151432 613304978 191082136 746775672 230921522 16410412 221995595 819176719 663687317 840688706 604408547 280782182 398628073 551655729 949313868 221125264 766078117 199177851 514178553 339041780 289192920 154828618 831071273 828125252 621046572 317699616 794843956 908745659 593299518 962469852 247379059 48609825 214304120 350398759 838758712 253493975 17633377 714615696 962632079 69599680 97497336 694117249 92256154 36628533 476994349 234052154 427545024 987557918 649999608 306479241 195854661 975594848 179154985 796951981 331658353 556620033 349117210 288453397 18850890 421525805 545816059 4407091 323119554 248922846 917803555 95407528 120465141 643241937 955663215 684960449 691482776 245458915 556471307 972689308 851288373 287347266 88382111 314896678 847181848 984562218 561566647 642379443 137901892 959553935 873753962 325621620 552008237 791593788 695025291 978288646 992776465 539357381 878760816 603794592 274811990 908645319 66289770 497620849 214741978 195625591 332257818 851234402 288035324 117984997 90236922 406993319 68647841 381483148 358400890 261999064 407762959 189143551 567398706 268882449 664172310 558269801 57475690 527133651 67839693 76102777 972318816 347774128 470237393 843536926 991432051 764505576 778829308 218615439 205505551 494224207 495889990 924263075 114625494 98703008 260283196 136002705 391009512 629742989 550907582 503599084 888404055 841205194 69682755 947027051 11503208 550095856 929952573 133064583 415006217 602044791 136559392 517718588 63271629 26719430 344478291 34118099 339168867 357697955 264189867 884930741 199216707 688888370 186663926 995757420 548116787 766426466 876530016 356240055 297246321 472712829 387361606 667498200 205256467 235750505 343263984 69852186 382346110 75102962 184728110 62783407 743372317 717062032 722955471 983062500 474769586 119121889 841114240 187969862 340673103 22713698 199709716 715713097 154342005 566264861 272362574 931315295 955440494 213186561 136899477 798314323 77692433 424178978 295888276 190728654 597983906 533694524 315978682 287027125 732210810 967084573 444679834 565758037 527094653 109585155 235278687 237766781 123543387 129192601 805808973 271799650 418262644 595004343 69501675 606632025 397093737 908197854 824459932 442544061 922527018 483443489 47896094 286390808 906085341 962427476 196485927 476652449 68302013 866455599 526462963 981076939 488100286 202920239 880006587 397224521 451477885 271810874 143205871 867546112 79031129 956931159 693705609 593536282 51501863 964078537 407207559 633642294 116872952 335787152 905258458 772717686 178146510 162307146 401577671 889063527 1333449 815508342 869705057 331168875 73125708 384834806 508716548 159422338 725194821 684018642 622086386 659211528 681209041 455758352 752709281 521825128 171447628 76051574 279191049 400022059 671813220 551559456 227160050 47887878 675589697 623119148 480645464 518290400 853437484 250274107 498917379 564213232 12924266 468550242 259723426 659292407 928246316 152481899 632235332 850434178 313425621 307689167 901418395 599132612 15774228 53447632 665566301 698393836 164108802 562140819 302934637 448476691 321601275 659530649 374780522 499029130 905500525 548392265 826407002 172514137 3050435 571504922 971254480 857254051 201197509 39556610 101965973 22732363 375814276 198434565 502114932 296025327 16673485 472416687 220632258 716364936 465075321 405770364 40822441 580930897 200719057 171749325 469881536 430639776 814802838 237806148 318157296 184121526 600745489 198458323 9700424 762380700 220706526 869079720 157520672 385928780 103855896 317683795 361526512 104968606 179149021 923363658 833506292 46610246 53839128 945870010 242311055 355113997 368765727 49832436 264300348 445187417 234753912 789465854 698450842 332857645 276267863 831071696 661412584 636416768 934028317 214008966 350231740 459882550 956953302 124664017 84336116 723707520 357151500 525958521 480978869 687310539 435713008 69333436 888896715 877918466 701571181 804198506 455716219 179460142 838408526 517633979 151841410 306084759 815537702 521607481 25017931 244968107 768047252 543234098 474524955 484345530 665828150 121098473 952262453 74297851 38048325 199259546 908034089 668963195 498868342 839363857 383307613 308758793 247793373 156318749 986800620 849863396 15479061 184886065 559288494 335352394 995437691 467704153 858840009 460090741 823832182 173137058 785428999 382423759 100983888 23409810 311614586 621475407 887223738 511048331 977290214 809698504 683881362 12465990 66722253 827740290 295861331 647550199 799601730 932355604 398494624 750002751 404527043 97017174 255554983 307525627 913482493 127821801 426456157 284182686 472572207 971230134 496452124 391148205 776557621 342875076 378392993 100557590 714502502 104589043 189049939 791785401 137406789 916940635 354174549 591795883 15182791 605155952 888834343 434477154 970452542 479516755 97267901 163051530 28575458 575906262 787474876 686115432 798263086 450353731 796555751 161912808 116100834 635364997 618680588 149564198 593112066 837014877 61586082 812424924 289490287 566195606 761445841 700421933 835086129 445000881 567965065 557647966 374785119 5386376 966560995 353130862 187570648 81268786 463188959 733575430 748862254 648357398 72068196 1269660 495876617 543286356 809725022 164307462 623102428 357262458 344864479 271522907 101804253 438634356 116253397 753585927 149899391 515959752 2960359 204900051 20210660 80045438 419276041 394778302 976134635 407988659 795902768 799620759 244045113 632965281 27291995 178107325 112587752 907749732 346568173 98258439 36436036 755358957 708100267 859946529 494319355 843181937 722083146 435756478 132744564 523183132 233236298 834280458 583251519 383004555 223352810 765984115 728753117 237835445 783150994 671555213 778286788 6949115 97495851 68868771 529225214 759596441 495257609 363066793 264722787 734927261 263257574 852325282 842106991 119504559 269932329 8875164 728761026 400462436 444203560 510197074 917572126 945263566 256044435 656550416 517141464 781649646 724983870 675726793 255494655 276457262 698704310 913225834 654160859 724386596 392609608 797330809 874536407 74766792 238576615 310593512 625582278 446227004 910933514 200457341 414894208 723625153 401401807 25601820 373651512 246697023 523253751 726144277 754502886 522277326 250480757 59404510 904165354 947154529 33028613 157949210 367428543 839872164 908175712 617491573 812454513
