9824
719180564 347313317 794450373 389148296 929212553 516975757 10613483 947476407 84294884 526822318 407619720 34434053 112170309 37901363 177684113 720805417 702182516 771760139 290641476 424562699 492324330 804144618 138393439 977843447 504342735 5180734 344301123 526905647 294531100 812347376 322825306 567653138 856929182 922065005 282845616 607220335 102654785 138352106 509729922 575220619 32486396 925968004 697933106 564635372 18423367 560169239 159590753 510267356 832462261 221873824 723855573 625070073 789462396 777166379 305795378 41254497 316079945 614363795 160164911 371561528 990547022 75437205 994598030 375552154 935928281 660979384 222587081 680084157 873687177 158914794 985209366 517218481 337573878 45459944 509962323 784556290 839246926 181984483 541306387 801232968 350757634 692725625 132763745 235429956 447820096 711122759 43529788 516925924 613517430 375901445 361067603 493492935 68965775 88510651 259495013 503097735 388576803 389518317 229893762 658197121 529604563 989430201 52313231 506787147 434120209 943184172 428317661 302239174 891578724 249721024 313909097 294792543 684529215 247937129 993456701 283050513 992125316 247836820 678933112 923671438 780459648 543580159 194764371 320764702 859145216 297543145 183637931 499917854 796716731 673176705 326405538 607776502 263586863 362016310 682775835 703236110 612361531 509560049 221847695 103083787 95047203 91791564 901048286 81493822 113518318 983023213 795822922 404076971 267539522 242889326 152871914 773393661 355712537 331515448 372249356 612961765 42596630 246435924 630076943 493810865 240959374 427015992 80683125 321489539 534460347 346535990 861538235 918016317 950096844 924029607 10545334 170537776 993059526 294233856 202090089 447170574 597988731 895134103 817518739 308401613 902445741 311449639 156942393 752684670 737615526 447832832 160755401 521526597 71290927 490359023 688410693 486594392 739868135 481965744 692967619 292242042 855648339 169672329 969453281 749308455 113615358 624548046 865320111 729978577 846710485 104301713 107597009 373542937 25504539 453016699 961699653 714999694 323200015 477135492 301287471 880881967 192846200 361868852 945377357 492960387 813631106 375647215 571307568 700889635 640341070 334246689 562022284 402149019 340089040 221925654 35412682 277580071 676478569 438284014 64665934 271846643 925155472 27396478 716363332 76622133 706451813 216126201 988773307 410710346 875250358 154591251 23397512 895409180 250448 381369667 580642075 136221065 950852840 830840682 448769974 538257998 312263482 978712664 646993586 242233497 283084560 692829018 837971078 944128910 285485473 396109181 665972846 800412946 492992766 634785395 213332902 663703356 976682695 368961021 483951440 420239167 906598726 323076818 752740472 863373826 214161777 647201798 557586992 826981170 979038986 6416733 877459690 330349596 641790972 277655986 699475464 969101934 841069294 74841166 451679672 500957719 436021542 270856854 559531844 662830324 426044750 580964148 80857971 128811235 142421755 572442814 734585937 641559919 852105515 295373280 365938255 334756284 752411017 241502294 950156510 946671480 813281044 398889711 515016998 471350369 295960571 756816751 377417173 457107775 897011165 141006061 946598607 399490466 701717802 935311460 642695530 342011096 625530257 799347599 62482110 535950743 794714093 208201689 867460696 459761445 175733233 696283406 702450712 705522403 163629280 936371031 418335729 539824402 940253639 896105086 677202170 235589065 508748335 103462354 532145236 682328911 467728059 432571895 976764572 738764788 434738082 59212764 491631641 145054164 733977897 309946839 144920877 153612920 941668466 467493984 154224931 500598355 28519510 72032853 206198900 66697307 27126541 427482912 94414100 843074198 807890036 837752779 670675862 277525141 631935036 552330027 45267534 101381712 518613734 960715479 782193416 956741408 160456463 225870916 904529948 738446037 594991478 503099446 441512274 827476358 199823009 740237770 855328172 854008531 466289948 698512229 431029614 555297257 237546794 950594911 700965571 234651457 695247339 795814669 691351417 845535306 310035384 292830734 519715451 864315913 628566404 737361948 294439801 543391271 468315021 146098654 417874569 790531258 790897835 759953713 588677580 177127234 594767033 994082757 883583373 299621341 632210191 195023040 56513441 507422276 867211232 965550034 337114149 766511587 827588201 56350210 500624574 233089072 94053636 174858044 373472547 305864863 481273236 542446058 78950137 910321337 145496831 47713681 357088414 340038420 826996772 266056220 987690459 781411219 138262391 909394096 89214248 845566542 921753270 916538263 526145126 830036113 515832932 701675128 962888656 205090044 521651929 287410603 193822763 929443635 133715598 837318065 419566419 446351131 747542715 304463612 960885205 471960630 646033502 349819793 546326035 815476597 315896044 483990186 280991637 653343885 265605654 920844886 18924993 956978244 172738191 377611066 604812986 612512397 609467527 638243611 654141625 400978752 39797577 263383433 86905107 495260470 105836486 610968287 21361598 664444209 898053577 490864867 170674377 66812435 199225781 46734710 787267575 178241822 302149601 189938307 660275746 231582329 286291608 876066785 920082420 80844025 284751106 708060532 141213434 514143098 685316657 840463805 851630554 427535830 903980766 675141651 209130013 167871023 801437046 250492667 341200160 41350048 846866314 812635394 368261272 970151052 406190583 2170044 316376993 485798356 288084309 960197605 152641228 869666566 337895338 742143960 763649162 321271893 546723281 23955743 380212794 821625092 865625453 398402608 319376104 476879695 142314576 427101619 96641729 694032145 957763507 698418333 651656827 187045856 917312587 746450857 72976013 760872549 953743064 651503478 27237299 134310809 760967554 630323281 766236191 792334029 311311067 676743729 348000960 110245391 493910112 772167283 968697051 642643438 485871382 509460294 821392863 490794168 696106648 601543559 40720357 3472213 80643334 370520719 650659956 950053354 904164370 257389231 543380708 905718379 458496243 407107557 895464192 842305179 887546349 612629190 992684480 67332792 788968902 399572806 430724768 129334699 64138200 710793117 856649669 847001707 134624547 435887603 661466962 995294687 587781914 114802413 823171737 890923658 146483035 553515859 421434455 57413416 567101439 831187188 328900848 574284017 403600830 516776488 569144620 848881221 965867425 578646731 436582355 319878167 985736337 83436196 665644331 296161528 658184128 344585724 308576478 993426442 449737209 502879981 202874058 498502259 730095256 662139054 567670916 499636742 43487070 498242142 646445924 118999628 715729979 755540366 471987126 360542913 43261445 232654367 226637373 329409851 50954498 524873545 210360977 383098573 189161130 191620398 764113476 141736316 590752199 298524267 971894938 265813793 608639694 614474492 997938086 787639882 864024012 553404926 18880512 899239686 275792148 510635576 420418756 748664972 505344224 25962003 574214686 484241908 979239322 891150504 705495018 47247053 39516081 811232799 627874239 208100805 191758395 597725434 43273785 547230184 965989740 493844182 845002811 310966472 11669764 682814957 154517526 88780955 613532851 151668645 934869460 250090411 142062032 337115276 989978994 39293728 65750987 655702961 610323251 531310462 293287208 682902908 87813548 781540531 886668263 13328733 977631414 651883004 474166121 71055788 290537746 114260174 671827030 53551796 288254611 837128375 382558874 383257259 177286677 32777350 41903768 100675293 771918509 123212572 969427678 459877278 997366306 357301111 456915064 45831749 243679236 122320080 967954748 613123997 649667559 550196971 309798182 384513072 827510273 441854403 445290351 174451412 718495141 251857512 862289013 250733657 467624357 576987395 463033118 148428491 328726616 367131429 342944934 235447282 760145251 820773816 384243257 369752631 112152518 37654240 42119801 514458429 497553830 100263896 71248796 615853549 354380824 256537265 414948667 203407229 593759887 646079151 226221545 472817939 569874043 557789813 416604989 291315736 358960199 589115503 948445137 761056759 709992674 930591230 574516731 870480135 128480875 866106545 766834362 673307217 516673458 602867945 525172137 314844672 887728218 121934220 460432662 12500310 258676708 975075232 184714708 891644842 13793058 304018132 334865702 188938116 301965993 56430742 967283965 470223498 158158418 535789094 795410231 840153272 169122206 837374576 624241901 318605932 920220597 192681847 209298413 989973576 920549164 709861528 909377495 467991377 952854198 351872643 501301846 567068325 129605773 411335823 528225538 488135715 688520871 451176739 852575084 741466066 593065154 873785072 348785035 805162184 764488009 481641701 594839802 109975401 983879636 486356667 590111538 634268817 392108629 262303883 435319369 760644610 747654704 37412130 473955608 974559424 361179886 126607745 931162533 349161563 258404068 674349648 163536354 924828063 786594983 555865294 327193974 619904864 725760292 929139322 114363914 301485052 647484662 405686013 178082331 8904896 930691192 752365025 43659539 490039403 548586927 613225939 691959496 450055151 319468066 51095079 200728518 391031579 731945597 396078059 579680549 534751398 34507838 453585386 509996815 697459340 27312358 52568947 561969499 755413110 255391628 653562842 702829527 91524178 706764997 835890878 866386015 433198002 693747312 449300485 406324472 71367511 177740125 463246504 270850658 186777617 602382317 994194245 644887565 622122636 819735746 246896868 973582835 107558614 669305511 529476129 251270373 564031193 864520130 397533702 437050906 652869437 989981861 138400903 435630444 245384839 994868293 293189541 280579236 578062020 483783656 95803179 909232499 757597229 346420093 12695162 482147612 24193256 740929261 258198587 43636418 369779503 715697969 376869642 115252171 780255605 788541900 285774369 780254703 507806409 77547877 52838525 983794575 276224078 371332188 498337513 476825866 922316441 368490161 506655173 657848684 298230231 730788499 52325862 45700544 59529686 135195279 470281257 139935948 795670926 650905243 627584281 983545647 653436798 731470703 792804318 921609070 621798724 102960778 314903800 735892151 999588447 108176831 73066453 663073847 899572852 388063110 26431817 287347725 531996962 338187608 939207694 530491225 300560155 692453073 326783755 257669879 649136958 591881837 105015590 691147760 991880811 290686758 462814783 984336046 428122662 488093190 623462410 681310005 233157070 560784578 254124547 126743609 882845710 403799245 871756721 59860559 216331037 487158344 853490753 822265945 279173572 822979502 178175059 957306847 433349116 900260618 248561328 334306860 400149712 617170034 570781385 556062827 120816078 518708384 336775230 111842719 13517490 669799203 304987189 943928565 549783274 890689357 905405862 502620388 630492792 285311833 31649951 470569479 169301700 746414715 873965139 682897010 93314282 560966523 659996804 377020110 396584601 731649127 33196286 573629012 338606445 721233516 33130345 922009496 538858628 763633694 23634564 124429530 660328694 473650338 860340094 932085728 389404192 923605394 422810411 104427248 155669350 411764314 551048289 760520418 476316872 598915549 940835145 262323581 502674210 960427904 494071110 374907040 151120139 829062559 452481923 156538145 654959854 969966061 758771502 108482908 133832318 410354722 60535521 176762226 559589160 911132398 872002158 869839112 552619373 514584706 526745450 925102811 691722626 78714339 813490144 396842195 441177489 806585562 320497558 126714782 48165385 542541229 937490419 776654303 772984292 351202960 533633868 819239628 307024128 772694572 58018290 827827515 277601073 364963037 488428408 743041605 288674028 23856698 130525308 974719009 180319554 522812951 248460664 317102149 720530956 335592229 800924233 825323944 921552494 489042962 469174854 819536387 844742576 914232738 844482783 743424514 491926087 730816527 619451855 48785808 827468676 741113117 769033931 726642851 410044734 264052217 976117627 68779308 848733476 792341297 893076858 496699463 338417427 8311743 262977986 902114807 682892942 548509848 462511190 996896728 357613995 54250355 222540464 482144058 702143969 625809309 237239280 666359051 302035659 758318698 142674016 745270106 338976671 866652730 665686709 213043810 34254569 128074543 681519988 216576266 766567205 575269855 588698627 698966739 911271134 132803257 333840814 501653597 487690294 125506110 445683839 451314345 136826595 490700981 268988671 237614166 54362122 378744369 282207409 764287787 929571311 366471907 605772550 533961377 513817275 959933526 427156938 141432251 809456787 624628298 314730712 382843119 496142734 600001638 443902981 870362804 903900692 267304079 963446329 719164700 420874169 860794243 58869188 331701305 233218289 550104857 744912555 581265020 537457360 501052666 564521633 947197215 233476920 821895740 924211308 839619609 458087902 852376346 918750615 55784289 188662383 513594686 488336428 549122746 315735548 785363870 701095884 844638232 874547165 923051096 776710265 433681859 924777202 514772001 722759696 236908807 260124774 704323937 639301222 935917958 487814534 54667424 14386658 173642067 178264005 697959571 317352521 446467377 777959206 427845014 260109386 177341847 797679996 791359081 820981666 862966052 780046455 245063411 822710080 611603132 365236455 901890605 370267432 157118736 741338521 379162077 589212214 346279991 627258409 517270495 869596982 552585812 367693578 234376268 29785523 629695229 123123143 512998393 244940143 127590595 66636719 101062699 236640335 137420015 314364594 759543225 182019624 440561363 691791524 752572469 404832071 719267644 975560780 39379992 280156108 343513434 991379053 401644677 283689504 157630184 96400717 595813170 314401440 13221210 142433746 693197019 408313010 168930652 229400134 444460971 901037533 517450194 43206490 932071105 214986386 154590634 142424032 557328469 44309598 268369886 676593964 529001278 561750120 13611019 686470440 638358756 198093829 834414659 248287365 712963660 754918604 818510819 812399306 290575361 816816819 187471675 599804972 329593741 581457653 317219440 856581616 319427850 494299691 367897187 268518569 330770329 819571015 449576146 995497671 203867017 623817528 232468946 193249331 272424923 939886982 766596269 138209550 591165450 165144059 546557916 353578178 65546152 559165758 552249274 159855105 276350526 480572571 883059807 401699595 937967314 931298870 621625526 571007029 741054335 974268083 995386135 674638898 611263897 919792914 763887928 162497084 273829498 814628318 914446842 141989933 606274772 908109663 500484046 715210952 636919221 833868850 359621153 293413125 844214859 559074988 309212230 851215850 912523899 951892991 782661299 173452393 589973168 725556099 712046428 201122914 969693785 549385994 173069038 951701167 154646702 720529050 687447349 615758051 259973035 44843237 80295521 415409605 40433272 961160057 60331884 180717713 356560298 148674916 566681261 66100830 178951654 913945957 239886045 985991692 577722517 727631126 730623287 772983142 301559321 114851418 366641149 915917204 875460772 759918165 207757106 420460105 932006602 263526097 247464144 253761891 106647956 487465438 610096071 643928146 848565410 349195327 907279845 20936459 398710258 523537616 58397635 453680650 378820953 795050318 733451437 665713558 350364818 533812422 348120088 420526282 186637179 361942308 720293498 569235306 471520610 663366360 807345821 984713002 687035855 495876681 224427592 712796666 184255233 153386561 72639544 411584584 801031637 127505698 375443413 129174734 340025221 13615379 116529157 708435747 725216281 922734383 596481698 274063043 972632130 356794919 501061902 951117578 76399485 635546219 511336725 588823819 869239656 251106618 851859288 414156298 175241928 478960937 674013810 278021565 144808136 350954269 355798801 145030512 262450734 345187981 177723200 92355268 280371088 39920323 848126873 142689435 262007427 877746663 507139098 377207233 586436395 779760267 851926255 899394517 359316432 226646113 314647146 429284552 40040446 654132900 347500232 218755484 854554346 869512050 125325431 720757272 756822017 658806638 502658210 402604660 935081118 356917572 546551903 273975476 707260879 509374433 353185720 22425379 308852547 551359553 19774197 248508221 349436919 419581528 360921570 391936365 187305322 911722022 443794844 284478691 819867616 285639347 996936309 104675413 11026471 944267606 367314054 320971569 83590130 993037392 452601656 448606161 919777780 714023205 712866447 33395681 247932497 609311424 862336661 846380532 434809999 230482419 541628902 511199484 707442317 176443509 80509621 967736919 296583168 119678475 768052058 475963785 662832931 717735494 490241865 288988868 949131741 648761283 646911012 485671743 81103237 940286076 422588558 407647855 645649615 913262005 17152457 811456851 378685125 396244217 458405081 839767552 513866742 486332202 919544261 787679021 921759041 627902064 882952226 948823066 235463015 172391473 274677187 347175608 347634689 40182481 194488795 763536932 887588222 255423803 903598276 322612263 786723823 169848197 417989266 420256701 554626063 277260035 211118950 859746247 106659527 60492261 48298482 109131564 68857749 275706229 927386519 743165019 673159635 601727772 517162493 381942861 398897544 791388715 736814802 189607519 762588813 432341508 99215467 774057506 438342679 521695877 504407531 105684501 479506129 945715635 851502475 640171452 602994608 833509126 816928317 857301386 897148658 359816873 726982285 261245626 483805633 977177585 736971315 292808039 816612807 465159105 849760006 738192430 690468134 822068178 915482481 816653396 562122691 887481958 482883432 565051476 267344582 755866099 958554811 329055082 9680905 126866201 418715682 540866667 287766076 223966709 15945735 719333321 565238622 208810503 838223674 304599770 560091439 496063396 259092503 67133192 778921306 644780984 233777680 811999308 740780503 82878944 900113511 557119277 526929199 162746914 516183788 650091131 758831319 643800531 255245327 161594932 669016366 779818818 828490605 235320785 194662335 452558690 481812322 603396929 702814401 268986543 715664409 75861292 970260874 337893503 805147993 337193793 579883599 262142653 854670180 24456359 665198887 8864720 1330588 883787208 591928113 303429077 283313984 123412493 30669353 788885390 741563842 59563216 220734775 389019881 812301272 227406253 11163948 898790268 123974834 621277043 118772859 9256391 742119724 45272193 168748671 650789044 911986938 840466925 31805991 46924300 19536536 366112053 701229841 242595592 482049155 548353148 328519435 85968290 59719978 512764609 673256727 305501207 505180351 811388330 63998290 80222645 723778349 855029090 255226209 226719200 840370194 623746573 518634804 661963582 82155056 899394580 556708771 458946241 291197747 249892091 876293394 693181492 103636901 140252051 246503100 698901985 509114379 455959647 587675841 207972 99522442 844115916 20917488 685795989 851448276 795435959 370719531 184255667 830711762 550161956 900512656 36489199 773467763 939592776 909178434 789381277 194744360 997561182 770971594 7598662 330577770 818681517 584577317 92420774 789191627 551133495 759365611 249657877 601792199 88663333 756659589 651146569 103504685 165708152 237178139 327667858 691128042 212023048 238725572 440437942 332755419 897453311 702194447 771279514 914560956 880343600 177728809 831596021 829823312 18431031 731073977 223118406 453056221 79602015 383006572 433043407 961739785 645953854 886630204 289254591 41530902 461507244 660903769 112524729 61675845 617408508 439629706 508560205 190940884 681261906 827351312 856375136 320928173 797664311 826677494 291941040 188016231 372016721 724163055 571416384 167605156 721784372 382648132 479801854 826899287 668863492 727280744 896044664 694854306 652244130 814906146 825606376 432800021 90468240 864465743 742854688 192741515 151579946 460975896 45864383 795889234 47228313 836800696 267467048 754277289 828501967 94357334 174754866 380174363 201757823 853085581 751940185 868309602 87531295 799495677 218122286 459603431 137903898 14693021 6447356 666818465 678202697 575976466 762575631 31913348 823042887 714121725 313759121 865797851 654900538 718369496 996427169 600379669 144923722 301192826 545383526 643857293 727730221 753757385 82280062 281460611 122473807 596521135 70656632 681733978 982021450 777573320 435977037 600148027 815496100 374065340 534676915 280899237 121275451 206799229 137100977 967103007 918830925 801717722 791562998 957972471 149964810 329568821 589283496 646791635 531478801 259401766 393082826 1320729 764127785 961732229 500598836 825479221 149172885 857173073 138043468 191175052 761850151 530050997 42491939 53780289 378489287 964813571 702260372 562296663 557342188 914415770 218908945 805051167 6084891 953147232 287265880 267240206 1287059 941329523 291358431 870125817 724509233 434820465 633326875 437261578 516125446 664511381 99781814 970759654 982216385 321743243 695784002 370352966 361364940 727721647 238947802 4820017 602288050 106002713 266383744 293833674 550623188 685285422 207329956 127546074 429834687 769279262 52639766 296214183 676543712 135451568 128793300 913248929 230958798 893967962 347482610 327984611 16143618 722609237 234458848 57317790 820914459 741600076 744998620 192775355 82281896 113774129 802073024 200089488 523813205 724702388 262217846 779254399 210198066 533398512 673743151 771415461 542584336 281538601 206005390 555188431 92732167 79146855 158441674 519646173 457828175 821277808 992146342 500482958 696188027 774653668 866928341 143339399 383708080 120974281 372793564 768296379 645804283 973331182 865522864 209158300 254596945 195410863 203506638 589939403 808175708 612101732 635294346 995994229 3386610 403294856 55133326 379098645 885251608 119512407 461145283 465234121 946268364 776900176 748173317 839996713 283280420 362037508 308972338 906786270 168407065 822555635 789706217 93237155 55605337 994811395 617902451 411008254 577267351 725719578 492548516 120235528 888056399 512254192 83359040 408375133 313134715 5547542 786422828 875490770 234348353 567217884 969859070 724182484 968258308 81653529 286236245 362313628 521684300 430754021 818276761 117094497 735785322 111920761 931833700 741640879 487275880 354802587 789016880 216883113 322033519 735357172 709275236 796245800 821577533 22007909 273839837 70778444 215734790 49062941 937228831 199461110 570238151 885412595 255544171 249466387 978426984 34063334 499145968 110311486 98770039 814782552 116164446 724674243 748305082 28470576 89137442 706917236 659761584 292376303 603567519 915055852 958923919 545109330 566207515 919273719 471191659 193728409 484012052 35957586 633461601 428994091 517414703 596179917 45796290 461129411 274218692 639153686 101570190 53470775 888689715 108485143 26461458 442587717 583628000 702602445 781296054 444770257 455156974 527792619 346315189 99709190 137028755 212538627 692610764 356576923 501736235 382085777 493485253 416446755 616419903 854160453 292368682 909331611 922774354 178434991 66540616 703944425 594553474 55295520 709965347 313939943 173133088 867389343 462076328 355960503 326449434 829671699 626876556 125602865 283516574 549269570 625936676 27462309 719233042 344578202 139178197 407705261 920283233 870612026 218085238 222348999 113741012 165395171 553807654 696174279 326931741 51418561 662950403 561795756 757741155 594081193 619768990 490368502 280939877 566213982 391390219 530896918 746670360 106504952 445522284 423150518 618052213 904577549 635233386 207108778 539973644 213936907 196600607 30888770 60673316 113030179 612305251 624579908 648782262 919040170 809863273 940069755 684021129 407177719 962176201 257349804 95186380 761470195 960861566 448323812 220649170 278130527 693655638 623765787 579620412 730322322 537251844 392396227 952142680 365959728 582315813 7342674 550205324 930711367 921232577 659709065 604630073 293887604 302945748 573590648 276804455 106895854 26745637 109674469 348590596 725694748 92884584 376454276 893807218 68027239 545176548 344835240 297022763 441082768 521682712 712595071 835646672 776646017 197385329 152790809 979675854 850567232 865524804 787210128 507776733 351773069 71694029 263392929 399515136 715697125 777127662 803365786 54333385 471590458 513064580 973218081 874000149 513990818 240955648 487187516 508609861 773145120 836407211 779346060 652005477 17573383 166664771 711886867 301265342 247800806 41213549 862010070 224920982 305874496 664893832 894400708 644905355 465691851 103662076 513342984 269504798 684122990 809356327 864202143 356075394 987451688 794661401 771170430 989834915 602324616 726206229 716814729 600091824 964993886 471386836 175004181 894446596 720146024 300713431 906038050 7780865 483020564 255094542 697389262 589659817 725984465 968826901 519527 598282280 967039527 922725718 681543306 606257883 486719481 408921341 946162405 712758310 40382517 331874909 247394489 890468334 56575601 968889157 833440609 879627676 914324418 577749297 152720178 54738766 390343157 670579851 26001326 992714722 549029905 728979517 937200671 664671025 105256638 844608181 357465956 628924488 877017460 353596874 823134306 32933826 668424838 221788837 949607615 892726279 254326028 840298831 111612648 466514355 303936471 554416217 810392950 868509670 532136451 321712048 124787926 81001070 303458180 143789423 305482652 379625114 771602672 748060654 973772215 219370277 359065979 442821961 875713212 955651084 323465893 490286229 107283869 818474255 513544247 653583795 932375234 988320919 434447273 322254574 899338345 412285880 423464971 35418410 841186059 993336641 270550683 169729805 392423635 191639488 860581854 757779389 307229821 844879265 889882624 486000735 294862573 885389001 775696885 963627943 561273612 112241456 732145063 687097657 998024215 761228440 578919826 285796081 886907191 189574446 167565174 397964932 680380666 566286856 508143386 120521799 166369369 222810930 460828482 769925568 661206653 893712329 630479296 779336608 598920257 685665420 558618532 377543038 326528650 275719727 558220714 292952930 24398197 788747377 237511342 691610115 954983302 777618155 645233232 872296806 232427875 390999419 795213615 973700388 981515608 114821756 546426771 263948733 277106075 684762178 614505877 511185891 67360709 958302925 382438414 529191689 131507097 770702731 459814913 956767876 97115220 554591638 858585405 449115457 326801600 882904082 657658857 473754642 137052076 358542209 875496756 191176901 540182132 864707216 847667791 703060278 870885694 993523616 998118338 283200269 731378426 496246837 60130632 146965865 168438015 123267642 534392606 546709301 929878382 316264526 837305681 23146644 508697399 520424072 36519267 95040798 165190158 280649382 549921252 878279107 845899038 575911297 139460309 923136871 239831569 222038909 856453179 306765198 921573826 582715531 590203884 851499464 857165770 50830528 395681609 228164603 787979120 801120222 415076347 682209404 229433736 954007994 606986653 541913916 871564749 312068617 991457805 619929488 818596379 538501003 317363272 455771461 518074061 979034988 819014774 586266578 9979436 315282373 925165038 545708753 931311635 824772097 363656414 903852142 106384256 852900499 739215139 689154826 840246280 218426931 987395037 726210814 768706636 285771650 866649429 95193626 708726909 294488823 986227203 661880510 751265230 195960827 753503201 223500219 137460422 168336009 713269871 835614787 151030319 145838331 800791473 609165685 319643938 125896797 472809590 694983084 613675764 420395511 503194686 192841862 798360839 710345516 515727605 357294978 431105009 508532326 980220234 758911576 363491470 515482684 333513776 513305581 106213957 562405649 709496825 965950012 722807089 998147731 844992633 828389996 68540464 627930049 209627562 996759747 885009972 998933825 660585840 820755716 227643413 695796774 313989502 987020714 205562596 585937855 685138356 654577880 255380890 46251366 74509408 712827016 276094466 257246987 598707311 488153309 506159356 38858111 593295841 778015565 565331613 758009901 770633604 296904622 613611588 942949508 39196070 900060306 863362451 360513813 173256697 912837606 307612288 272746127 475192234 211642595 521789282 449956359 354897586 909669004 717400068 584114231 65245133 301015714 792427159 896638365 263049909 740769449 568218978 271688555 375388192 743322106 892835802 18370455 816924083 841146957 283778378 295458182 510578942 892458910 48367600 474813069 508448313 438298405 845010163 277567063 386146470 570368498 561004443 37681545 198157733 252483253 825157504 183374196 918561297 47797638 183466035 489501797 619159327 510667808 864867414 691334577 648941611 261367940 248057167 82669501 462812061 63976929 886068211 502282356 37303624 420486111 16872362 717500171 705385337 188909513 133939100 149971652 87579322 775874306 316542859 712155719 775526591 169207473 668996823 212122178 521934281 513288756 738752362 648880534 364669846 733912139 630312389 608199165 109349045 345012150 816486850 646224547 36599298 72488687 413916395 442661825 917793710 512878245 479195723 155856077 236360360 336273275 144414418 865802095 613202017 954912924 109110645 324003796 839493845 152639744 587733230 706305786 8562476 864848546 476606471 372041594 947021484 929794417 774265591 669334201 379427081 202891399 713435083 685790737 810025129 73138185 845883564 74096840 542647300 78742291 976610800 258599354 993596289 471931006 491533775 594549980 913962928 97286561 993343456 904191442 93588747 283958453 477306962 963135920 464081657 64631812 683869561 373999588 525514835 398359811 464372177 535944959 201200400 698758195 297553987 400699596 601271718 477800908 318143545 161851074 957565358 823482262 8097110 350356415 100582399 392028081 232761480 384137550 819995622 786532731 520325388 989580576 119920002 534210782 962220785 648986981 284825932 423323878 12626216 221120657 360865548 12299183 523280274 834451942 201673865 227484410 802107052 708894241 507812567 687321513 37691438 43376959 548084686 257975744 687417536 670220623 411164126 365066211 841738743 697166262 367780495 455513071 220498 83632478 137602764 683730137 449858234 288295376 16053014 289687912 291604428 340418619 416584233 219298348 149508032 706573743 389581187 127253292 405021237 150101067 633671898 920929173 507360605 502514766 898788956 33645434 9034303 382452873 772149711 551871230 89654878 702067887 920107755 471857722 289349493 362463582 978031927 976290249 396922270 221888051 497625082 16496847 991727201 902653380 14997252 383176979 79661785 617368351 339355114 960952795 927452067 885057158 293995309 354942841 559121850 772605195 944487192 918649942 532480360 94713861 946414308 306328022 373956294 804407421 315468136 252177760 46511481 757567319 184045643 451419940 199015556 857402479 702221619 675688936 382099180 74948589 587544225 444062786 469251470 435612358 836337405 337901508 278099280 30431359 571181132 333049069 523948551 305885323 934648868 41416589 830275119 196873830 722769776 358988805 606007902 787679298 764646208 916821903 368183881 554593673 5060534 103036351 180735474 39348420 678895388 649178251 882553008 679350839 995019910 354195699 696060262 25441780 493147732 419888791 660073996 920685401 410128954 942116947 99921628 549244537 536810587 811099435 805028159 195806459 577098267 606894691 37171902 461603810 265750196 4586070 648268352 256577758 636254297 394597094 291040148 491698824 383952881 383936915 562326187 437821689 401903281 637541040 744262311 579569196 112808392 749077405 33339434 241267345 893370671 945996060 703274723 757213476 897712815 771626684 80292022 38446289 277178690 688272150 864615900 507203800 236709771 842736203 740334635 606150883 311327749 772832809 109749079 448178853 768585543 435390779 5932112 355175587 805127767 253269362 742586655 211748411 208149076 227687339 886932092 550069735 591248429 346115110 121485442 135267726 295531895 531781044 216809602 201413645 31553151 383822395 370503124 256400304 555742552 170514192 653361901 972136800 146859630 887052008 153018032 760007814 291812640 352319070 693981955 604569142 900483733 876335872 289849994 668572056 193477052 18772501 435303972 475047380 320870803 965075008 288317537 733083511 554033904 473028426 378892037 656372928 613607688 229596743 193609066 441951624 322228269 462031246 153204082 233370798 737160508 878812845 542654395 311420899 916209564 606966522 468512972 598853576 602547297 707634467 428870042 465405535 114043057 411947725 454385644 704176050 883660935 622814282 510970169 386881176 603353527 250344377 348033681 278839679 700790023 467238996 902541558 862990284 834120919 38839234 768419913 923266811 518661672 44878838 302820336 940577369 404157824 568536762 174924468 890720137 60141690 164928197 93425341 348996468 822876655 530352558 142445695 374407156 621259022 33333088 895605026 841810828 478411641 846183512 581055543 303845376 34286579 687298164 950132595 559610498 815310727 373998379 854175397 125209884 194786466 678389132 146794668 591841978 945859445 882801520 573932243 67719843 317335267 215571400 522600528 844466204 564087610 132771602 363798052 355971408 625546940 393777753 40559638 280627023 206821005 217268226 890727460 95216953 269103847 351637827 793774315 875589294 706602986 732020395 171272736 775476923 412904399 346788592 469892172 188759946 58583101 176313969 211079500 598612256 881548791 304320987 596740982 616553065 627306502 565402717 115912909 783830055 997512146 249868585 927300429 14692369 591681284 429021844 738789023 490718528 398877211 898041242 464298807 857253969 512434649 309136553 850929973 511463083 375381312 289093099 111891014 162625712 718782124 326069900 977431706 142971581 36271918 225105484 735696789 634249614 148787896 779604358 842988187 499714777 695911215 748721020 544570744 669888747 225983292 932709116 265769354 412878476 730566314 194992278 33590092 236785110 553857659 80064405 654496724 689477886 691403827 881878147 256107715 658897402 937143123 402278912 152639270 302815238 93957665 293751877 29777132 818851737 640006887 435322355 393973830 317421989 270555229 709127232 649460055 437314284 900469276 250402772 144826377 840872764 962340611 22309226 65879231 114238690 372940339 649627310 79329701 234574206 12692409 745407137 921007164 947671591 959984917 190715256 674280332 341938719 11685060 912964088 938260516 919928848 290500475 901542208 561781613 738932145 207723734 299541039 871321256 873719392 808089407 935993493 273828649 938276587 896295209 145678856 441171902 2916555 97958762 138528078 310474604 245747125 654299346 152643174 214461837 392623112 865315571 516929219 510543731 496118644 493633492 764102791 710268570 764465608 54176509 236189537 891249839 966320765 25466960 281490768 805214347 488915772 237539172 529003383 147367066 523089398 962361384 522752146 207240849 129603154 632051572 784552092 333611411 60409079 312153616 584916912 529786985 131829875 389296490 97140667 223905654 564263720 331406356 530950515 624310094 11118197 989903344 317883858 730390578 475959452 854056379 359599097 62238043 355160268 795991043 692062537 614959167 637228447 374835305 56227761 380961507 255468193 970832301 10441485 623969706 502644102 560095635 935358163 492591556 71516671 161097798 328271500 990744539 946616489 728717400 116050325 179626894 451183231 416303521 968564391 94896859 84824047 340725392 660497861 576504706 899632842 561912872 317550374 537265682 778943582 408383981 640540003 920719856 887825316 229429884 681561353 903238986 508633144 970120157 93344906 464575928 421582964 652531364 414886600 826122830 767302255 733488548 760165593 883096399 341657208 502530858 855430442 51375512 570082462 280956583 703380944 558538800 170863566 727163122 617299870 361179067 857697106 675273423 356794954 826459489 187966814 190216294 1285256 666670617 912152748 830671822 168059113 925962379 767003437 905274947 579065269 361967078 176709164 874166220 471615805 661354609 24369934 976738340 18544389 17629659 448711983 144662108 75939766 132598325 744588031 725886074 147798498 194249713 83095448 691742902 146384193 951946434 631017514 279761365 47133830 462516411 791619779 505432382 706287492 865614309 250311655 694407181 774368081 907092511 475806781 295798962 945745618 234091876 546339884 545467693 253067291 917219765 103553195 920404124 109908331 46912061 32493051 708517652 920602640 275365685 223803029 398280016 229920215 824566855 526147121 260766637 120019092 28339528 847393541 730197271 597052317 941358830 248536225 260248579 369967998 496224422 473624159 284558667 306125492 332456376 228287035 158287396 790548657 267452082 927988001 36679023 997703680 974616047 470074195 14165948 713587644 735381203 307799091 808669734 778119209 876043656 798766727 65450986 995254694 823222672 699105930 829084221 210084163 405576887 564872105 518686511 803431411 496174766 289287258 881979320 632711127 440084759 674325906 918576232 210831227 851349936 297666996 437177047 774699192 113573981 730480472 631319085 869440847 629022068 557587103 376670845 686129611 974767749 102120491 466226993 528688506 964807438 243043002 794899736 845482961 410274344 761515245 986142014 610034158 275503418 132669614 665380108 8471156 229364677 16717671 85857865 840059526 962011566 978210470 706846549 420077018 175410446 616227182 147275531 975801378 562475000 177061729 202179962 448851151 55169090 625205057 48579229 676419848 674702919 548779622 359711027 701276071 513000792 551652421 614592344 113449981 432428678 196578363 808289858 84746811 814582815 204299521 790954350 884118123 342989848 404139539 763173503 204177606 378900311 68010781 622496297 609992359 467593153 381185307 18046147 98009684 803880138 490110665 894533936 867740225 52998044 297088040 765291896 388363568 488357483 245381277 634132952 934651889 489534659 199415314 280095118 190671074 98919477 67654783 295641486 220392814 501358432 866932259 34596344 982802686 582994422 595988263 915967498 157056214 139775961 772048635 736630672 431036155 371342815 675700535 172243446 669310988 663097500 365666608 542895786 104998503 154202898 154949045 352870617 559024401 264193397 769390411 697397688 727702199 337363081 361023932 19237653 919493420 960329822 136849671 971248842 109701061 403888584 931051975 693563448 714559501 57143536 710692593 122216177 196244436 435148387 78979958 795952535 553657255 813191150 350751659 208257729 413007891 371802766 430436401 603260291 862772438 302849479 748569998 117976527 756462242 459524808 420344619 983466726 639356302 329854109 547722352 720322734 348381222 160570762 651519527 930697588 876714195 942214122 431848004 123920806 896802119 515033023 580938991 545106900 264402333 938183650 779556767 431546904 741017124 204978547 79941648 884653114 893549711 622767703 434531469 114849421 368468313 381111342 483461675 407834535 363792232 629080255 802615781 714164229 544719750 946555858 31679346 442800193 131397574 346559396 93459767 895109848 981385415 124170434 932541210 524446691 373514926 64704628 649625029 241264945 651421341 30105231 954731748 407367850 896809381 882897510 62139055 56372384 27571725 593840909 910064888 201610091 52819650 990567913 946532987 724631715 627654898 150220935 345647264 556244604 336454362 164187866 876746041 106214050 905376126 97139376 187303899 408889918 848595965 526838417 126273037 31314078 616535917 888940305 275077368 998598783 925981258 677377670 16155146 865820929 758810506 546533906 717225532 44265832 292323510 159359361 468836639 907365659 966924567 713508130 459304874 129694046 955417927 355652383 315711240 461537986 948382141 390972444 254264797 591306396 991173934 977919055 495062098 513531275 575784101 806159712 5818122 351607814 58234730 947451531 244731060 35412573 785712344 686243354 88394862 149685461 878195572 903926359 472792973 126609262 829386774 336519148 615107695 347847219 22058674 441528740 486860991 345626738 377445472 849586171 638678658 790681939 353282434 142494221 629414784 934279435 307827759 724135026 286662375 334403837 763325690 563870276 56109216 555726396 827661492 158874397 383217924 782504833 94561506 263414754 894307791 744032550 315029257 173780398 735835212 560172527 63274519 765986503 878435793 760748915 215130552 349162090 356186061 707406440 864855106 656099601 572311464 916949953 80361138 475070244 900992458 523701053 310309388 85341874 186082454 875264685 142673117 84304089 231829576 622568684 804987694 914628737 25597417 275420340 789771925 637708405 741847166 584791425 240553383 805505564 634273858 796398291 811012932 48390968 650355565 539002724 327171865 879520029 377584269 644671229 319877178 829809109 617887388 751173147 42596342 488701094 264358943 998636101 146214422 497854101 172251818 175882481 526803545 761010005 966366441 814915191 338055831 457375780 447626642 293747112 438404885 364070491 86167638 754541308 456772585 504513184 720484035 748502600 945719628 550505690 781747765 367840700 541087305 441211350 864211070 79825892 999137719 256789316 353855601 152244643 557070413 361903818 623406062 64806938 869645839 938962249 890734458 284795261 648235527 537250442 580734239 463145050 307324367 621441242 139451604 991373121 193596528 222597519 829318072 20089476 686488511 308848403 185801052 757289707 561800762 270737911 55303588 418518884 540126057 121019295 410587221 502887245 179198922 912958027 432501786 10202282 859539252 216861307 495074163 805636142 182909530 114051324 536810759 192590148 473846613 867242099 452805449 607196988 665807274 334636018 551202616 976819938 876348114 76019900 333857531 248149011 307063059 956483891 72551346 663046779 429833150 113999735 364542319 468298775 589118549 781018630 636775594 886640637 369009210 863089064 175185341 266964898 329514754 828151638 70567387 340600800 562194511 200980368 671993655 91812331 766815129 192241927 646810258 256120167 155901921 294989633 100183166 365942573 691690318 641167057 15246142 624305266 396346446 775733999 792167671 303903156 780942564 633044990 965270608 996440000 943278844 336139151 590727933 100333502 297553993 444817076 734248256 621750133 673243938 162568915 983236643 764314291 595515798 865919785 71946161 858411071 149925027 218633239 634708066 876264073 387475417 346681150 284413740 394932926 580419185 966811944 906840613 705740880 217252938 45611108 722467630 949520058 233715506 849400867 651023711 100733080 506027205 937685744 226623405 348631520 291348859 761398383 639067584 535996107 829978410 868517001 747004494 631217359 592191357 922968575 86970747 965609020 654669576 286799499 304927688 579400022 641892600 431490833 308880085 55242907 650685292 94283420 745714770 104288819 934304561 175624062 47899636 673883339 398380996 408431209 582709069 552100629 271445361 409922638 645234324 782513017 277110814 262748161 413231398 393436446 251424964 719491285 473020085 418023043 685092910 997253115 926720739 809000404 760147682 39493014 701243173 228828367 727157464 731954814 448911106 246370560 932081492 158263576 102879755 488084879 683587458 668666226 608487004 247318265 858900058 851833591 81406550 862556378 128287545 859691523 827009343 439907676 325393106 876275182 237070937 429258369 984145176 960065301 190940325 877922086 221491720 719162119 663613928 595416627 456863487 389381849 135617906 906750533 50895736 378075379 902026710 948530229 127950289 730118811 77244677 287453250 149364571 836696561 952810880 117037859 73841674 814020466 301072299 169836473 819409177 70150175 810525314 996009166 566491584 705955629 202578411 412608203 17546180 85710130 950048316 93298671 515224000 710412405 406349733 608079499 104624802 736075024 67451427 179965515 245236928 314080349 386978229 923308937 75214597 143943180 354902983 441942983 835612031 278230218 689906542 270067680 200377893 390348009 229677275 879516116 291257236 761294708 284870002 315441137 291645134 718795382 381373662 51349076 875218855 438791841 461720223 955023910 505771211 804348172 770986621 509385128 208293450 246310847 310142966 213462796 458271094 93102853 388828362 615459874 590122282 325634629 989061665 168485506 411851031 572056080 14576851 702597241 905397878 210548598 823783120 882644356 74499909 128045221 78403176 248552081 791908686 500800704 198801742 411582524 497588078 770060657 32777491 745043369 873979069 898839194 455722493 979165439 621410783 638075605 723805242 9210506 537673493 625041749 741398534 928674497 372780722 106404222 83141855 963734111 571167981 793166335 165302668 889685333 599293465 658324230 329167398 651331337 815518333 237891170 448880550 473815533 188264404 108841472 339068981 864204699 881364166 573766852 665427214 55187693 279783364 146703220 149185558 54129282 209637194 731127672 340088291 711032778 636516293 204595955 769612806 405667789 602481540 680021649 453621740 259619258 461894909 69291120 937386626 816546240 664454162 612615080 947382664 757606963 508912807 674197185 114480030 219599446 399026469 688491416 362359452 431231975 64174659 678671207 532742074 647933685 473261393 597227811 527134354 367761667 456273547 829689038 750024144 574257079 391264725 218894958 892853168 718147064 450813060 927588556 933113215 141239610 553544236 201084201 199909002 492614623 753270273 412487923 687330894 523078459 241729562 113073316 760423741 21428701 830680160 704599820 869814020 851064731 443296165 673058256 107602636 302642086 961362075 339028831 448502215 735433734 370781335 768563568 505679785 19177744 574969331 938334322 769614503 697795461 804357986 664169839 118684483 706935980 228627330 232010326 495539210 78541674 900432605 673683345 89563206 925997627 279656931 461538865 216317937 277304000 476135018 588176997 947452650 298490073 391148480 721666181 567974250 95455191 119924501 584692647 32551817 523168918 227675712 479417242 235121588 97143777 178152387 112173791 331135401 106747783 221424733 690850555 320357887 884252410 217417985 26912519 275826014 162968457 89897205 575912569 592480686 435396918 480214408 752552210 709369432 878576604 26665093 609860278 752109106 870190681 375973820 588705321 137808917 712833424 966621156 768727837 158051443 185559969 573289347 144941723 195092100 334249063 40668397 836455876 137074372 138038434 752863353 357569165 801366246 722600416 521860876 346318598 831828679 602416860 374479459 892628130 363222628 711461374 870328027 359197389 461185038 592717565 106509986 66724052 5216097 799301632 568877947 123202931 96481285 567498993 585833859 838108554 871980655 725804489 276619648 496327650 594708169 454523202 326677947 955782825 789866570 85080144 576684829 80312714 45421901 417233150 192151068 262022798 759943640 813201623 813307689 860241287 709935260 6868479 990764976 184621620 868520281 104738490 810036651 336154009 296740092 295772016 537271288 349004012 822826827 803494 750113778 295981876 347008772 728537428 720403394 297568228 368389525 462325687 888507750 53462292 96059531 788896661 292457844 300476593 866510906 112908568 148455045 997513003 84340249 243344412 898666698 966807758 359943109 233535392 406741062 531792866 540015510 832982767 176861228 586911492 149494578 800145551 859283088 346787811 39674981 263586713 849961463 788526756 982051653 750851940 749545966 266185623 105341794 33612694 33125947 84168953 294935096 129253486 366434808 814029097 848584028 485054838 785168904 66538825 479485115 458169948 45741226 723342233 303694506 339853529 296270894 867312537 817520871 792043835 762256975 703971806 743872680 240801996 107791950 5737218 706541397 258290836 351270587 930896024 901727641 51882533 659659120 676324740 448202184 555187931 794292440 687023636 759852678 295639353 368956523 295680533 402117864 653345398 741642288 568907000 773365390 995027171 122240712 787125892 814795301 584007640 21206354 765104719 476579158 548338570 396037602 976522687 846946821 355407751 545307373 49481798 323537994 847161359 241771726 515892056 578630428 612477028 991162754 596496843 765992579 18998533 526722310 366804894 604776263 21257405 660858713 505324873 57769002 471697452 942531519 240425877 576401215 319973479 392063008 985672788 311138578 206178127 775200792 241468110 782051466 949743640 31757193 556211848 362504116 575515250 535382720 57708490 840817637 26635305 818810669 545160712 729219485 345784057 531590579 538464631 203447334 466269914 961732735 78802206 256743308 753951935 786410964 810386975 6286759 768182375 584321637 75867814 145686174 360732660 976139674 351730071 590696306 95081663 573882512 99040617 731682416 196473399 503180021 722760952 961245628 217858726 280258121 495542132 581271190 768588385 882473529 758865888 554325619 331881303 786924551 902797934 161352324 234086784 990646311 636961245 188704610 840238963 220958713 831614318 533570099 148219421 851781309 813110335 544858703 418711696 549455039 313414044 946031904 201691465 634203271 405110842 205644252 839035912 139700098 654542696 423982682 945559970 210157945 795451364 357866831 156458529 81378784 9795120 16919777 350159955 53576617 486846966 49266628 295854926 836824155 938513001 601542219 902752281 501591868 236289528 824255253 841062537 840318528 16253951 462868908 708831255 969813138 710513975 904265117 64338142 576547394 709236041 278232613 637588557 846489914 39705075 134720099 537926121 877103353 389481783 74386592 381617872 351973839 640600545 326733120 721793620 374026561 590457825 468691054 724068727 66741645 410407496 885569390 198980761 333403403 447210247 198846559 524459176 164577328 609263632 580457781 879195443 268741316 626826269 351893389 540328311 5210561 494412040 221533179 669041738 40620978 154707207 942495007 958992424 468186691 925336267 224501951 366926894 493271574 373681347 386283244 876773641 690936174 692459706 346337001 282425677 495240853 957613326 799649277 490772332 670452127 333310027 183384133 178843684 636762143 611348330 236352496 433417823 451317621 533111407 730248767 856353062 436720858 86541996 662805266 555602528 426179483 509136594 93672900 379545284 120358165 890427927 471432874 569589863 716125851 263795307 845535433 118070236 790797623 517853282 478858284 354567542 906002595 606215642 979455079 947179512 203969753 831916028 208578171 761618191 288941000 99547024 127534682 482392478 577230843 616162091 985969065 224672761 511733081 879931557 226761399 555376001 132288369 958901035 144519039 231595257 346787316 861179504 758411338 631623495 236802948 930674339 913244233 747983652 481789946 173985026 307063403 4271355 607570274 69797139 243466769 451163935 915179227 403235570 360453411 785810605 124876441 301578913 651394242 714000344 769420252 19259034 50958995 81966229 127584132 567140972 583023329 615485034 798286869 616902763 914568668 467434563 513974871 293512080 536971026 25226378 981176743 961854228 209068414 435812025 973346625 811457435 532501223 868821123 117176125 306530348 502384151 353616093 602564227 179340757 614594750 238181140 26366623 694450449 311323226 361284612 426598902 850757634 45896112 658550920 551704305 628909008 265485218 286297709 503798841 798708427 494536453 534304627 712696 897257099 236943296 857674928 700119211 971137849 38484928 759850437 297853857 356024663 384508040 797244504 658842813 746090321 667182589 78023475 141180944 344589870 688952625 565160611 173493672 992311951 452754530 539761556 992930182 577077520 816931651 707162517 970806866 777539374 789730996 752350136 69431119 282804104 240460583 582898727 700877274 842964992 720395920 99613557 774982142 71918242 884145540 825317696 843112684 734547970 640390759 874322946 390150741 163570094 10163601 766373003 919324218 33652591 865456148 8051667 167542756 330774245 615847427 906206893 114864997 381090922 765384181 85468830 88131927 786787154 678132677 209804768 442935654 350604513 151560982 356799811 305076677 545457310 455961378 411136401 264771678 943587158 471970103 325386065 737286881 736864621 335202051 447800372 110737812 726052688 258698508 499619337 860551784 457346653 297673257 959822689 101573772 899078677 937987730 962218449 742939906 2007920 223649708 557387701 181055739 429589270 39583615 190099812 135313074 380650034 375875740 993655457 147378845 659947125 421630674 879985344 790933385 748741934 480460055 263913994 640443399 99039411 250990171 547049684 875349614 981883292 928746058 746588084 641647575 427718898 230325824 267719476 188042269 939018726 681154588 265955669 745413259 565612695 231024464 769340244 126577819 300402814 416529903 247716941 40477439 717402534 987280115 293125184 710647125 364249130 120839864 916249242 839032043 433909863 894073606 568167943 978694177 392112018 201537788 41435541 334349027 403290052 939303549 145593383 840600068 485567135 29956626 771016263 781433591 375687589 971506693 810909873 169331399 622226590 802076541 153747934 563131707 279087437 252621793 595599230 784209640 585059017 540180155 560055849 39337539 711915172 595901707 394980870 53402220 297851401 188488424 50207144 408907514 977815794 998563537 279045257 590442762 300276438 69086665 887791382 324482011 956592550 92425791 156303182 70560372 181228333 297114269 885667473 673842736 441381311 676294064 386134099 223354981 398547070 66676499 429788687 710383503 67215806 942122665 972013603 621976863 740057958 244590146 633934131 84900730 42202450 85530923 678462461 460014410 332889966 801571022 711967243 946751338 448741237 745591207 583492968 784439402 171107 433557483 155897686 715753739 235291483 322491991 256747689 143064450 85860361 810915293 567429867 392521027 459628079 401284042 610974264 99521107 798491702 36878249 895045074 272897281 971455046 146840338 268276605 247795387 807256074 326519757 653902964 468095968 552503245 703522522 874611392 960502487 249366078 808836527 764431302 941530597 647180238 857308041 294409038 545904393 788936829 100399431 514791234 143230709 113856506 619918022 221361318 649381270 338069718 422733951 952558191 761687629 512731924 321749574 348441217 699954594 283073425 801918297 850875490 6392807 925188941 771392204 965260917 654709194 337053673 601959522 65385831 455214462 998404879 835120770 341883074 181550673 425766876 700731351 927890526 888392591 951926819 880003357 185221983 110636002 39581744 333708777 263928982 444929319 364005794 778709459 10672647 995324306 722450450 307642302 314643224 943681934 548218444 919446376 994534757 96680402 232087707 644757771 99264199 406197691 193852518 44659276 739078953 868395838 963184290 271964734 413432788 343521364 796811876 176416179 855172920 644275679 973397995 923877068 311530289 337724115 644796056 460553058 56348119 921936636 383870569 344893334 448954807 508494191 112441871 384023962 778866996 528264976 948591360 844945810 922867660 964561645 32626982 231876241 525447669 974577401 132594193 79395723 688001480 641417801 492531520 411287867 359287003 372255283 927942898 536729257 187707600 821074221 332512194 337305445 156775920 151455153 599401428 92404025 844004968 39417884 676261076 692647096 478981263 12606041 509017583 801322733 955605186 918275089 66038736 662601536 871046952 292628908 770351140 843295875 964997566 869736052 836042695 563029906 956080100 918768105 604433683 209827446 32647165 983431387 101083331 702631129 505007255 858627471 591190964 597665183 912566555 674972028 729268425 207264734 515636247 469574049 882736327 180688217 818202000 477000879 753014780 580476437 171663362 860964736 422783726 368395453 365408856 809442644 606390103 765828176 446520598 562952751 712845874 337834116 199494454 235588283 433604563 759632395 62101217 939645771 760385300 625126880 603588998 731937956 604781915 995224736 566106779 485045187 235501032 385393155 312063382 308390423 939222536 297082413 986954787 888254310 140574826 889445563 958430311 484940759 564167777 313842877 817624184 264110474 140398982 691594342 380016288 236001960 621008929 819811952 274397940 637375770 428383616 92153556 450452028 906499066 967459082 891549905 647162898 546154198 261039896 880050638 326800941 513087049 136155476 733620504 674553187 736447401 444578532 721202558 679575691 535477940 854059635 198048987 627945088 981883954 830275693 596736261 218778186 208506152 404764681 945076444 473808501 182514731 156621550 581434932 11313755 788829725 782200273 297619397 865554377 364690216 336192453 370895106 854479312 357772029 470194577 381045029 283706094 14503650 191001607 916944118 857058178 480516702 386310523 415083993 194298635 847081557 566376955 933431524 930009311 473415991 34949674 694418646 62490226 508585712 166826762 351570851 190204017 98713554 739028874 829597451 298586649 481698427 99474023 19977211 683494337 229397314 370195342 35527436 477153286 833353924 294648606 875098188 386277077 516553401 738864252 797762166 791214246 80483824 881216773 963786166 408174948 458587964 141944851 932842810 626455262 549209369 641885413 291940611 612757675 86974965 196440062 655526703 447084639 767657659 166853882 978547828 368519120 883986424 233243646 352380960 916668007 667390834 249849005 863526875 786192548 244487954 911278911 91662642 113923632 742390143 335756903 31791118 842894252 804604880 515120167 300672757 284000114 405505069 257459669 304552580 276019633 142958680 771502037 980320976 271813841 385894268 137586699 479541822 131379277 837803570 641254166 335804661 479790984 9488091 836814439 564042096 249585696 997789572 523130080 370325650 783823945 821784163 161728078 115210685 306366571 110443744 534365573 648963391 637936495 173109380 138449613 184393945 214171919 617618233 617179733 472612102 418042481 805823688 192621274 229040224 132745099 879130659 864028379 826877488 619057465 289547266 853662768 193038322 608016207 963206593 135815637 634232897 293079761 697697611 478120607 985788230 626149771 931991728 751761564 563008127 987971427 203606518 603475611 308119355 267877880 547385965 337847603 521532179 959981032 379084953 513600383 717940872 240069358 47302573 96824995 189187812 585482458 125849893 385391801 204683502 261762050 899593521 665767983 655127960 750802052 267863017 395247433 325174226 216909610 484683936 270576477 590851199 154578388 149772132 177296284 274741636 745359770 810464851 847382634 307959690 889824214 161444375 759606113 706375776 886445462 620885747 933035027 598889312 502763182 964478680 526708367 532060270 703392857 904405759 163126624 794169931 116051741 897446186 495258832 362314623 297558333 704520809 865060893 692058619 525827160 135811138 971547430 708298474 104670331 97047223 315155604 362141732 612463792 779628865 693976636 358241372 892238134 250826710 394174309 398035350 986934338 277583239 948944406 697508286 152416138 490886914 781903305 212024991 929957958 299080692 685707591 968467511 403032659 495809130 219706188 110876379 471921707 658378222 752141650 325735682 952920894 724320746 117170751 682242443 743474529 243388406 430231364 138582071 188195469 529715702 891628142 86700299 363384288 857298 554733385 665157390 98856266 541048771 904184382 828332180 597996922 831753844 784109938 541144917 497197668 611812190 825145498 531412883 675929412 833698421 658629521 241886295 463518437 716850259 33292648 922276125 147191858 237996121 632630803 880607570 920876257 15011096 913996003 601611134 230327042 814481648 68775555 266029470 870740457 473597740 471199078 91415262 675440550 623116996 397422845 86931049 790662291 990673223 532173780 280701629 533955855 933662332 417684876 173128281 788488360 25369360 682688877 62584658 633184674 203975582 118187098 649679770 714369084 363837839 620985897 425064064 413934409 582003749 893259961 860323524 865506539 793718168 97002150 442024484 85799580 741635498 704900651 499455018 346979795 706836578 85571652 873212479 945422497 585017507 169660663 155218592 971629274 841023650 75815499 604197667 966491788 927678597 277077069 339742082 283359068 16621950 130330377 321940243 565957677 538134088 777502568 840710505 729698152 458265713 897916167 338336912 235177669 924405565 825200882 360855892 610738279 342552174 210422051 70325392 29554614 53668999 370318681 181309941 865941478 503943397 253020435 675489555 190334716 156016464 771149968 118426174 977178478 365954875 115955520 389834485 207545342 226381801 779908548 207139769 692963549 431210845 23458534 72156519 880241568 503353827 738836832 201880239 800809860 984249825 584352261 656441565 909400609 558576380 802341357 351724543 200227959 467920669 546367526 554760483 773869929 908645513 27234862 340166350 34605118 651792649 668027679 640200585 659578820 540273867 776265349 832505068 874656641 525392630 101879178 692678496 643203821 855287649 19523583 372580505 620860277 850808765 518985485 591891504 107826143 275868066 673528103 541716876 206288812 23578401 308090122 539561749 364068574 541869966 920874511 29509154 634098893 39418647 197289693 31750644 225901040 518235760 191592588 428491837 172662508 554028093 924050984 841202344 217022274 743838230 213283758 872617891 460447391 903938862 650983198 886915903 237447843 152215156 598685547 685606943 132431352 361617385 836177720 838592611 161111177 654141153 864211758 185492243 313497896 383850753 264764936 492162412 631667671 947888299 299555230 425567322 203998959 224066433 534677392 614291765 461899515 64991547 646446064 310728020 39907336 748843427 905414068 388881234 277321637 920708724 230227795 105623291 518653696 497085611 832223297 804617649 429465523 327658247 914078710 432234243 562264490 636697429 194656868 78007964 170299471 208140921 426654699 126091519 434211150 911035976 193214694 321718538 890733708 794254203 516856696 227431957 902569689 35456987 22415678 508566875 157786386 39860162 712680162 199289181 195818798 152577488 936738555 279735805 3557887 627636333 544736989 159773187 129340644 318007846 462352618 298356018 425334220 325847466 995608370 384284684 211172454 999196346 802917410 163568632 164249624 7900235 282311663 57890856 689328695 529080108 583334485 173082745 738077756 539011746 100226338 112133409 268941601 239613983 486306710 328024561 252727259 995623753 16877855 757909344 347621632 472983765 756987320 779648947 357049585 67592940 128077629 94145868 279340581 277877387 892065824 248568441 707836386 359821042 362391369 673401051 185895444 175923004 578785593 860570539 445200476 974098849 235644314 566742601 542659454 404170888 712956018 260823613 485441159 655131348 486468991 912079566 653554100 592691751 764891293 193089862 380654739 519628219 122556067 754709623 435740331 595935092 12795003 822019305 33271721 275133449 427378176 568381035 997721199 860911806 493739634 882847884 133253327 882521949 927096424 901879568 916347739 74296449 993155491 706260471 120508370 941337056 637743918 722574280 477036139 758018255 555532335 378406791 577925970 542619076 881096779 948925464 748844641 846837095 963507191 589586226 935536617 673407892 922581156 442728206 463547182 648062377 398946128 281940139 313142598 765073990 208189094 463530872 150828729 966662792 209471421 805560048 125567309 94791340 816432604 214557148 858026167 114071789 93159750 595939318 645965124 963653492 626329386 237841607 563612214 669836360 483334709 326394988 258690606 240573385 615635647 872060635 867808754 778849906 645648078 41345472 324250458 65790114 991027933 931689486 577831132 425322942 310348536 486749120 780780805 549577796 486145462 885021799 887135987 136003699 523649863 231658397 565015137 11648773 864354339 447215979 310679743 390885737 597023059 258196482 31692898 407572094 587633647 878003225 83821731 230456956 972105193 511383072 390689613 980789707 670442518 36761244 261198656 911249796 721793681 158735930 907518005 733747984 72327372 15840445 221143591 908231891 382037400 579368593 787942692 143522932 538708482 279365750 835547006 804219778 159897478 557901174 404418320 238416751 485299925 106046730 240080233 309324452 94934764 373145170 704089630 745723308 707165685 274747986 443871988 48807018 380739231 458336321 667507008 29209537 843010963 813428386 983839275 210121014 412962766 555198723 48211881 588801575 788293968 67598014 361385186 771725981 302829592 152250534 21826428 764158972 272822400 690704623 974271467 202139751 699952000 10045833 270320589 595491430 567571272 397838400 160420442 172116761 117646610 974875651 294615681 919190776 781203114 196597724 210051229 977395359 539400671 29942683 21721114 668500637 951422945 354099775 437265654 51825896 540195693 138291121 181288662 132217442 21711139 985238118 210221259 753657418 401657162 905505186 25796348 894754973 671809819 373976680 137878275 818437159 275717417 988179631 250038161 519048637 948556209 351627141 318054489 659326384 274053715 830286097 643542771 15173300 628403701 648125128 339199709 882734452 492890516 275849352 164073685 256459789 190063871 692986406 210009384 310161163 886930239 950117306 12127700 17669146 817486121 899088197 756748218 741431123 67142000 767207663 616554079 967690744 39845652 999838456 774206254 52258734 779254525 189085935 656390506 569085539 861255121 442749980 995093560 914306556 129806232 218436734 346322552 233421498 182644893 903066701 597072048 746789832 262073976 821095556 595066062 133401812 935679727 557595446 380818747 906162857 4907994 78392396 522050728 842377096 805509884 428623473 424344485 354752956 666783238 87942437 727962929 341467365 372035261 939956221 313490442 489075689 976497130 992535438 853959200 187431057 1119583 738505065 523986355 201788723 28245884 439043189 566269749 178060295 284374993 922570004 365707832 494466706 225111157 146752497 209777050 383356284 875150081 253944111 307686239 523325906 899480736 105555738 989405810 197048155 1976148 161624978 172019152 200886503 321140768 826245485 921003611 16354452 521751137 744803017 38001804 293262561 899119403 737210874 630224799 862513733 218141396 359543774 224608435 209744476 879934855 253337730 409508063 612817742 274998008 655326064 300119232 982465799 275843156 42316814 847115612 959784014 903378509 143175232 907559255 178162167 303328616 448513051 216624240 57767836 655221022 931992205 900811086 399646568 260497442 415840636 407515494 952690561 452462726 748619015 501348907 436587251 97887008 978512846 175672044 147831253 411498073 760371856 815263634 139440888 814658165 211627691 421698466 950916002 174443921 685820580 55295186 500427925 893826543 756716951 176839281 700753583 902394154 94436170 705412798 452188576 789959185 781345791 79340198 99143377 726793318 841839127 714657898 140318176 362995265 270841171 398355989 624733358 780006579 505211795 227627481 742490166 403703766 438209582 526308844 924500395 539498778 518490791 188316693 814031887 635036694 952230929 636495658 371933490 643017432 90294699 471841736 691160792 776788203 149792614 912621017 884838874 294624940 352850213 874092075 729641091 379062444 279216012 341670102 803984020 658127921 45498051 29810757 970166174 412547797 960643424 902445606 746102281 15635536 193184797 959365262 6229416 760243702 893059097 151909053 451110017 639548410 224001076 863097870 245171344 111923210 453455814 299625706 367463908 536026800 728769899 975524708 328037995 743217509 813483956 94453994 708419013 255373232 816837936 187177988 303506919 850074692 703764919 653219092 864912399 738722103 743493418 865353228 136863508 865986795 403144787 732199371 844516673 33111869 922939600 497425610 28388751 202354231 216107183 135098003 617827918 686792284 9020191 997362716 534835945 538055845 889327227 54867446 140530360 554791748 523538244 487763719 635415419 199927997 488613973 315208475 955168987 852287531 498280937 867859281 202149255 329428317 395515312 53395414 330852377 210489430 429944027 22316312 438484520 70301320 399170646 795840483 504632813 662263346 830030393 229174895 514609497 224605408 504803891 342767053 421876168 202813303 242663912 439449325 439236216 56519306 689658547 301137433 695187824 566710890 998766296 274496855 65821921 530836291 866699555 380008317 444514311 334316947 60798045 969856105 180518239 257811014 563187516 955568240 557611070 109127210 543501286 553003924 499070553 694881358 758384754 564537758 991601266 878617501 252813987 917146729 889849821 128200138 734023317 465943386 35885124 976191964 983829445 329782898 416707812 872237513 738784037 177197091 897229703 952492730 657551781 55116524 735688114 915090451 403165346 419203166 677996357 51343905 237468195 511257318 530020635 146891734 871603038 65069774 243992355 360400171 77219151 88639243 792867738 200530401 52516045 51076443 481508975 55780588 388827877 722918309 906399031 934821017 162353196 430306513 862369167 692074270 967410281 331804044 358908579 331589868 737731971 706368472 182659839 443843287 284990144 67850200 470912402 184099884 442661343 126455140 470003502 811363532 264971508 362510519 596101117 885009917 596781532 760818762 765788529 485538486 586162793 333156925 879036109 375942125 386679929 481508443 883631582 378532355 554010821 262169136 334357723 900581987 453168240 682895763 444677493 340695368 478081626 325986799 539265372 238222291 998178614 385742053 640783803 224262845 794857709 563426141 629344018 219699715 637435847 384741925 951357910 800865100 896255858 142895365 670373304 83729232 269896088 626368964 652419289 393875948 210684169 795069537 231280212 664427667 450060015 310363950 762508257 982552391 594715461 51627075 614248935 605427902 834223577 436187714 47504048 527473323 940762310 777513328 843242592 10782019 100936185 75376566 50038858 611018704 436918536 149545717 140339904 818320241 253880517 548606878 819009017 543761134 896758085 776801124 913301788 196874116 211232876 103393503 835848771 827143420 44425969 648443412 568953667 361561871 265140665 962653021 951670142 162014317 444977946 12233819 394249081 992653140 662097566 675262911 881419966 78213768 166588599 260855369 142223698 589365922 375845679 479718951 68594526 97300043 288162933 645704487 525425863 406692956 145399340 954787505 332890099 128049056 274609134 220752908 990034895 583925143 496440181 503055339 832784373 323479814 929682100 301400161 263045395 202446973 728809159 608350764 734113745 573084982 792888529 141008098 382532817 436504902 456889367 177019324 118032893 88676099 227133302 42193424 648215370 93371295 662821018 387862513 820448042 458763959 429855571 555170946 214671670 27813845 627352875 189424779 939350364 800192992 804052762 42965181 907497775 448869182 646191492 862545035 543502600 506378112 86926543 247812903 256959105 86484389 345469544 96196262 858799152 646755250 954929510 991784575 473771185 106411543 278612259 139322346 214930250 450463104 134956459 404892496 57490833 339666454 710371371 653286042 267252744 686539712 828658081 297240312 754369847 214524265 786482113 576525592 559177542 532156713 934398723 354670970 851058744 778553963 968203216 886535289 59601766 693479299 162774715 496514052 195454246 383199792 379810630 451443647 497792710 318549362 283770492 460898233 595493571 878940247 669543541 602706084 893361740 832766659 55286403 909115817 103200305 91504738 333106040 239696516 334915984 129687497 597310155 751596583 226341791 60458943 750250301 430287539 877709251 248226124 946629023 131907846 752861352 389957392 73367047 794990432 577790700 784033033 874343160 286889984 344107360 498178476 596520716 190277149 681304678 553709828 2850620 380398967 610620092 202834305 184084693 711278243 841870503 632808918 590491657 209439761 856310783 660359740 922298414 858360392 472794046 19109234 746944447 367462085 83344774 509803157 851926669 628697682 969213961 818120642 368650417 449151424 108446726 179379031 287995338 874826287 337992925 769458444 806077635 453896505 425952363 175904411 81668420 481998278 554658895 428907853 533373019 794956032 136776828 757894793 530387794 408330227 716743915 385696055 984096497 785314672 448389149 557352010 274632242 216106973 644430758 761141585 747514035 267437704 603670000 45267128 335029617 168514688 547036533 884730314 646397225 728018390 218988083 178359860 146962070 177247769 832743855 236360916 973126329 741337782 194719912 252678895 555692811 500043673 843944524 476575518 848929392 249792496 388749087 142444526 334725708 304157592 999625955 473077326 56549533 872862409 418219394 733020977 540542130 946892784 67572776 76575260 820199273 284647554 10082433 548104124 976810998 462467306 639199881 829073175 954328876 516783232 408940531 391252098 259361027 837902236 476063253 292080117 156581981 352121570 724726236 211893645 308530719 114907830 822210441 147355961 433654835 384337454 488733785 173132861 541880753 120348094 79688162 351716247 412199747 103659981 301310342 161312322 628374167 367333757 749884724 869075986 421187496 221710699 728591602 526744032 449644031 281473100 620223625 342495762 839369816 146314783 982016080 624302815 474224646 588594352 44181294 491659090 690194446 68701803 201384329 548739505 130952380 720610306 2426522 366875722 949721241 7458877 126619907 559198239 793046918 393357744 254962933 724384600 36463350 79597311 550530945 827894137 911394894 825902221 361862361 252777163 357324601 184790132 347285834 26067338 293543066 53029722 999557400 52504810 486149225 320503973 710229301 444012046 752259631 645547339 311198117 798590181 830879443 655598764 886619586 992029577 625649968 507572436 840947344 419123216 700643114 630948297 180166342 782998955 831656783 838174585 176487814 28134740 540441367 777157440 885939048 121728901 268369241 685517679 97771220 509216303 653001274 310073103 988836040 991638835 807106416 663267286 282402106 236861426 961143538 684741731 496481400 457107349 97401880 587426941 700482375 992851077 746424640 854643869 688587000 574230540 703891975 57263188 943672872 337363811 847288353 780555428 538865545 419026343 432619108 482056221 370267375 46204906 720913714 561011892 324913153 54102884 973141565 440071325 731569157 18613385 977217192 637038197 994623147 678318225 571432786 590965676 372924914 82161405 782078546 636216601 178235564 906936614 682750023 379910724 304416847 513766314 538543899 543794842 238410516 230457703 429499150 712260323 593029119 766940686 565621991 569531482 85743418 49674771 322499896 484187562 194185436 595991400 703267768 627797601 57970953 157594365 479779924 646249894 93986553 322966857 857734336 514667766 535638085 413194617 889357782 985128123 383620268 857111643 508136145 792033987 92793562 757806660 322773539 300852795 624473516 798675739 587104083 892004796 347777839 957373851 51672891 197173128 182926184 235861385 538757944 238674677 399170925 750835494 28933424 688876370 216341983 941458944 526073742 118626846 851727067 400765445 132690834 371479550 435803845 527696039 444749857 736690149 82824377 315657218 343828113 534412282 388088764 535168631 291048605 190085081 604663695 579866805 290709337 54034070 380154865 12819435 897922402 378650526 127450264 551095208 492468420 463110312 750739405 436351629 856933225 985934930 580335368 489608237 537982079 320928138 519783188 950593726 92949019 535907264 955858041 938676383 15794047 621795072 125789218 61645779 436969014 19081724 961003958 126915380 193370012 364558504 540064226 710710495 480933405 487502932 309104003 361853188 322210600 446101727 840688543 292179271 458366657 119934766 286726025 214534842 392836581 651362192 686388632 78647001 959284751 354399116 4502419 813708655 889460268 648924066 261897254 311720488 723025626 116972360 476537349 61380274 761077719 629000885 905834622 1433255 657559273 85887694 424471658 708561798 313130196 533028589 938979743 95666493 437566312 757745438 357146363 114255000 556865313 652281418 309568839 892753498 776495696 724366620 295799981 733348701 345333308 639574180 499894036 21222164 929933737 662055136 731937984 106261069 876916905 196722382 712691355 876985102 36979169 678372958 313642407 588315375 988611469 265966271 651128786 295846543 596790332 90415195 798850146 924649707 318016565 871419968 515131579 348643274 592830353 712567209 840982168 853682020 180561727 446559373 542812398 310068541 189605087 696822696 255183574 857195591 652331863 91938143 533030986 89850235 389250846 854386151 980485014 905019866 667643338 942740957 253028571 194511619 348695364 60558089 361232494 691115903 235646737 619651477 134933348 638307290 20131418 475128081 732007388 415810329 363936505 653591079 609178970 903992639 972578911 155402195 183038671 526134042 37753422 924737356 44327951 49326716 901723647 692357164 661260704 692241862 431243448 680734235 599053197 412364986 321350501 690437360 32181920 713127175 891420952 203439239 532355593 734862099 501949141 541756963 914142851 639636338 943849514 611659873 907291297 740998883 368908537 227870100 668655295 186941210 260943784 282355091 3016681 271015487 208936616 608487545 878921141 247112955 210818132 52399974 835712001 884665787 682945656 368206560 786314924 937710836 327621934 701871884 467609284 503256788 789266671 24930169 295666998 104803729 30651865 525429174 28539846 792576392 69508762 959661429 9927781 913374542 578609793 491373581 37313320 929097817 423349964 791827106 518477331 939998168 990439945 460735399 591554183 545382191 17641821 716728753 487813479 473173191 457506758 192791619 43907313 832632436 888494 697254115 565888397 775060617 71535425 887273828 975493237 874983413 546749927 25044871 739513227 171256893 558940285 731320754 591820122 923011489 844094525 578811028 767846951 445629860 198045596 533705369 954181348 680172536 491453918 854239667 659396719 719525906 825034900 735907964 300437600 981103751 348038668 174723022 937790139 275782999 122775478 165709338 910288843 85213425 618883126 307509615 98673408 543783785 675950271 108118142 711578865 610615168 199173399 200195659 406906638 784181468 789912742 487655472 801059776 97183012 878205843 104408261 687064159 35452330 726555288 924734935 354005557 578477057 332636227 84463487 901718614 446739313 156590559 741240175 565659478 611884279 251550686 691405638 595295054 743488486 483875573 783531287 290682481 465754335 849066602 102800630 583523307 520923211 418940313 717844443 683590483 375864855 859767422 654268602 739367466 721376069 417131448 583158012 938944275 555280671 850529786 286250249 787619900 847555260 573712508 815900868 354357006 664927285 772657712 104367460 723000554 107589973 29502937 330726370 444913873 432738041 707918521 420613984 516536327 37780577 39385607 727909683 976934735 283403646 765074904 826643208 741429504 535620081 527334292 14821510 239960678 876988385 987210888 113778101 268706794 478187849 60235919 83046568 843410036 980699948 255681107 382965153 486742174 766217230 518766334 968598345 767025916 418302002 966742208 713348309 388165799 16948729 484236076 111391287 420145983 248193518 478989203 143263690 753756543 26173404 720277769 806159878 336009443 77534371 743320344 579074576 832883336 19667060 651478299 19300289 951148878 713696107 439436597 690922582 283419688 313650038 931021788 880898571 690776873 998394061 476816451 372085125 42302716 793057528 920490336 371049962 849530248 256390509 302924096 431453465 865904529 381563745 972625647 221113777 755456852 564428530 105444481 567163471 298976097 294693761 393711630 939250359 691093440 681322888 164439256 756942420 157726522 992568947 806426048 132557625 306065485 4382525 241991888 409066933 993357971 741694316 869387438 935629080 109855318 862717826 776304980 649809850 76658941 653056214 473314986 728047505 265541313 912585662 951706681 221123920 186623768 375764922 415911838 738248183 720516037 231630086 341906438 200087798 992204007 200650514 355318162 640519373 451678729 212084287 428958164 563933838 6118336 101383197 393974784 85076612 566460098 379952824 982654654 373290701 970472703 921194946 859940661 142783244 375665989 998663375 858394894 865776756 496847052 941137423 170029254 291555078 103411388 289669994 844124601 176534915 870301446 759597331 645167178 942280376 670216316 747029946 195229159 38006863 615683483 37484298 376996842 401276865 787717436 96152797 480089853 27263560 667845602 942655537 854721750 34867691 565329934 446930582 306431317 203037566 79109155 634609562 431502360 355061672 281379296 410696346 789057276 34119745 346643331 651614580 685720527 598282536 197424019 738276307 330758987 77287817 566511708 367141405 93996594 43913603 599323225 110684496 132628941 84251563 101282018 5109628 749406145 960140053 981152889 700895156 863481593 535029408 565642618 592754145 788454541 325986172 909403349 238015510 736980353 405183089 804463717 342789596 611562814 306493091 286481582 151901966 948307367 926377076 403750740 175838588 164772669 784573776 384372503 539616619 795602802 694873909 999933266 472884787 592433973 429384072 45489269 365235456 868210229 207700014 495834903 277965335 799493254 802635534 974057901 297875012 131345211 855290867 17485792 416141252 404524587 592599811 973530711 565654981 391366432 720633591 158059411 423058919 275735401 500321853 796535233 902983427 584554029 60328788 816132272 985243133 154434732 458209180 516737926 482633937 429476963 883140290 455557802 811785930 302753073 508217478 687528 978441390 912238645 364302178 163831812 646315427 131454774 398669414 334412235 62577682 531097156 580257906 685993828 683793667 292888385 433784421 791708427 333696260 227799640 591890948 197311265 348736573 726009368 839605258 477283574 134544949 256356365 526130148 879829830 198183667 496315808 488844396 963782238 953130136 89655709 195198954 804690031 700539172 729064324 964871957 61293918 932875036 167154696 144030491 24810058 444537453 204900522 196088658 931606702 599030302 705556968 899733792 356470315 15633205 873944267 916300480 932942689 10145086 902849265 637563271 746688317 398820334 531648488 164911631 549165665 739974104 399273577 813991360 663454709 913608123 144962804 248511077 356447179 278644271 9661960 241444677 829755926 969748398 34632154 578033543 65637763 895992069 481562758 655004739 545393573 220767619 417193889 327484119 692290589 913350717 310100289 742974881 495478691 10735431 703739062 812680470 363819053 242432905 318788292 87860584 873629344 710740567 419364264 110047873 579370580 865934977 973577204 93839146 715083701 641504319 815365866 795929747 526027173 139338239 497185633 707124764 558630847 196624242 14122507 870628282 502835991 688577465 741304459 415417264 888474524 393904034 608686718 40305246 805167138 556721297 170850314 774904325 769700136 521313700 284275903 498538249 893354228 659783296 266831859 602282906 674932421 385637181 594772171 984718416 718612179 16187998 621392032 328838635 255864255 880992495 96958854 268518047 803707193 569267270 736966172 941275535 187770527 17320947 88402282 43034906 572780799 281648081 511021321 313627588 305069950 823162862 276254865 373850057 929651297 522642555 186017901 657357619 702974544 565749675 680702161 872943109 296357009 143457720 261617424 859507458 574487486 167726384 963829428 444063325 740504388 107840011 586906542 144972582 794372002 430992249 105542767 297057085 332403367 94158294 606443440 750598639 563287019 109336866 707267448 591736084 312279263 888626158 262948197 238365593 296319007 673876189 591938755 204899033 717858015 7060007 444928398 613435959 718792045 109062974 49724823 320166270 908978986 705698223 255763076 110808605 742688494 243907527 835931031 312316460 246051615 950526022 17628774 293273030 854645139 32639504 655628601 239841132 638434434 487729134 675129501 954929883 866857451 755710141 768743221 933234749 84796769 326678145 703936227 777549421 138294210 328722080 516378716 112384252 5085641 482351849 201917693 140820404 819555776 935557672 721313208 534771855 35796101 510067131 201825292 838357036 508546440 749433422 570065314 594167807 391025856 115167324 815615741 857918824 204394635 791419605 40535865 189276569 936035492 150670345 305252289 472652732 415710831 891741780 452792059 75417862 612280796 457825623 15796730 107263335 61915692 745017624 79708386 841476649 43563647 381334508 52453641 126242762 36350984 38442660 189397238 345515809 480912275 440577721 959945397 493587877 809712566 663059080 352092254 720433162 919654914 207054114 305541953 636731535 42558187 590489644 508044986 529019334 329659640 479996455 318003101 247967079 535896842 273828842 452404701 950961938 494589302 939551385 251520526 510002626 699049509 266080150 517039393 947417585 819421925 498846700 26675989 712280057 980735979 355069794 412208221 933567105 2914265 529695275 210976800 993962001 111654675 218989665 207168144 914410384 233669104 58286288 735065473 231138844 427193780 922004682 273715070 782623282 603560944 692324369 270643335 996570358 564230365 174180662 225886692 663078673 293462600 48426385 588795395 520354346 410694630 653815948 46477185 858007137 158620279 891947691 470567454 389472098 186938879 331615974 558827835 211336560 956478242 785439560 115908740 97659561 138991457 142524901 688787246 597899384 252283149 916629254 697464699 152450900 958255886 96528866 807455559 888717805 983602853 837719940 897452836 271056135 996878660 885153801 299153663 327964419 377111394 628970954 215835172 94470904 497810180 232115786 806889387 139234998 614314751 151110060 876553698 456843169 637984641 18362761 365093949 725032935 704647011 598649685 301941633 163014189 146305416 786632993 719479111 200988262 308717918 339553735 931435819 8304241 253511120 95860407 369933825 126721613 575728021 770661491 334346931 725472288 466952408 493470465 198528699 459858100 557143515 858497572 829213386 342794602 421190047 113425418 589444330 145959431 937464768 955230446 197599371 27924981 358882789 787157120 963408000 444129463 923709228 96816951 73361662 918178355 689001330 642756742 356419955 494764939 652109717 46071773 347036915 176804119 914450535 433306200 727072499 635447052 125079788 243386664 510671363 600858542 623598596 175687270 237074091 852820257 825815766 468134198 222944849 407181748 757565553 147860044 328067551 630296841 697828160 598994458 714759748 586256083 126887295 190295529 861730313 425652339 572682109 183160041 538679480 680164638 883670481 162826403 334786318 57574450 415990169 433700095 475691981 392153966 602658208 226878629 602598410 914059337 254113135 532177424 781623516 996286110 779312526 475483097 268475244 463593331 55813836 348920900 82779252 696966959 882162934 779100408 16691520 228531377 670233987 667851364 258922102 99126801 466062972 964758785 215072324 467490881 321744327 182871181 604165943 381647106 189700967 885590223 389252794 911204562 121746041 900255024 359679160 218623710 847842828 37650736 381643075 63262776 777104225 311289800 481906408 990658312 355592693 995946020 602679047 641774962 506188979 130582618 428084778 591047703 970413998 117142051 415071498 544551851 153330206 936306871 475824676 404900981 602334065 968814888 928317620 903055648 926403719 713286454 360867203 272407283 589173309 930719486 248665303 775572718 167717027 423766179 929522303 397621582 996754075 517650729 332826776 789318752 414338289 524211326 102080870 133253874 424044488 188082636 738860098 743201889 59426780 291893751 571997389 422234945 76632139 911888793 231568 261556231 999805426 239945359 62632033 904229220 650577128 631990857 438490560 250028228 803910645 961908125 310194197 957702404 462030403 676492877 906028596 355900612 49560372 475929759 401608858 904842540 776765150 231221027 267060755 710645652 759500946 25290937 936755086 431567481 249144882 424636476 410490477 687033982 729103540 489642713 117560294 638566978 249877969 23467519 996193274 316456711 637009230 771217723 518478505 90855728 724838744 919605861 507306666 195768047 699793320 229108451 702151245 602569686 946125909 689868599 921224241 201004978 496476996 684624148 157134415 200951908 226618918 339166262 521743995 71739442 519574483 500556223 877865456 386276396 944115322 861803487 991255195 692107735 455655592 425572866 977543564 195647695 276640381 415429947 214874380 457397338 692695292 20718006 253323514 467731015 246814142 282900683 849114304 971725047 123482741 966080971 325979254 39572469 305977505 411247918 520591269 138626683 97781728 494561664 443280004 402243704 743083132 243894864 775441214 989710292 600148345 813398065 173220617 579075964 84578352 611254318 984939749 112377384 9757178 926057848 466144164 958937466 387757181 443791165 265109423 638471018 482490796 659356805 560297925 30353868 307570049 498296930 913687811 232749067 220303966 345474946 315053106 662885242 110881426 41650766 326665242 970929111 442560997 303000622 982624113 174877310 698722333 80896106 395261298 519615105 525941660 504366525 959245396 250851232 158849758 667600628 31488918 346182474 921753838 250691726 339125446 682650561 896527661 782393296 896911164 433854229 950037153 356703781 426532005 749394029 118817260 26880863 803503460 995875032 432801957 836521505 896974389 114735881 111527488 948547960 311344676 386356080 699928846 784901026 582336608 70002456 509748727 430029662 60322179 358622940 549476193 380846302 322517212 814632720 456554936 227472357 346121618 746742130 134931875 724237024 936984219 453937255 166145903 947777921 953693866 833927814 734837839 138010584 588023728 37394069 114459821 246711024 219031210 32614662 611223729 735911960 2122738 902944603 601892570 496750290 581701715 895205280 605594460 822905275 643544883 52253531 598836437 795065912 276487706 773679472 697268677 541521146 217883440 947748065 194322482 555381906 568486773 965224557 50448424 175176591 338684020 277300071 74747271 109811668 974796529 853949196 178876199 772681084 298059488 840535782 648530446 969643675 236062586 310295206 266707705 787972792 34644325 111112046 672806356 344015325 780874169 475356090 220301884 101241015 816886217 310338299 149492405 196142140 757501202 73828223 197328556 781162048 919990815 444325153 781553662 249403961 447674588 246084085 289989015 663641539 453890336 906416916 4853852 992208349 846462574 955338990 246367975 547285572 592613754 459554755 578064542 272920379 240442302 979250990 64367208 524859935 70453181 16967112 746071005 343964224 930404660 696680735 100350514 885346700 309426249 556766558 239211973 776355440 418522341 370226890 192188087 370969125 65135415 349528811 693636130 453975997 895308324 72025918 466463788 101362375 91026458 697865450 942089323 151634857 585249507 411252768 354279468 415049196 210908194 887520247 852754994 78685525 792510930 922157055 668830280 85778340 861388953 271584575 174177047 432460273 10677291 510336679 532811545 946134353 787693761 442923580 985983990 59698214 915864544 709898015 780162185 174252562 936316915 771799773 610701771 290308466 850603889 765764466 696413342 625594019 875065023 850802392 577426689 83820663 787661710 715395441 301486794 548849710 534078852 615416015 800251326 13107147 864579213 575997362 978193331 681491622 636194621 675160612 395318514 825172630 580875835 102938528 909908257 1344945 350229950 672212046 323022726 961236846 560615626 741315336 512750624 451981547 360677853 681247698 421978475 633794432 250928717 301481434 891172273 677860363 168217464 730144424 592049327 924545243 426218692 300249444 541606284 975168322 660611162 172835460 563733306 504780077 183537757 769276398 410468033 440396891 628837937 883852652 809937297 556628035 800299012 166161719 629157760 324991922 974455422 783990920 726251643 90269596 595093960 165147042 160721391 215150928 292137642 671708770 55546925 662401077 768296798 724171616 644096227 543367840 763933188 40587990 154174850 761917116 644228027 748208240 80553627 896919409 556729670 813112594 361042303 518324492 70301545 701609760 257099510 90492684 620668252 255420900 790699702 346884359 142954720 612916091 852752838 890787036 771378720 790538676 585419443 155449967 20095602 221537479 328680815 820374743 444368841 554522194 766580081 644870222 364283775 737317443 566114251 126674026 226028863 187542561 418554127 12601883 250597217 202142566 812939349 795932243 190818822 955882976 443039276 218630217 639388548 450761048 267981114 420072711 68607359 365072393 993502608 733347473 547415548 294879171 861696345 929360612 318173497 221980882 480071100 967847569 349167200 62364450 452145158 102897488 500525341 7803581 94695926 798544652 236371764 189625222 540797470 865371161 20900532 523318383 889397911 35525767 842043330 371522778 486267291 472298975 79150647 600696212 993313682 241139289 794338795 839078915 185786600 333759690 783349090 186008787 333618431 363597273 398022884 290467218 311911474 605521142 436257481 889091340 807224675 514838928 166638512 145236236 575381837 701741261 515447712 738160400 63278886 657672505 581352366 260956350 702036892 881571787 608366676 412736729 5425126 825124049 499538283 740982655 174055406 340077370 372041594 904364469 339869908 14457984 732291777 79611840 157459626 349031728 170080031 38470383 444053363 429328997 349760785 568116496 200199427 460872965 425440525 872800405 585617589 193687129 135168512 75420599 528790822 661622739 437855493 155275954 190258855 50996276 137837836 253159726 997095270 109932045 700801269 201767620 269763472 146205925 46699721 464241344 393161082 162681096 159829485 628913401 678454848 45844018 404109968 393390812 68841711 86070709 328177043 317550303 622902123 637093069 994442156 95045054 813508455 998866705 843028744 536184088 179954604 677106857 628709236 440626154 766176357 894824796 540026214 744926067 737538417 804111527 852870857 3163572 841780652 365425544 44862728 35114444 226291467 69708672 183917508 686567713 835385096 744580508 823342202 878811883 146378236 104987181 188198037 782940814 112806529 893708911 638348344 243509629 135429942 960383630 480534852 625993186 29363527 835981785 849716611 544607002 650109559 856019138 564549232 136851265 549850680 95122340 493696418 660193407 516610718 479779763 530579552 714144869 893546665 861326494 853855577 144644041 74408725 275476406 513551002 999454199 624426372 954873957 51754246 8577527 827553102 795378772 484106967 768140610 538874617 233314066 690366480 980394699 214462046 340996257 922097847 270405500 256213207 127822767 452332864 208083836 249724549 250994123 198400421 736464233 36993652 114229452 786515930 259542772 11393934 530010281 210361828 31442209 528321113 613852738 133520047 723704383 567405168 112929981 101755489 873998580 80472135 999019519 875589380 489937071 814066055 213867599 355964437 703295117 497039475 352214102 934450055 196019412 482324505 964240635 767308334 996673606 591051553 342236412 733869491 565192961 420557350 342028155 216311076 840078201 933594296 865295754 518087543 875329069 355600709 410172898 924123051 258871808 818924086 670219327 879066946 525828941 848928531 358557355 275565152 148754863 367145610 795538121 724143270 976528131 144257447 140445924 528735346 39660186 277697620 113119390 115667169 455299638 257843868 996922552 753128481 122703123 802584909 218031735 920809758 44723384 143986561 414643720 984415971 6698429 828890667 447383842 326628282 563956500 603415176 691678542 120187784 424720440 519060862 565890813 793930731 678374466 897306590 311122546 990004214 78112735 431614062 597931799 420659076 314239758 999212261 680115900 517256370 26188178 745582138 979183965 947317067 733078625 477486306 593400648 105947613 189434512 438743136 216301974 843076343 939312431 226734975 248137810 741320081 28479944 966519892 893413602 566337299 53418150 670002897 992409044 834884045 12401274 110917174 507615084 837896413 435745433 284938113 709336927 840106961 87100157 735877820 295176832 382762885 956543223 977244198 282995982 15505897 703511664 94966258 237896931 514792587 86209842 931942841 507578902 155682910 491077354 188590132 573396976 366269648 552040910 569653538 945898074 169394728 389047384 789832318 368174144 562064112 166690619 208895658 667561837 203572822 606178934 130783130 36519866 723172170 257336206 695566576 484330815 965657496 540311161 948104024 942793410 912611536 902939466 752944197 270487495 41997762 297801025 191062847 367029939 377277252 176958045 310101386 72406078 225148488 191834666 3858147 340637515 868578590 522502138 965039082 831584130 153728150 172832429 605720656 851256068 498304054 904986893 980543865 51053740 347579059 372246922 224677106 141840055 818294101 839926926 671444063 599188160 448893416 658054965 904122713 331352203 43549961 276415959 36599700 746904766 258831063 949281092 713573703 707745347 265709164 296214857 85257943 765899473 747573047 354717481 308500184 152479114 729369296 53881368 41327289 161371134 846613573 862668125 558176501 889620784 868185994 802431814 683941597 973206912 684159325 937987164 73044328 925820440 436202360 247004478 643687326 75847966 865101906 766552059 861535221 47356087 940620457 517283010 528579717 217027549 20485377 785898911 642767292 735804832 522724062 824478898 721619648 315754763 107397347 446834545 549475912 765969721 653873158 546546070 533432422 391950043 948098852 190009671 701744812 344539130 825475560 753752068 418980439 880575407 309443578 923349833 219805001 115871107 659976130 556158034 106348526 789178373 829942383 536479225 244574756 901174884 331785943 609228867 144966560 928930495 672206782 284900535 942919666 281546496 15169575 557098546 151295932 447797626 794608987 352308602 542262485 81913051 113460784 632155529 904119648 209269085 358798972 390901946 284018696 483054574 352387959 533973299 602080204 118837634 422499813 576205917 323229826 507610370 787392522 29954159 142222748 146031516 365704029 39944582 541837280 622544173 503564310 699926502 394788941 338275760 745710787 59546765 605262735 264419985 705933280 372798426 254896743 180650922 544481498 165778504 1777373 447238400 54798085
