3786
625645943 56861887 441393302 443300582 67414160 50395146 596294264 768832633 748283320 838226458 537570743 661532118 211383979 551905508 831224181 524097093 594295251 380567797 142716634 68706268 259937489 219543706 163808098 603337194 990078520 244628756 719582544 478576843 358189901 322990636 721513985 533296134 62565780 962728999 35077359 920555395 956599009 98267841 908128239 483837737 295754281 959518186 350831893 637371803 986316835 87757277 554950075 971033105 181870870 835956281 112786443 893482569 832535652 904121501 76286740 598568180 765921063 504150655 779225013 418067047 541234596 953419827 220128589 297380018 887513590 241844972 739196519 14268748 468477251 617031338 697707989 618028336 505630299 39888100 39773767 561459233 660570672 798961462 391931809 928922761 14581684 28990112 628076547 535004721 14106839 267876581 515123377 230801141 593654235 495288487 112990873 282162172 953951506 703464816 118146843 325121939 789572239 235581245 603944356 158282521 445764878 113934872 909836533 157301291 389464222 343765190 22320198 511090225 500907663 258459613 463867678 785712415 250213616 14221262 492851430 390312468 28440817 48113796 753076535 676202875 245006897 373245143 746064116 296719999 528251904 824628876 416650333 801679578 947231879 411994269 3905643 268656317 544136037 645732268 881413450 626325200 455689035 568547316 739747493 378459088 588541458 955904154 794065748 137968346 719401148 766485339 62527298 78350267 514394632 153274790 837730042 826699962 507637177 349099260 569904784 974798641 205298035 149835747 58226472 917440532 235823612 809509972 136913075 793327939 450110109 121222150 751211047 361373723 404836653 94578155 402957614 671674231 944869033 860775927 583548001 659084084 111924303 868184501 744577445 569346130 872250876 118750499 9639449 607415693 147716093 901095516 989089034 12550765 617629164 596366740 814413165 961060748 598614197 848436224 470905787 827036764 695849833 152823048 503744583 262800331 685219194 436652813 49867827 808737259 866679228 111636542 11853936 443699172 776885481 208458386 999439820 934698590 894802431 354496840 980668764 589386422 454535977 33493724 236706538 259362940 511775809 934145457 351294 440163401 257017920 712650814 199811138 927926538 327069541 294689024 805884335 294978765 891325260 893608452 227730151 466386071 206750586 217714698 475291448 74209565 209782185 549582497 415910564 626730505 699491690 566142849 637760591 113538711 609392257 603492995 463769482 365575618 815888465 58693013 68489525 172644015 650725958 12716240 605455829 70781969 128741002 43255393 799618087 467537992 742178208 444358161 528270599 379651667 684753176 852085945 848272478 103918512 205565851 440678458 839617547 782654473 480221013 95693133 568831765 639662936 41122485 694562638 50529275 914512235 187560238 154550489 468993895 704973690 430036134 635423083 586101312 270077244 354331092 205750250 838687989 944911804 63491524 947408134 489884620 930129616 438512871 157176300 323717554 944646555 913351415 157130560 904894082 752562519 921890773 484430790 817598708 457738106 924114008 647157839 293669379 822326860 871000897 30840688 405871541 932896843 819830586 546097122 976841463 37389238 743953887 741002568 937364776 255724985 981918874 552559669 58989490 83712571 74188199 926575675 920662885 97660308 236710781 898530671 640348077 766612840 748668900 355281554 725532822 965280831 217951907 50907929 449120707 846787798 507719597 102757512 203590249 517910665 857290133 41625096 316889968 220658654 9350754 424188626 785237597 108281237 832688171 621092311 112344664 401359412 34031325 564682685 424290636 791510591 650501969 719062615 77016691 288787283 405373053 555438301 337741938 483673230 399709030 812376822 13757704 976559407 49768828 524285106 445334559 514668119 726073860 820487492 819316221 550471511 428950693 21208719 466265881 282602694 331692562 765612948 51710459 847704431 827206317 461072568 711702988 387376619 477311204 500985884 877225781 494720456 141993724 230486258 453984201 384703864 324827374 665600674 262193165 212409805 461250594 556356261 232562766 533156266 48635938 845490607 286893543 447916315 355966710 411799601 758924929 581722906 341641437 723551843 584632604 771769573 590186737 923827442 270730803 177107151 317030618 994911250 132138306 970875930 716353675 457488281 35622387 82768218 767065155 923252431 843626529 924081952 976697201 183341887 931938484 230716300 88525290 36815952 577747888 253330824 900018004 745944865 756533503 52787750 216418414 716097352 70868667 906974563 165175201 362517603 246814386 467922111 53864103 573159251 621866733 926594078 687405037 137045950 216859767 496978744 197595187 204323194 484900325 331201101 86989894 519768156 97112273 226539261 594652216 101804480 503797565 18260268 716799023 657005953 655611153 776952600 380903715 966692123 426485515 948834790 737114340 848274071 990488514 883558307 464432748 5702978 591174781 618183280 423296173 728655148 772035963 825206711 368267859 121015180 659683059 686586915 362090127 950892437 350271496 647051369 859710685 264657456 922013595 285751867 362931542 942823252 315214137 845762383 105788071 209024196 190309238 695421775 270164882 928769391 690013159 882812072 540783199 887249200 460317358 142662937 501684522 219965664 555405291 403627849 981470887 87852841 644093304 669265635 894489205 265581037 728112234 823438751 1054219 544972020 278289474 936999044 705003792 674546822 415264632 917100214 350613669 47731345 317039379 46022734 403475555 527351137 673673848 678258689 155209092 158947070 892896814 680195706 956614411 798376263 229820327 693822185 572513279 950438402 468318628 46758825 193641378 144330743 208306479 925171645 101561818 255688272 489414840 149415834 3164869 511428152 995405484 999818160 760804166 892032248 261770472 235791239 893103168 37258190 290731425 932836549 55444634 863834384 905214448 249843818 212436576 36948108 556363971 103099862 611654262 571350138 381570305 152913397 991472251 165855287 224565535 258855480 127422473 732728479 649486300 928035529 620731296 878353030 941495515 900864428 544818235 381727669 408369183 775220482 202686052 614191204 863612195 448251317 796437476 925732962 691989759 112685662 556249204 914750588 91220977 910593537 932490539 781060852 290620290 810757215 145172637 980629491 960400407 812636498 857140037 464943857 574018146 517206049 137189005 681806771 770634873 434706114 42036907 156983822 521774969 167637465 428066381 537906194 199150798 415887288 950442955 785073177 276296240 895023036 786891219 78478540 699172889 788703366 183343264 894645237 692144868 834477656 100274109 654920947 860423065 682591536 620619638 572943717 92057364 693548781 148989430 611674623 759625715 899894255 969298059 969097496 22586562 889910602 297052668 71081608 283347644 846154200 728023059 566628550 978838972 582108280 323477655 573472797 978023786 363840638 863404658 192428896 834277536 919014672 570751373 261773192 620510001 694399557 634690615 111563871 884041613 546769323 839997273 609810542 961878355 993242963 140230610 167999652 792158545 414609010 988632057 954354866 335628727 669562453 723063250 507280980 904368495 742690208 501351953 170777143 147926775 470699072 364416135 627133318 181479490 449306310 885146512 184452912 870102514 738481547 550000862 436686920 514684913 672548506 312983588 360116825 647028024 769671768 773452126 344893592 137283370 661084790 823299353 88524645 346812994 192255399 337338404 425083832 183995125 727745798 730745799 112685837 41789487 332850102 390439133 849289439 673623757 496118695 67080726 401902144 432858474 449635793 523469544 767975122 686129007 963338019 159694234 995542106 687355915 688460130 881012141 754065709 43782071 66182434 755606045 287260175 682998935 35656123 346056519 997320720 94641504 661567917 540489146 489028890 49030777 49797710 773434173 215268087 842516342 478623637 414291862 976845838 855494398 143172652 308398148 323435946 587984289 889176013 770990572 62443672 861576820 528383812 332252327 873469766 988451932 464408886 234966774 266952248 48161389 390532345 531379475 266762262 178934623 273279954 347514876 103981201 109763529 24537927 463459703 776040990 791092141 397992103 868108 373640708 635612459 737759318 915635118 52401877 34607694 578791451 611742523 534528234 588167612 35506972 993967986 421977544 377574686 660982605 832408433 621133866 569382100 230059798 189004371 526280 901527255 313800004 941621555 436459061 260636726 52192465 776281330 865941059 65038489 957264652 377898406 985922821 518640329 209919561 280295923 666450443 25795753 738685746 657324048 279005512 763671998 667681422 168708084 992036315 895414241 748117017 497274953 832016592 280654041 898363037 10224164 310295260 910844640 787421575 933592959 550271128 762095392 208903081 793592917 368143337 950914103 373370962 969833130 982203961 448193782 366963283 499103945 881563611 123326799 171121544 749761093 486567016 749914718 515124809 810338066 432531488 156756901 608445793 140191788 428971740 388931493 725431555 876223924 858584092 634680269 95588476 990984526 233142622 397023103 17662823 981528043 615384372 850573700 528033817 599374236 278311188 782227404 130708974 117958882 62629259 354923766 618751212 703938802 827923077 277851555 337148960 629153685 276447487 21866013 758545262 415272520 449260567 834490285 914708556 988172192 73034254 559941636 228158490 69513068 393499639 245595339 714237670 132691246 482617284 851081555 999360948 696224849 357264864 28538922 863054418 295461356 918752858 525499432 707960389 574275746 733491758 740483204 653697589 345880771 559248711 953785270 254328026 711642454 873542062 206390931 733891202 702632189 31754268 601523370 534981795 837982608 469893138 677586057 926488623 181609561 460330279 105044528 953212686 330909522 897093667 197973719 441947250 304022136 65066875 50148602 897291810 747240374 183722299 811862819 30052737 818441354 51036299 728984351 702011407 60730253 73087039 590115280 453156857 859865875 623800393 192522292 830489078 893028363 246910472 255038936 567212968 93230682 723941421 771989578 46251778 523254054 868166200 15701265 175892798 450423233 544731516 78928167 708671703 827612302 403729320 809096393 632515659 85487450 546017548 869987585 791488852 10509251 100134692 2368999 284203358 539287086 135027347 193213052 273019241 798407074 851727589 178013760 968444890 988930072 154383381 220068454 639766333 271417936 1178491 300688024 21006225 648438651 536938833 889636105 527735068 621382741 685742210 84417714 286593805 634930900 70404578 604877832 994396315 374322767 634928746 707028071 496664634 700012499 725170891 567175641 205598530 887978383 603167742 820686512 794754401 555739020 248941134 137379558 953486282 460449518 121486884 427559551 947837098 292250491 236672788 30570959 476284866 947084636 387551964 297403500 523657961 182384606 281125725 912831951 661552037 734233568 529724826 357446827 638958996 131581695 503164885 287902070 687873659 569212607 581773173 777935454 558319728 717978215 609983066 289875344 709584289 431812156 177191608 25010100 446360717 173931086 440294782 386279894 734079323 605015131 80435367 983393559 166685840 33565624 932589800 315261820 814409500 519039817 480657497 910077310 406556164 623171062 152825112 125663719 25525877 191065074 52483792 67569082 528308725 321408724 138549345 483184112 220018274 746362390 472449962 130479133 441985872 104317475 726422096 904813667 604000602 214970560 922273497 855143675 309272631 318041298 376572563 545574507 712057497 273736850 325469422 641749135 453698654 678275299 633538107 118288668 737818166 663907200 520842814 349060753 997541391 1584757 691423739 776680940 18289152 158192101 194742379 456496484 647438267 254184731 328587791 937669812 933514255 668598441 515899039 64481421 439655283 99721532 675939888 801720153 588021165 398602437 165042916 377950240 719770542 644232597 742487828 869889389 923789088 592358731 447654045 921029175 828098103 512892868 625643352 816584801 461773116 242281864 321406659 738243227 552896357 369328827 216036644 20139361 685590319 975067362 756496784 948143369 523914489 350651712 859098656 674679516 71587296 899651176 816223428 722147771 264222066 942167085 527750999 831289974 185330362 960852416 358684987 585299922 812062529 243961119 526911593 542976002 954084049 328529977 901474459 711964486 963215901 210244963 161501730 401757294 856092277 250078343 185151395 125292701 322623402 187753972 441719308 326161170 895271804 702873214 763687708 295014904 843098258 340153799 426928491 98320412 789753203 236377506 327787297 708164837 479898440 465546872 237747468 815262785 993465319 736896530 159514058 66749328 847245556 502089021 127311115 553093207 928720440 252904914 939183942 63907998 421950159 721914578 975793428 179386087 148637330 659203419 33011143 826584145 80268915 891912350 86342082 274886238 783869446 760315012 698325117 345857624 105956739 800946028 229271447 668165216 450135880 27974667 860338149 316795432 71771766 860872801 301610017 216032322 771817037 993099945 914553126 81885491 529814705 440569904 68521323 721646898 572593524 885795711 224366381 354033805 284151399 68777003 670458737 605241380 125610675 275044338 39685075 886727003 768653842 565184913 843265526 484713043 137690808 261804168 750256711 416090147 665206256 319489690 359281332 571198006 152727652 873720387 180732295 512342699 335657700 449462894 674511168 689322635 226540 798553060 249416802 28580193 409361858 131285836 412815811 160172765 731597255 74489568 2979158 996401517 567224953 811013976 34140312 221086179 207025548 487896668 962100336 938406425 887919139 685300460 476166258 141232472 476367298 183429772 218068109 368579251 549277189 77524180 790013763 508400252 611541464 888112320 810916479 325510043 271056510 220801875 870350671 799280134 170320492 195197329 774608216 178685741 146013560 356076629 107373350 697874016 280207184 77358199 545946059 215606450 628624070 777020658 389922960 160399292 609135388 426942612 129707399 859730855 177715678 707981053 649561399 464521129 666916769 275022288 877722817 656616162 113123848 154779462 774246994 870596977 189921726 120497433 998710181 449322951 243259312 347728950 141838549 73395090 634180579 645717981 759254462 265574075 784545507 599595734 243534140 24760233 929447026 354781074 791560691 762301287 121832151 340538810 401124522 447571763 204980413 433286226 454188197 98773050 543326902 721700392 629864112 716038048 112862313 411085809 733147112 868147788 507727128 956854851 479369062 454526129 299363117 160270214 615962951 183904842 625390106 675865144 375533078 670761843 562889681 842010692 877426902 508135994 80540819 328534277 306024305 801358109 55525657 887847717 908336863 155769971 392156695 505873275 717720769 469230147 864274849 370480818 394051470 420638526 559206334 606136720 138491953 112872158 960851205 146356166 956894198 45138657 874686333 590893949 380445503 807057843 53229786 860047730 699419219 410372414 690540725 312755800 556849318 521889570 129490651 23636540 102376513 619037338 187792397 479229988 674219032 775436902 172235385 313811175 904183620 85091206 754524371 989625613 219133606 170481810 497890322 755994022 53984224 251601315 785983240 622334493 996040959 303581022 268706530 254950182 366936157 979442104 497250279 210587174 979895721 547562033 20915058 440157183 746311644 828750531 720952498 541366536 180012464 93322773 841695906 941178932 823475355 102217070 930116688 781672561 777398904 221217283 410416578 605318463 487987496 917286430 880772127 649201092 301533219 46541964 159098484 79200394 590854091 708027640 674536533 891663942 784293662 902568469 214164772 251554300 261216340 222705257 752004990 984028311 804060504 205504679 454814932 153648618 371227819 551458757 304577084 856732229 318446686 208975458 553222281 363328747 845153145 418913478 112056579 80603079 348150648 958501440 522596049 805138900 573718531 574780147 661247971 766434934 676625262 365146716 182405432 289680518 656165880 889288412 573541127 985756846 171121996 314734511 490731762 20391931 890364729 94800116 565919686 285967868 965846615 166841033 516447818 849764743 972301765 130569595 979358236 9231653 365720322 157859524 607232473 309645776 216337811 907110885 614241445 587243911 508719163 701411246 175198028 538872686 217778465 219864304 948069537 848885279 902826023 441106777 87369060 301972104 255019717 180268796 145536600 17102707 613469683 731681652 657640602 837790421 627183182 846895409 900646407 924445226 368647157 343729271 707190688 106990956 999773818 548314779 253060424 30390740 19655218 131975924 680364059 715489570 191956611 754110144 825399997 154832177 259214698 539218364 524384639 623108287 238223555 832981541 535614045 858239396 394436776 654371294 267690635 568504865 300110588 53871723 813967203 245830726 737525079 10092195 916769355 17363546 201288669 822379661 926769993 313368912 276019184 511437794 213813132 613774721 642090210 968875477 362274 311954485 638523448 186509820 402246113 493682345 184764157 500164007 367706670 347829936 931611235 614704272 127906053 200124894 224294037 8355829 55694031 950192916 800454537 404146866 987333841 657962272 992297972 613639371 242051308 550339266 511877575 343840300 140130153 76002784 83798833 754785680 19127565 407517232 315536410 512406097 488975426 128854477 911924009 931755750 553005261 143121531 349947318 880878788 161524804 433518135 704701709 962245872 111854576 677319804 994681 783583023 801198245 516571717 959508316 886646906 151925582 401433238 657884187 771491251 222151356 962976203 272726910 983776348 102808252 505518743 548645369 990457383 262390275 66927789 903588911 466381773 141245292 777288438 498247811 567278032 759051990 191028428 146553186 716705021 702746122 30583072 382114598 280712462 233743901 400480434 772543062 395351187 661461940 986802652 713503363 190250920 761635449 374310867 874864432 124699922 906586747 223404696 870172086 761967536 849817660 679494932 47078476 855007729 859055942 980697082 983140279 867158005 313923290 61632531 908641242 5307210 102575007 437950427 638079086 285623274 738893642 453843230 837555672 191182877 660881317 950117195 384283684 269947404 965475223 520959783 46076910 491469969 692753217 853843630 718298176 608823198 282015594 983005452 107324992 305326886 10674754 990101446 44535464 573405203 608285012 449888934 723590720 74554371 314876518 231100062 45472317 550881309 315281909 174149705 527295866 514335251 148370480 993174098 396531697 593710298 140124501 955064762 319814345 897133518 670344666 706549118 472044212 599106863 485364450 693041590 108452741 814469817 476419917 802603821 992126724 652603954 839570932 770601665 876504448 2739060 474575832 778852253 726430117 602003172 895253187 953410402 724658805 793326973 384788303 270745208 737475856 559475437 886169242 416184502 531055967 617655642 625636976 863904972 113505709 733288581 169646720 174488975 874756339 408619403 460934444 746009 993938718 917972933 84063582 739067313 653465124 370815790 503965692 241285986 42957961 624046582 202280620 289955086 890783909 562827929 751529305 976984990 531572126 388314620 12619149 290991780 203695308 806144500 62743163 614413294 346035434 148963316 323787309 290789056 815214336 659553223 497558217 949398268 290248764 299488940 16345569 7508105 971481242 194375347 197350373 170671886 601718054 498380922 962932606 908469773 656197689 468774790 826083072 251965329 297564634 192496637 101257557 259334185 5513170 905820644 677126022 469856272 868718769 209745622 982894485 632648455 676744298 339042738 683010202 123488297 364017164 782254056 955993911 845316385 867463 22661075 957052076 493904193 137039598 628940003 62308204 316619899 132961301 672604959 88582409 480229307 987068437 900044355 967306231 449088547 82616051 486861594 526213383 433210426 645020664 629351799 173354497 407234425 423628015 87491679 148184198 648461551 221016935 404236263 677604698 961113132 812124435 158687428 190367875 334178215 657191302 511093321 460386678 983819194 775905982 236545378 548445352 85592679 514162785 26280939 440995301 334125934 409496160 153326552 279079496 181540460 603593294 934931878 669162626 79907585 241802337 70805949 440556690 801230524 622976760 857977973 302083060 730858034 981115767 823951435 576433459 605816266 854980113 262728862 473341058 691895918 487721623 629880123 793239461 202779090 498796505 206057963 113755859 172356267 573140925 384803808 217445418 872752217 374894120 254429942 947324007 907511954 649397337 896585339 109081348 368784309 276183003 171745948 61948788 576264391 717713114 839134726 928525995 299584523 224330369 464917467 56893146 495802470 740527819 960133434 497827908 110513799 672327529 347614365 674808536 972727356 502915124 622769112 641176451 942379658 242677175 262096031 236908563 476262644 378052856 971929365 771605860 153294598 489912534 220715697 805565374 138229898 317154482 793500250 733914150 240919969 857730384 35433999 658570261 472335593 931939391 731960508 203052038 311894401 713527409 791450225 277138262 714025204 658501239 77191100 428018004 127235757 678923569 162794273 922517624 236900717 155381434 567772088 179188897 955589560 818882117 334666137 331464688 710227435 345164585 835134106 486088993 181122905 117418649 723079094 445461457 201730388 211657154 426978887 215423559 774264979 435315438 75265885 723673802 685458570 33039438 49896798 369512904 636625433 592733306 253762350 249918576 707333244 454215003 445150620 81331979 219135543 538995685 682834591 379814357 555026270 632036870 784606827 888760277 734021855 826685195 106513028 815468117 381158701 322992558 132842559 775552009 859557016 354752420 655424865 142634969 498006365 754659037 666882530 750412552 683234168 565731616 290221610 925149673 473851971 703690058 937607866 718070319 935723519 939183543 252921007 820383112 887795026 245148316 401172372 742742401 846439026 804282053 935816991 834797221 135965657 733310269 840104036 446500914 376130929 101713861 926422173 679088570 492735826 21989827 232074682 636678140 672405847 980444373 577118572 787100896 245765404 124775200 522443278 829553998 130434917 984862561 384413828 140136042 758184252 9363349 690587813 873724267 341751281 397899556 528930118 567613192 248172378 265552968 776031804 932546662 67770179 824944907 429872672 226440261 683592176 769170117 990180529 535972893 158250265 692596648 513595701 463819910 402345031 464519618 411413292 634211181 796736981 995144570 862519209 650756830 66590742 688911772 161733379 789663741 737341644 409562719 16164467 473078571 267392639 172301289 293030115 350654763 294945295 478320308 227302930 299656189 234882634 408351827 424065912 190716347 415929024 32560920 483736864 794856352 38400633 327142083 868612108 449069175 24347885 127160622 359090015 321965257 397656824 160451782 217331499 996994386 527980494 871917133 943569953 369559622 146206092 648961432 390329337 846115845 783639604 502405154 944823111 373172695 103731842 324556306 373710641 949636550 120173954 840965142 714344624 989800995 807373515 154140033 765995242 673578897 14072150 199492595 155656101 708253219 348059483 399550603 749893244 833044108 822136387 919267028 190012482 495214536 297876100 919499526 645799949 826761196 596461932 744405479 970006438 605609580 82572846 445468343 921408741 487673074 690637076 236631027 766635981 348868611 855384436 925549616 52739292 824185810 717491911 468381645 979995077 861070786 595783192 513438626 727600947 36612030 79545 753125749 18689304 717457554 977808694 287245693 481641538 213930878 715084103 245248719 569346854 878309047 850323872 804195411 363068743 528147700 137043560 475569519 9536346 157072651 964833811 423762734 494626672 712175721 613647781 594619743 434841855 353999158 493613623 399959186 145872615 32839003 540722743 759962191 339669265 220680500 869269322 560296683 531826685 38546483 750923232 878870707 461201232 326842899 4262873 613549018 87781967 776762186 670662439 329692471 667285444 42576867 177455126 595842757 915574637 660823788 399248395 295126485 462285645 997976951 363925582 96786140 671630511 474390384 90075212 691324311 933747392 405057720 689624638 320653894 408164948 967765729 664599517 427295441 118757103 6124993 932430478 679391946 548152754 61313142 124084161 793147172 465176592 299063258 869254179 83191579 674960418 460443595 85541813 606522374 770566937 435229344 101165642 729412413 910341376 657018623 68660445 602515630 257667487 656633947 357323322 444543820 153075371 350356437 828470999 30283864 188740374 192714148 107990594 854392486 263107960 364156154 933642536 463452845 884340711 815981513 279946068 137964257 121486488 218858829 209172274 927124267 237973828 115399153 114798027 521311019 300087381 68948852 225641174 359265370 770611740 665112466 717944316 351419188 474660314 898090712 362803404 532288726 917375970 508107832 956286702 349607281 201058822 808805733 509131685 48935428 862242842 330854 865066471 392931084 190010439 566980649 803055401 691948555 399329376 807708157 600051222 990876978 361045807 769737519 826577359 525244132 471421417 704066126 631115118 366196357 355886042 917973612 495450561 278442850 8971306 857597842 214010720 341937404 31119642 916589636 60483048 220122880 584445755 3524313 148631762 151054931 276123973 698140401 794135873 419901673 690489084 149111914 380761517 744880868 215667247 405939662 862005841 856223503 197181241 368049338 765653947 577604625 753846849 644877544 925089745 951255961 976468792 921630077 354091426 104618704 6971739 433963392 423363574 96803646 276524986 891856847 472992154 893438520 551534721 216013345 737781056 205586719 175191718 994795881 809006457 318235451 323145485 494512877 958879698 822721854 986029933 731679996 45166007 815609269 4709397 882859934 759737660 592178820 55850493 983842804 748514497 70244577 545165347 221927147 69511822 871333617 967020349 725761037 908381305 586774365 369822764 707069381 502991414 730062763 291013818 310445731 527056323 893311187 498515185 92765216 909992503 282570797 211417574 617600156 188490585 307511731 501374511 576978059 345190096 503593597 18731105 33224988 616720845 819167408 842423305 786515564 355359928 92854360 931857160 222438836 284234044 562122621 913764927 484354238 512251437 110338014 274374409 396547626 601854843 849659062 855551512 376608771 398791635 994945779 883124752 204778017 581325072 165709020 166792538 19088394 475561878 566878168 348125146 846296821 287232427 280402876 791092835 400735877 447130466 571018877 273951758 670786827 715957192 824050944 585099748 262222003 402933261 246065621 985709098 259178393 257846763 429094491 325291642 963445484 909959344 560539407 278371660 445688558 750306812 278927459 188719244 705446268 122722216 181964122 118815375 478268392 19585592 368935393 300228870 973518030 197019889 909890930 543899798 852200344 543979487 754344695 700496270 158866539 912611430 275023033 169991299 577261279 675422239 138332489 515682880 798419660 954087459 780825396 792118560 17759878 656119416 582375309 815917623 999671736 936814629 357667219 627878927 935641011 800851852 700791444 764365827 586306146 369077361 660368780 143823890 906270342 935838992 10178554 268571095 865540899 32076597 378298837 585294812 257430735 623547861 840641401 510021659 585101100 858133390 335096824 707934972 341406 737379516 287045647 904293492 579393862 968021218 493182864 961256614 149541734 360815130 922438460 161281086 197543153 796843191 384754311 424920929 690102158 858986515 629835775 454807150 356296758 207263888 300167141 844047198 116232296 57301158 910295688 901434530 376867015 219765281 904031762 316916387 445843799 68929572 972572697 845207422 738555178 523716977 299994934 289406848 181766348 32534140 469165633 510496672 575588373 684694172 906681548 474872323 884021474 570513891 114664320 396680903 167300326 284506918 77209103 425854509 289198075 406468928 763868912 604147087 207164993 972284290 900616372 968400888 67168297 174425239 72242480 432781044 21749190 550029902 683445369 228022246 978820358 765667555 283259334 839366886 445508846 792210017 998553958 695360867 492424785 245248717 609198057 183475424 602235259 292761097 442261730 153174456 19801428 81747391 419717043 291342030 534875166 624747296 940363637 106857836 336222645 617261599 464682485 120044211 632338415 29867381 91597395 284376677 427764358 260643463 481321014 159784284 214141711 958760703 107816057 338825720 803595257 328816010 932062447 112941659 146912840 64451532 658817029 509600793 12006926 45853388 386480647 622020815 670578571 288281138 101658943 892870222 581590910 835191201 63394122 835814602 923384191 238105894 439357140 801514737 212855717 589777437 314477253 547850226 827624729 943987821 397054150 586737565 557481832 727217106 147677455 340683431 749571433 539121505 939325559 462649011 899344340 673573345 954642103 213098230 613747978 517814295 555719688 232833324 308821006 19186396 194939538 119325447 294401614 708554164 315555815 272798934 507629017 127364651 265732694 288440818 352870406 239499258 150832374 576784669 796820871 544694727 306282925 481305569 236515243 686170519 376222778 228461740 96206557 5658531 416233058 909574795 714067781 423025233 951907462 180467771 724445170 60452973 598561405 633903146 825504913 224300698 276080884 730015008 699912317 363302029 720246556 73781175 970748394 715316245 251228355 52908948 403205168 327056512 919077228 874369083 694785977 725858365 658566836 852112926 340317979 183573647 344125362 116326762 995914130 845241228 679401640 232626132 572663359 954736346 143990506 685156859 521137331 752680667 238658624 517268453 303555291 500647682 902809006 179119203 546305174 264125605 529154108 345678147 358508633 692978700 83457634 921571060 37211185 913500402 905589320 342696067 523293867 873916441 77967641 800894540 148395520 546326345 564042805 596602268 380268175 495887788 329621949 644351813 669072936 182462831 559647162 350880960 517436813 899845951 203751300 974895022 717496027 747167879 883462334 282918901 617090694 780328603 597162052 705564381 709718589 594342996 904318743 327429037 273942081 304730439 526090581 378111221 416208577 679943934 418047182 220988278 900519513 30914758 658872535 558001194 556555548 435176516 667918533 124224283 157165449 4595315 439366108 253911304 609525339 943301569 449519368 45970624 295621458 315500614 642031325 564956089 37379696 806999050 627951165 596314079 693642801 400483644 463807839 284231730 304045620 179895933 622496334 613945997 495325715 892634833 27117004 906295093 426074419 574605355 273390752 458120831 753360980 490918898 362987684 482185887 548714130 6068972 404221121 838277399 714888993 604289475 379165684 778720193 337211005 548422826 711061191 987049950 501241714 580523934 636176997 349601829 826728972 943728480 786425379 523419034 542491277 879234186 400691253 809237357 97217577 540856405 166609900 897894403 771400944 569338764 991069221 638448324 26357439 76410965 236015532 611111176 539356466 4931245 727618694 613981064 423601187 127050321 718766322 350399394 681939541 221553637 701766146 50844916 187955630 845976585 592918267 465855261 582219028 25707082 598423579 81332801 906065324 710633366 425862514 968902348 981927128 139273781 308455907 409240009 561151757 161976310 30219742 701410960 75921369 492372289 449672579 779407732 73620927 872295694 498349160 771435870 515976636 298931793 1881740 186898872 210436146 490824919 627762418 919222968 212372852 414006892 821649059 249626777 480521434 203975521 525642129 403180887 766206266 915463976 286131482 159331731 610569104 330380440 439692537 432699486 554549653 719625781 46608823 271738854 803069639 675538834 653427912 420743509 929182003 89059939 765761135 63560708 128158448 273852893 651629358 35519653 553087316 704832348 177559221 65366376 912402380 507467496 111942649 814048095 805813732 617612352 723246171 827630846 860358492 918297443 116881065 425096105 41998698 99687185 809124390 255124478 990196632 843270797 887572268 543982258 15076412 706674954 733877474 748366554 179980915 388355895 348372857 251244625 717076971 778202055 978524871 802392737 9125623 795737390 998884074 473743734 485167117 249107617 94131961 72194640 840053784 577119183 30044169 205978976 90918650 303842349 581885496 770926512 702673078 503316136 860902846 186255097 820138976 89329168 430953344 313898867 775496200 717822667 170866624 132221827 842956195 607587445 454640632 565583070 501994442 884079409 748884595 725602379 88424276 159853053 764019820 375503956 441043505 715076286 401348453 130169138 52546258 247223246 463107369 690664010 212678917 140937683 730401256 52627046 750318040 566437452 952025544 217687897 768764360 484188033 808706232 925281884 265076365 942689694 65791226 840237653 763844227 753497204 357348914 739309726 108380001 928865270 989462899 153662805 552522587 184038361 5950803 88963649 279266919 293655016 803986215 645233424 854930568 412283351 507377861 731270093 129743124 67559992 487684510 838679050 57813853 942321622 109275269 205595917 169553810 876287788 473498424 684331385 28919449 36847265 484737207 695314037 714177247 534071840 807276290 573489807 334074375 333080871 127493592 702537117 244797754 751966539 959639885 212278399 581771665 376622522 439440592 561695052 39779234 257920947 12229806 47012858 13102389 922481870 387202700 831422288 42763916 893949339 560494853 963303304 601027884 849047350 889085271 210502972 781743778 241808283 874540975 244019521 730936343 706404081 543431041 726334884 977588507 39695475 934340370 490644805 460009722 233522756 520028355 22282852 962982641 290461511 162514236 425511459 141568594 222863842 485630099 994032822 857857945 571099181 921090549 6325467 64321786 432281612 115583019 272550878 848211472 712317780 30233095 456964136 870066358 80226298 449974470 707520012 423330457 110537363 306040336 125453704 712395226 792377643 33881581 49955995 292278579 208908027 411159787 110224321 99109650 438505047 920450335 680040463 795592385 782863423 494704418 382069569 343113993 16310364 446499684 474253721 234904461 468079518 661039376 980410644 911431630 524180108 206121880 815717611 764386542 620955605 908709307 90293273 276533971 906011833 4011742 447113845 744282204 416360524 467584804 905927057 236614430 212398344 769266137 200917561 427462603 455789081 224802382 378107341 791805393 822265888 654798625 175288680 756011781 620694310 931660163 962456866 123243647 863292780 72139 299110239 390857066 635944180 534333234 112833631 872733281 863795935 329648566 720342283 122232442 110222811 675615576 99813385 302484592 31932751 656310849 610624471 351526363 881259045 985343930 657078954 705023218 358354629 154710934 926962129 149835857 826070363 354708744 589855823 103995819 886877105 810468252 334349078 52880612 546475315 987047230 936396093 67274388 65420477 30305814 293092344 237870154 409297332 940267964 879575567 461257890 669169526 171051342 312537175 989921029 232024500 592774371 752622536 715704086 957334492 961967153 241757454 111158300 855392485 514765137 955586337 272254041 951413593 440870488 697591876 671013135 764330763 964619105 925509205 390581422 372745720 22440220 660523847 407666437 790522138 912717277 893581439 844109801 811703136 162355671 28867323 584900006 383230261 828324401 108255304 298065481 400481580 586329364 864960897 990670155 522296013 898132069 672149150 186307021 175117742 971660676 890540576 132682098 543237069 565823160 446939744 550731702 232744956 266745891 816034283 555448062 854008566 516693925 508662345 746295414 953608475 80737412 697777581 698108630 15236410 283481549 449741168 428531031 693496205 77235914 845487544 974330586 290007380 897260589 551650535 796147904 539340453 606435181 107391388 651685190 981206815 447638225 965774718 445143719 739854379 87022047 754614657 240065530 806063847 535659500 848398699 490615965 941359206 757989092 426826541 978631558 546368216 764261726 701696677 441015396 586080220 116146503 710106929 789633901 147376585 178833048 642851510 155083760 398118547 206695041 288288562 152070544 29442772 975996117 441152812 215224104 633519807 276025467 854150056 81149137 508769870 219557189 775544829 729328570 959334045 532681624 693628917 972286410 919350106 283209388 916737877 146541606 752648891 160463226 176092952 307960765 658533823 329144121 791300778 143505116 27473355 723920908 7311466 544482819 665896066 432242789 88736938 900472438 900786681 89884731 578389435 516828707 185123185 397052460 494139970 962783704 868544888 471506349 905385727 48320901 447977937 249828211 633209630 673468548 333667533 579937567 512043474 387708295 196813522 63221783 740411486 882149216 544993953 149036487 39907752 842746217 276317077 311873140 670666349 720176225 468904809 810176141 396468890 908196905 874154429 810064748 166838365 806165607 606831872 379734777 825086684 231899400 423956380 967343977 222894117 179434212 33904220 32043982 273648690 14555781 552147536 508774603 546564512 612330665 479004261 155226915 931279101 535668226 460698602 396628426 989151392 148775929 972988223 884533617 498329047 354833201 336181156 855306565 392941479 445725842 756955778 723261169 969069834 661434977 146468160 484356071 880766269 703967455 134908995 68041738 100307536 911489131 725017072 474646516 28931120 82401792 613652254 29903786 684548974 438887802 817790162 989987889 369559721 803498839 790515251 733766334 749115196 841433690 721719419 474532129 67158358 326503966 532384793 769286425 407605927 168513925 727176847 816202682 774976693 461837494 987977511 688248241
