6258
849552539 96534099 881113104 267786465 9647072 295530331 413370409 856067601 565997070 468590735 176925322 873719690 730362382 650198907 458600820 660059176 864541163 544862249 438364612 569742517 910946049 860659279 601951026 226553780 408069440 533508222 178766512 726240937 760682715 379834634 644995220 580203495 403121690 831385469 578648581 195859725 101126171 878094841 585270445 940253081 53921350 812232101 169590109 129406748 898177131 589549249 69895544 803638656 385055085 321324892 668895445 574848106 195907106 932106522 390343358 831883085 536258021 403318585 213134844 592341045 989138143 935210689 735019858 969807268 331572334 214588618 702295463 490758095 360118870 557797084 116088291 854194850 86417672 305566045 329255613 188281146 947284511 468658281 268723731 465681391 835842484 169349203 291559190 274682742 731464664 65380102 236139856 565208083 826799506 583503547 102501820 610205272 532845683 905742304 559111410 69931889 19537604 881051179 685312679 618913181 721560450 554906150 633805927 535764426 617696399 870467345 69573354 872563666 193938295 120679019 578203993 373916330 54599621 150405203 822557100 871901564 756787754 218181156 673977233 683217601 676087414 296091047 846674067 568449213 508265198 968963131 431490963 578200988 219740199 752180281 441084495 15485741 228130253 523969601 88447894 447216236 856546376 790839769 68186713 513228680 572607152 685332465 43081135 252819480 308073183 461743053 939528826 214684381 601265969 880632778 825499212 821708825 505727632 595067182 722909949 658481042 504534379 592925174 380634607 263263547 457359607 375250576 534726846 931577539 449349751 461494292 776919752 468769310 336808642 340899704 202883875 473925214 868296648 367696380 463066180 971045529 456746360 403991743 766485461 32267339 675258088 5630973 174446354 806584275 290604925 292424094 158505141 973380630 705309702 363105507 741029951 237556461 480791125 980115913 301282633 171057371 807706108 211585022 785963454 131930069 833752145 484914522 689079692 224493788 341929748 692803989 941986522 993814957 618277790 498882010 76619942 748229766 309314378 332148046 119299745 899861216 329741846 73042467 888471759 127566977 623778169 249726450 474721702 568759587 448126722 524557728 423637568 84222719 845877094 601808833 881301148 137528510 86206216 493900656 572059760 910132647 827346893 948596667 279759751 526272718 881130709 312901412 106410906 611987799 63591166 25297003 782397553 915115440 362699683 210395475 71569704 373704644 932375027 361625715 608035603 824169226 481439424 720313229 984263091 737621432 965198416 357845236 382785613 93482754 516711785 469896712 666157780 242933367 904611022 177831216 840171405 94546138 923118860 416932962 257080274 656447483 69852166 741217981 169860806 384624668 812491037 842384489 845278126 762868995 242023366 707716099 49320813 602118625 103082808 218594681 715851985 902886115 281996466 700731001 735714347 500156119 673070732 55361302 577141906 5401245 357430971 587286424 750449725 791819173 908634023 325981265 598464812 335535152 785795488 242154831 375756983 730435342 828824546 278838963 830017155 43361970 227703484 591276593 426952165 670957631 907355636 93164628 788838511 915727864 973101216 495755216 701158046 986914916 752589331 110977205 964271630 816300680 345069742 709920719 691236541 58461439 423899965 71356504 813668576 644716708 960211714 437005717 595385773 473876901 760185593 246361069 774116829 141334268 206914939 615357513 625245272 101823134 145035888 195375202 750577312 437250769 393854614 529268826 111901207 729163952 791265359 509977513 743883621 19134278 386219111 479809335 492966653 3486611 340066783 787052558 92661069 831719588 962983278 171715142 737583771 616402185 187770876 920619122 789668961 141886207 753542565 39661744 473510576 190512132 165458321 231305692 63485156 465237890 850692006 416439847 615321398 104329677 844984534 608964191 833688719 100652061 376286370 988889619 150135635 78892921 636081927 168521847 593207115 668420527 708826792 536560138 663000648 25801197 247713982 738208287 963975890 458979345 36230315 601563926 651199492 257266763 810809925 135143695 984950505 146851655 118298763 319734630 232681031 975874865 178093570 772835038 730798833 381318417 506622770 725709255 416276921 178559371 999644592 48759152 537356331 319717429 79819855 209530926 289910604 210462595 115556336 56962175 587100169 971608948 79936199 328914296 764988611 181565691 978461017 710594265 147332948 468307442 961314427 345898218 538907750 858696805 959799633 359943218 522855274 818894340 344268853 158651311 734349030 137445325 696832509 455561987 790719802 226435475 178201274 423116874 354550035 351768637 997274240 803605037 478323825 455223798 436634212 252389714 727763920 576976461 642742419 406247641 737457484 777488442 384249493 670427584 940371923 708202134 931019043 124148950 849476102 327088808 396871934 901684867 601583619 142602527 444331334 665141710 770670006 12191603 964440115 766927449 647888525 275592372 41455928 33484703 441302515 168179182 223093838 307514906 163296042 267994707 71761663 732801656 687807491 442073394 964272811 93412930 300405387 224940261 992727633 145802607 250097860 859319774 312591197 101751370 532874637 899302151 824927133 656016553 550902353 244611769 378459864 188371362 640021922 371930324 314556596 917409190 192008139 411251325 842636952 51545153 665260175 980826695 142806682 882162372 80539286 605375980 514998039 84631330 644527872 785214116 654452987 696186547 315905004 199824726 676760221 898176795 322262883 223924148 626900422 159910718 785979110 936874020 490534055 320065311 669101084 805308165 981608436 607966254 61970046 526269491 910559721 663479668 641214556 682718120 952695418 859331163 104389261 240934581 649010760 350567635 594173187 157370856 769489695 739263166 248542633 338049769 817373626 467551132 7401415 964423529 591835261 293134182 259526236 296619003 236979589 761999000 449471742 37671714 193893410 941487282 180962191 862729342 3840215 519765425 687859776 619461684 583324791 247823426 83083216 823717094 741199962 425558988 393735753 895299450 133814639 742523224 651717554 702622989 232386647 718636385 296926384 15689129 385462789 370797200 653528523 765811255 126104135 248091526 244163279 799068561 536596697 991492805 630525927 213373681 234962308 769597493 717913658 161534061 412416605 191374232 623271881 821971981 285895503 411262468 945217426 140308891 919591568 527290108 813454249 794631043 576374421 983423939 843168682 238214024 861356201 47838945 583275177 61900813 291798795 941135283 584594418 899489988 910710593 168997845 662040919 833317701 318431116 273471393 18828151 757548658 844076101 537843299 218350675 787660641 811371306 727378764 283245588 283195185 751441001 293915616 683081767 835397636 824141695 727708445 313398628 782988162 536904331 113704779 394916294 339394576 255297111 127526216 666461764 481274627 422514995 792521936 496069254 942195824 709418631 960016741 98674035 241701818 255938013 224154030 901257685 170789472 536543664 731406385 271395860 743731754 467835389 596483783 334991710 374927810 202224607 94398126 223942623 169863734 476568074 541317048 330103362 758784571 163713890 279684665 977928145 139250210 990049265 564521466 931256014 918505097 850968191 870570541 389414867 310247646 639958516 878397805 148899983 369439743 94734091 640028979 101628845 130919402 70212880 983133581 968421602 854280922 658679718 136395315 990409218 977998788 278830282 164570442 895840857 175893891 116135095 614403863 999709145 532708179 664810233 356680043 3731098 316581074 323392873 690977507 710360020 800903350 557548339 2048650 219675755 782507921 348681037 956906834 535308003 373596797 602487176 465322350 965386911 930674462 693547612 635003108 49313212 585224561 406820875 198798972 615550326 127530225 300956088 26686769 641216853 616306129 508858794 114743845 813192681 817625493 205285992 545482210 209660674 974130392 27992970 420852898 323899424 257609925 852360705 854754527 345404232 120496817 93742322 376518146 768963747 280801670 306110845 456773037 177369701 589836301 122673362 328705385 216142372 478411635 217142461 295126405 483804077 513732733 42551467 635307903 913603593 509930314 917689090 456934775 912074024 725942159 217390068 296505919 889121237 842585287 657792172 863324065 408198428 707722281 100541988 802974468 895866131 409824511 206754414 211721373 438995344 672501176 852018143 910057348 745934452 414082380 725422944 894833900 529102339 613966877 445020999 748635927 336294194 879996338 382586370 9165961 905377876 172299711 290440672 77164246 663036207 632728497 752364060 611176579 427291514 592401356 910534012 810472464 452070380 441425391 832340715 240170272 719015190 561409529 207898195 95784586 262651873 386748229 209024200 941958459 455314384 553713231 614105819 269457401 379490245 693321306 833402975 12085679 782508447 392994312 258736877 333161599 895246313 159028514 740753798 128643181 948107206 441211799 220292776 837825862 367284526 643399671 427205836 193332738 236119176 496850563 340786147 715749204 681360490 7684565 956534326 608896374 494441544 852881884 255839544 63194815 817283400 568095534 46229254 100883305 161845655 92840955 568053151 316868745 287223372 799091204 736661084 41704713 952177864 540139520 571414427 380167329 744870078 125578626 138402224 345056275 51413576 983025544 835252308 14017204 259299266 65831278 306661225 815948335 200148795 457036493 186030898 737723248 373159942 414031518 771164850 212019018 653363649 917333999 918521470 771691074 186137600 661739705 800374702 973179882 721164461 366215469 521844994 327611830 90598916 552383211 670628591 351042017 120585983 139318198 470314038 449424740 810308578 378298535 933827814 530389440 511354215 781784973 103955964 515276891 530667701 845753988 167033937 220452967 158494682 510872908 983299912 924607433 861802572 601964349 138328722 371494067 392499768 956065383 609532354 249043557 695939679 199026205 963488044 797603100 634645911 813479437 293359481 914617599 663200949 340311319 296936438 159133926 142335247 366339012 116512527 623799379 74037867 508065655 101339853 202499154 393875575 804252567 509098027 63339791 269125941 642793008 609255587 661103077 684123954 977125210 764516805 428370339 340296191 544602026 548319692 997943716 960601649 107434059 129677444 407291262 692669769 149784834 666001734 357761589 734088423 750409983 11941111 562907480 378763997 256891948 151604865 124056618 35549554 39534194 2262033 515803281 447020916 235082203 138250265 418134637 797012375 892319245 745138035 444662612 324462038 436324472 731957473 666224990 4635874 471535964 572373034 952664085 561160873 192047091 10974538 435217572 937967977 758418283 895175384 844270644 754610860 672707386 293751795 765368705 321679336 168027002 520640281 106892213 707701311 134016363 665746109 341397069 299687151 16381170 446733822 925647239 443669235 656705213 472723006 991589227 554999484 321958677 182826122 337631288 302663243 824677984 555368959 612485568 144674471 748309101 479107005 99133508 968309105 52883415 571726276 460522725 370411373 715200934 399114785 517483129 130249194 112649589 888939495 627778241 812727992 254240072 701172282 864535689 376369212 296307373 606097040 74843251 762954161 410208383 75585729 165606696 48447599 626284080 260158437 263508229 474797574 633492012 329796284 262059422 789810189 252336974 104709219 573525646 123611387 152319202 282587098 593302861 138551594 95424800 592026232 900358471 783445317 230018614 810047955 390965390 916986668 324951942 450861487 105501398 713486757 513630954 666425571 129374715 672608906 428506017 425462141 707510949 643609829 436965287 523024188 454897121 682649774 754982788 920850936 96741441 666779806 247743804 861255141 752407093 575140998 787271130 411752151 825474712 750888617 408151862 36311529 515924629 813704189 49796756 207018033 721546930 400315516 507631985 469162275 754302553 997608604 407657665 836652379 772876168 450305597 524382047 2916825 371425267 37392897 526268712 248971684 935583770 609904284 862806405 508961831 440724478 619145445 541613145 673716380 805713356 480453461 163885709 401657933 26917558 664989306 437538466 961238237 268063202 571654140 445192251 407212371 112713904 99765712 275456701 3368727 862539346 245885168 765563920 531301662 754345399 513676661 240941667 43924306 988746 632746981 193786714 765031859 641527581 923941308 183911796 60596035 467073963 10264358 90039074 346092468 576336223 68627629 112321271 450560691 383977221 396050624 186816768 658947707 127306126 821224866 15490535 685938656 151037361 535971565 340375670 561103714 815316515 486635367 464722360 42138835 109441935 738825434 215779211 989761330 570879634 478228852 401122480 989175946 535555481 388769308 259321622 748110444 349809742 362435355 557125975 966133559 523982049 409738259 174971481 754805762 783519390 804179415 610887757 782941403 366007838 555183319 453675505 148787628 441269709 655447160 551787195 984726379 174059060 303975751 189405369 45404609 336113908 430289287 100550233 485025995 781305404 410907743 609578985 9620942 468614618 211566711 592457741 561865320 599404190 47822581 324302387 569635539 28441093 817160287 59742581 105754918 151257250 176744110 213779187 633830129 443497178 361174993 126100250 437778430 898260636 364315107 685266506 847471472 494866342 593927328 732610309 40863580 934514701 393681327 791843375 282187184 62279053 520272350 858296050 856634835 400339345 104643351 583875290 796967234 347389055 659645258 623088547 559992523 651078290 973106975 607447181 175296102 962691112 21472654 874303316 30754029 345643646 85992447 820644404 572792881 504262925 225097362 84621368 458005631 629590152 868441440 396083294 65947026 349482797 972419800 348896736 784716838 226213035 646483071 723202374 779944843 294387816 674227416 427100557 500914555 651303854 785409135 852335149 510785254 798920982 493595843 257464658 50377667 456808320 800770410 43831799 596581690 557412247 816332329 916271294 884208819 772505392 553266012 830998355 34811587 781662748 975696305 405713300 460698280 131534752 9907391 162924568 140254444 498937907 502385253 498301028 131347359 670102098 282832994 450168566 667867948 437341265 832747813 517561147 408180039 571064247 793746794 535605341 980788657 204544672 786157190 542602381 10673507 184721197 153425256 407222168 777059329 281131199 613707651 572291562 831993896 449185707 862160398 588469453 484127588 157745305 62786689 682652252 347021374 409929311 555642037 496346122 540027858 683381362 945396700 586039731 557852765 543042764 332043696 393204309 534016922 989832512 217274025 533129904 528845159 286735490 262417416 823238546 32271007 692600819 602393392 751922558 233890460 678125717 634333217 407529617 383465961 787369493 922210098 414426980 777524307 223424409 573351586 759343403 466999748 269576454 862604640 859186420 511229765 158247464 501589382 206717467 591276455 926513204 824842886 789435804 647701256 321190773 746342748 248831702 264137028 571680171 294968594 207318358 446461329 723571258 811863053 358745012 894375889 687886601 201663302 695866659 761644367 524560693 966869819 921457607 704734189 329388262 58776191 754626081 437338812 293158986 698639508 720156086 674327798 48990031 308719085 383773280 988380829 776849404 824352745 177784409 650986497 11553376 427373013 995041170 981299436 269407816 292301129 208316470 48264055 179572994 726988471 683372942 961814898 966507779 934602742 925605142 510320896 413773926 386023530 979491680 346859393 357012210 794756469 209846069 561373159 421681037 963681713 430022548 110280316 216522162 749999668 753767422 899777902 464517914 180445926 852074251 516025189 993911484 860163459 308346351 253889215 554375819 655371599 279118612 925231317 644033107 813060354 696032849 536013094 529511710 165469816 113618121 449061930 198926974 789101516 163132163 279949217 507614144 412087263 841113797 895048159 545248496 446753469 66747817 670597659 50691150 891869456 790835723 536004084 750134349 636684508 272507874 188903381 910684413 774141516 589019676 557642719 450798068 617379748 853253536 961329075 472609362 431553608 141572685 721435019 442054721 849243204 199015790 610495965 360577532 37995858 160742843 317713363 864008985 791585594 861555941 552412046 53681348 945143123 364860678 13189842 684280654 79119245 63812186 614677458 309018253 634228512 639938700 611727522 589102847 632317694 558787452 823544269 23430138 461096686 680992235 425582608 234495589 562732996 809136781 203702586 585365688 254246657 79533291 124163738 284756260 705289789 94257909 823808781 228036891 159989685 335428114 738898442 694631260 802835270 459858385 779873399 795754205 574012594 165995954 765643386 119345673 538461141 925561 636410618 390189061 949383680 171992304 280012212 332853723 879189683 265915142 443140359 426374453 89912428 452837042 631943668 369836684 895251445 428423523 700788230 512724032 815249998 405616212 38833259 422595407 779618536 948246083 105679191 449913955 867204459 208145003 788477518 432543 967441659 21523280 659939774 593802751 44277878 562853603 541686712 756431380 899931852 852841453 774869010 733760075 170354566 751124677 97555942 936282582 344850778 636988986 53345572 330799183 847829142 782122749 768215957 507042180 130088077 312537775 931351929 593645581 352453734 508798108 686743314 612938408 150151569 586912564 759315536 732030486 542353484 34174614 258941304 664769285 686142466 781835069 873779075 82078153 350904081 9467705 863466143 308400402 940497640 528502515 716144379 96862529 995810177 602832184 941753930 746901701 666817723 197225475 101572267 337627128 222722691 705337118 480827599 397491868 191215527 687549677 541142585 102441656 63005304 693851688 128017351 982506618 99645968 760847310 674796551 424219953 533859974 711602273 859965618 365836357 563197685 538630992 521356015 608176083 645170487 462810380 214996676 755903492 145832222 259363412 708715074 282744365 865972251 237458019 304542520 357088978 197145117 792677002 208968241 502930418 693775861 485657913 230500861 920391201 101698011 248531986 385179861 978307976 151380242 813633751 51566500 549460858 100856362 202533251 428955797 217048079 548628553 895879840 445112473 546584866 501823482 584545073 651892876 384083700 848104551 121648641 671149895 567797684 245213411 593139570 813377116 943303839 127297641 538710089 631205250 289984768 23454561 947086965 475711495 120578879 944059390 592097733 675024034 594467441 430751664 244690351 449110428 654264851 70884267 607855411 790993436 745368693 467237050 440254938 974518498 227673529 528507261 521454422 466138736 969114011 740090074 375185049 466585630 43881227 897115439 287340539 448088629 193716194 718123423 263765602 946486358 212011884 238982012 202387394 923959857 4715425 29249005 205701422 825598092 114112018 858108923 636790632 782662637 231709976 741693670 807354166 677448412 695378740 738019004 11362655 776688730 426536456 115383187 342568050 593829821 818356768 324192593 41567551 582594357 501321390 555167308 806833269 448941026 593337552 923737386 704172084 689861818 262767270 799974946 540411004 322064260 720428486 890238727 378256958 452982096 131634477 791199521 995677248 408214595 236655822 92878891 340797189 407552035 903597033 12985756 859190506 440205828 672108503 719745424 317115378 185512954 475655333 239361725 479196230 529048763 18911155 248339880 69215279 739888495 416287217 851461713 327091118 772407198 727175315 531208221 975410702 564483345 883176112 810311112 204038937 229797544 900462642 350428830 765654053 874381517 992098243 808805438 775408649 434699939 422797747 383314657 967795266 674022603 383128958 873864572 613025558 974829706 206519938 396871570 991322375 242159568 744214701 515035931 446884768 880809628 325256775 978486485 712418621 464065133 121578849 469163607 150851006 485809503 389043797 565420458 894823929 656031162 827741809 189330868 109219002 353627896 181277495 921317963 717106648 627056542 706147024 49774219 287896921 501983734 98824630 411775369 283598974 380443156 932246089 680517594 635798073 231829507 603922596 230235807 843594747 844178033 409292744 508958410 530414866 267754506 65771551 118901473 564725987 631597124 261541747 541912467 686398558 2146408 791960142 659105387 942181226 595660852 725301774 808448658 204385243 609297505 406976917 250368225 849099836 463856545 463144657 319199529 45110430 805765388 984229013 487428621 331176770 317325845 78250365 618417800 705479849 176143222 253893613 534609229 971582071 266882026 645948491 129496632 407155858 302899579 233480994 336160946 631325424 11720693 730150823 255741830 746527203 623104788 815705721 45850513 448297552 578235981 179250237 422813815 331655888 762313611 735542043 885916894 744101654 703771064 106225588 941270497 355920739 970414312 57381702 919965127 65401265 745335348 749849149 284393820 952942508 913012068 834180690 965780699 410458601 568442540 289663546 326404865 763394222 742506790 986109548 451173515 72850396 604958716 336846605 43419114 118562011 280125096 701440531 379758812 841190501 877981105 746370763 692207539 878252968 640713763 722907137 705056601 486541026 31331918 169104515 155643386 614557439 131110548 71640173 453058392 602068029 234447507 404289019 370773201 941608559 3654167 558365162 6417780 973080466 500175448 340854665 363508588 565315403 580882465 867826183 222852033 376246543 965326767 736900880 876434610 4832558 725206113 631516838 330714507 140991113 217588190 125886348 643471662 277250839 785910430 296324387 678707395 237435885 66908284 283426953 627141100 330575653 848489644 979564260 930110545 395918919 439032458 741532280 967048899 208449844 419161524 562368076 817327147 982134588 388028507 509192357 369997095 273010019 984871547 427891803 342780454 863511472 721136906 266845654 484560534 300284724 157061422 708292855 208995432 598221791 648202373 316839021 676735505 62599777 738837396 506925139 550485324 805073605 397701002 701094923 470409783 337068060 563869532 661104278 600748987 965272533 415123738 380577513 137519406 768935464 666514976 251886796 766236598 675891424 791014673 532725006 899025955 90338656 375862604 433250085 838723467 822592962 895143472 400567817 948333286 262910749 663211698 375987532 64668645 678692884 196266834 541781818 565712836 878379493 112819490 548730320 380219173 651614235 595019388 619990112 331827852 255268707 856265339 842844059 91138301 836036735 633366906 577445995 459103128 873904675 130603356 846809372 420093180 938741403 413422267 965304490 524394981 795101745 822480105 551624935 457330144 725891684 407014300 573964392 469909261 885235266 885354794 373392304 519058782 404437719 59671144 54946648 953862403 969245243 27137878 454462381 570391837 256090256 345823253 362178685 76569196 589929280 740992245 101386623 146185163 719371387 417661536 974075075 196836897 470710847 30113668 260421286 251089528 534149878 670024923 3093673 752743322 919294031 77305723 991435068 957576068 628280058 642497768 482238419 998453333 862241500 428292439 675447330 420664245 396214987 329329907 700941824 37891017 440364966 290089911 444932830 966785385 806921273 834424680 542571445 189698606 996230081 315568585 791000260 775897552 321392032 117789883 222795923 116705260 397716384 356605922 241405853 935735761 516051379 619032637 892662697 47387274 687318182 773845413 695084401 723034517 819866327 463206734 555894357 607498341 891545280 892606904 76179486 451788565 640282173 543796281 105108408 407303672 937419535 760563984 495095001 205110271 292302777 753021054 944563142 949726366 32080009 742744023 244723949 705555139 118883045 740276499 883222925 717612467 582537375 33915057 843928952 631387978 79357701 913541715 320752363 40109168 846079152 628207763 347216027 379177250 398463931 527678675 710019087 464399058 246289902 346841724 228457827 887656694 86535219 312140337 731341039 196546259 564478638 767697731 659350455 452412342 964440499 282419926 980555480 712616949 177294332 703296418 153297018 791174971 419158691 796165402 623997129 121700515 953917615 120356479 816069672 104545067 812079405 136265751 304266513 105846010 665448296 733992225 923595895 699270773 317876872 647775222 800297173 779346869 479014892 251589119 367821968 691961893 785797006 708839031 659477112 23052656 806010401 363475031 375763059 522628855 491803388 415194843 330496305 694709649 741234982 940906503 562716383 119803069 986751062 260139344 520589942 782140289 272442302 285705112 492070991 48985243 923839001 137594855 4953660 604283567 121104831 991641295 486905769 148100695 647097186 36623624 165854055 467581474 462696697 907199619 22919487 766447368 502420663 304230508 288454378 568292486 628074237 313710315 68644470 371819235 34493354 523699466 575586238 116030050 878969291 158936068 28431154 449359685 813961187 324657649 943738168 511979621 57303039 464288988 809132557 221741881 525628686 57159692 987704647 738030597 994937768 167568116 898030225 69128493 383292596 900477397 377545391 299198762 887335487 699220994 81177096 615160844 742800215 761456263 796345642 98329318 156226708 665309974 991581023 179865151 108334056 404553005 492973488 317487389 664236743 195818655 286736783 998719140 725371965 523552816 151672054 514792727 400879503 733859429 470109240 486861146 441536209 547350749 108669378 484103193 391715920 418691498 775613865 211411188 296423947 849000956 411782103 572538571 876109495 977272727 911643494 907682163 691399131 847010772 557510558 832007070 156450532 569514600 146301815 684140808 521901988 638466333 955902569 579517821 3308917 175387130 548609119 593611207 372015968 730654280 686837250 95745196 129863867 945143228 722563201 240356598 72236548 912186089 107780629 944232550 817659679 983792264 348192161 898194748 356313194 884904955 384604103 619019281 215217394 708668950 627639093 520853860 936643625 54339492 676822014 735486211 128760988 145073974 878864120 295184765 688419484 896654656 833174278 337140260 708094909 648908899 92048879 717499811 508358504 64993331 424016877 497517732 495145906 608395777 988381650 212589322 668024051 270289322 837062440 121855118 74508747 320893928 246116338 379989896 742860618 427474455 630528239 580993780 572654569 448638554 548619869 604095532 616766082 351154888 306684031 313274284 21376679 822390303 54764547 690168744 14935624 85987846 74978035 976969788 657503992 658652349 413126430 926605942 625754122 815903950 174931225 945441545 950945184 510417995 60506691 738179756 221047073 598825815 963049708 571046927 844104706 107188254 250684732 718475771 769914306 327246328 982380199 726189097 676444822 806664992 330151757 353430866 460566595 492369716 233405187 551883372 217104236 11948858 96729965 373400458 659409292 173770338 615870265 401115872 218356543 54147045 846626425 306961290 900040516 209537721 42288166 686883243 324214850 340015186 423157443 253219015 41590045 664727609 965144324 783159190 349154861 133713699 174332500 3265381 337464467 166585897 336334107 890933640 567854199 555257862 167234733 916054374 36147512 508466558 6547830 409618872 564692275 803200584 332189817 37266267 963046462 81275488 750801478 167262307 339880976 222018208 673206710 366751679 116777304 551595292 318584170 528671957 535055422 102741350 255852798 150626812 562362241 320108293 903233856 911681126 924001796 87750235 39966840 742559111 270554348 939705945 82766580 380950392 683874284 66641305 854424147 65633425 478368693 135891614 879595408 285302080 74172212 943579711 696186732 293950403 597630302 153504562 193985190 604499752 200219225 419570099 503161555 304781190 588472470 877582011 186894878 735142072 154595365 201405554 45728316 588113226 160851735 947601550 44159363 222606945 203804902 909611547 16409394 182856687 621476087 587793847 238312719 166634086 579308840 365353617 892945692 437814014 10461620 463626782 747520408 252730956 375103405 17232521 176969658 549710957 662685023 665356944 897862733 574964651 327302842 203855481 547136034 925482990 22657377 773312785 968475645 281693642 14065484 94107310 471870203 165088193 36932181 235283831 838515152 120526883 245891844 256135714 291382064 119651107 397135725 487147833 802586781 567795012 548662367 746810326 995886659 8220615 781510512 42207769 813228517 305355247 620375864 805059305 500014540 618933280 49873450 562401015 6418799 260910037 959836603 431732815 148714883 546179142 160245492 143596222 357575662 208454009 437881622 467584420 557476040 741199581 821754822 139538068 230892962 58930460 863614089 717695160 395440480 312941286 652839446 72069050 629926581 867103995 400922417 54863765 109473459 543222584 285553812 927987958 755359016 448779976 11750267 768637848 730778011 708021137 520151306 35875636 781137807 494620389 32019153 5578340 839508135 326843695 901306955 678035754 520949079 658226495 406283599 682410569 272531494 479571445 862497942 198502400 153815883 309465563 802062445 237482118 207067972 325817681 644648501 330156019 681084957 830336593 159769093 959757164 205704143 292381058 491164794 782685848 253962007 649632258 468684509 879651411 644265577 509125873 653633610 7458059 323998700 523946688 394013793 439479208 478780966 9229241 592809280 996425768 910877511 146014923 875050158 781534054 927551878 287053984 351103774 347389091 527379822 540892558 326415986 490820672 802840506 911107128 969822493 688593576 816241947 535915926 618234711 608344582 903520603 553128107 55604930 526429962 725079312 388456932 949187447 821998162 693151499 283683057 914241642 590504725 895092562 137759068 893819022 184612037 675454512 1855296 772595259 787566350 980919072 362766784 655366216 636911284 410985729 12229806 695075409 283031839 72057360 427318578 451879461 781037195 746537929 877475058 372849883 174982857 257071579 185602076 77286637 529961163 859203586 259192833 345444294 256426446 297631399 564189473 690641093 162633957 715016626 144843956 310823258 334215705 47422874 615758286 825577881 765562765 815118902 340785485 491951432 781539869 926402985 328513990 269838953 550047093 267013786 5136427 909370869 300502984 561088869 551807199 989563954 889207278 517753629 713332300 189481084 850362241 301588304 425691792 275766209 612703441 388858968 882290162 468333321 560208306 206200180 206794343 232553579 549759256 995129722 678151481 688005326 435419094 993206988 683965426 430321537 161158771 484889207 132243283 210755154 669868424 275568399 570255083 431508853 188105041 373155426 305702759 243354854 469315350 857854484 282780193 186115229 882787626 753216737 940159062 886308213 810613248 336758042 30934590 788332748 106814767 379600919 330362706 196013303 438937525 859393392 19829219 397679936 303665444 678592876 926930700 605418553 429756241 830909331 476529108 538839085 594325651 880041166 204564270 837495409 303694031 485012679 759738803 794878625 197728051 501872145 10530783 274172876 995619221 161699016 695700280 543747361 410151756 502909339 667610919 481334503 781792414 205563179 164297169 960743347 366087058 288799841 972885788 832294217 790671589 49097140 86328827 618670990 612637082 321984718 858793209 391796594 238152207 534016676 234226295 718772926 647718130 230392385 818250926 411361672 999543541 58404931 912726644 793809949 492595913 202791336 651131490 403299842 622423232 152279618 628024132 76349566 867729676 493564841 820800432 972876221 72079208 186388894 134516460 913465831 945972154 732482080 450970303 739673390 991417147 273540567 217526087 874684188 297449897 528891490 898227065 791962415 439734407 542459959 332158683 478921628 587918274 631486451 486639538 6735972 406670093 875266718 429449691 379639138 396770003 407621396 459835746 214756201 248062002 199851823 255817619 365304029 347170840 804948360 388170364 768276171 252461788 356711328 564674547 937636775 578226000 210856062 153656866 922105280 805891364 760382856 372751760 702675203 836354964 814455709 906418796 249228198 17940786 26755126 659357471 482244898 667124177 99591055 441681218 275825087 147309059 736136413 882054848 968976336 645965304 102916849 956611171 441887652 87032478 867923923 810416080 285836747 57537721 515952957 387326361 279387268 995458874 201002905 815062136 94510790 58632238 224279078 146854403 850851569 694703309 48597309 628402865 478061900 672459343 152755583 30580613 685034240 916131624 17506885 164821381 477827386 914023870 964136622 365587643 40422648 147587597 923120797 940143918 709452015 655665085 164118115 312322699 159415786 987907615 78919131 497474419 304857633 445869649 219867953 660339343 930322105 371843937 833288465 649008819 379931278 535416199 185520193 976427184 210906653 314673086 849253309 619343105 204237120 829185052 600092499 436403240 720336944 178345693 783662577 182946667 286842760 224481843 329786485 306973597 783816613 385763334 980099477 30331511 494639463 591971552 266145927 768997957 455196739 126933558 607878557 396144030 939213906 316861445 669301226 447002027 160833201 663770717 821766531 651407591 842942194 649887973 537880146 110934064 741868015 2266439 832784084 640142314 503673557 286753124 299054396 853054990 670273813 858909274 744583732 149154303 52070157 910306347 754329370 325103648 430028998 354709378 23367362 972663899 439772848 511991879 87636050 856026121 17726515 479358858 30862510 448638961 342620006 198739293 193339168 44023645 352145118 709127106 25618487 683222141 329738086 566954725 731028024 430894675 210983483 55828831 433560690 217558499 852520332 105274771 927856001 85166636 523323698 560447385 244874094 728256044 489312514 842523586 65402299 257971394 707708530 665156477 807668903 305806820 926712239 798575984 463011697 863718047 554565036 66869494 652459155 983045260 146839296 343032857 129160906 106866918 839908566 798139345 71414598 451646144 729485821 977406298 750739633 700126662 26030840 995417276 623894192 357690631 916396596 559298492 793080646 907248256 37336125 890861868 304096752 603832035 123719577 784237718 238931336 360865375 969346904 939567504 415666586 443332231 297389365 155916692 447014942 285510601 810892729 556222461 438144645 932411929 862764771 441499897 813475427 198673002 948639768 546322426 937430028 147132642 506648016 668176868 397409344 300423558 959137901 596306505 884418817 577921244 50167401 164750253 634409302 502958955 469125012 633445961 629894653 428023624 986817086 881826487 727624474 118867120 779008138 31814683 652523122 247926665 452842588 889316365 566782565 330106470 353212134 477869310 238840671 677332609 676902971 770794371 574812562 351593475 328762503 325965823 423270586 251786009 303723434 591961595 625672858 288401144 999154377 23978245 439802946 206427962 365645376 742131764 377316459 605653410 431160450 206298264 636685098 980331202 957807357 838140056 739659858 271644084 642430974 513593568 999273421 330001078 689142242 856529183 598356765 964101245 848289341 352909621 522263985 681052314 264233373 26328267 130501844 922997704 441064549 396419462 570280812 811810941 948692839 379288867 557723786 810062823 358742956 920116174 160234017 453294300 814802003 852729896 119078401 231116542 289755239 218337038 703854758 152658593 907672768 796623963 572790667 482891730 542716079 759157140 144027421 83843360 906604947 111361938 17452781 751662426 499620684 352727558 166594659 688639063 404848941 407751013 665674344 316495319 263234227 734244900 713955423 736830660 745342149 842874598 841749332 63211831 188956993 654095962 210959915 903695896 511309757 532812887 495180688 391680038 535959109 984407698 530991085 948194134 310189197 239867840 161598357 562609021 473419813 737129629 249872016 707344947 975774017 629814946 337407811 263523303 377988617 213973234 172920662 254305898 418647887 51543569 137338044 185155663 103722786 348259108 567646253 66387990 531052121 724510857 258942313 61186483 669071323 809453120 298372592 27008154 520651714 919650423 227078774 195815752 350392745 424873960 245819343 20895218 90145024 309661807 278689489 1303319 301149791 87096940 479337128 442419261 295457546 560634478 756928936 33607307 18400948 961177582 564026016 82684461 948251244 277723684 865223128 892976099 429026014 704829565 146945114 33152187 322787625 927572424 804162598 80848341 436805132 594262025 372372102 31356646 440286232 719693333 143189816 410579273 23822295 739632966 45561322 621349380 187784066 235698187 976743923 402896336 27728620 841210222 834937756 741952351 305227416 458240786 615204718 530878228 524861991 164596478 484326441 204701429 671969152 510393889 301645992 900244315 163620061 798059308 135231475 410653039 770254497 54612158 444494297 735270890 832098343 683789730 888769643 702810833 661750148 401814355 199762538 783724919 57281072 316116968 696518579 866573690 544715312 829770431 305235167 519509601 817710398 127446272 675634670 256572919 913721257 938303364 46482449 127427393 241145804 185515627 499379811 403673864 182729474 955731837 315772358 948614779 956093558 782273113 437427939 71907275 70260221 309311975 248257184 383469256 424023387 112501997 607187203 551292318 440661970 507123213 952586623 902082051 925381070 948403836 105252113 471393164 44138050 68031860 402238352 965675827 180967629 261923463 487150508 371601541 817447522 952084981 954021473 529607351 482422637 703555585 460613377 918981648 543474252 662135732 672107659 298593567 621926808 233747161 572227873 267270510 271049688 533867230 313123958 527864649 42682143 729049580 242880946 294073817 30763139 697593959 210520958 158804144 669082835 900187736 178923716 134869052 927852500 84189364 127274131 937827068 851658773 310924958 939712361 700512866 115066980 344727542 594647968 530112424 286216405 304848577 422717344 505389147 60089531 615655540 589280618 343563286 607958502 607925051 524353361 919803762 591381724 757546990 566642864 136158062 292325981 575796024 864561280 10651931 989246119 909186777 97368889 272299520 218646787 392990755 432720155 386821556 956905715 562637950 369767795 479697245 159762063 632350066 766113417 949523706 315823502 519043455 178456332 883323764 864298159 753364205 84057193 162752831 508997360 267754579 225857785 915765714 742930354 839916786 135894584 134406078 386360640 830544122 719221657 402466724 825941189 181098897 919372415 171687749 558238724 871157552 740251870 494672573 443933432 852552893 600894303 297639628 856573869 450719827 490877187 129917255 813151334 220926426 759081491 59186870 287486756 918337297 54962761 242356819 662368829 874035858 91549935 971811850 452131916 735021874 990235970 915279337 372037322 519365061 361741351 486772714 478521342 193872638 156542360 773996171 283195870 122573628 675856412 365213298 803917088 876102232 712151907 358381824 161731428 21467404 341158198 105935244 737333129 552327748 217877311 448298188 187274177 219757168 160282536 53883692 228281924 655874682 814962967 792946271 604548422 78327337 1576801 426260281 706908048 951610385 984716001 362199864 835020263 183103093 981417591 861863164 509156531 920513128 615762403 415856187 564762849 324614098 936103227 705271425 279610576 435768361 314297650 769561399 514502834 378753426 777322841 382874001 32836084 678684645 414672893 718177130 459309895 843622844 275971013 659367515 580545069 978085897 90664599 133967458 598934262 910815758 72073860 402947088 588612478 630329353 538128009 378114258 911339721 19996340 455716743 337092114 321880604 500911189 989584393 530164634 999631974 677637227 851982289 604926601 503101447 998781082 374144086 674652545 224526405 656902351 506615077 867597819 330476124 581863938 638814467 279699931 639420406 717491455 329321462 791123114 181168408 366673030 709834300 925875903 21706133 774088810 707457356 618106256 891252448 676223834 106501276 308552621 973755135 101009514 114319944 691845569 484885632 199792482 790281753 804194699 183528629 376075413 169295449 714329437 537930107 401451650 478570294 243992869 809376493 980974382 949905159 414452079 924686190 192205537 857537215 277741092 385779397 77431804 193001906 406304335 98572276 219145014 350808851 310763704 74742996 788369272 649980974 195301845 343805001 858802129 93323860 975794058 415364117 657677106 414517100 631534130 210745453 866176720 51185467 742147571 433592534 642660766 627262557 109111608 385559633 407743801 345830272 88833345 757831876 935943768 262242781 769221435 784401591 174212095 681866407 164246136 158497016 797720297 283098051 29768644 621397999 647118018 211859593 1840244 960584448 256209781 1140824 764525060 183293361 727384538 754475784 791103321 920826847 815785708 698696251 959999406 274820131 183680212 73720897 573220062 357748196 394995326 764326871 403373816 804674268 590191626 169587272 181738027 567569489 405099910 881274516 375320421 95388588 567751085 196221727 640075757 68491860 538385838 386045037 237744658 8457126 924613956 171214421 586945187 850403414 13434678 214059236 168827242 603836916 152038050 768083785 841374899 58986469 919943012 273795721 479064594 318020397 65455096 197258416 172375217 158486647 960131547 318486928 841403586 345218312 173320738 902927725 370469092 783575001 384103203 154926838 288168890 582370211 258729285 655103837 206099000 356753643 573446288 259602796 571646939 973532558 409710887 751954700 292667134 463610049 193537109 236068370 993732042 890947863 503171367 482860529 134002923 605152543 587559090 832895840 411411385 2081224 503974588 203496498 883492097 422499748 609431850 992833825 194911789 203950531 535421650 433321280 64201355 518102025 949978446 639231925 186043354 480438472 465762326 448585188 147121736 849428009 677751057 209725876 774040500 963204854 587705658 479869212 109232388 364268878 999899651 511993049 741248663 180007069 697918377 999494972 838129377 315253894 198911202 922655868 308737187 902021485 333961564 736349545 180210783 72549844 72115653 712488922 31627427 359512127 550315527 552420080 290734227 101547686 179912749 663103907 355406494 790978256 668920216 551950326 182502507 707832933 263802749 276467643 2866720 378217716 590753068 332793901 81331609 696931368 885735958 266197129 136317793 204091598 288778472 977093445 5797388 850095628 517877356 822683950 202411409 311746581 223316587 601206565 461625108 952515386 491268784 744561422 589435709 983568878 139180170 123935117 595130506 544402443 808656408 140704171 792146749 330197061 580937168 670576107 644554094 814974476 747223819 903247639 824667771 107359046 263353292 984390850 89006954 606114861 432118929 270259149 237308914 676237457 487906502 985065265 826676260 793026625 683813124 323438807 296012103 581788774 105581581 900386060 224750177 608514418 230199445 417021924 163327577 246765987 946615412 762668527 961502231 891867276 681640670 935991529 474843752 216647617 173375180 751382176 396607988 253277326 317195262 502002573 240003323 337041969 616580956 212305801 499342630 157887769 334970643 870579896 12597132 362797894 970888552 391762285 703682455 112453527 253524307 675019442 56093699 498778052 134299003 634933343 311675216 307564870 292980993 123829328 523626596 333365956 183380480 206705882 473215404 391303239 461084561 108840292 8954104 690121090 569563861 748916527 154855135 571927572 911942068 457079441 264732292 821156108 121763354 758768456 781128477 103258746 741171446 414587204 825959216 45993612 724253533 78038101 271966623 693782261 660416653 279474260 796304441 677569749 669021301 100208434 342735052 510778098 686608704 412150745 267684142 569289086 718065950 897845850 273446008 754302852 161699037 491898483 457587347 396198494 379005679 655329644 301859444 876780 814223107 948202954 986426319 48835743 710614197 325252497 781717788 900810024 766371065 540486512 324788644 201923597 104168931 373992995 109512012 900637657 142375383 500121183 972392279 448178308 734562036 954769615 677709899 409525600 227029759 751148294 333419733 840722583 77553725 824459875 341809663 366470223 986424243 811396012 171480916 836449676 439672489 290438278 912529724 147564634 9768102 364443056 109447171 899689529 52273523 711467529 79612193 568274446 515825284 594831289 6704490 393339437 686727564 123464704 517531283 850324739 488560840 420656553 275140793 112546407 599256504 796135784 389072898 592574150 270599072 473204343 644474972 895133122 99176243 50704599 925835624 918549413 110719097 310905052 307936243 531634174 637259522 783596116 251435635 80007095 312982344 629164609 862066177 798281877 76618440 774640335 499413960 488461514 577339582 455467014 316401963 148145150 233533861 280613039 998606872 297584784 865096710 470881347 793020839 229892283 277649198 783159442 945251414 937510630 287455178 495716632 137098965 749261914 855458945 355724617 839591277 152145492 224899846 2759571 665179573 652452165 77296864 406264292 922056448 98621434 560962897 320253616 242435545 334460587 428621523 148462153 714525358 375012474 877103322 862475359 534679281 167818857 527207862 287613675 646994444 792223681 595010911 245086057 827398879 449855756 22321685 99709969 831221798 794509731 862400238 122345710 131596411 825750203 248960586 153130956 668340522 802367462 103249065 16565554 921456864 112676660 312357592 87945477 422738048 113585474 973705343 517004155 55652186 439600742 721795577 798411884 688110261 358157624 212219320 653216617 494461265 879879648 600669753 315240608 222744178 983821878 648481154 108410175 958687653 415355379 248941553 299394863 612971968 611502550 857732563 897863605 924177998 961051440 503988171 205179628 626013658 148450097 962912486 349488899 411633855 263969634 81535600 335392616 377043835 206494337 643089632 776006096 283792012 316418502 98670963 73300042 347892958 33110516 157493269 112466474 803867280 761674353 805945081 652267876 429588478 721915243 793163366 761125398 935912291 701000028 197945424 688653728 553333861 459985385 211350440 267942287 955918440 680908986 469201588 311608085 882766702 870151750 84186479 112247421 235549083 370361347 588365978 483029619 903561126 337017866 191592580 844787023 292380295 97200615 197304335 628860019 184598854 828220920 538097713 39300370 210153978 897507873 100063021 101457609 373166235 708506393 251701383 225859936 647887874 20665234 888398356 306067413 376181465 670590741 873217087 600851389 95261273 310738881 853887030 868038049 55134178 886449016 905952862 211554680 572688808 472346494 598252936 913031042 91671481 890264826 957905832 300543045 660215075 483227729 213129249 930959634 73022901 316958501 313503248 631564139 3727153 376220217 677907257 649125910 556851884 803449382 567733305 993846793 319729871 708918246 17492240 188101211 659342020 798334601 411902224 483876230 765739652 654408518 378811943 590436686 403422192 924041306 644464012 627081372 441775919 469849897 952785552 635896438 117056156 540454521 539196297 371104440 635864742 80480780 754941402 563416898 945998155 4850498 618627294 562289093 466843384 720960322 598725046 119583130 338395327 345185320 116483489 467871581 642785204 224604944 472350262 652484048 793338214 951608599 591529877 221962727 489066092 23460724 22290779 54658480 308435965 752347575 328663861 795746805 483619861 727846616 966854295 253358057 521777476 851397157 510621874 932674202 341039864 431651916 741174784 879127532 920860225 308783800 557526915 572577473 396294205 964330047 288065121 162444374 271029350 92909568 397154878 726923875 601325808 188581591 904071505 804527062 220086225 668879237 658192246 56211221 731336136 245607545 966573614 355233769 964917675 447941731 831400565 28214456 830052279 572953557 70487102 990127924 889955355 719996731 83041156 629535360 830523260 783097239 59429734 537627005 641659261 848016468 161869569 609819946 923774466 570184103 568474694 966708330 58103345 55190117 268113063 732126450 846809652 481755917 555607988 767236634 53297292 1729516 398223249 200564099 950884549 604442275 238608041 507600893 271720020 361958311 12712440 870550795 308847116 290513689 292493832 505923698 457172729 556180077 499423684 439702196 740253525 128894153 547247323 269422870 544144835 759372268 283240830 441723558 773546114 145952366 296390276 554136585 637229172 782433871 985583136 461590470 198963997 792955309 313065969 818694943 464417814 405072035 849320665 350280381 58130982 584420629 385653380 76469392 776762225 263533868 858365502 707474610 827249560 164439508 119333849 91702486 915697146 406954218 547340941 550144675 261482966 486387852 720310519 676582357 801556547 90677466 307010345 278219749 159860418 242681214 867608490 813857636 250159897 34149765 403058075 809074805 490481750 509613047 333344323 944593412 42971810 336330156 701995149 515998615 538019143 616651701 486731827 200696996 33012451 410850613 390486390 35949849 620012719 453840874 638818606 879400165 743823320 76086049 597702412 952082056 981929899 172574323 784729535 51756970 885040987 917641696 757594990 596595277 38999512 298963127 76311704 570050513 580431549 568879650 704626821 167572176 879920756 23057634 438119811 165254066 734188004 956086645 997304545 241055987 875014703 91941184 169972146 299240884 514453883 733624665 701622725 643929119 836547942 310721255 527419804 870537801 209970843 59185454 819847803 342673711 978832537 250664970 232274521 404692163 769025804 412623152 330659903 372883458 173732058 569292253 183676319 567168038 742505483 237119011 975989343 208074138 677260996 500994184 571600445 490843814 385113956 686649495 815311507 591752463 245146001 8442264 258200305 292440279 216810755 278313077 463544464 270921690 437977277 323260158 652448236 842932278 937849221 26329160 707918690 627313568 221861484 355715118 772271759 252998305 975396480 978471262 758885108 981499264 987361322 181151498 950576599 466663038 144862317 972259976 268277579 987502272 723980166 145641397 831761116 731164030 890744788 407529308 651646779 873737082 301220347 954194432 796433852 534518770 933464770 399679520 556859086 71970111 272093575 572106145 706455365 406557810 110190503 887892426 977639040 909214258 469015704 269347991 401073009 803796447 93529536 276263010 709221986 534622002 895679481 935063934 374510621 654584876 418351967 653412071 534980886 484067148 858265289 544118342 323718237 118432618 806624023 433340806 255870415 940266973 887392825 517989219 845916749 965123388 373666780 766981475 342391130 161630562 813359441 391645240 414061402 275794192 564293114 909584915 575964939 726530074 838755100 838341916 224863806 594671857 228818825 804177471 200311674 419978761 750952106 343844768 831073855 476925252 972906903 32142250 613191954 762234747 903191690 757776014 100763563 10776490 719999024 127613054 660015793 646909450 599415756 4279164 176977454 702917828 83279127 77236006 223161521 795991755 63767967 647059546 572856892 798050688 20733698 674807985 73935078 466118244 907954859 925167199 415272105 953940490 544559578 250263162 547119982 669494624 298631376 99177407 972988918 774847451 201090716 798908183 687978834 912183365 629627279 195469141 946452015 388189517 90662418 19078451 527276262 999066082 579758076 242699374 224627796 1286605 10039213 777968511 517263461 473749075 333704501 859405580 911700798 616493212 207140573 869063511 878009911 927870618 195597961 565543282 310586360 549568092 515561091 700314714 609934774 362659994 411669594 787195326 3576124 551801932 778757429 554678166 979828969 290436437 935820679 929280227 875583295 958548189 300892772 781161747 116659907 978932787 566953718 624612150 164802233 130493332 483921309 583100460 18889965 672168980 494707122 432941275 219340655 12033010 621712094 981927088 20661045 84301941 814077296 953864292 719302521 269260035 175433012 817141514 291551253 672288796 925118297 891591093 484057814 986072863 656713571 337275632 261203453 596745283 570163600 649860788 900301794 652776507 839192672 916152941 503887672 740093616 18083270 193885964 2496462 580542065 168191917 289294792 800950454 447648211 852387461 353730777 663750512 849804561 230252250 470526607 899082698 885628335 372253402 963924624 771727640 564370492 659141276 787732847 358901975 793669390 594158469 511657173 941776869 850384186 624818428 70211514 532263270 305849882 537754195 830458295 963429085 986660439 254049075 195905888 844439052 204881066 124384642 968892947 508535149 683751630 615461979 918580161 979408612 840105731 571716139 521139177 159660450 277350133 233373059 734979877 800606248 42939134 890092647 900611947 608550092 157271725 977412491 695966197 176915334 803514501 698593806 986950375 626036414 808209378 602725288 146111031 949769174 37225780 803020228 271108000 785133909 772728304 167173368 825172509 223730264 124098292 855781662 129095700 159079563 230094410 605298391 706619236 305318832 544812300 345674143 812137324 718218154 361612358 517060250 562046748 920237347 123539088 551231965 271485230 657147411 147245257 569423600 699530354 177255608 137488649 900250512 282651783 131958017 327560324 487333848 218402763 937002183 250288143 6291941 883917662 386769852 55256863 609103965 97185881 449015482 68859640 988397620 848083640 363787502 566678984 684587722 671482059 172467952 845639286 598571656 459109321 441104920 235082118 765993119 947534722 824912479 662817785 765329544 85858977 765788923 993210391 754167093 428982874 377049760 605280385 266033299 601613525 100168838 288431035 290381196 755656562 59183771 83060049 551431162 970566546 464572491 56109528 176120833 384455347 900737702 832268013 539806529 861549619 914622912 88826735 379456110 447280282 270679937 762317598 750728511 708342230 568253558 469175476 25646344 282712994 703366958 273384894 960886784 355664909 758357481 572149633 868013718 64950939 269006620 269124685 82612080 676976688 262848380 275077838 836372712 602703905 147322636 514710890 353496518 8782506 541982877 656496771 160456359 283159314 503055554 582692843 103187930 144563520 222980849 446969833 614901608 372706351 370667779 110775688 230081409 781613447 760448881 791680669 290047280 655557478 537112853 383718410 302677041 444133292 653618716 530111159 742429961 884957631 799663145 51801897 944453853 635997437 841199153 80508618 730512747 240502686 607153716 802329101 106286234 589708208 288351428 126853523 139001061 821052448 917378139 725461756 890355515 371860946 719558424 25245024 814605819 88675135 206402844 596896395 91989709 229686475 622819090 722989527 689150076 969770552 154583178 338327093 340724091 641990441 406107773 460421260 378197370 37831061 420391142 748032552 222480587 450672649 394786525 156379612 173843201 318167971 150825609 104528295 477296159 827363774 743985486 385390044 70151971 489217545 193982395 806800293 615885471 415964004 804055896 774052676 250923626 643616353 389731435 804713798 721074087 80917985 138178714 885389506 979830133 118050326 173212771 381566344 421490272 906133239 257574931 924451877 527861405 69267849 157090224 817735035 276729288 646824064 312796228 911610495 205330060 531077963 338173771 274085598 635349567 443583993 527187254 58574557 607507749 638539673 779734521 271106283 15482875 747376812 801221595 61316681 253814023 274331111 31293259 486649723 162339103 260515685 388939453 592452043 759994129 73383110 608514381 811548136 665324880 287331969 533000272 75738662 212302086 565368040 765966866 5209819 409948634 528545161 85519414 671351550 478726914 145116267 51070792 306961381 821132192 262300364 342053508 659572436 31960607 472946256 252659925 874807889 822867050 247011106 592544301 51114581 943652201 547325938 371116314 290568927 595949769 8927699 336469990 42640104 292522435 209980547 868255463 37398586 60466073 953289146 436884266 356502495 422245364 644358292 648765794 956939418 862034605 497655119 741052196 309174048 424146548 701388296 526364250 191048465 930160832 231944764 871841469 844924366 995282890 58328202 177682111 341028376 733678830 778436283 732679574 888672736 169068439 279024415 898908969 585190232 901947953 958697987 924463192 518934159 335382045 48975204 995053731 326486510 586861797 984916049 786755809 485581202 921071934 375841260 398839168 148278306 809362427 382424457 45067304 354555656 316308213 589377885 241305048 71921994 191376550 979334906 20782266 777763586 13414567 424396201 39930945 412964791 903189900 193504438 106380496 734594631 782752077 889757696 735210179 291546271 140565775 20612369 821475947 511958853 505061791 768538119 345755048 211108166 248063962 790427153 183313949 226285288 245901966 159086979 821618087 537426406 930610588 242841132 974126055 473385536 646980165 153454157 453114789 36702733 739242546 475947364 213912147 161545414 578117677 741440730 959925033 47760130 263100899 341605266 595178710 812153306 341803389 109236906 746911224 188943122 613161138 965783582 121997776 225738241 613539140 984643107 369197236 993156028 412512201 218598975 862376408 330124895 853660056 618466027 266573645 332498541 75450726 150822268 65238724 246979287 858038527 314017105 167821493 582900521 108871634 716830353 855811174 760986953 931504796 267819621 305848951 572072399 790176631 367878559 872794599 314112922 2027803 901278208 603630849 142523112 799009643 397783769 713639076 760484959 31279466 221317092 111996808 218012020 184846633 446356225 405661874 419029695 62518613 83973760 74242795 986640573 697718189 122656461 538777195 474429894 604206618 463570720 438245060 762179281 358563815 737844474 70826717 676701658 434103336 444181392 929719467 505760092 152600370 344844179 508271913 418609507 350912945 151897983 731571029 224612306 229077867 954558581 507933295 796458901 622803161 969673930 344896080 587853397 260423900 537529296 755525581 836421379 395489093 20668822 77708440 578365761 188568560 691700743 842133538 413303204 997460695 681209931 265098988 662494633 833643358 25678199 925569402 830548162 61845769 407695357 451494513 292376320 688157954 771787066 237831674 689053029 218889386 795907898 896179754 445525010 843814660 95774232 992662577 863371990 45470340 392284347 464225912 956074544 562850804 696656591 655319757 124481957 256048466 455830429 798062104 293364002 395234959 440961936 523454389 487389373 441601446 731584280 810531800 990064399 643761820 599022440 263075225 549480559 894371941 232207321 959600400 340565 258822390 714308748 439376008 521613045 570332109 311035330 732982706 626076428 142684967 555886152 969436981 586253389 505790987 147999765 698461023 835390372 307585048 199072848 793308070 68197215 55108745 793453517 342776038 460793369 669309967 180930694 342016535 268235505 891661475 540802914 981258034 666083758 789183558 772712499 275968769 43811896 407692833 785452354 34593714 621353332 40160678 491916532 385555039 348748061 666316111 534579967 918857197 9179530 692327094 611636192 723432765 942874623 198998873 639920221 769631349 555414101 203426892 818882444 912099739 394988434 312686307 674725869 112969306 828487035 611331699 870889242 264491119 756103710 426142280 625851439 268626350 100998094 936357667 768638598 627741224 596034855 149590411 926015028 709834721 19811679 319186875 479600667 977403599 944326410 15300334 39295474 464442851 173684193 528645458 600301533 28599931 64387575 854273847 431354253 473559172 310271238 56502802 647080543 208320315 647561503 599599306 746697664 520676420 314578901 616719542 405077001 435098970 192977924 430589828 592303446 541791812 551480133 502761696 586165542 631004487 665600798 371711772 477058511 34714043 752973081 606356744 429572886 927529658 168323635 631154327 724211608 968303692 688585031 408187819 297654706 741416156 437685690 825544335 9675739 5824227 119060556 496573769 401265922 530151323 740373641 389294799 101302039 808750852 235448447 816954960 83223997 190221785 29837689 782896893 450583499 118749761 165329070 815670609 842933411 205651864 51535393 460448688 381426729 583945712 251267932 459814073 945132219 402099924 56739317 771016593 95417961 541545894 92173538 711872596 312725109 751881996 247460395 346483784 333606408 753612347 326600968 717324541 383934125 413123744 664058986 873728968 621194326 412484481 370569655 53229048 931776116 958085344 984381433 487212737 147697021 876074774 874439961 636980466 645281419 580325684 703311444 791182380 886721466 614859757 787655181 868144868 446003548 902235511 3988195 596225616 109978092 69837270 925813219 731047145 410034693 927544272 869379638 613211427 780650922 569144465 699810015 317592351 8776767 668537253 868893097 586400953 767458546 105324829 178383793 551973369 674151637 430221377 540862018 857418356 312157562 430899281 180246302 633740478 868456540 247775863 627733356 420621584 476867378 555005477 178283473 585985040 707614367 889623449 970627633 549901397 297497212 649842273 492289781 131878873 104489770 524380750 228689756 673347605 413758019 43274350 17488918 888315421 302422027 260018098 963020560 101780113 5163972 837642718 720549737 651408135 88439123 169906358 974760950 690566542 983899091 299059752 600469212 433949081 438154294 130868754 302130553 279687457 711992842 717835801 821172463 819465296 734712701 337914160 820388934 601091857 909500344 384364616 707147079 952236462 736582216 768170900 377734888 229454454 901536945 700399587 331249712 721999197 912549401 373141306 295570716 638959266 243402205 105869282 609493652 327878986 553190573 119925683 314561591 754172972 680014631 6470576 473050916 602591504 978511589 182635431 313111553 656743002 301234423 715725366 668623475 129309166 195939216 93452300 919505735 937043739 788239347 220208467 637536905 929284682 548766829 192106944 317292742 688108122 94854063 579280339 549671155 426791291 961609936 676778945 334274763 311436371 588867947 670276685 792313132 418248968 270120513 600871135 481620299 911370263 549772447 775126888 826118240 114004078 701450949 304404158 215704648 728813915 789501747 33135834 995546110 650690532 39858665 92082205 495436826 751559621 682301450 309947496 427786763 5767499 574342842 373604317 661670601 540219339 399335405 677176214 600130011 475679968 163869603 395359889 883977777 165068651 832608963 978338397 656136387 258553787 576376066 523907768 480599729 908956105 660954756 131723070 827973107 566770486 862273268 881805261 731769172 201079495 562175023 424264805 314235317 452031166 925710462 603083057 111930767 410596328 496997586 869077127 744024117 972920570 760009027 140025583 264670632
