5198
601445661 253071632 279101757 276058168 855992101 917298819 808075926 642661318 781432951 599656223 956883359 624730600 965724234 114894936 450560315 844146680 318128819 382620548 769428678 147655440 86928745 967023409 788972112 944175282 694480440 932534753 926886091 337409511 748753653 28120854 916596314 655218552 687782004 627646663 688443709 582280532 750323172 797848039 696139210 873142936 142218051 200974560 697248742 924289349 275800857 778857 130348491 741311465 125754057 457221595 533803452 503753622 569763661 999154761 523542466 451648220 876598017 57058402 355647879 610640953 57260202 698842247 252035054 133019180 163614819 303482982 383529593 809298171 298244152 188663972 560126617 807874786 524870732 764610630 149535174 783042239 933489236 632276697 178274733 731213716 348714871 802193172 500275237 451227226 294429551 625042343 525042776 218066582 485649196 277299051 236120983 798264070 783540831 466754674 510550286 383184393 174038284 582481393 282923095 558267929 62575014 17861901 171755190 376893658 609906556 396032113 355140477 415536321 215949132 815049877 212938761 977651076 796953861 452324603 528226709 578128200 943193322 613371238 778672717 858145593 138203402 918575720 730954993 74956621 898484618 644574839 393337408 668147300 157939948 300736469 296913166 925838893 652733683 962417381 300324495 317620075 105177718 252656209 971546220 852650628 954095371 796688105 371722808 919136931 140840019 269273282 623991672 880961423 942842018 706082961 7731857 216808190 946033210 630513813 289272543 136290878 706167260 598027924 963045645 160665961 199488882 814425630 25069447 635619632 327320011 72910558 974861785 918648189 831669035 897599696 82175852 603078784 264050489 231866900 471376667 16616383 709529057 956463487 463335973 973300657 5746001 150046021 183467684 774790211 972276702 905415678 459172789 305402999 321423142 240538928 899575844 324208907 353704968 7319798 603000522 844552947 510613941 38345322 198776297 724389734 337449260 870448144 106644459 797442856 630717185 458288355 151251699 760644275 751338617 451198342 360344728 634886059 507505734 655742305 58487903 64124835 139948017 980038079 611785603 77293403 758383642 368046086 314078232 122534042 743698294 554635550 50679142 877375995 76662375 763483211 164143098 233929030 71425289 694337468 739609991 283041839 860512061 90234684 455926231 765209967 686501629 889212208 945347530 677445400 604676700 981009155 470496038 624864893 658744043 68968025 349067403 595624987 412238038 109707023 347571538 365150873 819737589 814524125 545348004 195537020 546371700 151568028 321875926 947700323 374229202 793263565 151881059 196799491 720659132 745525759 777399504 787442962 966855176 971403734 966352616 678641823 234958358 217687105 458976872 474714448 306345152 495824886 455557041 640992772 786537253 717917234 489775426 785053035 870485565 513692945 891054863 736986637 506842106 107543058 104609807 434088955 142741426 345595816 719411205 729255576 919278967 579643595 470662456 587786610 398408177 412060787 140919152 451422457 902778505 154042228 538589943 487988479 700808714 504078700 839093094 630337275 549537802 27460388 123233096 630963286 262730890 921223602 667398489 123620216 455561605 116313727 452004597 32777845 797967260 11043565 500274295 225128661 357604573 693444194 664192989 14198432 196442524 353980793 259886890 994468311 889020018 260210138 892856560 176074767 861400256 473474566 494819700 613205504 250276659 187454842 347405133 71269951 740257709 35879682 509933859 415976149 397613589 270084918 872610300 805010907 770883082 803676416 310893896 177962954 548037584 871018709 290943474 314418845 78483650 708869951 954404589 894529776 634921042 793332433 362682850 798386650 578153761 293728603 22487746 705481965 549500369 487737867 314983291 969819420 334299495 174123769 755153755 466645407 770115613 218124013 940215981 229528431 83009569 830434400 905497788 115550059 855702747 853601278 597081974 112422952 151837583 525805167 676827843 892671714 10515038 371279805 101744854 797970045 80867919 119554294 737746383 8161713 707700684 821558321 949829892 589580371 8158428 839197586 357216074 638676475 984349866 765803389 648144588 600939520 649319136 812799354 615794453 216712874 686773048 373223669 979652042 806127975 50711482 705643344 261064708 70937882 545300689 516921409 728960697 683911147 156792837 961090315 138252945 334986768 562521718 716054166 452689128 830252629 658472649 591616544 842876235 354268711 542057229 325164404 835975521 286571850 703905060 869044801 369121449 692727697 851334614 483420472 542908813 397711966 976091412 695413622 90588458 379247144 924301307 389353769 939925903 917187815 198918741 534546054 281696767 976759163 675918030 884656130 687349149 974652403 9126934 81035745 277150712 315329705 783673705 979936400 564787111 802445762 283107562 42228687 481546807 569564989 402734865 283646751 858907838 606614859 973866424 427420961 782741175 800095887 44119775 335375670 961702954 363941549 382204670 532453064 527135468 91604180 780305678 140820477 485592052 934039037 339969402 757891059 227588805 337828547 161548354 385396113 323081385 309356273 65554632 335542608 172642878 850273767 452748411 298293880 976487878 23601420 53452447 923436362 191209572 25592442 756430562 392807354 156976105 903310810 311006738 730085458 512104373 273688715 141936013 218074751 331148152 813611992 347962049 258637097 144949966 101444118 887916565 970760055 766632698 142841134 803790696 230472523 862651319 919495761 160437383 975898780 202165385 267946573 162414333 501554751 273196573 19073126 133768958 133111318 315842432 561402480 254352112 26272875 832135909 633389946 168391031 393416675 9233988 291423925 136853437 372820621 419694324 934649127 144225082 787244197 583349105 234293697 132922390 978992239 693996384 239107716 794022628 587990845 580011788 126710235 656206961 36132528 83203405 160552347 786512852 148258176 163281887 930689041 990213082 260398823 873969498 811597795 377380163 205827708 292417711 596143227 694692475 593462191 531737809 763166950 324712282 796615759 173494296 752583884 160043712 301233365 405806060 426853583 190512837 815294298 876146754 569370347 345524103 773588517 967953263 675930210 742262251 995614048 314234244 165544046 538595313 665149640 670096987 969376248 637150703 965465253 940426624 556107654 185618587 441761688 76439905 853743972 816223774 881053493 501519977 733013248 614624671 191772970 651151407 67660474 913260991 799300595 999734957 240023139 852535938 252038199 492946224 38453242 35315846 297107721 697360684 408419921 684085585 430481758 940835599 146330447 526658893 823150630 156882882 483851530 75983225 185660084 177577380 961201638 194312901 476526814 462588554 751819598 723414305 202678095 74399866 151684323 596624178 431510243 717116584 347743721 463491475 597674057 487786644 896767665 165202613 820298049 506792571 188358362 378126072 437902473 119463281 563538713 900275582 240288221 16638171 496259957 136981815 321876075 631981601 49863557 801276810 878443133 253884550 308235555 388315471 817705339 7650810 237783616 999508542 633851016 928542708 777240791 875085660 816030341 773080277 933446839 494972994 310364071 908430680 509768186 942425571 160600849 52950023 553619461 346593312 988456382 875640439 108897714 407748198 48484819 843440686 463883214 864514205 241043637 243717948 311782915 112460195 238788092 308591856 411128378 317037840 677736396 18430990 655483955 268264904 678185701 222448343 237361717 595357769 276655990 732656928 888563361 538186426 72778451 101066002 286757008 305364464 378324076 570255686 956883794 551899865 600184980 708131763 608270460 721076701 337405619 727904320 439489755 183540178 299279661 82090510 400629686 57954712 269022139 783358734 682864652 627769956 705994187 735956523 285372888 302660119 432288639 5795073 660625975 399251578 768151222 856263257 554696979 794838482 572304603 159148841 172833092 45447969 120851176 47580017 126144430 116148912 398003094 872497733 435622112 473913151 468819428 43093708 659967275 350794977 978407196 145433235 330581921 880867789 32263371 139666050 786822151 551231691 506846773 943461973 486737803 151157978 996075860 671382192 817807300 688222057 15271934 4946638 991770907 185239943 377264623 868138304 396071571 342739884 755483319 33986992 59569066 627397751 920684225 801803736 629033679 648904802 331639300 197569804 987797279 977342564 483335753 641781211 3649883 609467539 937613741 953637926 424597626 868782184 177971083 800372689 836722454 383770618 99943653 165382517 479971869 515655663 976277668 420115974 357726021 48104465 808377402 988289739 767810417 236746690 95974795 77465047 38765819 390428937 675812526 928212773 261078447 4920813 887207339 966719619 164229428 809860913 498116197 962643881 353137064 337736621 161722872 58100109 25136652 921842795 917075289 746104923 940067197 318779274 380240630 80301794 962453964 693120069 51990888 346951338 453314370 164182639 909529672 291238166 342227127 441557886 120542674 292008851 898352546 216228920 226954567 219030966 792835044 739245258 340525734 711442570 285244200 153948239 737233596 584632832 46177542 289752520 240602276 775406051 614886157 351158617 172648822 239157638 590960682 911525568 236195065 788850403 809158738 561009273 421411432 339633800 533454654 785633783 605817066 783017833 316016462 620220886 963047887 598952599 986793929 518343449 92534653 333995698 1583168 853428851 823407128 859721859 883144886 804980936 195139717 523721739 44665390 568753291 484843799 671109315 384602325 905192744 48220755 277916617 235404177 741342989 100154763 114396060 430804863 332704145 285242667 233291013 516480377 762861242 419669868 471338734 44775063 469281922 909393568 232307821 136688091 469764193 490398835 506345580 706323064 810640133 359750745 176349432 944867205 447582527 314352493 24447218 785450719 605401095 235698800 143095112 526087091 478770729 429576339 315730619 324755323 490924645 396540479 620381258 881857075 499645732 885055478 462293242 906404599 426965315 641442411 684302088 416425309 226672202 173842515 566799305 57049380 985775558 39045997 228359955 720940814 203280747 357940959 925953986 22992788 887917126 375899466 73663136 610784906 328289906 123656405 717382281 321405185 419267946 924798408 184629129 630478293 967297104 375674966 110023079 613914349 616841499 175401166 578561787 696980922 102274863 208993146 900377201 166944096 929793661 341600071 328431369 235005902 42990734 299137935 121730349 721596628 554659963 897180431 838754165 45358440 507971183 772672776 565631835 85825708 937600525 46763800 109586198 880074788 458784743 312066848 662346379 696834688 612432925 991977440 584956922 68186543 535203314 678592156 732831464 172422217 140332356 826253151 439572808 789449955 11906948 780199547 97855551 221729006 526038667 45123496 705156640 724618612 606471675 593714816 808622943 993268191 461947721 825336963 402534312 506465887 963058615 967979327 152194559 878953608 915086836 219954086 624320851 186579622 55255024 159391573 107699126 541925969 409476664 381504140 712578303 247680819 322029773 830923479 892426026 609266915 828992860 88588375 111801353 255303467 38202655 195706016 959699856 996062132 879547604 973392457 669096736 491812252 654347423 310193970 432509677 670771831 623323039 998502173 773187748 58895499 559886051 708327299 92667741 725742885 15187761 150870630 941357382 59743838 835808574 221250126 721878416 241967378 997310496 610994449 648933375 544172314 250455848 589390778 858925313 162268315 503475615 504452790 822529573 529886348 713925108 232930155 608254908 777480089 621276289 749310792 820321892 324350514 707821239 810801106 469599850 401069918 4583189 861833072 238873048 466024355 283479787 398418353 716063139 57687147 722210716 831960087 712283446 401388464 652670294 738936750 886377740 907085197 972222646 445641017 947461918 923976213 329065130 301351150 896487389 351562122 241901953 404265791 200346669 569558025 570420257 653791989 170115387 941186655 682090886 769529541 113114980 987637102 283234232 843712972 431522495 593947584 236112999 694847956 10235862 876421151 520800033 231530736 716705387 215656968 131430733 257550849 953451412 299813738 784031721 99198900 534666695 211231003 467374901 782105545 214696790 233318338 58789577 926163026 550941324 104719634 600193439 718143625 643573175 275961070 653313956 879855089 423940490 688595814 226872600 415619133 560701378 883841932 944554493 741633290 579342023 571050226 615210863 242837261 525310860 987050218 582830231 65831108 79790477 178346884 398350025 324488166 770826640 11818072 674312114 347688733 348656447 200380717 178512827 751266042 932322023 632643097 225855125 655173066 774571544 539266208 532995398 967849473 547898336 245823954 777598126 590161438 870360596 106364627 377195749 764586900 433832325 746788607 217856027 142022086 854531419 875523522 443903107 875577505 192895752 505660861 916106222 77967085 182597672 210954412 46391093 868899433 955912013 453795750 707895191 236214033 270264855 695214276 442482865 190807601 137709833 789265823 118338540 779650585 206102536 721991817 170327603 162491280 915502540 731935031 775034855 282318429 488511949 23735665 821200870 328188999 420542584 48137050 505333994 817684651 216343633 644594147 489651690 171348106 265323062 208322930 401860998 363759514 225872644 334261143 674504462 501296241 437715337 992885190 409428499 205167574 358746361 972034185 733548820 30746164 508757201 750444964 807740934 663303533 144896213 620189912 921503367 621662458 702968986 105276508 81905889 482688443 585467335 749337481 896861497 24933123 879162233 823769096 870767829 283505529 786229783 967815640 949844111 721175628 245408212 73223749 159960688 362643987 364463781 755900836 355156842 844082851 565344472 187035176 252564601 493900270 943802365 560177900 318843128 869220134 800802169 709416494 788392201 569369969 51560046 470572303 638210930 244831100 555314009 100346382 387824824 457544998 836149138 757409681 994037691 749429534 476744132 602705352 332265318 341547887 673061890 871096108 854157584 753159101 896420427 405735341 267410938 525338239 296120245 229546736 43187726 792678682 960146201 369390243 179184911 550210404 89905637 430525643 101517454 969113749 229052232 334113923 128758254 647445703 495902019 785943099 881999163 707528591 213203979 316117800 977929021 670264820 202986268 25272909 838384322 243795034 689665697 214091899 448266777 647403316 365753490 969443732 252044257 41140371 7631248 221613429 860108242 495555641 509917296 438169517 993561169 53021220 505787771 678778527 358090203 745340797 262352458 959747973 537549463 65925249 333707000 763368528 231191240 101693382 319587554 138496388 479748121 648706674 451151959 616166203 221112820 521963223 432838201 166807032 177011389 848022279 82171710 906503731 84592577 272715097 959438290 931745069 889117918 215691509 38819486 941585313 87892042 438597086 854528169 834909211 700731629 434614110 360835174 130945598 944302708 18046950 596248030 731234445 243195333 211136664 738456515 331354854 59935689 725093889 687495503 861613949 18876608 37170623 537529420 603172300 241487820 463994842 101606558 124301711 932453355 420222044 665906860 958228422 434801427 830568067 616714271 120225212 109021895 859232545 47396394 569916388 707597904 530940391 294347077 411845711 360250030 905386241 593610186 612977961 75375300 276612736 163235876 408915116 742472368 755521672 290719970 669589261 868991769 781501114 820910269 168152016 206864294 789443705 506910252 906688128 521368033 105471494 911615593 139867255 146730078 149018858 329074392 645105406 387814922 268801542 15499474 297181794 95191489 561176540 594157902 741720341 597788917 696954757 515236086 430456515 896102694 367556346 917050310 518023931 587597941 966772258 135721602 683870804 790407731 90993425 86525003 682318618 45516166 653318025 870720429 282999458 181785912 931266896 198022899 954798379 338158182 167138985 343823427 488430716 996577137 918236926 698877295 532678264 711363586 353255636 625789854 681876608 877246192 63261681 160907481 143107138 523577794 337412446 690627703 987663696 481201125 181033305 909717676 532262817 895801023 366916611 532050805 3634703 104476591 504497884 663089355 849314933 824992958 95811841 612745896 579212436 137802388 682441592 946747501 354624864 201400398 451552770 655627927 560484978 712004123 55884157 940107674 827554807 393670133 759076842 157643500 645264055 947957713 573100775 782286534 546170542 730438190 141629416 694708135 551865996 113752217 398628961 783036170 750332798 815471200 729311820 225979109 935870004 85566632 388449400 552660940 186111964 521619997 689145664 437863514 500300029 696654634 203412730 32702887 531484959 412955317 70831548 947893790 894302283 313840694 316096661 355358762 646415739 293163516 310966339 409976481 658831669 475518623 797816349 809649772 906303893 797045996 20501773 554762433 65566588 637089821 659195060 713549219 719600328 760623731 519569581 762402059 729311419 516780429 10016108 282650525 862780673 545998545 748953102 188120964 225045840 930787840 805417365 841389525 597177262 904010843 495838686 448156016 609703236 582907761 753510054 803002685 337628849 316870945 819756252 436222071 15196690 678568326 296892353 30338661 303822351 577454121 317891969 324100518 615331997 772795481 279215026 586218836 227782010 247991137 380829266 55171167 402530971 152108270 576978028 896929995 197957980 43318275 474708469 71257707 341045592 357491193 375781462 935534600 369830979 788907398 940345815 491822608 408171916 35309991 437666831 168728848 96808230 777911027 326063154 387555462 823203032 271842978 931318927 588205870 935326308 57530656 731111009 100227133 808963283 472744864 982156696 330692365 302033235 23354042 247953497 566656576 715934224 863624773 889427944 709183945 376494625 669551634 691018197 924399607 316713435 494857390 90062687 456881431 809353424 26126635 221070288 61971524 268584361 557791072 99717521 473525803 920748292 470512551 115812187 228499949 275771815 147127533 389473838 668587208 948575104 530186731 594904593 820321582 948831702 991630147 893355713 720120896 180073788 316579307 389054033 155856403 934997875 177722623 527637019 432348820 136129120 656206472 301705603 329166080 269681555 215832465 660105720 503247323 64122411 15368275 979982243 16838750 886607762 173273331 236202659 832463564 173861235 622065444 266920461 772436093 257520065 454023235 334256246 571568060 625685758 631264512 793379869 724110149 919002786 254408924 948351084 584939438 55368204 799224093 177681245 508631436 208439129 336718061 568338966 211744686 956312680 434307099 239182206 186482746 874457571 45318582 212244118 399791860 530040491 635830809 343246678 877037211 64586901 150896649 673168940 667237428 679435782 777708171 731195859 907420366 788645472 920501076 111253045 520134458 951179294 632879289 153522776 441010521 168521877 537078627 477338364 321751077 470996391 979314991 648689893 340619710 120450656 849479992 573558115 313926674 294126508 208342506 341540682 883039925 896552439 509717086 325315026 149772504 913409606 861319753 362256105 42220934 547277076 793741490 109737175 316650185 245200097 603234893 604111662 275911940 728353312 443265656 973110923 622455611 116179172 548672212 902340263 716573949 283943117 589573313 389335684 11262080 643137046 224979239 957745059 327766073 674887805 695460035 477304187 907697510 769648920 926045580 878365400 363720055 373769459 647718875 777095256 845115306 643125205 161868936 780775593 119805553 377016013 845521753 12454055 658695515 561539398 766527481 294818728 857896707 500151401 578335505 287889468 442899759 373018444 667950431 376979940 525573346 760830383 854170897 117822613 749372787 590614317 431311512 538221774 544037309 713005015 534794212 886159928 100322819 214154710 801484457 344887452 114375647 751444725 143014645 548945426 711824958 260810803 954306383 17995833 271321835 232584420 637417931 102927088 266071770 593275566 200385143 54115081 174443013 724081898 716109032 588786782 852239700 49629656 791985800 131649141 150904462 943716273 760388656 376360001 50545063 696596824 188684424 170784047 990619866 781717539 664081339 656103205 301027530 304052975 915533992 470781116 983890989 444766997 94684178 538745803 144416820 261948534 546594096 170419770 916923958 412161657 625373342 787428715 935500799 397942419 936472482 190155751 83295775 355076790 398320993 399805706 717298547 51223202 158986253 762660852 216246718 194852140 997181364 839807161 651562847 281606503 336319297 56352643 639888617 634595995 778146765 486358194 416794170 411546022 874101588 743286201 677637448 505048240 659506839 527885692 56941068 917259395 706576055 782250274 959948401 684583096 604805775 763751414 904867523 93658616 648741006 804673615 573165547 846632474 755617171 978159508 532298482 314222554 353711698 38271572 95869445 371215661 994830566 600234924 128314584 181910099 993505548 867231901 878973548 370553027 722311422 161236086 671093991 571320522 534555348 361455393 636931619 915751126 673519419 468845840 153411193 336466015 638491227 170947715 926499827 310150916 978373481 711884002 990877939 186300552 552949844 823219188 435056750 364681802 531927708 639783506 187933151 302388856 452438077 27223176 303547231 764857302 816746909 359240419 961155718 887036960 909787072 707120575 270734173 539134033 923425208 317817593 796494530 298690038 171564940 115874325 571783684 165617351 305254902 110562409 798793319 663477853 588941944 483263209 430891189 434443261 432210878 789162571 46347911 442178026 58198510 18327758 78529491 655622496 170675622 538822542 570811179 584163672 151695351 441296064 245667000 247108596 564662117 274227577 634394498 521095827 350705604 331691463 173800558 118359126 749149147 799606563 36811109 347175210 232790185 688775761 691987466 604393213 84590982 449371276 501633624 904958020 539967332 432963602 628186734 844137840 341682625 776044832 187536201 253253839 207338733 448690342 132705676 984305783 450102087 313178292 497363219 333085972 359240498 482135803 954765016 430223141 132954133 310110173 915569583 35364133 500640750 646026872 40411839 720051367 669506501 586268968 146868010 417019097 592574423 251325769 863541383 499696435 247416203 466819025 220359937 952575407 538560225 581513883 350801136 355806959 635285762 355081908 96332597 356515375 134986114 89545919 633241791 435696405 588374805 565602904 676522126 481483363 849926143 806247145 608847028 228405344 19714093 308460833 346641966 694518530 403282052 706500591 58046791 773715602 513720162 113551824 651000475 701333476 715401515 745392240 34238204 848024627 530561480 406425244 906234924 606109273 186244019 127372121 667404642 802059680 376807235 849985128 381787266 735064743 281615279 122097258 154017273 741360229 829894980 122292221 397166829 517334466 304538720 557563942 779488847 103063193 109002421 823799822 959559225 197656596 707003427 600921633 991132435 195798358 699053012 869269233 632906138 312176257 484040168 326965261 954257647 167637958 911305816 436219340 296447040 573281383 711227081 530087078 592915539 170011820 757280908 298203415 141582105 998095005 988101932 450676315 495536747 414294331 960487971 775087456 111124736 994895116 101932384 219217955 668564664 72848318 876636306 965971921 260574856 149820038 48888568 529003406 16803075 756226443 34112395 537385964 129007225 67591526 119999964 284897914 716052684 967222796 147834195 217334636 510314626 343298491 452577441 466373883 366827697 339432757 71923590 32603806 939830799 707409648 961578289 991692304 832185448 714205674 176848375 941416837 44045675 387136461 739490870 647203753 810783881 530909793 441857693 536109376 518111837 667380189 828085916 820401744 851452415 748228019 486514750 987611314 748467031 222183012 846776920 392208707 417740529 846829176 713210494 511215649 814110480 501675435 976443013 990597374 74265886 891626197 237316117 234499384 467165012 452007104 798354727 753784586 264416593 751352956 224338854 998716035 742348741 693890157 859821830 201661299 932682860 386679059 990342995 535044277 830956013 190820953 351575194 589411144 740448833 571663215 587826556 474401637 90807878 63214678 575593147 889811346 526551180 684397343 576787085 566814931 359186151 628332625 569402752 565410621 100755521 95702662 439537951 716873308 488252850 998839326 95793329 877762919 840432770 850322689 361227351 516715970 44869054 464899956 46682721 500522701 345234661 391625846 56154517 914446421 507063178 199615174 105242728 576150270 68637812 52012302 912982648 486087195 1666460 391193685 195295695 427997514 380044521 751253835 270471971 995408437 63975232 234963188 100484510 64665628 655328494 901763749 262953831 254237904 587786199 508752272 499921474 179385847 840951801 130227503 574966190 682385935 748175273 385548399 795198046 553687182 932606647 766966356 171487204 453719679 122090097 356192648 504913697 48922192 99721879 248170361 538950061 493633195 624857853 311023811 418434300 911257899 401616606 289072794 359606377 811774913 24207668 273678900 871741433 52156625 521212114 159222866 495773980 378660078 188592432 690116184 672394535 808818473 824926271 186358884 300933812 84116169 291700306 146953495 897609314 650008394 830137031 518984424 309538000 400170397 285699876 706382347 549855673 532354846 491732373 807056414 51928302 564217547 875810658 270840152 448210344 280875895 941057957 581298682 357503369 13792095 170903124 574111958 922399843 968182398 863945993 820017529 855693792 115914792 758701586 482724125 447912587 480554637 335483973 137300801 830793892 103089807 691856147 265172679 876066690 538568468 677253860 374994492 81137590 157302214 514411444 556932198 209977400 784003059 827879702 467155835 542670694 126534000 514170132 383672114 893580896 41248672 538877798 535637061 946150398 179519644 771676601 989084731 3172190 678958107 832992258 233742545 964155593 261303321 303585191 401523275 549025318 123575318 383201626 851004239 687592082 185196718 998305142 622979299 30434317 976591771 785640544 206241706 631925496 373963453 464735563 317722564 279117895 671118456 383218514 970178606 799863868 705224802 930097405 653808394 913601725 235988319 840478076 171612880 8292077 972827916 525523071 954521927 413575119 286334990 192269245 609473889 15988435 781569565 996773849 608804949 736825848 931319175 366283782 901356293 558702116 336828606 81295415 927418601 28885145 143137187 545278279 128950287 97954170 914088983 754834053 930472355 80610376 983128048 295832022 570804953 324336230 364936357 366336680 127771671 797545750 561587446 704702969 206253861 868959384 526507941 323761307 208681165 574580016 537746615 777527806 146284893 244290439 402166129 895614332 615492311 455283587 316173897 704292952 18244521 347425385 835089379 113416721 30366569 608893619 103974971 85601290 478721177 615722695 192713437 123116732 538750158 835428686 350442843 406936671 641556124 58094552 187584145 908180819 834010252 859295989 802028059 962560102 82826264 198531400 58021327 748836180 239036556 837940442 754158697 968891450 76898961 174643406 54026264 661569889 965480117 377143028 178955188 241175812 700296071 784595193 876330705 128129460 713341037 78325962 486131717 591842514 564343432 860883044 53642571 747616221 485128074 564659282 32209334 750178885 377097506 855559294 542663788 820201410 277452523 846214887 535492147 159645660 129576761 4289417 812538323 352834941 734777924 221899268 746670978 350676745 705228879 634325636 985892493 420524138 313850405 896529978 879996144 145908349 994891204 757592835 257784699 374830143 254253116 59048088 164517937 369298503 938808270 386115045 180048555 271454535 311285820 317554753 933784998 363549436 731833555 541136701 321871158 877731389 559534285 204349745 17283962 809407402 520251077 410260294 627973279 782904629 611689239 68860307 126300605 721559642 572295445 925655752 783464489 15630012 787967084 409550170 825127535 614924703 366077175 526945492 707644727 367676666 329780070 621838935 590359505 346706735 310336276 477862567 456848957 387731540 715747902 429160464 59344957 634242120 824713985 970945146 761952369 875462448 762385734 598491543 181230110 262001180 809314383 393332481 708395960 862567833 235975501 549647282 254470894 818346253 574010699 878500886 536432956 674024608 95986450 426868296 135113598 449856929 736191858 508883418 180077698 409491030 401803155 21001553 500856000 521078546 508078718 843592230 345831092 285590177 86351861 963490078 216249130 830970472 18338324 991838213 954009513 338559276 488118827 947100568 16972113 222104443 684624687 216973959 992957959 155345791 616342957 40377030 288428632 515963087 112514459 776900899 719875465 670543930 825449953 878793560 915481327 475256526 636223298 444761692 873631273 327361944 840418727 983075538 871582178 599379383 739239677 738003362 324609043 33830826 305750174 2116440 702034417 349029167 425514074 504859361 958407681 863193842 682212189 126965870 213216047 589890097 810686763 195762953 378303679 628537025 34821705 380687246 429142954 471122742 733331326 718322188 138623263 527513338 222895709 899616912 646608844 373495932 2923003 312570927 760346147 16006995 561473411 669098287 984755483 725843417 756588307 224194835 202803577 813076143 675012193 335916479 606678794 233254913 546875667 884103260 470141330 777615642 376000045 584590551 184076568 887883333 195008267 279420256 164854668 617430384 193204636 322461830 109364647 215040931 798979713 520353734 235330110 38104342 491569768 331454508 301897948 952255849 456763929 302915734 795414174 159617767 881864093 634651106 375350010 532179244 18099708 890791278 41702508 980711703 928754522 939145193 79717822 936762972 410212150 626887969 62256059 985898751 452001502 749268825 573822441 255600375 916334417 188944491 370236893 341764361 737819164 712682199 206105235 736739459 795982405 609095086 677346884 924229263 58325385 934380243 299670473 556340472 629981990 227797326 131172732 259969378 850260290 570007377 245284623 279820784 442615385 134411450 320053193 603347471 65221415 356766902 93292552 212986444 565732328 325558774 489522911 459089989 696833162 277302434 515281594 319879712 976935607 521322101 686168754 263716769 833952210 592903843 774192719 251801212 869529149 865977188 977502303 261668495 530120475 428697977 710530250 814708073 908362113 342222514 832110729 753895716 435365774 808309295 400016204 639889170 942501202 914841710 540455901 555878967 594558219 857799912 179917180 259276715 470746194 585777452 548595408 976839459 574028245 568043458 795631204 704192233 37052693 22813316 216704653 863613450 469389517 639776264 280134988 469443192 613107312 266406071 718875562 457791652 517099364 846765940 575729287 154577248 834069458 587899295 263110891 364622710 453996720 524641208 432983272 832903334 621752153 830723432 406494074 642602771 168976906 847987173 888865100 579607063 532887947 868144850 211526025 152486119 708187681 495017695 61076831 779535286 169163189 397205269 576389001 971402140 447844384 414474820 979969039 950091983 833240834 976631573 768811911 575732926 754063585 401461148 26346846 913555162 416864260 926545694 11130348 906408433 938094418 337088610 198983100 799449943 324487775 524824795 750778516 68574603 83339378 780494403 747038079 601568671 347455502 246410761 273805414 993819766 211736830 741376108 903539903 435704439 552070213 678573557 593870371 165317619 460087004 638634374 723451948 103599955 953807084 714430443 843858140 551589791 557823665 33553498 596585848 659062466 886621318 352578180 127416736 368189847 197078627 415203479 803544317 392107985 360200347 636708037 975799907 483292767 496039094 540651604 187601255 577731996 739471183 385227603 907692678 974720362 330437955 61970698 839630849 775946892 730776070 900337631 684486059 336270353 815268057 731482265 259505237 85299116 553244689 102296162 209373582 603947163 78569412 315623161 383325256 338254737 455501254 734244327 36244983 851128828 386883916 177538497 67454840 217079250 220383230 63480561 2706309 892286382 905143634 58527202 218038873 549319060 547329397 271969594 189724882 409729066 37654810 523994899 415307517 600147106 309668403 13591432 333594324 915489085 298898057 536309930 235638470 951266468 258730263 70578208 864507257 406103229 627379048 65515301 757902994 360446475 853580799 755027614 380501262 12147381 921793408 543452998 310804422 115632627 116507969 807685278 954346595 759679575 567090775 853340304 766365489 890435774 466988961 369115162 22663282 938550773 838012770 829883091 618987726 526756747 505918657 630569446 855624654 796059297 932263537 646631893 443241645 458815192 980152300 770076076 509777180 149060523 478463575 8535999 884949797 578704979 761821875 537823660 503600139 802911295 61257734 845071302 341002139 517158166 820447445 5654391 779416675 762843120 380668469 50604388 351806388 865332303 715005763 993419855 967170976 890779104 70978909 686852051 892187596 852733460 102123308 652436387 16381473 962672504 3438008 987120421 289273504 607011368 328511763 491762489 762549873 65802071 847179409 220660967 919605215 462229376 74024423 117057322 304241188 608117764 289204556 11133357 609097181 685814101 231416902 103373922 116715367 689417729 359638927 25186834 295847328 439003067 303201990 733404695 106734409 223357937 672572068 581298168 51420081 836060990 447039298 694123002 791527810 568976668 223792254 20375328 251442293 908848994 545374883 912397061 636911063 507304732 819493904 500870925 444050895 522185955 983953418 783416004 281936838 568527521 557296011 584159014 181818567 938548175 563224591 87444082 116864713 382293820 51690255 334826641 870473474 946935804 715713104 212579131 318358190 579330409 554302136 230813938 690912628 990077202 685581586 121318347 892209003 862634561 199756563 962950518 89395292 783529935 81511241 484520663 530912047 262096814 323252275 729182195 246689203 192962289 937548926 271116990 300921875 946007698 330595445 73748500 608649314 848321169 746418135 758686468 600202845 411652342 571037769 706439616 539336449 809721773 719693109 40001941 254006179 814855521 449739777 88947275 757272173 182797897 645788000 842206646 722255123 707039755 99484192 619456714 195220986 468018919 895786955 826971235 955527345 697375602 644818271 188183000 721536572 976374912 912932637 208666778 26207686 268625735 624691711 628564129 94186955 120609445 166006725 886751300 614759834 119778056 178270719 134405870 510278753 386937960 761542550 61529599 707283235 251377578 68339321 519331776 415141394 244909340 46317163 408093278 130282344 11487140 244772813 115851886 271248408 990493165 849762034 853308614 607318268 69518497 237636323 153341770 754448548 267548147 197279470 98191494 184406917 518873061 242271992 85302184 616691273 483653961 628378128 302732090 414473736 265537376 408194827 695772089 571238855 77573728 420856572 396369412 650740627 769330678 666883607 425226982 965319380 669501819 261010725 392729206 889331545 419014464 186107381 389063027 649095346 825120129 367823562 690380324 840849804 431738381 495573598 572127962 988754949 30941120 385508969 611312219 298729785 296194626 861296975 258232533 551465365 513788289 806376481 661621489 369779077 475036164 944886383 951459118 804010520 203962265 326762651 459689011 861332269 677676915 875520091 832538173 184999702 548848113 455757951 344365787 654312046 893213087 470653603 468952367 756108137 249400139 558808165 107648328 853030052 430319244 917271513 317957805 318888345 378492561 128489764 690316941 828387119 334058291 139771353 567947151 804914911 813954672 441134104 716352700 219056540 975089861 641727079 596038204 612279672 350304968 523194094 920890851 94615850 69288945 240450496 729777216 576056604 443673356 783310678 880753678 383293759 469755200 153030647 114922789 605496407 830074178 219245880 154733326 14946001 150452375 987664536 162723791 884307818 698291028 21880763 284322096 499067292 803533575 119277148 128161931 132704272 725949765 586995737 444803319 889290626 75368610 465200549 38008340 141539547 194315669 746984177 456522070 707158185 747863694 570437139 11301455 63970275 69301133 104984362 528076417 851662075 838249673 125227835 906285360 206180005 91981777 503157126 820370004 413989194 898962437 770330253 253856230 340049255 617257542 80547975 324852808 250567581 365677982 593881954 716779598 669779993 807327611 599711556 570600158 433567567 830851449 498442190 411328859 568438587 203306239 5203700 420440678 886284397 677463510 609724664 200954095 927560144 888674498 234898312 907533241 774269252 625584209 380847326 347119794 451201469 963055967 563345378 67851651 817560182 385884699 114817079 772711285 75610641 609969497 109421810 72122345 730799354 628293376 206134696 241939543 509579228 649644513 501950363 7730007 267648181 642329714 445805734 764703949 592778859 739084262 480841747 836974103 41036231 156281355 660190209 753014596 426542640 752679074 293619740 476623233 850922704 929422784 174323592 490938346 78058968 322591274 23326061 422551834 880650232 583089092 440073370 784225014 986013185 350061602 501472368 629679965 703424632 696864235 510313192 982986759 989940730 411638358 269634564 837046485 956215906 764047158 281406714 254284269 599936096 973473007 369772211 909616632 717602071 560558789 757605431 313744151 915230280 346224208 980168396 333310449 202510023 115912324 425180518 975759051 798095170 802787569 736660406 640298871 535800347 291737224 162684740 995959635 615588162 2790961 885814514 456852776 299464501 194272277 967404070 198287092 958937903 616545624 766949213 989012511 339909429 631309255 434822526 463961520 553292134 927421330 347301780 701424933 163434761 990712236 143186803 489810891 345988119 752515414 361104596 337413740 837965583 909295587 878689319 903758492 36132338 781549593 628770451 927332173 981550024 835994188 707040540 837868129 54989048 775225683 336484823 988211534 777948830 800467699 629230760 878858275 788220983 517669034 109677753 868125063 449523025 435974946 472809056 825771287 428390883 142817652 17256081 971819415 261912830 83151193 915272733 684632630 428130598 504472724 324503095 754756289 790200399 694920744 837111873 956207265 493948738 668905199 222421562 881424393 255599676 328653547 612429444 427198217 28560647 692176939 25909166 893852479 99410850 719399755 885448721 934358714 592299615 213049170 479507455 623413257 526859077 374099010 733112250 641504402 774337614 288700 7123774 951412065 114000750 30364263 979149579 380141770 957218435 534778589 84894078 787968230 809910242 639691989 783757899 696411673 432983438 273141060 436799422 601280348 942206097 675163279 401048812 188519402 217750284 587062545 512278256 158215404 9077697 978563791 21354133 691236836 911700534 138185695 935262943 315591655 432376185 840465550 149152424 349319384 765851755 150626748 141762162 308789538 845286129 476839455 235438136 85408274 825661755 293079662 913277768 680047809 933422861 260465991 493709460 208380067 601016985 789378828 853917168 122665011 83900288 183773234 515890569 959671152 214524858 905273625 677766602 108557122 482073627 153414826 393336008 916598544 402063503 57308972 132485625 241575947 34130358 583861865 783149587 677539238 566453736 633025564 462351016 969677467 918766065 364861005 567247033 582015423 305834216 118253255 497327391 402884471 894097655 443170864 631810925 41233530 873525770 481168955 57348532 657880724 360023602 413300489 667244387 416049806 781182888 88565324 766422376 332928071 970112462 347077344 538686827 810390945 201818393 16750294 796598144 659215608 504822756 842334219 979734345 657535472 528073725 819575604 275073513 964601404 749542944 36867769 305702650 209953662 288707931 701120751 962014831 513865440 298168614 458285863 887814771 692950315 961045323 747449167 561281497 543510996 726115454 561570732 164954423 554203149 378304435 629492528 703991590 316768604 173584711 719729009 966035990 177234111 73073107 687012417 233212407 588470272 542946334 253989105 636264140 271052693 252942095 550114518 197152796 385853843 597750694 530375667 678200690 103120752 62592703 669957120 806688768 512957623 180041445 297208988 391887166 499892831 985391300 710538356 922509653 317834391 325685425 360217323 488667630 231463622 923782869 437300666 815393777 915026210 529828011 678820322 171776300 146058883 180111581 585013377 591195870 479636156 950149715 734043903 694567259 122624819 71673283 389717842 912563557 812895505 79576670 401147678 936487271 559738004 538478857 430598029 55542190 832504256 140125249 959961431 485654257 251196244 348541093 508582561 336846371 120731030 134519400 584395455 869124436 174926657 288364273 15910595 846682401 438203228 601129543 596797996 969128288 620100298 895519505 396001958 175731651 283357693 216899319 359892668 780849236 563260144 806297790 134632559 716748877 681525617 206053982 222833691 783832623 7406495 676470800 930064298 639838647 638349672 915795123 175927355 602769933 764535995 229693903 730205116 488376943 361009451 354455861 954068038 432203573 714394123 947558328 316859382 571768716 184006946 128743394 945054552 432262193 673633073 349212636 775129706 824378176 928848758 629044499 47157594 314638863 728614375 985459589 283850076 817638283 864524792 238844350 630244962 194301310 157334788 663933024 818184888 72842276 743091223 476068031 891128867 436836158 814291923 625180173 559085014 785195516 919252530 110247978 843095030 839099870 531097554 513600972 92912933 549560354 263804835 15205560 267800073 212705242 427940744 53511916 308996840 553213485 673051319 315015139 892863150 42003296 623651197 382650980 547389017 629565259 551643690 804242694 370723519 147255106 482539957 380776127 501951070 453893261 611574444 859167830 656166595 41848226 56798126 436026379 436400782 198745124 251738098 93830247 90085196 594591046 496904072 533005965 829526551 824817463 166700070 662537948 676113341 220430454 151973447 638857941 170343085 500973053 619337083 173709410 228555547 896995358 909322583 955087552 781876215 742948713 154780428 235223229 677456932 104498853 528539879 259656374 918832353 425485007 368652521 704214802 749598852 769701619 272409338 500081402 809695488 616122489 491561004 558563742 769964637 285855736 492111693 865542359 480625336 394289307 269884189 102406937 18605890 994077729 43997088 947445132 350006337 967327544 72594207 321587803 166988619 421107852 669930221 284013105 470789486 101960893 816926788 693815147 319308292 254547854 413438365 917246887 189658158 168828466 735422143 146287265 564527308 124089302 353650939 899996674 774794256 968958492 157151175 612350914 63700288 347790677 258719726 957614721 422447824 155660383 497268325 10209417 456456907 162571439 329697205 335071059 890023816 642591627 87265688 979183505 941524551 949308196 9814726 20963224 364946554 281931943 956962289 562814225 369124393 817349186 637928311 57016953 979639193 183312031 255446906 985069572 526121579 260152824 103850281 97949239 972485667 498076269 710139416 491243374 132226098 884782026 642724132 665793305 262542604 961130302 479963103 844260758 315029399 81338660 762207314 221178361 36832230 125568711 873533821 263930470 990997357 498657638 926791198 535671984 556790571 382015011 352964305 50019010 317096372 65523061 771373707 35392482 267138811 785021645 406935404 591148619 698337868 237714342 258287403 665750154 509020063 52565539 152442493 912900948 99938587 752283786 509909730 549216053 166336218 522936358 945869025 467103684 195026860 140485252 165360255 212446347 706502186 150673611 154382607 362241283 165157207 844396916 44842327 710800824 705590355 289141168 18168433 29731683 329744054 252844133 756109517 183907334 477984006 283467073 20866757 160646571 949691904 882535947 668577674 826107829 268460113 206738029 957419996 163786928 188882689 475324468 662507191 523770450 780293786 123146020 533634058 412380029 351225367 244752287 129118153 502607101 253273308 328007064 439635775 590199445 616901360 33933235 60819987 695130461 304380989 923282664 20227379 998084000 444375540 31418588 566599804 737129372 702196455 471219866 791095605 837626956 21439192 330696157 904197280 199097033 766109711 498329125 146902507 493577098 909214463 965663645 910319004 972125522 952016193 506857345 121323292 889868360 565222424 893439431 702038053 488030353 103771986 139912592 626442157 805796509 608764305 314166648 39308382 267487002 825689197 248092680 82185237 744527970 68145576 794571226 578649860 582466796 32203432 913611087 517089887 696559751 104694786 522042410 79229603 172203463 357518651 963121853 650603127 398176786 191932755 341061203 887313017 809317010 428491476 811104908 263268041 360717425 633569915 870365634 124632781 554182117 955465615 231624572 823290459 379488046 396699449 78912670 467926571 829463027 773701666 206979688 986122482 867747356 874589817 340162675 10347914 448320874 89507220 568919209 126894141 67206811 560894862 506248193 338511358 925277320 209326245 263542151 789721341 453343849 989385621 430645813 624496941 656894875 786194054 982640345 933070341 805352894 902548031 299683895 741340255 611118886 19602159 759615824 541321529 65759443 437190132 889794125 776617200 896387811 255872623 849109328 755455086 797866980 818886486 654227033 261223928 464793242 746629926 952770165 201121633 346204036 869944888 67540206 799188240 201794889 171771151 107110610 705597345 597156300 42687551 819534121 931826765 976216648 78581310 754953026 586856084 783787202 792914957 524403614 948166768 681903911 928037890 881979016 507432244 471850699 43601680 378710536 92724715 696904718 805271082 903092069 188015753 645711048 547817500 680721126 573845092 30554241 312164548 11368455 347526456 579644017 136186712 371225754 357427485 383537974 472925170 648373337 437327154 155704602 57851609 712984791 576192153 287599799 138886575 765362687 944812155 903792679 914453529 139862968 581415501 567019277 724668628 224677227 456367508 389074417 777916566 704167879 714188035 148417779 783760727 998242974 923958332 664860785 604667969 167429510 327917851 1810151 276762502 377928267 501830939 908934682 343718123 848824551 909664293 881269923 396780690 884708356 91718228 501952294 211553252 294030666 422477626 527565425 532959574 418466633 296208486 236325674 201549164 404504381 863810338 118629795 599327476 631623784 985845524 59465841 941808989 888249312 395354211 200828436 431406731 889662164 253129964 709185212 378000039 99925884 569207815 513622232 951073947 673255798 526368787 343139259 794514399 131953129 788082301 904374899 162685486 890472514 996950872 360734575 527295005 663971866 960790436 567856034 97420945 222769731 124793567 884802703 119879534 79326668 180389057 901293836 476956689 253867647 840686116 434272518 441833746 120059403 370053260 990237175 517585527 198028073 525199503 867061430 446189416 819268141 378679885 906380958 970836501 58175745 677920956 708474955 51794351 451153333 318988189 474300421 344005384 486524377 611990021 209805657 218183134 740035662 425159493 461446964 422347396 116975666 17763343 235060215 875800189 251594224 274981710 510475703 510068426 898069111 383304134 353241818 978045820 44007067 737787912 848519530 616404037 214887419 22573103 171829034 571011489 401650911 656460125 513555563 183101918 913060891 802886152 287913423 893958382 989345746 2779032 959467581 74098812 60226831 968108739 408262666 790878954 935719961 725937518 555977234 20559518 868173610 410140158 368829581 855298561 482736550 852653511 632951040 269627603 453554993 256446624 545299901 536478217 934565697 130849915 568932942 544110696 124787589 248834571 710002346 967196780 526133861 384680722 708394917 672592166 381926355 142468209 420356480 565078445 139665290 98766051 685002417 425396589 710156846 479613021 186220726 571605520 30662830 530248081 228217850 627271268 976393720 764900528 338236892 989730572 424664296 963925812 287357551 789938828 185701267 795684770 830163546 861774610 713566862 609328132 538876180 575452170 236776350 861619538 461735263 117232328 684270105 93016812 779827461 710047325 645632811 661380235 754479175 428926967 255681309 518849469 594181317 200978303 258161015 737460340 612428014 252805806 631422197 5429558 41885442 240813453 150354751 49026895 883287238 147949518 158969124 909717930 534816733 104198164 832990836 817082076 201812035 74109125 879704485 933620347 388593701 355078518 542327167 421041457 693550457 713273430 220485946 707653948 898257881 496963443 473351631 446731210 798589780 122666116 348478299 605859970 284858853 150224883 594967123 140139981 532682861 636322304 555771121 619351138 818202321 808944825 459881684 168385485 875852029 263791919 57707546 914059550 757299007 137561804 928182429 298277022 822469224 695609516 502929043 143809786 154412649 6081786 726407333 316625816 843420715 19834666 949245724 623188365 99626184 408411903 234466371 458689713 712206253 406282693 317391660 435290402 453770281 142636376 992147491 3112445 560026051 740024267 538165716 237951270 942671362 531773709 386570941 931536477 364869592 70669484 324170687 466561626 729406262 55222779 50193053 207376345 400931451 436882511 995388727 712986880 76681436 116430014 195608250 554236202 104910234 545148294 57377054 959760086 122429185 792456136 183103166 460044444 757264202 165659439 661392671 689300535 236143244 575995351 878300751 232884406 244295085 38882413 20269929 676508093 857093723 484823742 773314695 422269514 721766408 408632647 476629345 528691202 911917655 275020798 675404191 348107417 663537944 413062158 251588106 39821765 634032825 265647194 673577906 398086091 983787713 333314083 824332662 644835005 872145449 465584572 843131852 982532884 965271223 962400211 696830882 803432332 559805535 26145303 153597711 691740277 500404058 214989524 20077106 259093860 384703526 988945941 968882321 465572296 296386336 474093237 774259896 973791890 531999339 31113711 778212262 389766646 15688114 145418041 75915941 217740730 346977480 672518421 677695286 507254719 300671015 112470464 991378159 584126853 833088626 245017816 312814541 501394985 191892760 866021071 703317333 246508742 708256630 220200421 786130193 818152657 668190442 423415497 796712413 756481725 386454325 137704457 400939999 427831985 550600727 21821107 74256417 899433825 957169456 131700362 199780355 639392732 394629631 720170375 468663745 183010194 136265699 369471766 206696175 781653694 881752495 242782604 199875504 110304813 238880152 68059560 808456619 286988020 811443060 717972390 284063421 85581154 108486337 122637934 416175085 71855039 91977005 446182493 626736156 543111379 579905479 96199695 731334190 599838696 709963904 52268564 337290800 647965150 44649886 545462210 445902857 522882358 162005338 841143313 789186608 995993595 352773865 987673779 70999456 561693201 336196416 606074547 955404194 760949552 958951386 937833938 681716540 523217471 89659328 429089498 907272596 250314673 332668894 908402642 977494610 228459988 639656730 572370004 932789749 76297676 177399647 460947071 60995693 862644942 392055877 273383840 229820853 63334407 489465108 621650545 348742943 325433675 468095024 129236550 375342602 488539398 654570167 271469435 150825967 950035130 683198089 909856987 418944612 650923735 551278322 294691274 735562344 798726256 768691540 881676639 515035286 412914134 777281027 537781077 831387126 53924160 824012389 539886251 374055306 474989289 743852423 124850216 780309286 664927899 44275625 964400039 966402732 578265129 595834148 12008870 732261607 694862709 89115865 746030931 654732139 420625506 834526223 262472228 192330594 276386116 219319830
