5616
637277835 97905578 184278805 284618964 863377019 863141747 799980792 175773421 745938876 153029212 703579938 915971188 168370823 537979599 718819188 37240222 643968500 634144568 700003649 355786089 999852501 14594764 59697571 564081675 139626579 203920689 114375134 830090455 107304408 203093342 191235483 634382927 115173219 233857168 355479825 220850362 916727884 805406338 391148856 542443914 248042910 87455181 690535484 468157088 44991973 348921616 575790359 916634902 27052015 885523799 371847035 682624273 34697713 238023932 791056174 232354061 280906850 377047765 943852570 812704650 988561976 727292193 612542749 390134594 826948624 728507271 171901040 601024103 516446780 350726365 775003255 28217386 524763606 166441150 881759707 155494906 861382993 766684675 935637605 757262083 320896502 956870069 846253529 832735084 572600456 596989770 972013484 813556917 678635313 328285374 222547215 893761105 946970251 211167039 153424453 933023547 747493295 776314528 351262297 451369273 790788509 172240872 251996965 654814856 338937653 230120175 930804385 558583584 345461838 598119391 756815868 625567987 339096128 279624552 943800215 278671268 224466741 547133903 513355688 216435971 172070588 328178719 884179202 739997877 767719349 752194161 234700550 983641275 254170615 422681473 836129352 674425168 377503706 649111323 747698185 677206586 857794672 739024284 697143154 94703807 95461638 95598818 104772351 604114976 891305505 624483697 369204129 764300027 129174554 582085979 777703682 659982666 292136606 593294952 65423046 370803399 570952839 768043389 348979849 631265833 375077964 563674690 63933310 35752357 613022103 666413629 219817629 421467983 103212120 777127384 218226493 702942162 934789940 560446520 319884437 797057220 490603147 409149944 819289013 535338085 99767127 506102689 889692559 164390043 171476753 129406862 570725225 117103428 57701989 390195420 226857455 559321116 940283511 904237927 721756735 546823636 654807830 664544839 353613838 382425497 173586271 318622021 848915795 12194935 270198022 565929494 78870429 734088991 207988198 577352344 46440336 96294873 419794826 787246749 65056053 529629184 277550424 121175290 228208070 867324942 628997966 909237488 300831764 577962884 572817465 750561566 366563006 111718028 175804573 958474618 290526950 735663081 310106265 45899880 972256380 721004017 174324041 509449408 836634056 305383147 454920598 786697439 262611338 675348811 285206697 301974474 153388340 900216477 836819088 744366095 488145741 479600195 374508813 428334202 912952191 25827896 961877385 142421587 401614786 934470407 402054503 71474 823191223 817505535 24483750 957539287 493759723 975641293 527225258 470177402 184698975 531331705 508957531 38628700 179544980 390616959 243031472 78175942 621500217 578956080 548659974 524498074 564864332 273721858 649886466 83703734 196949032 975909081 289325276 616869571 505696555 67295554 900466888 119266400 64486206 281978600 986750471 787993400 38742034 12024965 419298720 620922925 646882693 114945582 997166120 596827039 544220909 647806007 402887948 78148429 361930335 941085275 400033685 167567251 89710883 256354027 747630095 431785137 603592756 258441102 760926590 534112856 215685792 442646721 96382914 482132709 129013146 939087704 670935266 817258766 245931980 622073800 990775729 922921577 804431371 31192801 75319884 742188815 343647572 618351804 663339619 420495682 682614625 621137259 686117702 294079081 1187871 510980446 77568574 319549904 318187879 657920194 982700967 640632727 468652051 977432675 859176851 404513435 723540064 333798801 272019639 588837422 506809784 740863173 48106483 124764101 503011628 660067264 639944486 209394459 117859207 976547909 154422645 261349648 997023817 596394763 335450892 821874824 363463524 688271269 555934814 524898917 910852443 153416661 612578494 959521447 787222922 683998706 789756333 694737393 936672682 604205920 366842509 695406837 658805424 15518039 491876927 495531865 891030069 825259529 492073527 902898868 174224790 896960193 809901520 387440782 463404857 653688116 97584197 161895835 62906009 62464859 557745328 753072781 975925568 987832058 948635222 258013533 785955414 225214246 782761774 372728361 135806407 341424468 439591694 133099893 270420765 747024280 67519118 720694364 323492705 718194043 660477203 606797425 638781847 362916184 269475257 257896824 223944250 927190400 374868150 157892874 452602426 866770117 839452528 968499363 102393276 184282998 198104251 707154136 876876593 518213582 795322450 465936056 259959469 808273504 696681406 40763716 682559893 701180733 278064631 870613256 578815767 74417846 452573658 886491190 460326026 56745020 829828049 114625096 62478990 87891498 371341486 743461238 462547142 954658471 910639079 324265118 748988350 406032448 839597102 278138642 998942599 171188638 659093945 683117668 54896895 61673151 585694255 619479265 368774934 108876641 45359795 142774468 232557482 19233135 886987191 260084975 785497379 22034821 46800894 773646890 759549763 331405545 920634858 226095172 284303669 100913614 100506767 193325952 875721894 526526574 77773068 351647305 277171985 470781130 397562409 66398406 871346216 430105939 577047912 784402826 918889622 604360775 164029330 901878827 336847413 957159400 185534968 591236438 389842590 306341183 5886946 38521015 809807922 152889344 211423267 571582451 631931841 652316216 757468149 572981075 786650494 653523305 847514707 372947908 609240506 853156725 344922615 862483519 117269850 518086478 514225918 504923700 757440614 242556155 240724222 740078898 397824895 661481343 37043414 982446190 8589030 335765502 743192754 520018999 446016274 786591983 412336513 469163164 621039190 855537420 691845571 188180183 181684573 61961846 235212018 463897801 765437052 539903680 262675793 521976995 476700039 658418598 118326134 604240753 971904997 445055188 604015513 694328685 938014875 226246465 830699565 521164051 607151841 587992287 225732709 723131820 627770001 232078670 486284810 864765068 323619169 314290219 998741373 826130308 159348695 547504780 133818127 781993518 811741617 108319171 760974684 689035263 735868737 748239109 744716854 805509892 894918843 985712354 265519899 304957289 263317286 308877262 631601692 294758587 590586492 33406137 685810219 71131746 604511295 688979010 831206352 303203069 920434058 798222497 557894280 669808219 531540668 987770943 850902247 750249853 953841143 572672028 373101375 736518569 92689318 415097162 130428653 438296022 502978046 658259591 429011692 892846659 836446942 863131786 203406652 910790148 604221613 355142916 650880799 396714655 652785285 839469670 942868918 139940582 738265087 156018156 113158435 251096097 694049876 177166844 330675279 501602725 551484852 479906259 462858375 355857467 361096268 507123775 814149132 286239400 126163556 475397384 967267344 706697607 113496186 43027256 689696634 121615432 732301300 51339408 172452913 377092863 96504159 684397371 294304713 911948672 449088932 389812017 65280230 372989397 78941991 834130373 683874734 461248617 888401340 665397344 152910442 504234927 857090408 368806058 439098042 352049811 156260417 677206545 165885739 646385026 144927246 92425725 512940473 740540970 351464496 767787410 561644865 862654151 698997635 585505757 111198213 623047791 586746710 307122334 687563554 283656656 447367907 151324400 379647429 350345762 175941192 759550402 525145330 137342184 134795610 263211191 138061524 744152843 508123919 457229815 696988345 629504229 748428142 200340548 730998062 977169153 313105024 323126310 121105719 918628316 564162985 352271196 923727958 422713230 480942667 320794867 356955580 264722628 441291910 481372332 243760085 763047889 909390046 370675716 21525577 964951079 175647452 642093471 24327492 831145348 942483699 190252024 723091896 140466581 271706611 224664324 258034086 439774644 649619080 426543932 340240291 286237820 224165898 771963121 576373799 362841330 415341953 659580011 677270 383239733 610321509 505307621 134455172 86816810 111632480 432334378 535171504 557933544 365880687 968425372 190552050 505465894 202416695 244685791 183758077 426009113 616894883 679957697 397092573 285216766 512923719 65150605 825387094 881554217 899763108 258737899 352400252 156727820 416244045 406332146 616495832 891237544 117285258 722570844 479376785 380942917 110832137 662353663 427767439 274442642 227238640 869486919 120877680 723613875 938053165 533686633 844507159 518171566 673926791 323429068 425127533 276304356 769059063 352974081 600282520 947189330 897611501 459159345 678033345 885202879 137263699 689116502 400417618 256155041 350632617 519256223 536992202 181486059 111534294 917702260 330802384 973277789 71013390 381552039 426424685 64546998 472234968 905386593 563355904 481153510 777007602 435357732 561064627 825884830 966546458 113393476 617289918 444290435 275667708 974750482 466094886 772726846 282779533 119317275 726129860 793145226 667454395 72678349 700835656 206695863 955615266 104516157 415864081 198990420 804604907 979230189 174183887 970855477 678093447 562406066 343263663 977205489 85414624 535670004 225444864 884516700 757990127 861558633 391241455 924218543 243953321 648791814 974946026 62244232 991156811 650110101 246810055 610985332 820369518 184521600 634299795 482882233 618961046 403222860 451222461 93844577 439788935 764041140 472429033 823748957 823063974 874852712 303919478 490966865 70296222 954792435 242267953 869264586 497036834 637645183 764833667 847022326 963852961 926836940 439264045 288536981 912001341 310965848 6523862 135899209 976263697 424210172 113958496 618425541 123616896 45235814 435820964 143837399 246897159 951216157 582269658 488919356 723194429 867779871 888611831 320248725 509529895 92692403 287474829 116993901 718040276 650115887 667661506 224432871 889782300 510087332 961593170 137091611 182859665 435642926 47948963 309722351 120460687 868976436 755578190 560446875 266190928 756253366 78446439 157842173 777690595 118969994 629271616 760569921 562238221 110663651 299221454 195728936 843111330 651543744 110640565 52885930 937144008 46832742 288995115 358071720 29243659 184120626 956970623 993273733 166491201 813405618 936695093 530512739 770930940 417642364 887310483 376740340 59955159 363538880 118198917 529905505 320417161 81629824 185090024 921397440 356654564 949665027 528372007 528447722 668355787 895673025 91139275 264167979 171942454 154399116 211060333 344040285 265195510 259969216 201547570 426057911 226864032 932765063 960514397 458216567 835302204 368114474 183086099 87716145 780786433 445481380 11798507 434223298 856406117 605738060 717136128 457427255 503104956 787349086 38236636 783001714 334703508 75635654 833427842 791443709 330760173 342332399 656100884 807523835 270084251 441938447 301363133 949844276 521380962 249599961 572486472 140242701 221505491 853249444 573866094 403221084 133785591 759325250 614945940 599419077 810043375 179151699 459126749 880802649 437384677 869009638 522149368 119940033 524401163 350255554 493826494 548876783 923305357 284168636 746245113 448308468 683261533 57951952 295404217 56330907 979462874 443214186 269610400 847367065 338935642 946229943 823393430 827155714 18393918 198123965 636544151 137757698 10553488 345079717 344224584 569448192 917974429 538686047 559106229 795729734 548419697 361321581 38483536 797697858 207368358 60567528 104041343 921214720 251756776 683009518 292284301 840149916 259859172 825875517 852615990 893863514 150960461 147559942 159335513 617666734 959113262 636150668 434651686 478425962 16113735 954278760 43783282 490569876 547680418 143777400 816393511 34601631 302358793 297495981 687762407 106053507 578785229 534381171 546231300 904470049 458034260 330355992 318004981 888112351 253103686 839544488 996263936 872763966 329594966 979592039 229171878 528132823 996100249 398994239 843392814 658837930 266745987 936745103 974517704 380598466 354604382 677108566 189625187 846760933 776151996 252962170 964306326 17245423 400243942 192299589 458635448 344725947 59884208 774581881 953187348 404532866 324886769 832692632 446861067 962080309 311251537 403539130 846720305 255725466 296146258 649882124 155107535 837752307 830747658 682814415 492938139 982309775 988152666 665661448 200470298 425166221 844944964 73664281 167263807 89949950 179438834 69181165 642105843 232421382 810720540 901443910 290195649 700849299 909377210 379776481 879876320 734953154 334307231 872758935 5109208 740684358 807203978 45698154 589306164 802524418 342855757 966967225 321691925 924434180 561765955 652708332 510168091 473530151 894198535 687578186 39450156 196259636 651162504 529623461 865963322 857979940 666880642 67363443 342282738 836347475 667415855 638892398 261513145 768568221 564467757 931372805 56048963 568761415 99792076 598969764 910965155 136966653 624447314 322561674 362878421 231209076 533711458 811724432 29709868 272222967 227503622 717744225 329358171 495842662 379154689 661398743 510993925 524508448 257264174 454690928 338827677 607476409 455420316 197492550 511512136 448693849 358652872 62138393 336318264 887223740 868596322 569963451 525018999 600736444 397008390 75493698 839529153 867269749 134304159 785667407 104253017 852366687 151259185 100324865 220902490 345619636 346481400 369471507 400384501 540266423 881365536 734557692 318634588 762451023 889967868 991971685 906738104 760433698 528946973 533824353 759505862 606754412 821495637 457470953 271776962 42760614 734990895 924970326 157197310 88755126 677479102 434868486 211762308 738813752 358271334 408472906 454217379 523467195 637450814 967996423 670512530 375116628 856573971 529265015 469419513 341450077 203278471 14665210 748654837 325133361 267517044 863266405 432585099 280843877 757144193 527497030 970331911 373207216 433366572 528065150 276510364 809425299 523852388 39061503 723250441 838587495 14206373 426948849 964805980 8912331 588518471 416597379 456616000 26147982 766382644 366209066 339584788 839648938 656318249 874104104 26303286 184126499 509576326 851564708 507032453 718740117 965682279 242422015 4214828 98386040 997035365 782059162 691207326 307947447 988849075 888723042 967087092 500114258 446233621 267852479 823309248 937240171 765379098 104416377 564190986 368239533 564277002 176634110 683282413 179165246 577041855 634112493 506493535 183173870 726479225 603838089 49786166 917379215 156286794 191387873 759901159 766915013 371080441 11784852 897962494 393480235 494632758 970379016 713921781 483001509 20692136 442177161 885500723 963587435 231600048 866173275 568432447 806233132 834263918 15871504 575350358 275903511 853754302 61797799 925910410 514985186 365485629 594060672 57772331 859353254 501599292 641068165 637140365 810480543 27919341 990722016 459067299 543770297 345310056 569930344 938019391 585615172 307727407 954052800 696620317 767776066 216721620 556489541 518220020 830305077 710182544 348048742 635386054 744427473 816827706 414406646 201171977 97381409 995228519 350778776 40872684 325349730 43770737 160729535 786622058 401906016 99492722 925933211 736326161 733704955 338279016 126777796 278354401 791390047 858800688 503336354 700997044 952760432 539920943 30150684 866139203 882762118 258075544 844113527 970563360 240526054 200417033 691810875 468489090 584723352 767492627 780960878 750940118 929457259 646400521 258266118 238073141 570855344 323910735 919383959 278573103 344108529 954655350 415759084 125270681 760858272 377477131 794941994 358299336 619131909 178578120 480010686 965703399 3600861 732481173 725613975 528818970 512388028 861617995 528984396 760662122 637363225 520346035 497824104 915003052 507862173 574888626 80670813 985653265 113985244 428067249 632664593 911329190 620875434 463622989 751307469 548214963 631687196 530187031 515581936 157910700 375329241 493961179 142149940 934466409 923086222 559434089 272817543 11866563 202380850 239955565 994665356 564159137 754145545 84952955 673090963 694664650 805629584 197627553 753917812 768479389 747143803 907689493 479744404 185089026 399990893 642660522 159700972 908308647 574298890 4776827 744926090 39452173 733309112 73734214 417652665 906618310 71999742 496116101 398057798 618166895 983262905 798930779 783649279 287136557 609185016 345748662 992497520 284407586 326345647 513939047 890127387 952841194 441536667 496796742 64206621 765383701 332695469 951686528 710396884 34017775 590568438 908497869 500873980 277802840 815443328 625558876 673276052 730356891 268939186 910190184 538939201 85142270 367408601 280334506 244676183 320305699 62484941 73609765 250094494 513545661 151434083 440835970 907226490 245219481 288785170 464115403 215837761 466266120 189296763 37154134 785514813 652560095 554081004 864929696 983381542 352939878 419607170 624236367 402374719 52610681 416738078 87758049 88046202 412936289 105920580 150368978 299932439 229197600 684233703 239364343 674118558 149043882 842369403 124370380 647447413 890334740 854458375 704796222 948117154 96223412 812720066 838477083 429684830 936672099 38728736 114086234 619132170 557060310 589636856 559338346 202114004 310942499 153967886 138606777 198769039 970885041 640667410 442307344 302329918 96534919 697361571 38915380 459792107 703846179 415958690 990763817 388484566 769454359 402982102 934561986 546009178 788323596 851301524 163328624 964210553 678411761 630808974 814648941 960112751 526454457 837864858 847370899 220856032 76031441 184175383 126145868 459578361 921669156 499693400 341552693 243514528 580828753 538911979 792526943 607030016 300487177 279357953 850572457 73064404 589710339 341889075 496793562 168334538 379167500 787125826 489622822 851621810 928968363 76221349 975780298 278968534 487243820 565724496 509576665 445124015 757689119 396458794 764204428 250704702 685554398 323892572 249931792 611884014 984343909 188512266 180099359 580907875 599457862 906470691 734815137 574536112 62395269 758008297 568401615 656498084 826509936 487479166 901807822 932181437 510118836 964585745 654456570 828908551 55161599 555858319 466031154 493512582 250448345 457225030 971407019 851789056 802290249 215258006 400232904 243644956 126828691 622863153 289598227 567485071 98148109 126593366 421239077 14612349 652365484 198065781 737387447 595194939 934966721 114129165 482465169 849349063 995500125 104479101 438615233 796079442 196344094 621941154 716444106 799021630 387039753 422045183 733098437 71308553 417383206 723510121 309079985 84732071 596439121 550157913 895527056 577186551 101981270 446192054 875285420 899402659 440832240 927234436 531571386 997070575 92744713 694577444 623771873 893403465 323551085 899090291 540237705 851127339 536537009 873343034 181784241 946726433 75356107 129934227 986660065 566734326 228611985 503807040 239805631 96596861 573758056 518100102 286408579 641990231 337937462 649060987 977445562 897697493 972920739 519704136 265382267 858950124 480897492 216534910 834774137 651729249 90805238 813959069 297990955 115697781 464633372 371390651 584927305 512952204 284273647 188987550 788699953 566562310 4520559 567263136 440820052 821302398 791197514 276758786 738237105 456408203 642886342 94020186 815500646 771320875 999975199 213022551 952561834 807683932 975049700 893232966 316567675 881553197 725766434 482528151 325536699 619740053 997528353 215079870 831476711 22867001 122405483 357028561 472630570 122019749 317147719 385064390 415817784 80557683 204484381 786416392 491372448 331682637 25224117 472980020 642056511 264365728 541780103 884818585 510652619 777776248 796114960 588692771 73865088 453374730 674545459 940932078 495020874 102142447 830023750 55828382 55356311 344871373 82549694 241412742 991483381 636473367 752635394 864363386 930595817 784215206 242967163 209049212 925719692 454960086 854156491 13667583 557867255 845030601 851387520 24806237 570300193 782533171 556932900 730642036 519241377 30589421 337933317 657005150 66892377 239437085 102690705 367117042 476342636 933521696 68142154 327185743 978876483 167033752 645998764 153795974 602141530 154832378 70821755 614298713 276945153 137951010 853260485 115350670 312873402 546370978 650023119 375455265 802862385 531695074 518936759 580739938 322877367 104960950 811536806 936543441 813230435 95588408 28045156 656185424 486638012 687130719 816338540 622925360 369981394 538769483 815756392 641682689 563745753 774946272 645107503 356813155 829302084 181187580 365435245 308359362 540435978 425541628 690639771 77315624 170451919 839813430 232049287 646790175 37395882 962879768 348322093 404648053 867951537 946214227 136649393 621997479 704306006 267503661 466222443 266771634 631776282 388749473 150976945 591286014 553801000 772792706 894484836 703171107 170069327 159722443 567420487 295154228 55995902 42405614 652068030 611898131 504543872 901366188 343734408 791720112 883749773 245771797 572019667 628900284 15843535 401591107 487242396 677292237 232913732 506975114 119031901 295813498 971202333 836287178 585502524 676812661 895743429 81021499 986495220 363594555 622536544 905494636 334133304 951085992 676796607 692843645 325860967 174474076 369833472 735069404 320518410 146211627 231198130 982129036 334904220 905363217 671923178 962284629 669806058 628681 420637092 422147004 791628683 671283589 494987249 797405689 281375891 299216267 406954765 859083366 626545045 306071531 337081154 217419503 480504203 565085177 711974602 289363373 795093486 286698126 219059324 106813551 31933467 638047780 280162718 97907516 169501932 507010420 3456428 208343074 394464554 46213952 413346322 598401616 137273672 555278879 560487874 276993920 862666718 72868559 955025199 161013170 652562674 5606443 339214742 927358407 92956856 934780432 605511328 324408734 53916903 41465060 886429272 914601550 197861459 706765838 755756099 990517318 2821995 126596116 272998299 969740324 855097596 690252479 355755329 703065039 705679667 39111266 636355369 980642990 211742132 295558355 451002976 338914597 854985961 831405798 895855946 194259737 508309624 33745086 315619691 521306180 86002788 914618881 125438307 153817907 568580033 716965148 202141350 239868124 643827179 224926660 474082127 136101621 219585870 415886569 597924797 964835215 833251204 114301037 78735935 179863556 372395166 570523296 211340189 370474207 922132802 714948787 577827221 226400330 793355747 830274955 888386043 255053048 152876062 257612516 547522424 383411962 204013898 651940227 170081640 858034988 33325915 981715227 739175704 372847498 899896349 971400173 497402295 484365578 212594111 381335784 59348951 914014740 871991254 225264882 175622997 476409085 726012068 396613914 491046680 833919125 583932254 899156453 366188016 527929903 417285088 185877504 283125088 591583880 338627522 967739728 555161461 86117168 954056163 346405448 547108266 429775636 889850524 189597036 569794724 826406181 771271702 559564425 745114801 214873922 716992607 19574981 292460561 834477309 333750949 365361838 616547727 26337392 399462471 479912067 74003100 234477790 922040513 983755511 496048745 338454301 524093575 752941760 535425627 992388893 946072817 281933982 391007861 925988854 961374670 548353501 589497826 514751750 356019785 455198081 715305466 213483685 657880228 234916079 874355002 923698735 430053794 213410049 595400978 188436595 344370276 325682691 685571443 564883747 398944537 446733559 284273196 986531089 893882570 510177822 262101821 931810890 631785831 8227478 519653106 18467593 878233163 181682141 367203377 410788713 172353363 20929620 640488546 270134931 822936383 958471868 194553040 163112896 242218870 654294414 371998445 229302546 96880027 419066180 631527314 323931444 407351344 125753139 882928949 835836413 108602423 746553333 563026974 456900024 246114223 904953954 365555512 648990118 811264397 680073959 320939129 902408293 194197570 994386247 581684863 430457568 786559937 96357440 501150901 69780999 995815856 974401065 576102195 448646277 569920949 902738740 822656471 344574674 439681488 334409600 544674718 856630932 877426257 680037798 864178457 950130754 509069757 140695572 545991264 406387323 634466554 867518088 317306930 508289922 109293674 595486591 999536256 315097163 482332375 390352142 890477351 890006712 237931807 781702116 557355827 89808117 954146641 880983418 226708279 850284970 519837677 399041107 539642856 538071677 303015418 518159204 342126245 262045010 297063900 155858048 949323739 729073057 812452307 522021453 705648072 795855168 540774953 86496093 174174663 606662705 62448991 731353912 923141802 753051653 334343887 338378181 864055314 442021980 20381402 110455044 118289959 554180512 10817264 816915446 629279402 76780863 35760726 519130141 793616624 656853452 817849798 180949832 401761538 389512429 650845182 822299694 441091999 762694571 365545724 790964445 875511339 363035505 618141325 834543710 426451101 677913777 914581659 883155118 748041898 104770220 325538066 914594914 804970379 359367439 503220233 47317821 102339969 93456717 20846764 858881719 759601617 110662613 515686630 707333629 220095689 345426407 39472203 26953815 713384335 429444115 1761938 844007454 859011529 594101303 572494291 182136567 439580241 197819657 728779539 135934149 428030642 398026911 584937295 501407731 918554180 498233200 635315871 734808745 741636484 640273440 434266533 304688512 484145132 628375308 213452058 809869819 742401823 837392223 8042903 139741866 172723738 992604593 223170103 583396118 175240513 654626629 243364077 762234813 819730608 574440044 53152015 632138800 175283635 716725958 771048209 245270798 132317984 888885004 424434308 140748310 461481089 18784031 324692586 334715934 58644054 184187101 65892945 497564563 785202429 882242529 55894825 336102459 903875376 604478532 825363605 566904444 280656110 255787380 841546118 709681483 229913533 327022736 965231275 653136165 914667215 210566298 522719455 480407971 845290427 918871929 298358966 4440026 348897042 382742081 669104104 554511086 616939974 361630398 814471736 686319081 235239570 745209296 152167356 396359215 516454886 381389210 765546655 718132747 275372567 705001811 900723100 624153292 303792124 368139883 329823159 790967894 762948269 623549378 654660119 134471752 487072605 731307787 720536396 148411799 787466170 58458090 712350835 746918897 645128833 302504267 918389985 725076193 670381161 963522609 519083932 241458300 740349584 563203315 67115118 195384917 467174247 562430261 929324133 245345933 750365779 867939550 626606857 457007384 990405357 887543613 763490266 485715558 342164651 578163561 123110358 129502135 638748302 313275277 661260084 689924426 335568528 411212358 629502563 426546346 845342324 924605200 206789028 340397804 599072855 872503868 743491329 756861229 169721299 14206507 217439552 232333782 820673208 898916158 390212187 501208219 28852666 446378772 459935220 2111849 121631593 131757299 657588656 157702964 188558629 840257457 179162892 316855966 31162107 880798139 270270599 233389013 712984966 503286480 634408973 952513535 369999706 29610178 697530175 1202543 107099956 580964344 973057130 61877026 79840085 532286815 378691654 243307045 653116080 422588299 225054586 204445229 902222972 917340897 117561004 382238697 339133630 381858424 551049281 839993884 506456527 216585208 484832389 504479876 639926678 306082948 34314050 908845795 573848778 311399092 827977679 550409238 591224788 103431502 909375538 568026642 597944086 194090237 849974402 883563249 700883490 298846927 448010174 263492831 471354656 194956379 911929094 517763189 55881670 361470902 62452312 587428292 994640611 869535868 28700254 234125674 786825582 316262282 295411108 359232605 383868836 35993466 92679279 779820561 725093800 20228726 119482603 688434000 372312744 471156886 911391907 170855486 337225563 385920689 756422844 235555152 820537835 897069097 937848610 485251048 968690810 154022408 810087077 550786266 668660381 974571313 534795158 670143216 65039613 501990614 433720855 671582857 914004428 958318998 274748829 480457773 166984353 205832364 937259247 396852242 422200492 76297562 702184320 82955511 355666362 370019179 565704370 232289431 356781208 636704047 134398156 114581855 160196180 854160344 338118885 196676166 783626815 176726665 660699642 894143873 357062049 156161022 179536265 561722462 306956018 917782757 575732143 354560195 519096013 596522899 842217796 380312229 979882938 541937114 789560686 559910084 504916854 456345498 547516284 370391387 711007611 943713756 66910966 471595674 710721643 429173149 433553032 262990443 708006781 973888699 459344169 418257888 331034731 598423240 957729857 940842359 779670438 607509887 521629004 81533367 181192832 188374102 710215101 84464474 226297985 791585902 744069374 196693582 97517983 856184591 965091536 460417370 392732026 389225395 170484554 394071915 315094653 560977044 709687117 135368450 863400685 880936629 518062647 923949953 543974950 352264857 15101284 427070519 825883706 584074092 264202168 595516109 174857398 279130057 833396861 155137656 137682168 22181159 328268286 483331700 928419346 82560277 998200077 286116563 571518082 336696009 444077636 718575035 286520297 255629057 81256734 165516186 48854208 384027389 278407865 699788876 253088557 724736344 281069772 380832353 808835042 237288008 874735398 300556815 757824333 60609209 631090696 675149814 278664131 350516393 204957987 889178677 198681641 754254308 214139187 862293153 910338299 55931683 631244285 240236244 885069435 887278670 31319861 626526142 928107358 326968558 159940432 519794534 998387789 250557161 893887094 166527895 209989810 293969806 39492187 519747730 258578966 8706701 618354991 782655605 413251174 580796633 113253270 591135301 18103177 122501047 426504694 655069824 238681372 508912676 598033847 555548590 931338033 191193559 279643191 804178656 283274175 675486566 140349430 670268598 433473320 255309403 441306622 411361545 894414055 460282096 592063769 344385777 113504071 763823236 199711527 658967858 50906396 793886903 923248659 487514491 702230614 506093550 989561971 127552322 73899687 957836432 640391489 199608448 499213224 366532930 330162659 443707837 83646966 817725792 412259954 831327924 877759804 875372130 287298052 772863925 359666372 792927078 812419961 326307627 701594752 514664018 529135710 183072482 122460560 837879266 895706160 122992728 751913731 61276416 626563781 24690710 55689932 752916161 394941241 353406004 700289810 705563854 141827984 942269560 817916517 629826532 649499603 675233107 596895125 195069576 2137321 249879701 572285899 803890623 859202199 261711705 527830866 680276948 778286315 624406561 702153414 875443378 464840683 672628123 425587490 491930277 551167689 867956391 571794548 123277137 959666212 452495043 904632995 828311695 767708781 44741683 85011222 351247915 228298494 491258999 392559958 932531656 408949616 933401386 335564989 103279112 734195030 77015557 648550083 583293970 192346963 371304329 631501904 651810312 890538895 3050315 709047883 891614695 331409200 221641657 686202278 148704197 921528814 567439952 577179829 691810005 197950682 489971770 509773453 337328494 166640596 921114917 596754899 389780015 123254603 497479058 354232862 22380890 651084360 233338660 469664147 653324524 659388721 453186615 295833688 873284557 247309498 663892837 4946805 919796781 891750497 63713048 781836808 237589174 486141649 217053027 809183216 639258288 786115684 308340291 142981128 674994246 672308518 305886233 237725664 430140625 277813769 920807611 899406129 542258454 50301115 459827643 536261479 566607863 564200401 615454058 479316925 211622610 944467959 950684825 481705939 67170210 722771070 289125262 879468262 175356660 637865761 398428670 392674035 169252378 419645740 46818812 828639479 159633321 29453824 345599735 70565570 109317449 947545498 615270473 735499252 246339740 902938129 255436077 903849118 748697907 188724496 235478631 937225037 885878936 3172918 807227348 30255420 657326096 568064259 613774383 898508252 798546654 755114697 581390842 977875693 429778082 760111973 325156321 968016603 286852386 536690163 646501210 71425160 548460624 871377209 933036136 778246621 428608855 466437815 63284231 663620197 219384411 75288879 63544328 787017231 595279543 880143376 768431433 533545309 860889551 248371843 692547930 819550899 530154164 645466927 138931348 414203273 350519755 481086400 446749132 700363888 147460307 895887221 818502288 890244461 904763275 464625681 637771755 138771500 381202507 233216779 853967522 948815934 20475960 474046040 75418862 117247416 868848312 726099746 669028588 561877224 199608893 70483261 184546618 860520757 576193032 969887267 398753613 8708026 341529375 883297716 535194694 474615924 299424680 700732294 828095804 59874086 322843186 963304746 720389789 988355567 693901695 823327388 166816849 630698622 276597786 630444836 973257437 353362445 974138833 399029801 150504397 195137700 797060506 855471572 358755342 815144190 412700166 532587575 245435003 697046655 965700778 555907274 737166091 915293193 155253923 482471769 559581594 988590593 529491063 230498824 869214804 264438633 629100335 481801239 937370430 754682851 861489346 1813634 691105949 86337219 802551066 200337985 910691337 783697281 49699167 578706290 926139364 540811736 2863176 821263414 637466336 491279351 231883453 496458962 550045815 123563148 392965138 769267853 552794348 95314519 967438004 76749490 778526688 885852692 817810991 59490097 885788770 90157509 201885244 915729162 770124257 768251812 532192858 426945515 573702599 817539476 739126877 849159529 61183429 390908005 308161177 325720434 613740609 687682198 947151744 889773227 178551974 754158129 666305489 771878254 547100410 186515214 278158894 237378449 770781847 674996311 160550484 207851570 309477365 330106785 144943444 83513943 896589688 369220830 837357475 143574592 329444007 185318266 69063547 313897 659979684 711591818 163448999 897983849 605788897 44672274 881460512 766649959 494191753 1832642 261129201 479919935 903188913 695461452 159451017 973908367 423880426 976757532 197122137 994479719 50797291 425560816 84401897 389682694 960994474 305809800 933615140 487769415 491227841 779981 31046519 771878629 337911542 777390981 285448748 781104193 673776963 140953679 410659456 892367109 695379241 906046080 272990447 506254365 744077344 917049099 463356505 788867438 9695667 978572070 652280493 767280637 284994387 202186426 439017015 55850475 832029253 478700010 976820513 852623122 571562675 22912472 896590873 69107690 709648773 793408964 512317708 255028326 315044132 344486017 917095960 892810180 816092496 869831703 841144297 597882285 604385039 663716956 499174144 981694876 637331020 370274732 481122803 471527842 618979045 966365066 396922969 166543895 635919609 422199593 7560578 909416659 46777931 479591432 10847007 431060019 327460410 397464218 465906296 987526603 360196828 203149541 966005238 496086786 759248955 619410593 693798589 785117088 347440181 109755650 897819562 415780899 309562642 233137240 756687971 121526295 176744502 48768321 862152890 589762881 110666850 649945007 881515497 461144812 535702492 443735528 999770637 449316720 530702300 320710297 137432310 770459999 192920306 815847853 541669154 458550616 633287723 699121900 656919465 374989230 801180661 466397365 853561374 936751056 873530744 855139480 509103907 365547691 241214264 280181859 421372984 811220316 23406707 364177970 868182397 826437590 297659369 194847004 575322162 16582506 379033113 208919710 136659060 261495452 669016534 42284356 890719497 723256426 156106884 327090403 889160992 713557975 987094085 174708064 829982307 653196224 439182687 974206644 126039186 248781854 992889378 741357174 732849834 287495267 887081229 953868291 389450866 737768840 211702922 628579967 87729346 768988266 103660841 851722816 626714742 320614523 103622195 161100353 349883951 785891213 13724959 470615804 940415831 878045721 263450062 342549991 664769040 956431809 53381070 699982692 221496798 659961193 2983230 80205554 629788038 329373239 825236198 871394564 781559854 623917437 615374269 905525748 20486090 237966485 486609069 713206665 561047806 369209105 148301675 406277273 656931578 383341914 811558938 233043659 497802466 699073007 337200002 977525691 318401870 263823250 546881412 773160359 116592477 264205530 348306770 95136034 993294944 762665528 831971608 857908641 895835743 695890721 662582528 615914116 629768251 77575093 376327048 341478585 121166293 780662413 480049529 825710384 112853972 527794827 739829453 272968997 274513606 44043429 424190270 636531155 202801240 155545171 234645347 689979589 873102409 366996414 544130091 511411430 373637020 772148761 507923358 763735831 195680610 965321597 712971594 7921409 487295092 20795248 942931656 814541480 126117011 737933934 304319140 747321251 844073394 576214434 348836517 130015857 839213259 655456746 405168647 402632967 940452883 283449602 554409195 904126377 229823334 902597999 981348214 307556133 333526476 933772220 329672780 437665982 322710805 959840598 51324122 55767097 18749331 482153193 554997151 830971997 651464420 823690705 424707424 886741687 559204757 964157270 497188439 734468432 982789170 865149146 517330078 681234886 970553144 524628599 109608953 128105052 557168622 529286369 915699166 172168963 445772788 272520322 194829880 60219173 364132718 658426210 373971603 858867001 294294648 373467626 202782001 908664713 252799584 774507474 630047975 597033131 218707260 164254881 576539358 309400314 779220159 859473708 706052075 634529134 834261987 298227417 254990191 571268846 322956652 693701514 779195862 816260399 75721360 272251058 368896659 72367822 733760604 370221202 821699421 803000776 525558988 577655666 614294001 954596088 382750246 573287607 600548344 490720265 850121582 57400869 669507398 426241452 20770773 955523665 29444482 613239545 824139242 302237967 361743984 257836772 580771675 948891297 54607934 593608930 289461991 508461945 370393452 948577958 713839941 681065507 137638430 341418615 882382519 845704991 853805449 168068001 628595772 278829244 625500974 247742687 83923560 778971970 313900904 273799432 364024171 852245234 792954302 685370019 391919759 409857399 8964785 744531805 112164344 732490185 940467191 859174380 436691307 794234808 861958363 673639017 495012489 898115598 590344918 148313049 168557990 386321370 256926536 968045728 932546477 289124820 675342142 392342308 117023372 550436814 146644266 217355549 259570779 868218426 465627756 124654297 998465450 139220161 609029310 788420532 509068769 815893641 193630091 134036522 482738632 21157308 929536818 320144869 676252490 829413755 783708547 94869460 457816607 106844268 541816851 567095027 638928222 194698732 396229739 749823330 939614995 377939180 391107578 49036674 624896654 736788627 688277550 972642667 522587587 441444640 390701922 967921296 108217693 891362579 146690636 805109679 456430617 167564258 496918125 873108012 531941744 60901953 394991477 125533665 859841694 501265126 350474278 465660280 13263422 421056436 334594757 357462410 786888160 355581527 828228934 32069651 916858624 67209767 251348606 839373771 954350317 436291461 59672285 511017375 432587426 174979339 839093908 519069033 765359257 851903980 494335434 818259684 621937235 993678557 24925891 313389586 579864727 721557734 233095197 294259399 711368581 301460735 365019304 963060952 322453938 366919842 366141254 616876541 984243010 278580908 150532421 754434416 357321300 29984716 997270567 845860254 155667497 933328023 942568989 158269356 129738820 798512880 89268277 471560138 839624791 314029376 518860545 770662887 215416483 762641381 760126670 337242746 418681446 548723370 256598144 561336211 981081279 178767333 529882509 844554803 302110894 496161202 615513370 327674419 312798613 703058216 427061428 810416306 363568617 324082828 608588754 629199347 456714916 526684720 161380696 635306921 575475933 40259034 230745478 601082368 418707606 800036896 718471934 997323381 75816998 347057396 977348407 113642545 781087085 691815081 467664328 581526162 694508868 521733888 406460691 755687192 246094176 683256587 608245456 712463598 990698819 612003491 878667444 284192806 216185247 652491875 442713595 823390923 755270041 764273817 586090386 414300257 424449607 949951461 85810026 137891437 508170736 204835536 263576950 901114997 996379271 796922188 451226959 406869371 474978257 245967780 951573595 553852513 651205824 430961439 530596144 870030300 955754931 344256357 608477298 751178229 44742276 477063545 608460325 773060387 261783940 216366608 470341082 219298104 727328368 918623506 519884675 264014385 700484316 24884228 341084191 192566364 219910171 169293275 610309994 763119086 911848704 973971150 45796432 235721099 605866286 108679142 577324181 502563047 465348961 453927988 939257294 513716248 457879998 327971795 966276789 544961449 316430721 965544182 268617429 694482286 495364703 223140305 816076554 646573984 273182070 547995688 711560881 944716101 816687576 545542147 240750060 73593805 731725457 792880808 46459378 353997422 911959413 888984600 769283182 684623022 764816584 964099260 277038803 277509648 144769381 798255830 941541767 907850783 600703451 796535996 697249867 325375976 877705150 210158347 314814133 307357114 636008661 482561120 112575807 227309702 363008915 619694410 970658565 7003668 293876729 846055734 715542625 475725093 208502510 899389063 77310329 957894500 37897145 447407850 985094589 937467829 351804243 633245139 990075367 187931294 690716291 438700189 154668420 849895344 943554854 112368897 516051431 742240044 826484622 380604802 790381613 518533234 826006914 400852136 463599765 851715586 731397137 784642682 894798461 940173625 515259332 478521528 794655993 367144030 773514630 442789710 143612830 131911129 718415038 455601020 536634781 664417902 245066099 99405203 797728560 262877776 212658878 351183128 947826904 357967109 201939254 411570816 769734250 228704486 997854496 983958100 147031847 988651335 210795915 993616493 109649216 202133244 542250952 440729958 289962256 152616729 536928512 87535533 911212463 687439721 188024269 137910135 853270700 285926161 387060954 488320110 689021465 391532073 421605544 717339787 228852505 716239405 945551716 78940323 86277727 82716634 302678567 293202855 640135320 727119650 796737195 70158951 775701190 86601386 320819274 166650325 903443019 917257316 486577069 411823002 23757356 322704623 918766766 110079281 274768348 929240192 592500043 945245101 778931074 332224592 950898546 960767075 298861333 957211634 809110060 762105026 770438689 871893557 777171313 107598923 772377794 108801920 842065505 837812953 831043531 688425150 527440017 265398212 106937189 66918908 165751869 987847826 147034068 832116690 868877663 946234566 117672687 597375300 537419449 23279496 397364500 835049326 804726057 848001531 869677822 961910287 670259451 583030134 484674148 45276912 4624577 942040757 446864918 598333173 813368900 978296002 711208342 993011600 626833638 636120307 757946605 825762685 195329378 70388642 951228145 13432415 292387065 202609753 446593519 944841965 216536858 91663726 797903718 260643044 576288750 921016850 383768571 899755688 94858639 265174256 654676488 359040702 303614369 23793267 814906199 333766836 99304303 319280108 375879845 936044426 919090052 456286222 134055796 294122195 913285983 887631758 203268623 348998719 848172979 128285030 806591152 394215705 666130512 788017940 956360399 655189789 240995527 279256250 430485852 666729812 824062007 709948599 91051626 171160506 374345693 716410642 486516089 321479898 382974747 61096710 375653560 605179818 350453247 285344830 524340592 806064238 164326765 613171509 675505117 734843637 103788099 441623087 857021351 960032623 647816582 344866105 20110470 366178404 926787023 747041463 799365989 744278713 639555263 178870140 883495786 500768190 492808690 177148803 623932845 527585629 162743236 619898525 862987927 760164514 93282787 213832522 452800635 591412333 807133183 134730968 719652501 411709897 764976172 97329038 920350279 560677706 946349039 532731359 608050693 730217777 228181520 387081412 997201797 646171315 81385416 929838685 830094079 155945663 954805169 796101210 819576353 544203153 804704580 135280983 456990274 945941585 216780969 251495785 486743628 315501210 723276911 521199375 676848129 920800622 640794242 306916568 362779959 183374623 252398826 444357589 739058495 8073626 890528921 474372805 508460241 17290163 116779032 189970433 570007714 81110981 210217610 246733320 971133217 313712272 262240112 378503157 602735960 916828737 349768047 475509784 907898909 971406920 581233669 892048294 224585582 930030567 208526783 137344043 631255810 505861944 853118397 560185962 184706729 158490493 642815716 88698448 524982778 760253854 937736041 278135827 530290547 706819752 464110811 630234111 912851046 34146556 175946831 527581287 653326378 759767384 808100439 902334167 146953801 193929551 745213374 965606748 717727003 831344111 73505221 826276222 575534225 301164146 908623556 424323096 142768094 30096969 563148428 315434421 492014888 465967204 340439221 949521921 228053127 83270906 891713489 774663701 84592791 468640918 114729875 305470177 297148499 444352314 924641657 640768608 98418959 525013858 506415916 510924913 697186439 109261619 693935375 164136256 961822969 702150545 267204725 865726513 776753358 212623417 606763700 562433931 877540411 979313652 170778769 678762548 62725044 723024170 507119236 805584316 124926454 935056635 111549185 927330569 584988385 922312091 23715015 266866728 467785872 346327906 818431559 157889027 325031395 968935603 32147994 177577875 271220444 798275887 912977392 458440996 686695647 481393129 934904608 250428082 571716362 934466608 412708656 278742429 230480283 962926513 650149955 822452967 362309702 734232183 40040617 344740979 454505256 130343805 354271642 730021045 218416731 543776022 964887485 552908933 133187944 962503750 388951980 814586756 431135873 381600948 723282895 477028068 206118649 587300482 55296486 512140907 299842599 710003985 448703650 6265233 604457002 620715565 518422304 625822459 544583769 681654805 677151616 465328101 445312595 158437501 349084823 460614854 903877765 298895286 598649609 414807223 915630908 101426951 974599147 796761686 430852685 544713156 355885871 940718594 357841723 624341398 7684077 892533454 574672239 631141003 193127236 416894419 260618524 987753591 805385285 825777223 964348450 129568204 908138272 711562899 697735334 480817750 17998364 527683716 572582493 840617212 960098703 606088681 999811990 207235388 987623805 715500785 700809155 323016671 764767430 475361235 68494945 91948126 112450239 285647108 829736596 466810767 905074436 661627959 296379459 134155867 505663960 407762521 472176357 612529599 883837056 257392832 887803887 609963590 173061360 67064500 583765591 255247442 677829764 276870166 401390372 643986347 849587130 431702405 841966584 132118628 588458223 614912239 667714835 678115947 575405431 451653469 481703946 660258803 589980738 23950995 917201233 496562000 657113016 247061736 491011808 297413878 36240346 820586328 873427871 787646043 910430917 569256337 222204947 596623058 2450808 220978983 296704431 428876665 803803314 394015174 647443992 673041530 924080145 290367595 880506688 244681224 60995690 519808677 873412056 230839410 663741883 487931486 945740916 717667402 989531927 793711416 617598950 415449933 575386145 374716920 180950987 49068582 279376861 473091032 448623304 535055958 980240271 61008586 225656265 327573596 560627885 845938492 882120959 781251092 541934319 632151916 813754161 604516174 194283757 933277943 689402914 534406246 535205110 762574318 539568973 705326748 122237258 799181537 407669262 175803716 752930070 647139907 560445503 414416860 953952259 475916712 951151464 386500977 547642697 357223584 345939795 35509963 123890050 362160778 371174966 721883039 259022360 780449178 367082186 318261569 883025402 226224981 922289110 629072889 750653565 586776730 131458385 877074162 168573738 483062741 178192108 497365681 844806478 521938278 509620175 387733787 540950161 325201435 645493140 916561621 470733860 903085922 81013760 697871064 836751259 889799887 30809057 420231675 139431175 437702661 858481308 792833184 510748398 741835110 203470932 646031324 581536684 575217266 688839092 595022694 3360241 901544058 315029530 807824166 605088042 426473062 47671232 130764824 773485423 183254195 601695404 857135340 280877782 330122074 868832550 742769084 644114742 648490789 183496651 358899869 605927609 727307161 763555493 13764321 334011283 738309213 325097412 612322116 862969513 576597237 685124871 557050610 810564881 941284639 141197562 248839847 278129534 983431372 762607641 756547926 737687663 852017319 867636133 834989909 467155897 523714734 181715130 306828403 801159713 576207776 609523154 491252515 604260849 87181416 643146105 856535680 998495505 193028662 713809457 892348205 251536735 252949482 868866548 884193081 698021443 389861787 471139120 998805736 494411544 175179596 129958221 24063157 548453623 344085334 644796964 841528159 818756708 714321876 92409588 328647125 45730134 933891367 638765511 319668171 848933358 370385298 48413170 891968734 434626389 854060602 739962217 440904192 910819999 964953456 604122066 773127815 38356334 227826252 164096816 481029056 561975866 327367191 7547160 629037791 739618817 122727474 537477933 554439872 567888229 486522185 728158050 243306968 19472211 17291575 465770287 408274996 141051094 954442778 176257878 725894261 556500877 489131555 373384999 577003015 382935032 854895893 584575812 293132220 525243898 644983265 948888115 711815508 643078841 455069932 515276216 864359342 574964961 983977601 402431220 468605410 230162750 285966646 725340575 466061891 101476105 918400552 406975863 349030989 300099966 167914197 918257974 970983723 45833776 547793033 207227239 997349518 640458319 698851309 968394668 996172660 443380054 250043842 556836912 218206520 181606845 212736065 115347492 719120625 78762662 633013642 422161034 532604493 24077069 83925802 830550046 259818312 78622208 50904431 531721901 879097481 27109036 207054259 266652607 256553617 203210154 614516514 568862283 840672792 102656943 436182001 604608967 890417641 161800100 301268531 663556112 567451927 947257538 715458293 589440954 680296993 540130104 859781180 21145165 41298386 307559906 855481888 703490239 499395410 559007888 348965140 197420600 306105512 829175427 94206216 427410307 510277620 70622745 741490088 674629347 534514959 290932229 442569014 557124492 19377652 181634971 752577609 946953498 366526510 441329609 959888135 800257764 373652129 283317857 503016290 77461443 703977174 966713605 367753384 755483308 23341679 281986333 763271102 56336508 650745847 81565769 312286349 279572736 344515449 437263654 556826788 826274631 590122416 110120140 958729812 62009759 253411909 558739890 782907239 573338586 603646358 821842066 397638948 144744203 460869684 526549484 436443632 302604153 331975770 37616675 480953719 961135674 612552096 997234769 808360317 409005042 502852041 152235901 564245875 27008913 76701488 139191318 901404626 455772970 286896912 724678777 916548067 163160926 571079596 620186908 699646701 502946594 431606118 787139800 599764039 524975846 856679996 39821142 967425591 465925205 226264031 618303470 577978707 874660903 300178122 94074708 576355454 641611769 335777490 255930841 858276184 114015731 157738107 638434812 701247976 789279152 913862503 233245375 216549653 328913990 214898523 398392461 162039048 197404869 500585121 932411263 914513489 824647545 983065762 100357152 568767641 680865399 18998042 711788296 205513246 226750018 914280222 588904597 747874080 658103813 217017420 384866651 562404457 618728724 124208708 969235263 634062741 419380239 620511495 170411612 990584063 227061757 941835297 699748981 77496911 446778149 157230872 846874735 77148114 195686279 18836887 541232590 294090658 730355746 950021204 953298440 954053943 532522138 388603792 352151768 774137140 359912721 176578629 398576536 563504210 372733582 794868012 490996363 252484114 458971137 231161651 917280191 40032602 695226903 708769747 343675040 976080069 580275235 387138056 123507301 623283267 83683806 434408078 7192908 439223318 399143206 60918998 194483810 647368329 505874318 353536301 708013003 925324047 364995266 325322200 226249831 644635075 850294989 141827681 475199723 698623840 216732034 714259457 382492053 416574173 305156446 583158553 915111472 799448579 995048420 870371668 16260511 485732221 21741001 247783317 252631293 161019744 614205396 462509866 145778225 449354458 560271558 980555928 674351857 866915359 291545351 870867854 888716073 165402210 746286747 728137418 798257692 913326925 930935245 178949573 397667983 745760777 717435072 670923902 251855802 996708094 974628813 735275374 81137955 646329879 522101277 426141721 816476233 38881245 253349407 75817464 563251886 418458395 78039989 865224339 540327895 254626626 59884560 598607414 461445021 501751892 156864749 407346209 845374513 408275382 825198929 476209055 80948320 191465264 627067630 212701375 481234937 326669370 621343759 802961741 917737876 498036485 417155409 37308673 956022808 101728531 458068494 486749376 848365994 469229928 47765519 424000422 339924739 221121242 777587757 532584720 364764666 587175016 83526371 290414272 621608548 197394762 218629547 557373374 30380396 700419885 298624227 379516409 720294498 858483769 593663195 966037909 260482331 280720126 830663776 769357467 246413079 552169612 573231006 847085410 215118406 302103532 344415874 31718070 773389851 551986678 36596037 345650919 478058440 194530006 206455421 152983908 773918329 913426828 789037837 541353586 303222254 15363902 219833717 79704724 109444206 114757018 997140847 665263898 187387319 302221321 921856324 284242432 450413622 237378855 855626908 958820233 811070097 128425009 6706473 615734827 484190476 753094371 865508810 338718342 451319591 690126180 649870684 687954570 203444329 671599082 230607469 753462636 337028063 924588662 978608535 17499990 85378653 694996352 629886228 522462336 931055132 387161132 501285939 308343422 855816694 777925764 863453334 89238886 440620644 325886806 155941416 823582442 633575968 244698588 806585277 252302035 246828843 177121923 536265508 574140340 528754085 910872668 99696770 227923521 637015595 813919823 637791537 5291628 243115635 635299380 930245855 55767469 198981893 450297935 872604550 127919373 328091926 510398202 994861696 701107268 681906772 4047478 971752108 735682744 949013544 304953571 996227118 417523662 859757225 23412775 521275001 272765972 966895153 362520252 52091028 631509773 439006154 812163566 767104627 331069650 900471543 29901906 317747592 785464769 305688272 469660048 612044014 602785892 403612754 682742865 351839085 393658667 393061513 263896238 427385242 415419027 798965749 97763374 817532971 230723445 927645944 698520979 527260118 78758710 883489559 274174598 46857821 623804635 287459936 664611129 668873180 132936567 839076913 971485006 16263151 128852914 971543543 202750077 230136458 173171362 414391214 504281229 652830677 339725811 90831604 402342248 491482021 628561722 786237420 114554033 873380348 115839477 830263360 311088448 849939177 172096764 640343846 451852348 781789133 201797077 780039996 555362566 77760065 376985396 636187431 476272809 574575793 48854343 10836587 65930722 693432885 943807332 71244379 830530777 433208683 836155626 888582883 305586535 752898453 544392596 225821555 709004976 287326058 404634969 750765049 354604305 301982249 596434625 180012346 328321510 713224472 643157929 904688720 155368718 962270017 884515736 994876401 880395213 497037703 612521943 543736238 219545587 205500093 436497250 900379537 828097512 287348853 273446528 481991152 526732261 523016227 764794370 942959614 775510283 520482131 731213567 526573061 999984181 968274030 220574074 191228753 430924514 886861560 442871932 436568591 631193609 579612418 252025222 553180908 858515278 257881257 763906150 524407426 566408692 37654778 306441542 249969780
