1818
390154673 130632278 319335773 341343839 218845333 368456637 68532720 465064927 634042513 890549106 238488185 750562593 816538552 130350109 116277947 648850317 356679682 467255951 737872076 596280524 437005596 595199069 988822318 434092977 138228333 488777152 149608604 485886925 86916266 930123179 675245241 608072491 216638004 945888634 747386733 389141110 915458602 800369038 889274327 146438178 958191629 631298875 961708384 361188582 600973810 798652698 964417087 133764889 612896223 681057959 591835807 113742397 890105739 829884621 481252613 696159873 719751200 889266286 681682791 120084531 560846245 792455479 300588504 36440826 192940472 682326583 799489601 177548952 449800986 308950503 440740534 25839463 902310151 562232877 837549142 115042874 299709407 83519632 74276595 96511592 60202770 640433292 787008722 728076343 471479875 416675208 236064654 526565716 70047162 968751921 259191529 441674110 747487696 298956254 761612089 314062680 939933046 227059373 609304025 166078379 867948531 215827463 192201958 349365719 676411094 171638418 428573526 722701478 867427244 12572149 338837085 304937535 995558948 274839242 926458875 524207889 528309096 775054045 664032408 514396101 860699511 92329917 150527011 487021843 50889146 966813824 624445747 686321029 544490620 133774269 291342457 450883615 717806044 421665623 778161067 989191962 588612757 792347697 45637255 557902909 499928087 356289806 741235087 699271824 432092139 133859749 576087246 491287838 334052047 342944906 327442522 304003152 767775537 317855802 486902891 403978431 803476805 566822106 231664517 493542438 638625485 594905482 937434164 400485607 52190900 636317462 190667492 977126452 901779729 590452504 709985301 700889905 553826195 895858565 831212958 117831776 195124790 510643413 717825504 242041910 803604188 363435992 731068859 695470700 278159905 917637544 801747164 974577258 40732455 291758442 788329050 170209801 646449818 617522719 745600065 773626266 256302935 274187645 788760650 994369014 474282752 344452446 782864822 543897647 134650415 127245172 215902723 988861991 215522211 268463188 231409754 609112444 162313163 864616669 651235261 216186645 265501869 641246998 90289678 236433933 575962460 987677004 273398304 62222780 784405789 634504259 417297095 783040784 959209051 309949709 344442306 938772146 638233162 100069399 907616648 337897058 847658968 29615595 727174873 537469217 535883482 286400112 964241071 329077598 97775544 695154130 466333851 713673067 46235587 598441787 677067546 706261433 51479587 248248787 965870249 121943888 864468333 858208924 209073134 706613599 667598941 70714496 552887477 721307455 122856569 511751524 746759370 336624572 452643611 61814320 714539719 765867373 960149528 490134895 971029528 151460213 211817329 992286172 382053586 917331048 370251752 836732948 470475953 869643557 367079385 528851464 927209773 128438337 525466567 988576641 30267644 995390326 388862304 642738704 780281205 484421492 209439806 894664058 116572221 43350043 83381914 535422175 781835135 295627974 382607921 35391470 777825029 468436309 381964283 559510276 523680890 249975872 216921567 67223587 723518118 141797667 205024905 552018830 526763127 400270305 557338473 19596552 471028360 548220446 752017681 723256669 364837717 568898022 942466592 810523779 816472192 852717651 16646948 533667437 738014577 458390877 109669573 497398220 462539851 426611097 786973206 962587870 140801434 524601534 474019445 67566506 253779449 323544157 293825354 489485062 243820123 783001336 494552260 808561841 10866846 465146319 515134627 969228053 748340478 626531571 649447882 8336175 618150376 444911319 357065922 180982376 779440035 154438730 246399583 917221597 513462395 670244135 781760084 825833473 431816604 595550494 1856491 302205335 923337798 14188479 377916242 519494774 464635394 972917862 204114189 103175724 399131592 657421445 48193920 398802439 584644267 261863386 948885206 923000185 269965398 472861944 605278774 73466856 116418779 606031171 733922400 764038020 766249209 278828689 454100895 748851566 757196789 668032121 711450729 295043033 296637626 598933161 892254439 638937038 18914852 533866014 819029693 817597187 154054273 216321168 7232808 200907815 814582440 743162094 985991412 624795103 301333833 787929454 701045068 815830435 51785414 68449039 703359677 477021964 387081803 797787485 174065134 398954247 709373198 131435208 741517496 794269715 411381264 731451599 491801219 229929204 822712829 587570667 915727338 641475941 695698376 683665193 126147367 615933066 522222900 655367825 648237876 937205635 13913799 606018951 313301306 541833276 56996532 885399248 269441076 408560414 641213092 712307196 124724219 945322442 266209556 551550204 346085392 263277998 383247537 481095907 976702793 546681686 656408068 36824977 21999120 291036161 585913398 546913962 65148341 627218158 304063011 171914814 555333124 675025869 200135064 40827165 752408633 810852195 696932077 315528101 139532663 94622328 517470373 200462598 918243897 507086943 970433682 29475831 232957428 579665885 669440218 203297990 878698843 613432254 950964812 46759339 921554065 545784999 122657755 42798068 730831194 722406550 197067111 729651505 280770785 729524758 170313489 65163011 601144262 459256511 54017 895284335 595564295 518250747 342767449 22027195 640189663 864129553 500952356 333069434 106781019 812991498 883954875 252211973 52504758 614331406 738555401 278266864 255319668 380511765 881932854 669577467 595838653 779629505 621169937 709908303 536127260 138097169 709834354 975832432 87958116 475960423 450777006 987971852 556679323 110498468 727461520 464802247 264756242 242128728 825436964 846581895 381588249 744597599 430909632 176695320 193708144 378959177 842682513 987131793 983650503 765951759 27105237 56012366 360867071 8084160 926422058 823009287 3216043 631695592 180989344 820396074 323473067 645275873 410744154 146848364 648482916 629725039 592275839 214977999 238943336 238119801 965454894 418951354 383191635 229619298 606537931 888250341 732768377 717296026 875799270 592210817 589647055 256480661 369555766 822219004 947277777 354889504 913378031 323959250 552798478 379341373 481472416 647732273 315629114 12230500 955467228 256989091 20272131 137068626 530306822 187672360 790799975 848354047 699344079 952449327 920730377 663650493 812748672 398244098 233319481 605690716 833490977 119971153 212918830 508008450 451371772 868853580 561937937 107933180 685369983 364119940 812816753 349537031 972256879 424975170 929089080 911206372 448640807 788863342 345527142 234914667 460793354 738575176 99710668 410110710 938549119 171782919 548724971 829762328 601254749 684112934 502731376 767576426 115956735 382254988 463458832 757059109 488214772 306946752 533929551 508018652 239501001 825786575 438608571 909919242 708829703 966191195 876936142 650382402 298693315 162250858 84857548 502104300 36982713 610320215 670173383 333787257 204150107 840087708 125190105 578858237 672252195 391494709 993657745 117784294 166962495 918412319 409309639 386791710 297736992 611036135 404507911 527277265 922996591 274747837 118167900 626318980 618760384 815290594 926653543 114001966 911921996 480952381 167987034 84151387 161683555 803261004 898566858 771451437 991162117 33821425 832799676 887161739 38500200 954969368 268587387 279361849 634002595 521011813 178168466 769698792 756200661 899043147 362814746 807572169 989515217 848890028 812820831 45943741 424061121 844066431 157392430 524997636 963434103 823734634 614744521 491428716 615077042 789416731 389953215 5461082 586718289 997877592 138953089 495106946 871184871 365216593 525364059 883143133 266783213 478191383 508195393 596201076 435095754 425598679 368377921 134819176 27249194 160638204 417604969 759817498 142012500 673965661 390916655 143514471 363747181 805612518 627714820 837873420 698619043 705097692 393505997 95768351 487412328 663760003 381376983 631052134 522233170 548287591 677422721 450760188 76025810 946355057 394945060 823642696 211731320 427093535 138860191 881617089 197236517 387605221 906128353 136426124 87866127 445859375 376122773 788479783 581098601 529955422 561875350 633899506 941157287 205765053 774217107 50987298 18610335 197858146 735617127 447414782 441779968 78489419 702082335 391591467 608462043 52837427 661037760 221208452 290498662 275948363 41738936 466375346 506575818 106981558 812997663 410713868 916281731 583195935 863845284 191780806 565465086 745923531 590344654 188807271 530610767 858067451 919641316 163098048 807392844 958405257 220390472 429564038 6187708 657164189 226308278 772927673 462437763 312321260 951888516 512207685 78431471 522422795 280514097 227176385 92023162 460270526 919862709 350576939 631089705 497280380 42920897 334802760 229478000 358659256 520330647 152744521 325400715 922043713 988857619 521590720 617262853 360378347 415944328 18464054 82618283 620420542 636064724 630068237 10662551 477471088 522586772 630128852 400983644 829919863 992349205 423398652 279648842 61025376 557353748 643617239 542089644 347425620 270696587 377508428 195707883 858223009 546910343 600300834 256190795 757476026 763944958 546356163 61551427 845753070 882700049 808208018 905813946 905039017 4994012 551470976 224643874 713120238 697494989 315186914 193601394 440243493 492647430 31586406 339562520 501281729 669002157 13359152 838675247 765378472 379662412 985615160 289685067 325062530 984603956 589013424 548847906 27398839 993665953 995373559 812115983 455838622 993035613 936869950 85281381 483925199 452871402 477520537 371775305 485008935 529288828 462944465 833428109 254724262 749647401 1326031 510284549 792065754 119584075 446371403 45009645 212170841 37561238 396582353 266511301 483660484 473098297 414906449 840311444 205073400 410289360 227062024 833397071 654686743 556490657 441717508 225620126 344205954 309218821 268055582 501697642 975019780 532301886 8803653 998995010 839395720 911865236 613596146 726472286 866639882 970399187 423952208 841627180 485503772 38685848 787626198 390059349 935155523 588332344 293710410 142698863 565315377 926632487 513843534 952036191 229781496 375801025 317782677 436606241 894365740 378601322 444211877 373893114 483725100 647143666 115760810 356060929 923064557 89314106 901011641 108065667 320788937 597638123 15704361 681221142 914093745 883277519 559817307 297863883 302751272 208436799 420028218 21861075 11745708 533445655 710395405 670411838 153872327 628666853 752917582 142473460 458682942 898445017 528512359 20970243 200908749 739685417 366264799 713388106 677269131 626547027 25505445 966309401 824901927 591393681 597171702 970059753 907448503 322727575 551901179 753445443 426067280 360038870 905628408 995664142 462483790 991413770 721710724 459424310 645591288 169275830 186073586 442784646 228106345 263900852 970571172 329372260 275848218 561681733 83784726 466240471 860835942 923157134 729075666 33366169 202488623 588617261 353771602 713702556 343859122 692018512 557058329 40689027 452548878 461242328 229855871 982945597 701625142 607567258 61471053 516606897 130357517 563533913 935707981 280372489 639606432 254449531 281570994 609096486 977052806 596662709 705482436 844158889 7777313 695211292 551202573 920280447 623706971 720787956 856094097 416682784 489114281 815844708 962960881 520248185 900204311 379978623 350462737 841004132 164654441 633360312 791183717 553950559 955654274 147541213 946738662 63505390 835098299 335894935 779221695 434074880 957174292 65200681 217266884 249633126 368541217 648279489 645586252 632742370 320197726 280551631 247701919 79574633 748072969 811820790 261401765 135410445 599743873 677518042 381202240 727165718 960805708 563298823 529059764 686627782 303923256 538231413 678088182 972438599 267120027 565677122 760063554 564483369 147302574 706051823 260669980 889603649 874153180 884701969 555752646 838243734 201819769 341994017 131755272 97824207 481660805 657920111 719676902 982346097 436899247 672141905 82637162 157119250 468605645 381837550 718709483 554891628 292659242 727081607 726320076 512920689 304243899 185661185 272461026 611111802 866908045 384312736 394119566 461025336 88873337 866984995 999292985 775486980 577438138 93373312 270784120 857539354 873460 446584047 334444391 99426029 398783377 714544462 725456775 516925101 435299864 956235513 392279952 491338163 542813749 265989185 555026745 932403462 616423825 260605039 100579166 777062048 185349075 350424599 169718604 127327463 516877 947894736 724205597 119227166 415998021 472331039 18498978 104834854 209929712 691507517 523178469 908302074 84114945 827505388 30032618 65279220 510766752 364212844 967087536 92302457 534143475 943205411 316742917 119807751 301879282 91810316 147967758 237118690 709167892 83296885 68942810 177412334 955996059 172922623 967890861 194308800 682623344 227147925 372360726 15225814 957382581 504396116 499333607 988251110 735086879 503386368 707676397 731902628 908771788 770575618 952899203 533708527 315728779 11830414 350297946 335872109 178453030 537353795 347341143 83291701 469704058 909692605 535666578 912460985 847502253 717466557 610720994 276346494 363321977 778359185 899687685 746853318 806259134 411350698 602324371 889172224 867740256 202832485 349401511 645185714 804427656 836791096 445953331 167010452 749936981 681276048 50712542 536722449 333529845 270468888 418355578 391480798 811671648 809399035 713044810 812607370 954193205 509266863 275439279 796020715 135396510 101993394 90201258 452566916 376007665 490867114 887887858 677088351 203443819 641748719 487937453 305959161 551418171 295801225 925291930 891431950 804212929 988576995 61728470 121918549 253363727 336927915 778073226 562309547 158243972 64225400 749917558 543778194 904043918 934518452 33029485 692610140 618905291 906010910 728540758 78958122 396438946 738252851 401515096 366574218 589299479 894184483 853839243 73224100 321545389 308825612 74862129 109483405 40636431 986969310 339082429 52118121 798160921 514308989 838282544 169679441 944573123 784397000 686768028 985328430 426903379 238295328 314887296 633363109 295253118 497901978 339174671 364028745 138250046 551508638 205708551 481732370 416345037 560970047 913805710 895240701 924046205 66376733 76514128 851239775 313883635 991689058 668952433 155257897 561467144 873388036 374101076 505337703 174203060 396293976 864121800 268679043 332933624 289644065 688664214 474214433 460914478 407997268 219587128 686497917 754953478 612970612 871321074 467952689 509129721 140810579 962072559 684032677 272281391 865864607 921086308 672604182 23063628 521680302 521965792 414290120 675998094 874759959 113480677 825619521 313943358 95086211 117349443 178293973 241314338 927313255 797270600 225315088 646364410 245807462 680798121 206841325 493569591 194152839 45785264 878224831 152070134 721920254 658494632 396205461 812362976 645462727 213233196 97149636 109436946 657430894 883291542 421110382 687663345 977651015 937343812 524333656 367228421 17696621 991392834 264395775 876790720 273877528 307906698 106512393 744374730 152543332 180104259 307510356 430282691 45759078 821269687 885529987 47163993 748790288 553142845 66537705 766916512 108710929 682609908 897000511 778640303 501423109 139939756 314976672 335489233 594342690 424634287 341542721 825320665 52426396 109395629 836868423 778538117 71400703 590361027 98396653 101783332 126010458 125826830 272429415 551384647 16563638 348868335 90189909 644434481 446065321 353310355 837321931 420166326 891084023 313421595 585121258 488572989 694673705 174571484 70988328 554549203 530527470 358019350 859934452 107561017 695270819 328341003 205574035 680811003 653368423 95510897 28806906 808289583 551316612 397827128 580963534 899733870 307837939 609464362 515794152 297387553 436528079 309647226 704485258 880853583 1013100 178094518 924798419 681694806 76985537 681721991 331541611 322165963 537946092 307701102 358233117 912810817 852549532 958927987 336889105 81954906 422802582 300296453 355190751 259644984 637651457 876031384 310457481 964206074 25523267 229899485 739511313 268415948 588341058 532383019 896490500 454506748 806662752 442967506 532216926 855667792 81316562 859098959 780027469 878286831 97740822 547081493 773239204 909250318 985551946 894347555 261326656 193731835 827672443 889123156 995685694 22915672 681512099 672375670 830353482 263472386 196660572 587414819 546955819 856731739 423791075 286977290 653233187 940943450 868127365 164767 206614193 788992635 222856079 908725020 965942122 395717951 109930222 876704202 662841521 324066921 783731622 600257706 879247632 769357014 433975992 566514718 180551905 607107043 469663343 577260046 827780119 949320359 463929372 608930132 863455544 313741871 567458852 232980145 957356299 100275483 745304155 874018898 794386568 929112785 890354484 414852155 427644746 980447804 654194510 103375761 75680357 493454169 364238329 517304586 896174754 469020124 788478376 928847979 487030920 495412451 243727703 601283508 856722442 675639561 190226490 763188769 613082920 385198861 699370330 119805459 376817732 248411838 782537714 368570378 890647733 755016971 633387692 587852719 917973179 734847964 938197471 783734104 248172822 928556987 504712103 611121401 243288274 597639376 868111551 816994413 227153428 484938089 501757605 873113655 572491820 467182274 359287105 5172593 131358074 314067366 344549653 769104012 349829029 131685192 634768577 820601877 277205725 170158608 189958112 368027890 888890729 124244041 406425242 940802670 835611950 457858420 708036678 136680992 479131613 128783038 632976793 573351137 639612369 495385139 342146287 13575643 269889706 980786840 12188166 166465599 881002750 252589414 514200145 324633548 968900746 959958767 427936097 628318019 288769675 770882629 795879744 610738222 439749653 997666115 244334714 922697023 674592136 885842276 23918242 465163593 400295181 531374763 97478244 434085299 883288478 184815012 997783505 939775733 376070692 526800367 56556211 260544288 634324572 796306485 472814710 771271598 936797689 706107587 403470204 133072044 794747416 279860074 302016161 987521352
