6632
944554716 841314498 364144740 144240743 679313488 465253089 503981698 849103786 501139806 249336411 843877843 743857795 242457320 83786501 874863825 824332755 50126948 929589643 730647109 847125591 159381232 893001281 185642535 280054849 810020959 251239126 12195388 167107999 386532792 104499530 703284067 312565436 787048464 902644049 80936170 433349514 386173924 833299581 274292663 499652425 720705575 720937174 131469283 942539135 635464823 366171221 368071969 721370658 569735273 586600502 285226762 572439304 867610635 194390808 120137291 198449736 721074686 471736022 137099909 374564683 662133713 802727498 907771100 522583715 172995527 805613486 763558494 199465512 457730190 767611850 567498775 779344923 391092758 346493987 387585475 722677344 842931308 481847014 780297154 492136547 202904445 706130233 219593742 16664074 777438290 197671262 533535329 68712035 628650540 276456136 856853680 625225252 595437545 68858243 451436248 811300553 552948042 748109537 375543260 428162887 509286634 703545450 655811822 41294301 159168080 504688886 385824652 396656875 906002198 919559708 640084111 97842422 456411888 876242770 867711285 974506845 634467068 407148680 681545749 415774345 595529921 483294469 196453246 919576368 433626558 42753879 276119257 180557466 570670501 560098081 977880157 343656739 917569456 132001607 86810056 647056836 614716009 714558264 346560680 439222547 604371206 980942646 183630707 290724257 642555781 364572500 386602674 29920222 719940026 948118536 168512555 257704140 673371638 776534401 154443937 248988541 391928075 736591289 719817567 893297745 526149087 999766811 435368168 48448857 882268336 46715274 181775075 818576754 644437164 225118093 570916663 112543109 982565817 883249976 976011081 175717799 179170901 681026811 76409543 304182755 636418345 353035499 80506790 413665830 171484419 109060827 910934988 550565255 982954180 272159908 650709049 395128545 120109813 795893915 710469662 543327847 140320193 643380512 290564549 540531714 192593195 546965988 224355397 636946934 34001483 875751677 835301432 612028742 411141097 348076371 323320298 330349384 308802128 134816437 882280717 780297671 593831399 449896799 206963065 210290742 31762913 859185601 263656401 869873999 322812583 474694332 479330265 489836329 120355056 570252247 740005804 728014660 626635256 103496444 834591689 45992931 158835752 437098225 961344726 378047747 525672147 198458564 552801638 386251306 910537605 543941697 872401855 619187396 478660395 859328222 545349664 27025249 161368119 884667776 70666771 706810685 939021463 512862698 789123898 162725047 314067643 70716158 42886434 271631574 86146788 884634186 971513630 589278169 775324831 944581254 251767700 998494517 954738805 174189971 463245727 808806960 660182954 778645165 115841824 61783803 732159327 144200865 86178379 93992262 609879518 678882067 507421136 900841808 5290687 458850068 163650972 840813299 158812689 770121966 552019782 768784218 829037468 25678584 518218683 989515953 740781019 20739144 306733899 114594080 571880343 690935803 441052557 246727029 409166649 196766882 998319288 362521464 325490226 499314586 487638581 802901951 857136394 3046264 683717932 399247650 128644488 332275839 422537472 114827435 642960751 639248120 153895462 709393417 200261250 409994681 348713925 739021187 576787720 770266084 960292988 732727686 443063187 552286210 757161169 417074544 418585069 396950657 777967505 643436543 683104272 77024286 986124999 541745496 191421069 301987729 568500889 6960356 202035567 560804411 515499488 421539596 338103372 250994189 176596134 267060092 263123178 419811130 997420899 969842359 136501649 536567333 273950528 245414075 539398619 10321836 79205803 306847362 929124577 718589149 411328321 870560324 7822322 654129412 321912436 217790671 42741713 420193052 462737192 392318781 781997905 888793717 43873600 316032885 948482537 98472611 375420611 135975444 155188954 469610311 195803566 11734222 341659026 390353085 215665524 460856158 507055049 799024415 832087170 45446326 471341323 808311585 387404159 330472453 472706708 423454687 703549781 942318557 829340945 588477794 819580473 484737820 295940657 656910372 312894681 477454928 279763105 365650451 559117561 994960543 134078532 349370237 486763169 285880259 584167794 815890947 598450450 11583984 277017994 509382577 761652813 904898754 685139764 924294260 476657528 36044444 605116240 474501477 585797014 463294346 175567750 167159521 863795800 481243389 859624171 446211817 205181254 584019791 137151495 20293750 392032388 842877326 288821204 958659354 226653336 204274939 986421230 970526684 76997496 471586803 434594086 415175070 905577711 541064858 46298046 330537411 339030754 905660001 188641731 498432517 817271751 901305509 422721263 565325998 542454943 544125072 6613592 892409597 909553469 264428856 931634751 665946708 87437208 848792011 424043234 796538547 533127704 103461092 502653739 337390531 497791071 168127350 486012143 768109190 259794505 628651141 700287931 491435727 782728591 170587963 568297687 113103637 865460042 195316935 194426257 77587463 790078781 103785699 732171624 298456220 846439844 867969226 688110520 984522188 342960018 514380697 363281929 185836282 923882385 129761757 471331468 581143950 394132166 39381639 484685825 661574018 320136145 193200196 387170123 446486901 886519617 250364227 29666871 197970545 765001713 195933939 906805920 976106559 178871934 193184497 822801048 229107572 766940309 348465390 512269193 489374965 98270422 517876706 93095275 61394426 420868998 760689054 437333610 76759563 122200954 813116901 230807731 179775946 663943556 312941654 994058894 121080291 337973085 528621622 885544900 193201116 487133576 500263792 397154484 926423753 36676474 742652271 380293027 217780093 531751258 274519388 154816791 543012905 188382735 279930101 231142711 306494759 508599869 311766590 955325586 287229905 627950147 27639715 35034418 99288956 296076087 487384063 622784419 191010587 985417748 740114782 373686968 115848792 841083865 610723649 11826364 904908305 891250249 718985918 377611025 835938563 571376760 928950665 329163085 725708668 125224054 773829997 887039911 438758612 507937399 21735171 927114765 395964553 136137311 224101528 687599193 125804251 686643730 558878792 324487214 649348831 217963224 992115316 331992647 792016366 219742091 387518341 414853676 353705000 815550983 320894815 201804560 815556244 823383683 490328440 433761803 346840602 827371192 330796909 708547627 301448118 524165787 261805701 485555537 817544376 139724810 260510974 309121488 364820863 75405662 615564876 803819094 894813266 366830242 534898977 160316916 292206693 94603551 950941094 126478225 816666662 17073351 277223384 877641704 660505133 239550226 317906517 500498346 961131170 305938747 648661587 999002374 893917229 172948765 234543925 28854203 327803842 477371340 153226616 658231778 866950625 70243722 475456893 581866946 382627293 907023104 586261271 12598444 141626338 147335048 626626880 567521406 105795046 561920582 800657199 481545632 930493141 317133256 391098953 281199283 590855732 677798447 125029620 186040654 655594710 7137382 855874803 665772201 700352886 296167912 331576005 226688981 185028731 769328844 147693447 490934195 263866508 955071523 134663360 41615340 204054009 129901300 410688325 109866971 750109442 426343258 309375890 229631064 707228835 613280660 863460788 535217089 66537436 630428496 441130785 222255537 126301680 137083919 435714387 518326011 300022882 202923238 35714768 453894709 775773472 359411181 500173801 897331587 473449779 986256873 378706184 573148040 101979583 504474068 153469417 92778972 822012126 91002695 92108670 903352881 36944388 450904161 429221854 659167952 841079090 958521839 3986725 616684098 465972198 463014844 773227376 880492303 207390731 14016413 539930658 895725752 680468931 395094885 481009313 93639311 304251144 338209523 252569871 518928748 678501946 686917321 727365495 680683636 818585699 904866196 632809733 73679982 352672829 70734572 890199768 396853185 51590796 702367607 29704932 729872039 112839096 771245191 468678991 173452347 419251470 996143201 656352020 443309650 514603757 66430452 515593213 866926823 560972 219389231 163163323 908391474 419085123 925542541 631097080 702374532 651366182 4432484 588252674 512572906 839717433 683795613 799223545 431460030 393042812 338057081 77340072 246575953 82965290 496915780 760625916 435129721 396387253 181854591 221303332 174895712 458804632 652443215 196424119 614615990 279723870 622154425 990091839 235196888 880039326 942961753 329920816 249949131 276999648 235344951 22844845 841422788 460171408 286812976 221412607 169703270 435503324 695399118 717714021 482159077 687406862 542812232 33559989 850070109 612566755 389657881 83665934 503294912 4306035 694236306 381481960 718414002 140672622 846925799 667626047 40389829 310115202 271400567 43961255 287789886 255365379 708113712 29694672 141086158 266227896 596672420 606167607 804052552 783650557 841744690 762897600 915057521 822312415 183426961 120694359 241145351 580999351 682867555 774604062 283467246 756515587 262812117 663744962 649346289 898183890 153462832 278439898 575274334 861952913 165802681 31042621 125981878 100298474 961435238 278730028 358858784 791325502 876785156 76249614 125904565 680792012 421717268 630790451 483576575 519221744 947090225 536320294 257576901 171343773 308243295 648178698 819782771 700796096 671604003 936286472 486195801 690480690 934235249 465591151 802378237 205541561 520136182 674164015 961334420 528744140 514612548 723862083 939166984 354258308 915502024 362318271 702234191 223706546 636163975 261117003 652333556 713722412 665744123 339368627 144602226 498676125 456395302 709489765 869320513 249822697 631636880 431183511 464372740 462405062 210305056 856797503 979029961 47333513 729956371 230844684 44347008 508157877 772163978 513398260 90452926 664780088 906226078 208548785 708032815 671885839 922900748 195789283 34462484 876400202 227150051 243405662 396952873 611968852 221380666 958237704 683468032 303072053 131915967 138091493 958165569 574496681 276961102 21893575 342804719 690475861 79268613 827548680 262608315 752965133 79451796 839527601 340619633 993283611 579489990 839604058 868199286 176091182 349991252 865652946 890289788 930920526 300269427 948003280 452423598 685700007 798713369 171610343 766800489 502443674 204447094 729508447 616548295 386862669 984437520 958280981 296523799 112946908 127712596 889792020 944010051 595064171 227022970 908025726 226675747 805124453 10382209 499728798 561330356 554272550 106105810 916332170 853369236 978068238 912522040 695509231 331620613 225730160 27187046 625628712 989456292 248315637 640811844 60799239 849379631 986025754 177420569 497077083 659648775 186217461 843633776 361656588 273363586 47354903 468763473 566938040 983888617 396331931 990749056 981125078 979918934 11536078 868430994 301995600 271525592 626441165 432183290 335390938 476606067 92819346 218265099 573172071 17281581 880610357 733886565 25891993 633721076 752834278 900521126 875206569 280140905 55310960 904947006 245963584 581208904 961480766 440971916 556542521 126640959 135265551 612402929 542903922 931189968 70060101 631566770 573038939 161688324 214224788 973549415 140423020 388711914 63916151 401308371 688459155 782806230 817136277 481865167 650661969 997403069 539926333 20592629 30271520 921867059 960610357 809060052 920896763 599476216 237090782 807008339 747703948 899296306 213937661 189627803 374036021 368435412 917388925 928860959 406356882 384439639 520412212 213131617 347222944 156445347 886094384 920589523 925326422 394117603 825561070 660358473 455400218 664738813 944247314 329086060 162278763 176529712 843080342 391549475 642874341 147958681 112821721 628543642 568987501 939002172 748109399 680126133 167140855 653812699 883271239 871652397 237563988 228772192 757748740 713085449 886433814 899608428 258834576 27303460 632356983 566581749 525454349 911276105 895835950 900809212 462842042 263769491 793382852 820397669 358302967 441554782 522029736 35759186 213478680 673027631 345193599 50043811 184045050 362532907 748269748 464981328 266018715 651392188 968357962 433911374 739191291 520078594 6439749 285203170 55434665 162691594 633906442 196946905 737483226 67297133 408887050 464390844 584310150 340922606 745166999 874827670 993942773 697090829 111049735 243227863 691209569 54363751 242351271 874380928 566786649 177681877 295748929 330061746 739213582 662252556 37705116 187358055 545174753 740245968 676909152 813338812 187593293 355500592 581387092 622598979 429374635 702773475 436214309 705038928 472573721 683242920 36013747 260432076 217802740 76880271 307337171 240106123 264164677 728661331 390597054 242121732 766510856 804803863 71405821 17505046 548694424 841415140 78133428 281674365 581286920 951579037 424948419 158677200 148200427 750577898 440816453 460483607 883923848 844562651 521821263 53035711 203762819 210783104 289452386 603255019 308750596 895108639 830185222 400460332 228017090 900666359 998249647 183246467 137092717 24641394 357419902 32695448 197067308 1271901 283773201 831263084 334856550 488231160 328356248 795789404 890889543 186973001 86901708 796958627 214687650 121510786 468124401 190805190 982393322 480427863 458008091 369328048 824631212 396580440 505461388 563234908 536176790 785819069 241558131 279265735 967445318 458604873 261492117 664564082 797799294 850312463 857830694 937874977 930255259 223496327 610489153 841163273 261375855 786210380 79427857 203969852 198678750 208238720 659603013 949674549 688968002 42792446 523650810 964931508 823676645 158726938 659712698 571837105 409595197 234883000 772480469 212668506 745318379 106726113 414571903 38095452 129019482 544003915 35297275 832840880 157873773 596299867 937597289 414606220 769515466 678261006 935705856 960649400 744691758 218354132 657558569 673910569 192231825 908332627 839881751 393618800 795503230 190604539 525147697 155773248 94932099 563409512 26022990 356993656 520247396 202440806 424975961 906059606 206952897 779842637 771414923 369449859 329270643 510525033 906875441 772495179 732602305 38173032 200288950 211157511 13935284 139465408 814394183 289514519 873426868 288326122 976676531 877205696 934681271 711203840 609978372 841994095 309686098 789205185 244797776 491592374 374122877 511402546 32847281 794615321 208068230 271376137 461583417 577595100 637688936 587726955 114691563 114604328 270872904 227201895 270766158 78452087 46575594 386100727 635615924 641347843 729107017 65856561 60763995 197565540 567149346 880930897 357395662 840603507 693233551 367799206 500028487 597402862 692824860 508443465 968911982 984343960 890859478 268208294 600088756 970580297 381806445 264012133 649913442 149328448 826662532 720548156 137026071 416093771 927724549 521077506 69899698 670622667 109069206 720100273 396804686 513231093 583002351 711307018 502490435 409796782 577026772 585258962 934476371 153678610 495415024 736612458 25733980 753164601 141223443 473584219 248831217 939999496 702101229 535286912 677126261 200024459 939092785 907827359 652387069 349602161 379432975 61642884 677337592 930683363 259588227 768547550 186519922 330608799 876105266 423804649 864689286 577461186 399084398 300241673 849695705 780553152 724689181 961708760 907571306 251549293 907742449 99120334 808078318 2577822 665908200 320855178 391201479 785907530 512693418 186443618 198594961 96032073 267197354 492699959 970790567 341706156 179562534 46240911 22877056 702877889 216240029 973607153 259913374 671832661 464270781 143521134 636501613 838098980 617567856 282449985 543466053 313567273 284228885 525446501 100438497 771660711 781289558 409676754 645753988 672816601 36377289 42906407 595172189 646604329 688584246 143425007 10581806 656213385 732353812 451718673 28424794 234657054 449069263 505248949 558043258 749596039 929164607 259758033 838437822 646148736 605826537 537118234 446879539 205348949 535619301 589455704 351674696 409735524 125351056 966281069 587082362 776259127 831191448 430992254 148335156 50758461 748498332 187317640 285160257 884098405 143543513 95691129 486845208 288040877 612862478 286561734 434329739 816699921 462219664 18525645 339144924 754203077 332590693 847027374 553290400 454217877 432409754 587297080 886826071 396891075 171877872 722076936 949759667 104065100 887376191 57683652 42175313 924630674 327313662 326428256 39690222 259303726 717783680 825352688 531924129 960153788 470096464 326291581 99348899 290997265 914530277 922031088 230931720 443487083 381955230 439998026 793202588 848137541 288555798 351446268 737494606 336957686 47293384 254139106 527184282 395924340 94477731 939031064 964718738 387769850 259592425 983955832 402899724 94017337 174788766 579764259 661584546 7642032 382130059 449637292 259622503 213130614 296645829 999466138 976594370 599947050 720816280 911186065 189851541 131565434 883415823 498172085 746318174 746928604 614486795 57757298 735520827 709611435 540737813 395381412 230991444 438608691 21781591 549075077 286693819 756095672 992861511 864749208 623368939 736330514 154420883 198467796 762284801 376944272 726999303 255890737 359440833 607800488 122669941 713877648 249305926 676580637 216248223 557863240 878678277 770267722 688428773 538697448 855765940 988852160 962811052 927021614 80502828 42629306 824436307 959653948 49700697 788062320 379088657 69866053 786118423 838840706 180278843 180121970 281660840 511060781 573576601 94198634 290003813 223707827 529908055 457023849 859656756 616709371 108037830 225776753 982521410 294561307 238047883 325140805 783925969 544904867 256962304 70927997 759782147 211455571 141205357 806091887 480215607 459878531 369226066 339106725 992500668 641480196 314083069 292707134 654850552 640867358 916318890 655148132 321742324 325285636 440081215 24316010 150272452 260396279 762287892 738384542 983465199 863972520 251244540 354128334 904853939 874888427 59061107 963612935 70362081 164747137 365144735 483187741 157557800 553827562 471838930 478879759 626816721 769150508 402822296 536820186 629029552 335953491 893509127 197633648 723251924 742815314 585514324 687149705 608785923 456863863 604719126 571681138 115413254 113151245 161552292 449300926 164292395 572103852 859020801 462274223 495473870 926217185 404725797 819892149 433875191 917671983 107791750 467018066 611848658 231501367 127225340 110302546 115748055 833479678 952628280 54757277 343916873 271221409 202062061 224096007 885256367 394886148 398544042 440163811 933477934 396979186 355850453 242583833 411807689 633451898 754391485 126949796 158283824 938260885 790276851 810366515 336347557 424557136 400662883 189380784 786222432 114069365 348866373 950897949 185270011 431478005 421794149 205591610 673600587 150903744 426246811 10760193 771093134 858200918 282617825 440167982 628109537 911867180 700260951 242291592 267288829 844012321 470456127 606325227 368224361 245692492 37418228 714619067 374144292 921661184 777861404 232160152 480983075 980880605 401143966 221224088 424904545 121487587 541314520 101757722 372998128 465352140 523063464 329711803 752408851 216439956 183001497 395198748 902522965 999280144 117085117 475777819 748422249 893901760 57085129 808385375 860894792 657995736 291362266 243935408 270154130 90752542 440062791 953375583 198283169 960151440 813257395 247535601 551265401 720709300 842905939 398324412 240474249 679524245 565990686 588549460 194839481 179149040 958142536 754211637 207666775 580038700 496250469 953605265 651262931 38982866 5006380 991244255 325957134 111714756 110136207 432631039 724626443 652017173 199071886 36113453 530785621 373720602 611488572 941156682 39008889 235734605 104244561 545579042 892825645 494051118 772620564 786531355 183378444 173314828 483453390 44220334 885475632 975659531 245412077 56904058 544436551 318188858 920167536 876944508 540782137 247220365 746863312 38346733 308207945 34062432 310114612 846419599 518891835 943499003 5629347 97951845 878433921 478337735 692875248 4666750 474110035 537807294 541251227 393056354 784906938 937032224 248065579 121545553 68656148 304939628 319138037 523951242 77244921 762252232 844463771 531075723 356641053 242371714 905200473 530089252 784858610 210310623 701465069 754946292 879984719 109208290 419999546 424853566 118466047 45896754 305122418 367032824 471337730 563221585 521578919 970481794 676216739 657552078 947617106 691386023 200415697 168363846 360804951 500047341 142650376 733500997 901030711 743554840 900554143 887934348 832652386 829926321 775860882 398761538 171962399 548523544 840418355 217304386 221878855 868395768 781856111 960916350 226244635 144179251 558550918 452648330 615667079 463114074 122379128 220981695 402026997 791478087 118590274 802332786 159516506 343328092 310573802 419747045 537145762 71384056 186922003 642476208 316064424 422821431 561315003 696787331 707644698 82151566 313778555 380915011 808416754 280109372 130171322 627647954 360966760 337049986 558957605 959595132 553638492 850192006 842887421 237479673 432585283 483287713 488078076 798201581 650585096 922195549 19917124 735701915 864919845 757148926 784281595 978007915 277989009 114531404 620234055 412767907 169899505 412311670 921038399 474632536 72269428 583656348 812559645 191856944 101092043 759755982 6389925 334387835 307536421 20140601 63897225 512680233 210838104 721192426 523828863 927975299 236519654 630155790 235442474 881585293 574143025 34220251 148482997 571299845 236036493 517201536 385068974 556210807 304012815 226414944 317713967 437814041 802524553 253798582 478019859 63016385 246509351 290029483 977584718 82277697 667503213 877332853 989802356 340931675 407273362 281888343 903556311 41252893 785942831 999956822 56887471 837077320 137005065 834247005 399493252 482228568 104665305 809646007 188168365 179635468 267825765 576245522 351969675 118657712 243711607 873426712 831574264 685228330 284489151 641960405 727366803 130734265 377514472 876161418 661952708 616814606 377993986 665186946 291704548 206550585 595988388 516973047 523664181 912072587 378620385 54111260 412649088 947750277 839631146 779861053 585446473 537196378 45344580 990682168 96456045 676356861 143260375 624070585 293975005 383158591 315027851 237851144 471547530 988233082 875924242 848700232 122526091 741364884 168158649 824858239 519803767 635255268 560367182 609501309 779392500 551578910 897387753 459402134 49182756 47054991 648453984 778959166 434573301 965112553 861881823 480288900 992269555 853732914 976194500 334519474 758400263 58303191 562645215 870320523 662054490 865214638 281303235 974165608 770784153 465857932 90686023 282809539 113862835 930222511 965834745 607457582 365376745 770091122 345658137 828754195 940221434 55148362 964399400 465588360 956604297 539097800 729375641 478812861 286195100 807888060 230342589 236288332 179054184 487501420 275579840 931743758 718181254 816725648 333436328 865535636 144690581 161908394 776634612 586483569 162230744 629255295 228385678 329181936 965438889 964805195 502565288 350684095 480521004 831181683 706964640 22644948 832356628 10821734 877339391 840895602 954250652 466187836 47480864 581604670 378425632 625184637 417596002 441398540 327562912 452102940 131317296 848825237 845870958 540417739 752383870 437217679 921634586 131308443 734010427 857517191 512144351 595355211 351016893 772943933 689941968 827672760 486284210 348016115 40892773 181338033 987365450 970202967 664291313 802411910 432729203 509650376 813618018 21085258 510561152 262251112 906399360 387164171 227078539 639849731 4059412 626320410 231580900 717493839 925885393 520166435 783844700 315688127 18346214 542527655 55841666 733843933 763204770 913631246 587066342 596330857 392398315 951275729 680238519 272547931 825233198 715427759 897470613 97282325 480296855 802841986 53863797 653122479 32385540 871940211 924856516 703919085 929938573 144931695 857959514 550673295 473643447 755685760 775170805 450586940 446141386 303764096 268499972 948062227 340692025 166843459 506969869 837443665 983011758 6340541 799435835 82832396 520110050 483494728 557674988 509932500 692607701 23372205 920120695 828372199 663055473 128261377 616881838 798073554 950190858 15410988 773407876 470596489 812141155 706707537 334943581 876193657 567300606 613103169 185935987 350301123 176547489 737524586 701732594 762351307 218875886 724421775 930241443 903623286 615467710 849539003 408168449 308894664 582739559 781631530 230305499 222800587 959363883 3452646 609143917 302987032 905287986 822668575 208660153 69679254 293779010 656664540 368008911 351841717 779618303 550704869 951540638 613962302 155573819 20939444 79129534 252322905 48243756 826052574 124378652 293997371 832271844 737333268 902299411 625806882 22160449 550759877 860451570 231960035 270823913 472530991 712497952 734108153 403038884 339534626 476966560 697714569 599059862 558014780 343017395 460474906 214983041 622152351 58729855 332485681 650979245 488806538 694640686 517319106 692003152 396384439 995988986 342831353 169464593 53254810 196452082 789469185 71508861 848203716 282919926 943204451 218751370 175654717 492277961 188810344 823835184 404863676 125947266 45310629 58038485 903121818 360478430 843390665 742709497 552947423 937989306 281437467 868409395 808235650 939212584 634809306 458217635 233485575 312055458 9017691 746256048 105841032 68612336 245121840 903889708 901487364 943505544 295502784 358189390 151098327 405094790 983765072 767652127 983031335 586713031 508148662 944270280 756167522 296303678 143878430 703926233 163433828 672284615 465549597 908326233 590927877 313021469 999948682 561961511 731000765 367757987 597275425 226485764 620360139 431970296 537004702 232046377 817064210 540841276 460936703 847978071 540248988 256444346 100197644 102551167 274629185 192549780 874109597 677336123 497441616 739250064 660536461 334922662 839412667 784602656 346081442 170923544 737760689 679457602 590344048 942607324 166670057 442213429 198043698 861748177 483175995 800610670 671071219 629941744 79002319 38694009 498654995 447876661 768562174 819874195 760479370 313903645 23249599 866385056 502898865 10145966 27306361 269150229 159491327 688578217 274530871 880209606 355451162 451012741 38027651 621205183 923503916 60349728 871028302 450496933 843079404 747214402 626022746 150290408 276591081 203497536 342601429 276026708 499661550 607799302 263341566 218611911 270994972 80673701 779632373 239674872 747527366 215888596 35894065 785953891 434421201 269414581 834171342 995601474 548945947 197800603 760735919 977681213 202519134 90612962 381242847 403578822 947062131 971244651 108085483 317975634 317307842 633501221 609273572 602726384 132043275 159692689 105491175 945396814 911218626 643153478 989536848 997014468 958651431 943261560 93192338 904642767 907500131 63232818 42928103 723381310 938522648 956619781 254713796 42002492 277788622 189208585 41411217 876947491 447795363 363339487 929574598 272355867 879436168 247303027 997721317 510610613 932041553 531957417 921009519 949620078 678718770 171520165 803777202 716858014 40425080 270227581 228481723 130997714 782048219 975694931 740775874 784858229 743515542 936568736 771814770 66379102 743748348 657405951 667515320 344733137 560082864 13877052 897929980 225169416 724509054 973114209 280034847 366199813 762286491 171382763 614156539 799365438 267047171 461143647 371485523 572323139 763378097 621014479 916664919 743184722 179467568 176329910 78585318 860150597 619713896 498663078 959826506 906813162 889473322 305438480 311780679 263120601 292100759 103250281 619251299 100930943 708624211 960445523 544286237 194563164 518410757 794195116 548130683 600069073 986579769 785072958 947137001 80387644 440617495 100323711 264913162 196967761 770347491 692410532 467558701 556915810 786480957 897699537 200031718 89193373 513954898 963833181 670330608 937347332 273976375 292996183 897244797 990158751 270539997 744339496 223602337 241777371 508815124 248409596 1288208 335235848 41037607 759725524 393150395 995982646 570956674 818542039 922775500 260523122 300854021 282213153 80703170 3069395 173129476 933097427 957780413 541070302 15498814 782619219 378588836 556715957 919947192 960993625 559194999 274212421 843193429 393513562 568376508 266223610 228308943 634583652 533203099 738524886 397036738 561991323 999152581 351416463 722962884 995713748 919704728 537624287 157379234 359765530 34286125 180937381 127636232 893882926 553632067 585856768 439134028 159373286 434589986 815345678 522253928 817296035 473177945 458019953 599849500 338553491 436008416 181978957 966593371 252762293 755099413 792602051 724401185 281836553 110147427 38402482 802264629 724913209 540721746 843913176 891314105 313024983 975640608 483396753 257961706 90697209 814607996 335669378 930040456 424404663 626404550 96524662 386099783 312812186 708451357 194688202 348472435 837540062 825767917 782016622 436704861 863963324 680173740 732183483 38462507 422351517 480143631 531845427 702805381 794245370 274260338 263668226 357277310 256773818 266556142 64347194 379199415 711664524 133762889 56662788 609527979 989187332 847342989 929326842 567471366 504302344 542563549 82503326 481386246 218881020 292036892 937231680 571326691 166180830 108354935 98970549 850452381 428351494 721376336 856150315 552623306 521406565 587815207 325341755 303326285 336502531 651837407 812900288 3156479 723973342 522206733 999210230 474491656 749284018 100784492 851484508 728890875 687457586 950319984 293948726 84094626 6073624 681763367 570384312 995065449 425919677 737648144 691081844 827707577 930846986 734830962 872087988 164208420 389714153 670346838 815651529 330693482 328440410 264558862 614796804 944334987 512658237 574307691 244609362 830361772 959677994 420813029 153037066 451911930 835405219 672979976 358810141 791977617 818770692 63551772 790337765 486130277 21909538 65896139 51214070 631815299 913618921 661468122 279303842 535626895 751857845 426711118 842314158 194595881 716538244 908078436 141524160 589127127 674184904 456505144 708919767 56204074 249175664 480574894 984100362 457113636 633082346 863741865 134299526 380972423 83590903 699136322 576511691 343964628 528538529 341690409 39250676 682316545 483742010 385853166 762681690 75408965 203190805 32961424 621967482 478502328 288209786 67705983 578372886 912865146 301776821 898091970 313096176 199980440 98160468 985133930 579679536 428371917 814129504 435873758 634704291 76696738 621061239 677407447 249883584 965930416 957474208 78140339 587130108 340672032 884731208 717970751 344343904 564042128 763999839 270763024 857458812 352438475 341578488 303181724 670857949 533712915 53679372 784795886 565397056 279961136 925968181 966197444 158997098 605747123 396615104 91381169 506647270 749754904 166733998 65892654 221287115 213459102 46626811 887662247 784719424 304953742 789996418 84299309 537752821 965569108 554754737 307306472 873914923 817760252 292817075 780925005 134514222 296712215 110245288 375354972 670600914 249973149 228546354 53643599 599628704 778170375 987551621 955774142 682992532 702644717 142224076 722223916 96967883 638226916 957904785 249749934 42086652 410200381 962191814 916730428 222752582 21955668 655210660 268193036 838945184 125303135 781232444 998794295 888653052 195094168 665863883 577121451 817985375 757037644 616911725 437627153 178791943 935899128 539212872 145604620 742279632 191708766 603123043 16138015 297716515 673237193 365962924 850555190 452740034 927552514 525251567 800512248 682936207 984720180 573185104 827390661 1830800 246961424 482184061 618830132 225345057 172993276 342460943 928895014 337967907 30518245 807011944 726231324 453639770 336489888 173788404 633565983 532064772 690801324 429971499 593891819 858587275 516279804 201074393 143915025 348694962 799499786 926736329 476751973 855152798 413516452 739571007 616526299 967287984 996408733 934230926 202237041 104391661 79056015 580804767 779822212 743541441 364448753 876174284 451051690 895288751 691140010 821892520 486390626 719542336 908638072 512779620 10913158 60734423 582569223 495462255 551588030 406444786 869413174 459100223 695908539 527724361 51178775 824788324 313344684 757797407 102736095 952569203 548352411 362343740 822558474 8462193 619148199 327812348 526393053 759615287 665331807 383835338 649558159 76810506 595314566 284075056 818470163 654780431 211141303 115233113 142772675 676036693 773217635 279262118 892689762 351093450 932350670 998724857 291372640 807818934 318562378 369210098 634246194 910096781 361799208 602510856 557661041 882659131 268721093 938971696 978304948 189215599 936911145 369023538 680606703 534030676 840400718 273569941 950123323 531902153 751762866 530173056 683938350 173542346 151012706 133525277 614463432 301383461 964594926 486977644 532445021 861079821 984605705 851788471 575464431 122285075 407180504 770564630 705907005 977377403 52194534 301635010 461547435 572373895 23887656 598596736 564683196 646748002 71103796 86047142 225243090 310378567 580974922 890587266 879560546 990498952 34095870 752642843 896597392 274347426 222254552 508725862 261123602 76502499 9157775 905376396 263757406 379366048 604585557 980414234 155303174 973124114 575423376 662168697 93206941 163344603 631457182 540387195 120437770 228064690 581759377 435421113 936414394 217942584 861380016 274936926 749128855 357671923 877589592 101595360 757792525 54777459 822584370 201978674 299420290 930381344 476804435 550565180 345200324 892590609 679450511 763890252 642736669 997882976 91007359 11139526 352653814 52117684 908084115 307253341 388373244 58437523 647624748 39494685 484212904 615737805 85242607 474988287 121665378 261119444 127801935 978413817 839033482 132086685 869730619 376195426 492964943 287736177 50936644 5275420 625989511 74065910 200170338 194911937 342301673 229936424 30994691 57141576 542012486 421946485 27203130 625448413 540634392 18719053 689923845 444288620 47307728 487980267 182486716 409510000 577937545 216330158 775435673 899650160 281885246 895323220 801263447 946826247 850812496 121426522 71721782 862896548 376845806 723420679 303639505 45253144 680821101 422905853 399849577 364195849 928191755 448184685 637128056 12096470 555603363 381672079 91513854 126493793 849466643 187064309 73840401 397216495 689083280 478161473 53953207 266854564 218985024 241036644 895943333 198856594 69730381 41786140 554871048 743228269 14424044 830079373 825267691 614268857 656483942 819419869 439531308 909999676 716342799 476782786 135927116 760203724 513407836 452011230 762209506 192494931 522684513 174159790 36773833 284763826 458150551 880761964 86438179 617832012 106415222 486858044 966777209 780285216 38856970 207977221 857766958 991993801 776170577 229346567 228671145 248379201 685648343 501234145 228905865 533221125 276398769 711673360 465853099 233791579 427265039 221821381 896753689 696878074 541044312 493228419 436935239 87660056 893187740 396773016 621874975 955415070 503319100 951929124 460070477 132376449 974641236 953381775 475579468 843683290 314219252 664403598 923574113 373821624 377193853 52140135 933426433 378037997 615131880 219398729 356146940 735301548 693782295 470236064 983296522 12230259 752652774 353049920 308940119 432981642 723139773 787840696 28458256 870189670 483132913 417743546 217930044 155477656 749499249 237040708 651074623 734536824 922990279 200897305 381353635 353521999 278071868 558306949 522097698 80474735 179001420 940072238 66355236 37248169 709366195 631391087 918524851 8432882 983388108 214979796 184167695 904265785 550587246 689491593 77267729 829147010 435104919 919587110 482633693 645262739 3773426 74447759 434820845 273623570 309354560 297251280 386688950 137987396 966592548 126659347 393260776 364827810 358808541 245070716 230390563 465869937 558431653 635033859 869310929 303929192 571614049 519451560 33218191 863794826 563971614 805447816 492582380 340819681 694509171 429399587 469531007 223130777 653552921 171652848 710699368 948352973 464593787 61732816 977759404 879796871 290059295 304408369 290689240 437415196 612712527 323768020 991993954 910724250 150103698 23214833 466668401 408718937 713809523 225610289 777225375 452327177 628697726 570495779 112795532 245286443 575351822 386826784 634698212 312704549 143616047 64600161 667519805 861373993 839841541 734290057 317790342 446453589 10655526 73330393 344202398 218766269 720386296 570140681 8214046 907869926 508746655 340707077 265994302 686369023 701405879 133428812 258172490 715540600 636592794 790067190 710762095 454181991 635879618 732958798 496797072 598080329 180811901 353822443 526773215 768605530 758253272 989060605 35093969 966455333 675497618 708510083 204132728 42431612 779539793 989113838 293789180 698429424 286333359 696922023 213732636 298043420 8989792 123128232 992490305 418920605 617900702 845062166 940247201 236784214 508901037 946258052 547025273 57595377 307797461 413562843 753699669 41942488 207843938 949412026 130731395 255629887 960710729 939661577 999827948 426292366 481033210 961018176 17933229 538405538 258544319 32910871 464621343 843383573 64394243 561686652 602370244 740521476 880191467 580802334 975065957 99772572 572784515 692178137 207077706 240531262 836500138 715979375 949259419 112043855 633561732 248027467 410468238 781251343 142353152 949966983 436399406 561273572 77731580 171038398 119285859 693097373 691634033 399975997 974348928 90700925 473620760 647191387 471516295 132495807 933154264 23255403 646883990 717768315 860182557 440293833 125462817 323238837 209809030 793431660 376821328 145128716 316539279 536525908 721400879 689859414 721176632 717902396 759429370 535679248 305466119 875222263 286185356 485590272 845814300 967634573 56810335 890306740 991325996 978151732 594988580 971311936 927432026 775235751 752012480 205711418 300237369 625565879 794053593 94967796 491727205 922596141 415552305 678984995 251774290 832487951 543201455 332104122 762898738 592049774 736137635 882164206 845773736 795491146 229770347 459234776 996120458 272781584 990157654 246306246 364133549 625359674 776457632 486993618 672150681 904229271 753781764 44641861 981762699 75463240 344406827 601837633 402495378 648335251 55736474 770090977 925839404 499036934 203246882 406779897 738107811 863015987 526806317 25156160 729985391 861661078 423832690 791013296 986295606 825610608 747338797 834832844 408684989 833669671 423482647 651940821 900469304 752674950 608012170 46876549 403903038 75977851 997000717 184467282 516055166 542300242 822144236 873007417 110363032 229679227 367009402 679396626 831788143 484719309 704533139 272730655 797156371 390874775 50107711 790654409 416179623 159736087 504777386 701941184 957999411 312681041 14853851 777156604 928938163 563912556 994299085 654104721 815980256 574353207 120729039 559467511 457297132 811001841 112416973 10192395 17017395 345111767 953407314 545675009 3402025 473305603 168082585 809137327 801828961 648434180 719971884 85544584 758245295 698491887 303602940 213509217 577773597 135713194 472610713 482425650 477581611 162956214 334976923 527706627 927339709 433661740 804393480 954019841 884075913 473635880 452282716 571711206 300519225 721242826 929832664 467218232 953351192 104342189 997376324 489626580 171158743 638632570 587314972 951764907 187567078 876635724 918511170 88880877 203375558 413460646 646839123 389437122 68903929 394442410 159271114 482143247 433425208 35552144 887815575 171684472 727561255 560412256 291551891 813112046 821168843 77765259 23447529 714538346 1193344 504932038 935896872 316662476 837191900 26061321 822606508 817341607 339404821 766445793 527559367 87071556 921404963 188047545 55979395 257490751 941198251 722332464 208086592 316096449 667729225 829954245 152416614 792722877 365098601 409606618 997482050 128661386 141715803 258848426 998539092 65473918 535258784 683635327 29270460 338006652 161528256 234735350 527722877 933326476 930235318 650841730 756824623 935221206 173330187 189221500 19787507 985550541 379811707 246969991 635826230 724034991 742251747 108307317 519864120 143214299 80594034 541802456 655840013 604597249 354892919 913288023 333336334 842015339 442669795 235264563 275595298 46551340 22373854 567392230 699579914 827403013 498110828 567805396 687394406 186618726 131953569 353000642 593837671 984245411 456198743 764739417 567476003 373872054 540034562 135051539 505817563 283478759 429952238 548168714 420778014 211839546 418243195 388544919 907766479 407325905 415783930 751383340 372009717 830538206 942136115 958810565 588871802 209676395 661985351 102341636 699472515 196514414 681199334 3135267 652422512 679688455 696390889 465665633 263744515 830813054 788016532 642822257 428756834 240497793 466306170 156186275 956599515 278876451 410288446 449228462 925378300 414098613 346884107 14231990 900562905 26622206 522979516 497754676 49461035 229285583 132795802 434146365 144944702 218170975 656476791 354687782 933006465 646552307 623584098 252416622 791198243 946831938 527473151 364552971 438644929 719084450 553292589 948312609 649566580 188091393 161984092 216837661 447244651 391402191 555766966 323354819 808885244 305286264 174140830 482736435 101503255 806567323 931254926 426078210 789452877 658833252 508625198 349533395 397517932 933640277 816614533 182222202 344229183 930674339 985711890 82952633 123486775 514917516 148650707 56730845 448779230 406201988 594346985 781547795 554723843 93795042 913378360 132553874 651824504 749862673 956309232 512464489 155925656 212587412 727037295 641005909 128044421 727899417 3594478 557531131 161615773 829390488 352117465 849106752 821424222 359918820 82096385 381785369 481793775 64561628 728158398 278465934 456821685 620564188 158991030 536406886 193072874 196683360 804346785 273479927 562255669 945436026 401469227 640048204 443235711 299128460 670017978 343204498 20123199 561468238 199514686 902833927 69925303 998497741 686475746 71872033 628786203 819364762 856629986 964641267 570941244 326394823 579873868 36412509 274781134 794915766 324756790 582875330 481196484 586078464 289994145 299174770 322129113 227279178 749583272 968006662 116307664 881761933 975303386 372561571 35420902 315640163 436429691 344787778 582268268 981143592 243337972 304707713 35933356 515904087 196173841 769242101 488417692 898936660 8208272 914966290 370501557 664564250 841796396 329277543 763807761 683982846 356268903 541153269 631488258 378912018 97073425 884237445 278382296 945236683 845934133 878143798 981348876 166347484 259821594 908498583 657522101 626171643 162496875 730825919 951040235 635898809 929020699 929066513 112487612 727775927 551192663 282210796 383992171 928181364 432609173 536556463 116402470 552862080 498724883 85848420 180100523 899716644 67203247 983052160 39566188 803579923 418107036 427513922 21513159 486703444 579945676 932087604 280295087 730287074 646671792 27829300 927902965 36469909 45450261 863654583 202418045 266602529 371486747 198328362 53835393 251332886 845072902 737329335 189054299 916757250 664850422 588742642 987473781 52266568 746688477 592272029 729208040 6997545 364654828 429095393 183131747 940273575 891042166 123843320 833321324 230038233 261102552 433512195 702878840 60364581 982464994 785867165 205656494 482155206 504937719 527544508 270324335 392741064 274338280 585610345 381446858 818665846 891103705 776454113 984266851 940522631 971976479 88432780 657696412 129380085 922748641 583133090 603152979 25357 207526945 51396865 848670167 197916691 502719305 646382288 729582795 374015767 331233081 787418915 836858727 858696873 691229864 696209930 110755892 908901568 282614756 372139432 837397124 388816360 900794893 533291711 509126809 778466834 506591125 533597124 299520632 121892845 346014198 559724582 938030997 493022478 398243841 179431019 117633900 551368349 751422018 722467316 368386485 106362011 427042120 640476421 181168009 743377195 905588525 625964861 576500787 928773920 126414338 90984914 771810633 715553810 196785588 165514266 697186633 503484933 179275891 345171623 730151168 62327554 522328827 232208684 468716926 112446344 278925714 659436467 603967848 96507874 491166507 15353811 367278615 860717518 727857364 279811422 756810817 110287166 561348061 654679978 831323424 485691137 194223773 65963256 117100488 644247159 435462798 54050861 92464931 819875879 167347501 957584991 993120036 250856753 645401688 213083557 166359894 284373236 439381586 764977690 132757364 113915109 167920153 695769589 22145757 462185300 994598687 487770413 244623451 880277577 645898686 712013415 116222589 315860082 918749210 958437439 107073950 491772519 364582054 590135605 90063008 59933943 718696286 694157793 777498957 304472341 611267113 517116399 403659394 946922760 24486708 986755977 308224326 30377474 948252271 762469188 448452910 473212861 214557599 485963426 999685551 332945502 135749341 248774238 498953480 56550347 4743088 365213824 410453185 236386286 361985099 126628697 634504445 327716043 707856714 557105120 719132776 155221194 575694559 947826783 1237776 432164600 626300596 13659359 657625152 771616316 113552276 474761702 281121663 358112454 173663958 104704853 216986118 152721766 343188994 137381638 3022813 452270916 531950305 539759410 481633152 98350913 431609040 141493690 187215434 874420490 627175997 638980235 130335911 279335463 111683201 684415045 534173071 667871535 421310295 89340604 990740833 421333551 260493292 87799353 991917039 87899676 271528995 467972428 621264391 963911837 492757348 937213405 315323452 4723509 833922816 527679311 824387395 915726193 987229347 929394553 333307052 414339837 179203938 905628720 601045411 952888979 180449138 163912267 188875985 964661776 303069212 962043507 276751708 393402938 711321134 386144211 57469398 607071638 338074122 768158820 284567085 588840375 664920519 545809608 196099355 130856383 882881640 61913857 27293339 82413974 392428813 444834618 740710772 145735525 644041750 988352494 105006007 397125713 848275216 346507873 905758040 854812565 578967022 204446402 976621107 916540066 428133277 901224412 764628825 632940825 289566058 657751365 318497819 498381160 65322739 832144404 208968673 433234994 484708940 979878264 208400104 393532421 463112161 246095021 553606873 60488111 730457719 223632626 708606029 131437346 371143364 421367290 661726063 881504726 44117209 386608004 912154926 662612261 825671994 394653405 722019778 362291151 348310339 777234962 659802030 787212935 993295292 153011752 682540146 552348669 97510369 95929209 123501653 468668119 626566279 107892566 304279699 365218869 721849114 735018861 947537168 854557973 767889074 869307831 284541927 344834976 693356355 790132751 733850867 449929203 188858990 959217830 23823793 851124332 317484232 934029309 852758087 449234315 333502856 664309278 666515844 248605278 401380282 529056145 430777735 538709313 258900283 676623598 892538811 883617085 773909880 698523241 77805396 824561913 40791199 667046542 990801673 938660959 822885440 471389695 63039583 786421035 797305398 580258561 527064855 445089130 451702812 963006080 236002040 388571150 471475822 403463309 226558130 459912498 519110522 408428359 110220295 610888708 263157422 853834872 583503792 347552170 996291575 930171308 467606219 204151603 565999838 683547734 717440863 556029165 739096579 540650123 754958592 57071512 5097328 644735749 147226957 62303455 49293472 224508832 445865793 434488761 428604690 21760267 132409219 910443403 80236412 560842790 513380773 64516228 780133992 444527396 439463073 198686729 325756634 557386634 284353712 218422141 783331467 268894205 927903617 611253604 17317406 829910430 5730635 790902642 390389209 811815240 216613436 167939095 860771714 444154425 131932300 519814420 319714557 851667108 111802194 545669933 252574699 303902529 512900383 193864555 55003961 679961241 910760092 574756465 300527620 935581757 601834968 671355838 857131850 350458387 361716971 520012859 350036035 381537987 234633892 380056817 965132722 731826435 368670356 47384847 21194751 695146622 807432990 636023579 354404223 26048068 613925470 646958400 886452590 737921204 151446009 367744310 361675968 836306203 525849435 595602875 494060340 871156052 577584787 413608780 479338263 55112988 690654841 181876771 11422241 640191073 353421649 533184632 524559186 79105348 109241129 562117032 301836330 222600879 236688115 519022873 184117424 91093944 993188224 422906805 812112416 838781476 90135665 895469686 262891625 918204396 274909027 601032738 28723196 202362957 776624393 859877389 296832515 485710524 26379378 784704753 456606747 426227354 114796301 62437980 470958899 444748153 872036836 922468420 188466452 859083805 975054025 403682889 771036691 9813978 722569922 723322266 30990289 49319078 604108714 416562739 303812145 722413455 971057221 272647212 792314690 187126858 793594393 710062176 5461804 451282423 562215987 703772659 580883086 503127786 98793363 75252720 242525848 330491976 359506760 909471428 381884061 71869041 370265632 244677719 313732492 308367782 403530531 952738624 887057637 471036469 876243153 315257399 738820013 537921691 825201210 362556015 698684286 219372293 273791390 441424938 200118527 460408314 971416231 613954644 995394793 432993595 283513174 182285099 814969375 493947757 843951877 184052855 862563302 43434836 143529949 422993576 784422039 91793799 435482577 296799798 46585668 495759386 803681853 514209983 161283811 722391202 976967709 906833503 256337210 272126553 434693312 993668518 759741914 989965431 964479612 331929443 148510155 169673803 259395136 461838440 828325866 555565104 319059382 780799945 550640139 82956883 952633461 858818483 555217560 434870067 729413647 290122380 360037812 502665737 354233256 507042340 156487486 973583436 577125498 182106884 775596027 744516238 643397675 806711780 196011130 554531435 978266081 460527991 861658540 868888889 733505571 606375394 86861069 612040976 143478942 517083866 593042888 437341530 255128416 548213703 564154111 832438362 781810202 288321907 368148323 118251208 830232569 251509063 94110738 339989793 808283252 296439856 463305583 521344708 882998141 565558637 638220860 661533565 7974180 80714184 11605062 826093477 304426368 211131661 68977290 853268660 548480903 792550361 880837011 781604737 660805870 920567300 675461048 62647614 286584561 741033568 452834018 547012923 6380879 602504890 639453606 378955607 737441844 715089432 559807257 283567860 165015428 598529918 742468051 381640539 787743603 531561686 290628674 328767675 697580663 469451772 642257041 847159109 476213201 797836862 350330842 517317570 677429815 90528040 1400830 692663130 408890983 693327932 725335965 274656718 1659352 215574211 455567143 406960173 283599564 994770576 146043160 304289362 299569700 190198291 317669998 30659681 976951820 196856519 450629637 410443850 969861902 807623019 483108720 578792575 868115384 307206615 665766019 838840324 129524531 290272507 723039783 109504884 741518111 154371434 145815336 779156111 809825316 787636071 20525183 665767857 938461519 104632162 591341234 458796087 590116372 176080442 657929131 123020264 344021640 461683082 362681264 734222330 250017246 939076686 708674424 533630272 715891821 950924137 504998294 915944664 750405144 971961363 968008855 588250095 642640808 586556713 27435854 22779721 233130721 106424076 127642986 611594914 246908116 291745119 438573993 304369339 613708059 913682781 920555981 518415881 959387552 540125679 293332454 852089325 592167677 780857541 957722348 323928595 110466789 133026276 212044595 54871280 911581311 741295894 472186527 546257322 157376549 196839102 32821597 508978188 146289657 729900132 376514831 925509555 815780815 194166219 737754127 50317110 37050924 223335594 23697727 834974749 701854440 125502834 178738473 473294272 176320555 313420511 5093893 911585810 679074962 678207170 779270276 582494010 389267096 577278638 520506125 776551515 509328552 72533693 167304758 527074215 82916688 521580532 347590949 306217872 820337560 61722538 83743259 683845890 674026741 901933028 256307892 802218968 116687794 605973011 222842740 274845510 211902135 628111431 916456616 101647712 950346990 559884093 326609675 670576006 654883732 929601721 623272281 776683013 497699236 955826266 576753698 36800973 842138888 816702654 936261446 794860858 709893821 591800014 596448649 273159204 855189633 96534489 541152334 926522704 14811598 896052949 378784412 854116265 477953586 411324024 318355046 404850931 771915477 538392110 9825233 290695157 49280016 337744367 403334064 644885043 84517082 945086332 421517671 751143347 733831163 832184227 266365453 972684039 363999061 38580189 374876711 107907161 129952496 756474166 293682463 556779000 972653133 921769058 288584358 2611502 718062525 922077634 254355391 353317870 657287837 229047799 818331347 141377606 12809240 283449152 904378186 358994433 115940916 684709795 932353016 19769463 99268394 894871063 325112435 939220647 39195760 537364462 584387682 350807775 329145259 690084427 941728413 551446271 173811291 877318103 621300294 838843558 727972809 822344059 85046822 617228544 456185219 669030010 564735410 556937982 371706310 258354821 964748161 948309734 817958909 795202878 177355548 76737878 778743348 401396801 65388247 987499559 173189605 102449086 566108495 121869464 102443333 78080086 347560178 576793519 629944976 972455222 501505986 762017366 174654922 784767349 239934849 260997375 941330008 27852725 892971154 416585406 173855762 517117753 124049920 879361761 566238682 388887950 625675937 131765884 320177733 702428138 753614392 167515260 474765857 452585429 330052956 168085056 884618298 428155211 979785325 333420673 835305968 840095845 581771597 492560724 496104677 289777990 608453170 581475819 764086046 789079513 672625297 89188261 607603640 874729862 712500963 789101315 918885575 431316742 735214532 540800301 174744002 690751447 572902208 88477884 303382709 735643416 226630046 701101815 85920470 868923756 888929620 509947687 54415761 216140193 22439620 560994717 78216477 402778912 792560918 928814872 127922252 330735278 519609555 179690831 788322575 23369066 88116686 758310336 744565516 217569423 429378858 690196602 966978440 940484794 893638083 500288823 430165156 436111221 457378004 421487545 163828422 482108495 505325463 465814487 872072011 829653530 630320492 556332901 964875691 98054140 181506922 777583047 957911191 42369163 285033177 436906891 375834814 450202657 145472822 42435653 437391113 252783768 226434984 717995959 807295246 235241168 849674236 693978800 821825269 259231919 410729138 65172741 974060415 344694197 453972981 723255903 584864952 748543099 363666274 516189232 504427182 914088346 601426972 330167024 872465186 737503357 995445469 794470218 192393 756648491 664746199 143128260 844309229 616470562 469587705 981946080 317956753 853178182 331973271 912189760 756017825 481902843 962416325 344779373 92711488 939626620 252610077 989032293 272883452 779849556 712794426 1672999 418354850 377802032 940391528 434204189 837627081 371474657 543681286 867102583 242242512 379680188 629671124 123090965 230735742 707294379 567090090 569408108 494757320 824715662 288694256 110750424 955925256 616625805 430560871 729760041 980024547 560623824 143528718 351284327 653875938 196760439 704351446 305440180 889130021 97350656 209481174 68132867 707967235 624962559 340078825 931990507 514365782 740179721 540382961 635852461 98787513 73481306 188306954 792937508 106162428 440895065 523479207 803013351 500719817 794063905 877724140 857144311 756164045 802550686 712709754 570807757 139799844 105962457 850316764 885244044 305842312 415326351 873784113 61474103 812652440 691113765 420967440 81227923 635618114 24972793 691345536 710613420 488585959 782788706 726152229 993724163 576362697 143432608 988303423 112703840 166575859 273813869 700742323 188793127 216242040 532943866 256554706 869860343 112041000 926370405 507474388 495691968 906378027 553753904 581977761 302623916 482620056 815460672 54096289 863944831 673441634 513932914 83841937 642087515 780835515 236560990 672973823 755715598 384225667 131950012 762072228 388259950 277344154 927751585 562850830 534922889 126371048 321597757 569623697 508032137 177739481 74728161 474075328 454012060 37017071 734891267 341970578 621045967 312492237 438745414 504515938 486213735 89751912 117626269 793346919 876459596 633005427 457677558 686130891 391471993 989394918 441460474 205901168 60180313 298385767 352735348 578345040 661693176 792316990 486917810 636563393 444592149 875947666 54719855 980852907 726493004 980994269 95634536 584220667 327326354 677935428 409742707 665779684 830095619 552601420 821958077 986984603 143405019 670136512 357743875 879113137 670323860 62082520 373580186 661103677 370223929 709765520 139022813 195075811 458819265 50610569 561680163 516198280 908998302 709666921 872578831 575422800 34367167 998593852 593669523 174875219 935493745 797655017 200259022 872061513 807047784 125852849 447785177 280277172 669693218 716195171 831798055 561353784 350483749 575005689 895136215 269294948 98183131 424293816 60980531 773923570 970757882 123034819 324802156 639512687 887632225 433270681 656907859 201343118 529257848 304296030 600235530 828348149 447718289 127084657 961813960 902363607 201968986 321848116 385946387 132077239 693916193 221202333 575261597 821078103 652314252 867442217 828126368 57836363 22385165 28764975 598572865 671931560 542937040 562094539 411079859 131112033 788401362 94925713 375187486 108094592 656986951 600206509 596810780 979927076 537990298 579127183 906793544 700668814 810352202 518031763 589498974 303925173 779831354 680332189 786925241 330792383 558690561 678231599 189153194 534824882 360184791 110510115 783860203 210063104 140117672 871957875 615375275 786894675 761161791 189810598 796207924 708666030 332984095 392875373 338993550 506088701 114134838 57967668 177466291 972279139 808711537 833134903 213399166 754761327 930293567 230577605 897619826 78567137 308241808 879244168 574747324 799078879 973376518 315705217 573294637 583947958 192187528 751773203 131630337 926411991 134873627 828623926 214381545 550606777 307540220 798271191 754683311 705686551 242211035 648635519 365648154 127071127 523193277 554206910 611880198 529504754 541386008 469949314 890147061 450042616 366016034 951926581 435151304 631102917 157330977 677621180 620106338 302501436 888352996 861119978 988770242 720090894 378237456 449931507 542704591 409858520 737463081 851917820 452542472 322173994 698554711 770354295 498190431 612634966 297090175 932299608 370904030 547997370 77814011 937281412 865945413 520560210 875730056 27324544 657003115 753442546 69390680 163653312 574877738 685261234 750945103 349726849 264722713 564498496 995322294 431355121 210102892 598302577 603254502 998241709 739906902 557319007 12561281 653452271 64640032 702228634 666476774 727994061 568303590 392699532 666419726 578663416 941880551 569908319 536245747 823096341 404982493 945015238 293149980 524891746 926350633 869727284 100679630 306802997 768757995 44385163 583702346 664049168 911803586 52179307 443754121 244148796 107890768 858391522 486238565 403273592 814704135 23826942 947315522 336584463 414752241 588539290 814917728 251124788 24632247 685820841 217690034 264148496 291973322 893832897 506060024 744272384 564472101 79280634 81484967 983575898 183029335 358233322 685065679 602607018 570103896 291322741 892018705 564094374 402948747 158824578 921362669 693522003 768880579 756158106 16524647 853321771 338350054 911742758 816554591 353322908 574698975 926345440 3663033 891855293 823400149 247253321 553898397 85543388 20866078 222771277 79116022 392809726 300466196 992649282 422933921 787632874 664197136 973885118 828051969 547276623 344908443 176583963 325268035 484801332 596608939 823644358 633636728 36620092 8335064 593969966 731182890 207955224 3926887 243180003 550069140 924981388 307292467 358345212 139419666 460977817 211934898 737960336 51199505 727195776 946150289 286666584 661505279 177230105 769506091 710732193 931206830 308626914 249787070 512991314 386498163 246987862 486227684 931394371 507358908 865828487 293284568 644684655 451021969 952173701 234487549 40686757 655410703 248016636 780527972 571344130 221469130 213512311 810750568 486805160 519551260 946142238 315021886 777548604 424284380 250735252 512985776 740683606 429955012 339564203 169849451 361436632 845035109 964044523 702935705 734531929 233248392 778573057 118379142 298994287 713736340 53918940 760997462 358062313 891494282 930458757 870397722 431738478 924221041 657630430 907603790 388051883 113308343 361368807 447335188 981815553 615837727 125832940 876706910 103722303 789897320 640984377 834887896 24463140 298191664 89559481 178270220 313406822 552697686 548876435 123244063 995569777 566287664 435458853 911281943 798345411 175981461 265666070 342916310 67912094 609860401 323896315 67730098 748777697 940565849 807407738 437450949 807921938 712358157 338614629 418624177 698631016 894193291 200151472 267403238 839065905 86109677 939659321 244009926 125414656 317360831 439168900 578938125 74987881 763644336 355499048 617668427 14538831 378401073 36024822 544353619 318137481 763324706 114300791 102815974 917373546 953032686 877364957 303564450 35428658 425431149 43231522 353115335 93519778 399240954 814293924 631879443 755444267 569170236 493054045 818947501 329919409 215441883 622826052 966916364 692907720 110051799 847649800 267527756 640844071 564736714 339312860 752308037 890490485 118393609 964415441 273923985 195018431 612868452 175150653 471651440 905499225 369227751 275408885 688485248 674955570 82367562 624214089 817800155 836117987 862146900 992615540 136284234 928238053 691754633 632434682 433893123 77690028 524601721 703401069 51013317 47236451 759207257 133060535 409720697 891525650 674911479 690134597 473012847 201971403 678747200 498702866 774123369 298079340 559140291 723734721 212594461 394675820 341482738 282115846 496836510 389293040 265369449 882370078 755366205 929171972 700278226 370070914 711097415 319648419 328293450 28717300 159921927 80137719 351392483 472218599 262218718 702093664 520302540 769288087 555959633 285538659 352357335 970068854 14040042 157707097 726288805 820969903 712149345 385522784 812729106 448693180 691745600 744471247 196857035 450950304 117904106 38025993 90838532 432131043 42964465 279131614 57028498 897014768 190713285 620621135 111277373 214396808 72543758 812909538 45076822 452777354 632120209 228838825 924335021 45778278 678815844 66467946 759617098 743687690 370238993 5094764 357392203 354883287 286401844 619885761 952983843 622840875 889239509 23804555 606272169 135311326 76156826 208512646 973545982 251829751 383626290 990552843 711191027 429738426 793748770 216571482 395490898 759586740 506643383 840358774 445405063 54106413 982636600 765982583 936769596 634829492 614546244 523166354 656688331 141627901 38777295 416712627 151590251 475742983 668073082 360651841 350129714 933839746 639067145 706575182 807236064 879746733 222681409 180715759 913631120 642995640 527564781 966344738 47275671 674952638 758327149 927195997 987906426 800807690 898028388 958151216 886217386 9284559 324086338 531813923 782611331 387169590 587315333 938854625 910510736 525059430 470861537 660951459 297286068 424402547 660080867 670978643 833548308 190048229 804625687 470511567 543315612 15786703 670530842 14758445 582969879 719310306 765712473 946451752 877059900 349799875 478845564 500924334 424938915 9237641 624005072 234033597 966584349 72782439 398010201 103318646 110306712 114529907 474055823 591005581 644871749 424765785 578155945 89996620 898090297 150236559 961792524 273495377 396525927 594282513 416946568 354450524 608737329 542084962 264470619 822323487 892069780 911523734 358403445 979123421 942573396 138364310 810990062 549435703 655665077 50751605 701302394 431797576 218432105 241451258 823460672 262752468 904613832 719580481 601096874 752413161 634887823 94374857 23013637 72139447 370839866 837198637 917156648 285601256 98636408 320322510 894266429 509507521 756776015 731279004 301136709 850842270 267042708 807072163 922243775 7754038 975379484 48428375 949878788 804174598 320910971 524283269 595578566 319724615 90048891 783205923 962013558 55053698 901490173 233456695 919525071 225347225 44244564 160536501 348918093 56101749 524466335 14768197 668060324 696785555 321609234 979772036 410193748 795563212 795121621 890661371 330521434 438085715 585054982 153646918 215071954 909254384 724612255 993399585 562387750 290578372 377266784 903450780 308919885 456383340 999777128 264488720 214794779 415867505 734280845 111780768 780365307 225149431 12034992 729382575 665193024 919707478 900486059 983371455 487226304 345509950 49681539 941321537 855748223 384643331 588430974 464118740 359444373 623697771 353552450 921527738 160978857 17003929 223288459 118288423 818342024 733769502 930631623 669168651 227182576 171790403 310993194 358395764 677472426 509816660 904503377 471305854 559928215 625046840 906702023 257014387 473296824 213569568 398650500 892034766 644676615 835322786 661373782 544086423 668245985 849369050 540792786 526180046 867727655 216660067 620959352 60044365 911836532 907632652 86188642 159204975 828259468 239712665 236276223 50094136 675916243 391148741 695764780 999675513 970524971 540359396 346888746 187840939 87371023 381206413 96010151 893908065 656053139 692401156 796024193 362931017 101882059 299792405 592574175 510709371 840030603 598646328 217119669 974764128 336080234 717389309 713651098 262927586 554624095 93591476 416584722 390519209 738576126 872578520 244668165 22500437 44370890 986083388 476392571 622427044 50399301 309979120 76420543 805681696 627948092 675250794 29254726 989549899 502890224 873884080 918190803 76474760 270107671 985819313 520465877 31916053 422324880 268791283 159717200
