452
943387740 401827935 255573883 670660126 207922137 823874201 191266571 356726623 224542629 618385778 4098033 491082953 932487150 2732364 230245841 287402854 643586685 237754916 424373253 235196222 690173422 942738605 311098627 172835552 849050337 705021880 101777428 696002270 546447832 796577764 943614834 901530780 752006652 369749370 162651934 771784236 775502020 479096720 947125149 571511025 473874170 845891298 634016741 189866161 330901190 254929141 23401555 676531717 986993888 541269659 453154968 435300651 549999918 82258383 250912053 742210222 324791219 404196178 587935047 846537371 409063846 523675971 259356676 786864879 397692985 728785319 131556529 178770854 828612213 848740661 692503293 913586256 818637467 779746333 430870065 23185615 81650832 142911055 470019853 706001941 34117887 722669528 814918801 613109345 882504238 360091985 47794555 201345126 386469827 48272670 844468734 580971397 562202856 994328076 609784951 772734911 651283587 691051497 247426524 531955393 567252319 783024150 475405223 666978843 758781109 101222397 505559479 521552770 490833602 693596435 986319052 943538415 914459981 615352760 624136373 365287178 777398553 538314692 238039182 979906556 498355195 650742139 155499787 1948292 238390148 857747572 404143337 594285842 811242993 879174005 857948637 623075305 317164672 449718606 848552526 204434875 120466311 691115586 92829310 405890452 375302113 272852695 457419023 421817331 857180827 933168253 131380879 295695838 972337438 555309267 862451834 350858538 866116477 107719157 252542303 533180749 169918625 369624092 433939901 820976989 764620341 206982476 639054858 340175450 846527665 395817076 248103312 573670978 378522264 802184143 570975512 889503149 460505643 433620552 411457666 747790690 907063884 611482320 917838095 446426379 66860138 889748688 297751888 136999759 298148461 508348242 444228626 902471237 791956266 972311133 817764036 566007075 488900630 48013394 411024500 350831334 690356522 916695456 338641508 518959912 729207551 190136978 4251264 249632380 316334840 175782646 184005614 848916078 565630604 397796024 789180164 512332784 657165035 949452540 769369330 28433428 785040944 769176076 611001262 240147834 153422142 187955020 91974642 527252899 190297346 434628702 647867018 102998357 285243221 857437218 87487097 745460268 477490768 122442544 769449085 262354797 713700651 157897570 158982478 277366866 873986459 489216946 644683636 992489372 209393292 890933359 931635735 999532355 662069171 530608906 8655591 539605557 120711065 113686557 61262417 230651525 426035585 296485009 137602034 205049337 138186828 193688590 689094220 589213094 313762021 973119739 894001320 896362897 475685201 438697501 893828334 570009362 299700598 555405244 342565800 779343355 527605176 886691549 12926861 906303508 416455165 387974805 571715103 918898376 81896333 152857933 502079219 425185025 242166871 753056294 811969686 403818648 956342939 263241538 164333542 725148385 581040007 678812657 491143054 521926132 849703040 796656205 478727967 190043540 156227844 125522210 38437232 470386685 120199428 126646808 838380535 913774389 814049281 116350326 659881465 162722386 912665725 737316743 397107726 686509429 504054409 405176200 719790922 918478608 813833243 605522597 186436167 748361010 387169118 271689610 814855260 974173335 771156115 747952054 493549875 609225180 946232620 401652595 649728909 917785398 861103062 21876639 851722027 680514016 442124886 449928394 104905370 69378194 206832659 969456626 927991727 979070214 491491156 943930422 680112111 296813367 568930922 612449834 163434722 575861763 876493407 930284558 335168140 81557284 732506825 434551816 41047582 50955168 502034485 488835734 851753393 537279702 653083952 172198929 859733119 181506297 698765748 202933204 458039459 545505709 355678771 319187966 336626024 973792289 862370316 604463612 631826629 782157930 469552912 295795545 788722201 514024568 397568373 157829054 889179309 724656390 817952909 317014884 13660683 885878482 210299655 927682330 976828941 390840141 969550587 399759990 415262104 479404677 30099915 765646721 397464357 290082129 472867957 984995090 270429783 308358403 823938925 117323478 395381243 973964931 223242011 58262648 730935848 858460992 795505380 730021082 931961912 604128355 899286816 76471825 224178206 184710604 299527281 321181201 711313733 278012359 567532419 83496513 763057349 998197731 811377708 203809608 43892496 542996090 527971485 381459540 677623901 446011614 603471108 820843531 167937367 858051627
