8996
527816897 676006947 622104595 409949839 536884867 420986376 486510315 93908738 710282737 797849791 788314593 709989802 219199058 786850969 416787840 887866863 592285991 281748405 827497020 543024767 602236153 958221228 86819827 738526007 509619080 658977137 828931728 62641935 501368032 826280821 716292790 421770099 487393561 872623885 387465962 9362268 156041690 544343355 22353740 346670055 110929769 270172135 562849688 442348550 246279274 899907557 335640912 420912143 611169732 616844969 859207443 952756490 660424987 23925774 219478239 66159988 464619846 574948324 506113388 889693485 499905408 418449163 502034247 721830179 898872387 922553662 883087963 723963088 272855242 179951640 272143409 610253886 486750549 877420116 282609306 608268113 81074083 821570908 316173950 770406821 189970267 797588762 37607424 494945376 935464040 470257407 752262636 285147942 152652979 146661787 564864126 501019113 198723709 566224423 289119707 568709272 618769501 188409222 490440379 426687169 435583340 18437861 240177156 390306677 393862583 108271415 812955902 22157295 622297132 588143302 74527504 940653450 325922276 589231375 15515725 883993107 248558887 704173221 960317415 503945575 613893018 253138562 545920672 381828537 949562411 317286062 650315811 688512095 397702364 431366291 446527638 72276620 142374777 941710352 428381385 122808948 359749052 45353489 979355016 461671464 552108000 312595783 891171935 591050623 203432176 977589474 148073826 891092464 237424799 917158575 963463077 297034091 772650713 580844298 992975290 681642878 642575327 817665205 716304669 825703852 933401408 603365355 409526812 962456041 968354505 814646296 147135366 91581127 520321169 281954572 589562646 560705267 506806735 947147051 555277475 35154533 762251563 668023357 661407614 564205721 852830323 461810846 991607138 747668311 330361742 918784336 951312347 785821583 978802517 38580782 60024474 362660552 398735682 259547440 277673539 713443947 904598114 580926086 564276377 285469231 153020566 110390296 32609102 322890113 695706622 509592060 487240799 907953199 951409892 600570167 661938199 882983580 988345502 95200550 493676143 667508377 552313500 958144019 118114084 211783661 593306321 995543313 87939306 612538180 599073540 147749979 241682896 117784970 733736368 870038758 252775712 86139419 762589522 75722081 24647797 370907130 992579471 497954477 296862955 444545942 100925636 334797601 644626620 152883995 971236892 300585729 247478808 671825865 835663304 730564938 66306125 457543353 252911758 151570094 346491137 73653470 983214164 22054552 386597397 676655456 109451193 779283971 473957737 276601105 817448383 497671954 729101855 116233887 7072103 573003021 392334086 197012670 668983415 763447349 66312584 506420761 137705895 299435758 482474276 226700844 928211320 946407464 171156617 318786975 458457688 792831484 406994426 720829613 263443266 472613892 689166855 157876222 630228331 907832117 982102632 109943051 175837247 462838435 416817900 565908279 936474343 41944166 537725789 650421355 250542777 626728325 66865947 770463019 417702524 698991372 941916687 445614173 746754245 40725179 340950789 899932935 40494783 769979800 661520736 684024234 424611294 697697979 135710195 937602411 423638572 568278897 935944009 535362137 996242270 452132299 679964820 787135514 770863987 225049064 186391259 198179051 76544335 549712122 816961419 613787327 305150122 582321452 75765694 71389555 791907640 771113383 219788454 154277549 469569500 143049323 602063973 283522600 205833506 414016282 165849335 21211671 129364055 389945361 421767907 506105640 344841678 290211638 496812256 883898502 554629843 986075558 719647395 62187942 447775985 208721183 26463877 950099708 56208568 613885851 228040851 288612840 821862471 583494439 413986547 685446106 153474567 70522122 870313050 176723436 594053854 832553784 229113537 186673611 315951949 942605827 686703862 289851546 468714952 221694164 71136921 957307999 973426239 68294600 772040051 742237724 822368313 420427606 783778386 839251625 614162376 987557753 429884077 205354752 822327005 503920971 359812252 526432172 294671261 520059569 752914939 944534809 217334440 589271612 485296364 209041242 617477382 917239435 695012831 110622704 838619397 575209340 572019432 469841305 904955043 187438722 640810360 152498574 914642924 916606491 789866141 386309564 993772433 779148544 100032474 32242511 644067827 673097578 861305005 631628079 79458295 571334633 934138114 168118123 811387063 765987624 705133723 366554895 316213275 354698874 610516360 497718537 808694962 650648237 405480797 59043474 515559734 405903694 123807045 1603860 247623778 677591029 920666434 205476223 788430840 692364675 765435681 254921258 186090642 855632531 159416185 640115886 750244330 977724532 981699192 247773314 612052207 434690893 248415387 154573507 448601398 128657527 526825241 147266581 746904859 145030920 503769486 15192757 926863829 708711539 673884481 523565222 294907477 577196925 143133820 279389227 682221426 517548762 419089280 643097978 487017780 875626124 324772867 669644463 884321645 663622162 555992095 967484494 721968209 724039150 419205791 143331894 804566219 439416372 158628516 382452001 826200553 187481779 543020574 50793256 954021650 909736007 17404729 430670727 6370834 657402398 736947198 858609808 846221407 544089674 37211951 212227508 593062215 947393626 195240485 158810430 735225948 687577399 833677018 374240386 886960619 37250595 177910507 925727562 385540369 338942931 780676488 122443332 566955278 225342915 893797657 784971027 277805748 785069935 390657102 606337298 321135158 323229526 149091455 240908373 962282803 598651705 102712169 14975433 612054296 194140102 124500827 394992435 434487215 248977540 896302870 951009618 952504214 704478730 269285602 691998783 271731802 864439236 552150194 46144341 422854685 520582247 627440430 459808108 531813348 685577653 405662345 819535935 723058135 3173585 141954492 498439441 841391595 407947515 150574116 733506171 504006429 653130669 12249124 153986947 887418753 9439616 118102477 547328376 112628496 155979879 462039173 715201678 342103351 454586322 939842598 315161205 629125643 127569540 255838080 571620413 616248497 213504102 804121002 865204480 513049121 564358130 993117299 942338804 374258293 245966634 746594346 350712574 526160987 250638279 478718107 442819333 620697161 160971399 486028545 108974871 885754257 917822389 945946523 511483309 947781921 795052644 631624702 771593137 561970022 258917835 544142098 904055449 796047644 488259214 212391777 894763476 836883724 314330318 155073562 767639273 651185829 825823826 833829696 467853020 481184074 741063486 614208452 683292489 887332991 659582255 34727358 747661777 521813439 700279014 660942849 179799392 804065387 725881603 191935930 946517899 773227953 636268563 272042010 187791053 182192588 19947098 834929414 406661866 773718454 461738146 989034716 108942874 932287187 425750561 131906709 313592200 186166456 201691304 681268738 234539300 307130307 287003063 433460812 624395742 999569265 262044299 541943410 869502422 397407868 748716902 548554734 726631292 146030325 263861814 908777083 298789386 389434128 18022012 65343601 458327030 256138643 91031634 681106234 60765968 858995188 249239934 7639297 922254895 251864390 640484238 154362224 822534660 994396610 395728298 492040808 131053086 339839341 808514794 877383863 397659763 549049420 92949076 750012086 258709984 233112415 591771028 993104372 885059115 698117990 948450237 82737370 477349806 215278891 211024039 544243589 488717754 889091262 635958551 597775820 457592078 993183500 168977246 522523954 646925045 875161246 964923828 582710226 927680177 395849017 413058282 188926479 289388490 114119765 145618257 590813792 948718215 823329104 611575846 342903359 729132713 665723769 732621150 875384908 839893625 784957631 855856994 846953038 768289355 97030840 730124757 328791029 300289654 160803489 118028772 40330074 620595201 933438845 191965335 503455574 268534901 456902101 381117105 537423294 351542489 741801871 830350040 664036273 380653374 641230868 697516937 159916204 427310869 863320246 479047382 174342326 792014553 372414952 886043967 157960758 323148686 988494803 761096902 124416658 837820669 386435788 480101804 377381394 931858402 691809913 236960183 783331546 920173716 589841321 887246 944877085 662425513 424048336 248446082 170690621 665743503 744207227 781974422 466511380 937068697 904743223 873189700 771844209 358909758 280354021 854469315 39717094 268801117 599231147 532600256 972765069 469162805 376853104 233446144 805395633 304418143 743820052 167034245 801885569 961631365 1544928 884173289 549088771 785229068 644833290 129885466 9336996 119073831 938070890 650913240 845749327 250798627 638349332 371026129 100882365 751783090 332206284 717717166 759196940 471922842 466561883 266507878 606618781 7400689 824230456 643626247 641042109 460129181 81913549 900204262 671080760 886915893 722942160 623707720 855291912 395203597 18214810 448379236 45123052 941741230 846230315 32303838 384869574 593211042 353036516 395788390 668367736 809759378 643778911 114396354 727067217 558943302 545538330 845596593 6556427 693091572 254150216 135576404 75502713 709760225 458168585 930552536 458649696 604868601 823547632 398076278 995443766 900980844 291481505 52968823 227922390 322939406 154149706 8212368 28981835 445973416 219961397 497808071 62842006 562748798 490422817 317162679 216797877 108397731 332884702 392423957 634023343 121817599 249139969 507877331 182640620 435939744 520291315 65066935 585683880 562081175 682735563 562116988 165170804 222589088 630059157 185358853 305903694 810866347 584973377 729339712 501518113 403643993 200371711 703071656 877645527 328856457 943779106 900391835 5424544 237760399 136928151 746398053 362208752 542592516 993732098 299191675 282896847 72688458 484262740 265093790 423836227 781907739 427109856 694764400 893425009 874249859 282049202 57485797 791030544 87749327 411867809 336211845 922158085 945584158 90478131 712741468 189400488 920581182 430153029 684504784 787124109 862470599 104430012 994030161 790342610 793338751 98003701 453540410 365442019 17456721 130959225 317285166 362733964 832754707 968560753 23260784 871946561 295805053 732136005 502008523 946966551 358310052 437968080 76452041 897334040 719004242 787267205 232475222 615390335 810354500 870275441 964442066 428301594 964908039 97704576 650265350 441067923 561283036 54749091 448899653 723599123 764835799 708219265 395296678 370633542 53059399 960549945 809653324 38312446 978495313 175123693 293890786 302544553 631569981 447038826 884794102 529146496 232842584 194562669 251843647 37082248 577196315 954184442 175841951 127907684 647173569 250809546 912229556 376971928 618072603 167106048 473354899 677909616 659422309 272866306 791814662 4556782 984443264 503727597 735153436 727627655 226117276 354084088 910773360 948383510 98211165 153726990 875163636 724543305 461498838 526382774 645325003 803882219 617244203 441649624 215145079 11943780 152957812 83233396 726033919 742572368 537906104 185187515 381008887 96233082 889547278 815958531 591566127 67943452 264870356 660138590 386231766 37377924 982662937 593565772 443520468 605097069 783989483 661957996 387216830 784529721 946088704 320678889 789665234 968165790 426697185 579230909 364173146 867353705 724153677 419850505 597129843 690130600 633064577 685802042 313733814 710151336 846202337 45784587 57419420 616686443 803490328 191737976 69239054 952026121 600606135 369237306 831846196 189191094 102881084 773991496 801132808 552759813 70021628 716830439 666196644 298612232 837100953 742965610 569060225 125369956 927191069 837565960 230231531 819794423 301762441 496625192 131892261 53637879 979174433 487710098 462132010 80121833 569014044 189773290 991855601 496771395 572401042 871398658 347748027 713485042 759588627 957202268 616523015 166112110 413080466 441738228 55013159 523498955 312400456 796132272 262368045 182267774 86411962 796319223 35321646 454526749 950819147 266055075 304858608 658086358 909618523 398957172 984152390 606750844 50083526 867043935 886678955 938536028 322745962 734481681 542240678 257486865 26144793 300154276 110815648 216165893 187215225 9432263 553674101 246763909 827288931 532424404 770604657 945533969 436366004 482016433 961137825 828070254 395950244 261346245 347262752 621836292 366061674 695306318 450592072 48377593 958298382 277643352 746050673 625684818 646592367 147137602 434735455 358326837 454420012 618858516 948890074 312529053 51421573 530583596 974615994 191356290 36661748 30248208 48347483 243658624 884330901 453188006 485682934 696207620 902086142 9534670 236920766 159945172 531005819 827666176 951899089 452561185 73440423 692151836 34602216 701842018 216186768 377011601 185749214 694799942 837330705 106607545 983090532 894436244 547701655 306259524 114578129 846485689 162516031 765084576 760705902 731251853 629434753 432042150 498725216 728237927 552239620 63680854 904018111 872902317 451357260 686375703 806532235 789141161 264879551 958496973 644146823 271336213 806887667 257619802 505433406 140194924 425757621 500800075 269922362 819797179 892559526 971818810 261117768 138085935 134016823 882196839 767602717 116541399 373962197 143800703 457284874 566551516 613913360 273170546 743174815 773465757 729546301 613924985 352261020 977895914 233873432 227644858 269385640 62770386 29366121 975238653 1386075 879106413 211116409 226940224 519326545 790770223 171284182 816731777 137235622 434666756 114291293 52283051 817742712 894600816 529537532 237025672 447860827 120990442 877729363 989117047 192704767 66098083 979051293 498229651 77105754 526012852 431516170 354349454 7480293 665034983 662680185 387771808 281922698 226001558 442841312 226339011 532875191 626047581 599248101 927016045 492479893 322684658 230061633 18209751 481720122 279571048 602119836 582630783 762410459 674230846 637464210 479708885 983925787 46729517 555630541 882822442 202811026 91165817 747678645 147094506 800457585 492426229 953644880 35876464 181111214 940637515 340776718 557029548 746058799 966347497 824016992 915601230 312277022 539204806 471579661 238773646 95204499 247784438 561551984 430185000 883014031 78023645 130797124 586372665 965689098 91123890 139155971 4442369 361966298 965834377 106838386 925631223 826767505 259539541 146753357 553770774 356247023 596395264 873064666 740293145 855503974 109919187 598552160 320485772 110800764 49245353 492295728 207755238 651058410 986017011 717302292 896922322 963722814 645918301 670111668 192767530 673289966 886316357 869436320 137213956 177551343 752286926 560812368 224404699 121674039 400547636 757158772 749355323 748552670 933871057 19026921 200694291 67281202 212967087 121585563 623601516 443175180 492628909 529118687 510773748 895624751 504058271 553853570 567357108 12192501 384746617 216606093 829494139 869037600 922667047 904461205 763956844 969201252 594547041 265822318 820084472 288568632 723879651 268354885 580936808 902812826 991094070 105191867 449795711 141202884 170128836 364213183 29906647 203278022 830661451 485305629 551829020 341409531 859877103 387625243 83581657 687217593 759461328 274951175 91240693 121544717 331731175 480075767 949294205 321675301 131224239 757619834 49110159 534627166 609790254 477001246 8631391 189147735 67640005 538496115 580974960 601889273 604493246 306293516 189004571 279631745 788640908 124660415 871181859 618854278 490371170 559442436 138243308 529733219 239256648 390480609 161340470 833416075 201230242 781262289 86554407 781969109 480072324 504410703 295500885 684475200 135116844 982799790 825566383 80574389 553295583 891858912 233951837 314394597 941488216 39090822 682793292 333231747 796589859 800876366 469905127 613616782 304735116 712327412 520605712 494200783 519884548 568524457 179201125 755553528 834877453 511037417 450775315 23306369 289845901 498241550 913094161 217952835 196712623 67794147 396479573 899995200 16984442 204217947 568657562 48313385 570821175 424920123 987157738 134952122 747354095 104042035 836045194 657139237 954491459 40042461 620208969 420222562 294505197 99853488 395809806 214040020 25813152 237691633 324739787 445336303 882917036 287649449 439808176 439128328 448978411 131473982 759308433 838567793 32554297 324791058 873116832 68334269 43559311 148482684 913431958 350998008 340018967 193627707 215426633 256422196 82270105 568748075 328805699 206202504 274803370 661737254 238277071 236821638 875362463 49002082 764928085 656612162 304868089 320981655 953345721 358038817 361974218 774682156 107289809 899002987 370719692 170416748 162821553 545710952 825000301 565127529 980107064 470040715 104406582 225250849 349758519 709976864 418629701 480977651 78553939 334627692 287967560 799883998 470929753 674121664 106020475 416160475 508329152 5251412 404400609 303004635 859254952 47424077 204272103 259693636 254787739 490313493 665692918 340857118 858768570 414618265 905499864 204985141 215916177 484674340 443892422 71424511 413172380 410195677 894811415 744899262 326035777 582722980 741715178 557557525 431127798 66850643 366584864 666504287 295375316 201601804 10017488 918487800 565222347 970160487 846744789 819464301 461075800 789122832 271504384 105605801 740457424 542688376 659287121 481842234 449253830 700623413 840416980 75693584 502715056 720335766 237747470 883966396 653008973 271461876 677054777 341287283 214938666 349317055 772403822 580252292 871170540 384571353 366653661 63073683 315519773 458645745 259718100 407760385 642668577 12216189 151499530 233348172 60005309 360908268 853999472 528169774 256063543 989356238 24105004 907210052 493804667 869175829 119649850 122184401 854052360 551729988 471477585 600962277 339929936 706377792 618667609 264661237 688855374 280974423 175575753 850921306 82284128 918767142 771884306 934897857 240896303 667077820 958351137 640372493 176875832 406115087 213134625 291424403 821341204 51888994 492631781 477450657 559081042 655746412 535406521 774957258 491116282 314721204 580678025 834608783 568158231 537256818 471848299 491091374 251508413 490997629 199582559 913074599 45688800 26087599 69082041 169180013 677405711 377767041 829928416 453838603 348676111 968667239 275916542 793933915 237468460 636520198 487862176 178050237 225135103 576895911 154514612 893751192 773798082 168173877 295562049 952005379 937000167 163882289 989367572 754599577 962479710 987954156 547117379 592351690 950176526 271718848 970194883 664234195 100080824 592953927 95688187 632764127 163565718 360499863 345540249 567145966 139947372 990017929 853087910 437069707 454338087 733840305 124515424 350064469 43071073 991420580 55717787 292913247 538509006 737844012 882040487 755085251 747706591 367136086 901403727 266126804 498866008 477930279 992195744 24265160 335104161 501700177 101047483 568634284 209513428 9973381 569406410 358714900 765550889 112491461 560622776 900174162 579635078 224399150 220734904 219201218 660984662 371953550 672473476 890410897 504196780 1083580 128642035 61268600 445890301 372127992 18584718 700667464 390471322 866014886 448431813 593621049 769318621 58400686 623131557 643221445 600434714 171605521 700278217 660971598 313669907 209324048 855886126 956340724 931672216 599442687 397189666 524817783 740822285 411424864 289926040 643010819 689859547 580386945 81888415 534915184 757558669 797151732 740153864 147075054 528991187 283033801 787199540 779909304 318295329 21944170 354793804 428057947 852927175 363435633 461097441 483951801 22545799 616645830 602869594 257037609 384124639 106647148 276935276 856214475 944741394 664973218 17116261 242010033 549906853 354285589 805649087 196278630 282249881 79544278 176196922 869332328 816351243 254861211 90382358 192008463 280309690 839502917 784592070 28091047 430138458 622281683 999569019 62286894 607429570 197716484 430198622 50896630 318859768 416892779 611358203 186877025 374207358 584886846 392269558 842903259 390782207 376977219 419944176 68604184 845452480 129610229 662485470 829894805 834359067 750644681 292209987 469756701 545846694 808138423 455365399 152642314 368355460 68740245 325489301 206808363 610536378 80875963 798538360 758452890 477893804 242430520 507659712 308648702 761993475 752557861 100656978 571346955 184254136 833236342 882143657 111238516 487246935 863763692 817969421 283325112 677130130 420812103 488048020 655826649 359081012 889690276 53547646 112267757 162077501 463016567 980419983 512486861 592048414 117418815 951978788 852279369 195622718 785860331 100864258 608073962 44919056 482367626 964089516 488162784 598134773 427064685 343427666 946148907 859597367 826954057 388683008 673622815 831592189 130700490 372086954 123858866 401266202 43193759 309169201 621304901 785192057 559686426 499986984 211100071 106247086 737772584 271224980 343597782 176860424 357592261 882446561 788717145 708931928 788718812 585737842 958779153 306754534 457270011 322267807 757086313 159955499 226048612 848449185 137768824 703377564 484564228 544652444 157239492 366524029 506403795 826034285 187949263 703465622 723961196 950653375 699414998 880234494 941832270 993123062 521351365 640530564 93104383 421612957 414104119 29212698 812340474 959896166 383265950 102337523 44667259 450020880 44675521 985254354 94399066 55429539 846813467 873842993 385560062 336975218 851568231 583626686 482459560 307323840 945571344 596698908 858796164 862172278 724344828 214116567 488842353 426329489 859620592 281520992 389918281 412502591 108336937 693050382 760500403 632313355 486537585 599961106 582356037 142067168 281058695 382942794 97253680 290532580 355813394 241608138 373330341 640855325 230653220 350643194 994435502 458934872 11826014 653625086 669192516 576736890 891932541 376222467 941338850 370340150 638093959 623665148 913102437 69408734 49005669 140547 671615711 214332679 943428458 850077298 180285997 551664633 493542671 679736690 414009817 800740476 404974064 850193591 159353224 634084590 351260453 580840468 315112834 680868216 733448654 451818857 372929726 914631564 551530270 188405490 951536122 280766617 105217826 860700938 704882244 445856266 15709864 604893980 140604126 221049600 219944765 413608091 67279921 654744990 944106698 922675654 581377730 469277751 481489123 225869972 426121682 306516259 978819282 673107467 645698687 703548277 822991143 223813152 290497929 812577830 192371125 348345669 9409475 128011677 229943984 750955142 456409053 794587552 276383063 717457405 800479872 690043005 318582646 680486693 403473648 374438806 313502606 959067265 963343104 912570352 556859394 697374795 156016866 7778678 770006999 93631930 132565779 402718869 583405986 740220623 538800321 267384930 245754912 726005012 98892500 124918149 830544593 680064854 191324786 662362632 239318325 182743974 93781821 791707432 566051131 300795226 139865811 328889795 2495020 975477563 328036235 243465694 308792083 644859995 540040525 593583407 274256570 267669542 11448057 628180956 804789765 441095846 405444766 586884495 614908080 800314600 926300876 286679578 591325269 704157217 258890941 914370484 720282223 884800365 792759553 484594718 34660283 335071380 516454380 800805500 684577551 767777310 635327389 68678288 875854216 619165988 905649146 400119131 311881340 208141046 461801046 229739396 461459579 40271276 534067581 508815402 785921359 203037000 177845177 536233366 792943824 757825421 105198717 971028577 245047273 991137111 952532518 607472179 757012278 95021844 244469687 695663636 616054753 448241405 319860159 699976067 377600227 392369413 817134669 403146639 707161671 523146305 351326216 811805149 729977631 705842097 808218505 920454758 472674477 872068717 122821051 58040943 94628489 213899017 741467855 679024357 204109927 300898937 475859496 37657891 896372317 722867659 713343383 640094615 782475978 677459466 793609529 131409382 299029981 785992670 318225175 151941456 427541822 809103183 941726693 632371618 976590556 804842413 814066202 850874577 993987894 759435686 289190750 716009696 869504689 435802374 981001225 967254900 849686445 247150395 283517422 927979228 922192784 141780767 24792752 582241864 282640878 359275023 39900691 109278716 181633720 567312280 582596984 369551096 299900585 973908747 701576904 643203254 576091272 560073271 330838272 514398261 847112911 847179729 937251643 359690023 893385761 361261372 228482718 41772780 668874956 636041194 304837300 215742367 16312288 751587999 887429867 906653591 9602499 4535105 539898121 218531634 198646743 3262115 93995642 807062836 195237150 278634374 767380431 91381834 392980458 384356344 962817445 766215463 592104830 704403845 638400138 454229968 173966743 180190576 945895970 787815541 609336802 245079481 158579933 999674708 777073011 583340971 121970688 802364035 793434787 419840790 594264932 584335490 422723926 269847894 664497867 320474679 440345639 634785181 533608475 868346633 480113946 393617378 951178142 210027727 545550383 367954338 776338363 446969498 901499778 120886058 581270986 644460743 707446104 671238946 9963785 374481017 118485294 737997857 101801287 946602829 350803692 310317825 625467832 511667224 229474840 110538989 565986198 23172982 25604315 934023048 429791790 770760738 170676361 829354755 919295381 874104702 710549541 36950753 397016373 467845900 262160512 434229545 382237553 36892861 971349504 455614280 197907148 145317839 433056272 937925511 726866542 750756900 111947974 408772586 945330321 722682551 31930418 776437347 403848312 676525484 857863144 635762735 332398225 167617966 612386323 740003012 27891939 66614120 918559329 154890261 574625726 646159563 115867902 251536445 918842734 479504027 672284397 618005469 308437655 864523179 129086894 390879541 766908561 559084929 569542040 851747995 648553447 114012302 577541533 803275919 253377626 552082659 53541479 979576394 387211877 144287989 881411178 20512667 967489049 46604524 925931639 536995091 190393654 472640123 822947560 304355522 352416328 113769438 896551563 488649170 140602646 851339045 986120499 650716727 303526121 730093656 818820844 458383694 290895222 142895642 533138276 247105084 893929869 654592723 881915735 933355606 594624861 298782789 873792153 387854656 277985303 422534182 933313905 477307214 302421226 913389326 483012924 195952370 739648615 962477249 801868200 229594574 622056549 991909583 202645170 251569279 799342856 515777677 972417917 340786379 677977706 647903672 699785955 301738994 488431629 964201838 69058690 174272119 991063282 877084343 988142844 331995070 148845283 281110312 731836509 834984012 94441721 978272730 155268322 837144104 10698363 975847974 60527815 203514213 716940410 789221484 370835016 692201264 547159666 803573622 633735859 962779394 111929674 255004648 931050088 117717501 676566642 698430135 599591763 562079043 812347483 287244905 848218333 478038314 12945766 299428757 823452972 700883426 795276476 666845835 826110827 665039019 330769189 919503559 546989643 443168031 179098181 222829229 151254303 913729709 215676078 80319218 282741884 312203501 547899499 932909626 830075824 126885604 304084616 797644933 612523974 944993748 867107010 678458898 86530029 66696440 669810220 916924444 709694294 237882282 418510883 356618425 426331315 868893834 158974309 333487189 887392612 425765776 728698065 722745230 930194093 95164765 806390032 528629510 490798878 429776894 37093121 121293749 733710445 44873787 931184712 225797990 572360571 439486615 323373695 586865915 342446235 27821183 561030795 846665928 789203435 429728714 987929451 431093105 795093952 188541923 314656823 549801048 722594910 337201391 802059384 280861285 471253426 934887254 44098757 176073307 741330422 236503603 639533210 8622116 204670890 669351651 469474011 417327473 38555580 212600693 2607252 635624666 895330176 986253061 929078819 400729850 575178263 525967311 729651899 21438916 421036734 508850032 401397768 916285601 472319810 261064777 212765820 711069222 167815906 864086152 877751342 992045459 896932300 751088228 891802644 144345832 505976712 851120142 194560836 804720858 220330300 227764502 836191504 321681388 590110730 904745769 544208248 464141480 520843254 110103247 906057273 891049290 382837544 646604405 616896070 768282506 201625250 78743335 377073909 170863562 745273370 937974336 949298605 575161426 700181243 36381800 686083628 128104050 237516851 81229418 87387659 677061314 451675864 482762406 16419108 863122951 166820430 182576408 751800028 960821160 17624633 170683996 576251894 939819199 507663681 635730387 422000631 285636321 574379166 817973213 205261869 333579279 877996064 146862834 93797036 812806458 56260755 984295170 765051472 738537772 773829468 725319361 425483394 978559172 315266357 190916897 818845877 190613951 764931804 353155433 749231027 863452450 641534424 749595520 301964133 969532371 860022067 575441237 735675446 315540599 925715788 397718783 49545333 556186969 909936471 716720524 574796398 774976753 696288988 159367295 305700732 114906944 306761759 511326034 693968982 49843681 77304738 601694652 562559703 518764768 133398054 188610807 293802400 642391939 556783145 34226137 786553244 975825752 468020073 15120524 361682383 733188485 365587611 183212692 580644944 249168395 396882147 163586762 439648616 522121622 983138556 275152920 264695770 800661834 695044026 643392889 692006416 890930981 391181233 649939333 872649569 657439078 661341089 133773919 919177345 688916306 211379981 295118035 427380671 501058866 392978496 862813706 46889636 152507870 820456066 471327834 138677375 241905630 238144876 319940896 53811481 333279573 243611229 673414968 96560217 916032467 286115026 291235636 920073247 905904938 398425408 164092342 130120633 436785212 936287351 146442886 799733776 405901373 935052464 862715112 144644593 645717051 30719334 161605689 486231464 926972435 579559382 693098229 350779815 119492018 698892741 824417619 99071217 886182744 896827117 26876534 981682056 790671857 1146184 209189934 474552238 767138245 173520867 53592681 549998256 122884387 953099342 877537069 905742315 474553640 283062524 242196415 247663304 700306380 258675519 924698099 865829135 398847011 98476554 382529075 798490157 964958442 511089054 950094594 772116971 157737535 438567195 658819937 309788039 288541277 464525728 856167246 676715981 14889514 485001854 376624330 310092838 126220702 134265280 30000079 828962052 339167099 121637395 829282259 112078849 283944723 193374748 907414259 680989607 993864349 524415278 605494868 569606400 517626288 299241077 9060927 534549034 295827704 759264730 533792388 777766299 128781954 732564772 175471994 614340290 922639902 762055170 904481621 499357798 723056800 500777125 86137020 294103979 775072180 925104519 809336444 378521648 852769006 197295225 457429952 685845976 486807976 572995213 357604937 6369187 818406215 662803800 49797761 515486189 172632470 345363098 546291167 937272662 282132579 957981020 118893644 433295529 556412703 736294741 339201699 226386360 92324875 121697259 43956332 779437422 967278301 543466998 907237853 73728872 157066105 115427946 858084041 75284597 51897972 392413586 335146759 706210735 439060641 484145671 897382929 781839240 210944265 629535235 941510954 169421467 713530644 192017750 124974077 705724246 201070403 86305241 418590955 366317724 469285178 470321924 242848528 217965813 216168259 221586233 756249857 704619110 384218327 446192525 68767620 464418315 123852030 175498265 920694540 681291812 370448290 460396775 782483090 713888019 255671368 723568961 872744325 429042217 595775740 924920835 562221503 251986927 48076736 718385546 500207744 596906082 901886556 664372306 537971527 167243287 645739111 56536098 666576580 766665999 208752611 355606653 133708940 508437676 819485014 326559730 600856905 245820412 176837191 803172025 521086426 355765520 260380830 339559245 783786475 332420302 451709276 673375076 298378972 153025531 641220184 115693944 143538864 73835235 680312246 54998085 288726784 536874601 456406119 847622301 950162555 188146069 506458567 279600504 902053321 983090843 526187180 516271056 374927486 291164082 308611603 228290811 174990639 432995124 758638264 199748852 478337993 482215048 568727472 973679439 582378989 141825528 574078754 830120363 315405677 648921190 881362815 237812739 701257210 285717495 920942973 173762743 898331515 584702658 850849339 918846710 414078572 751291458 239352193 304027646 611644286 385318576 644896609 381499224 563209901 649799421 557360102 257256069 589476397 666524918 485318964 658170745 706530188 534855551 241170002 636685624 701891051 786292759 95041535 172518370 662947821 212256547 666575205 853789375 841260860 899645682 607940949 568516566 623554711 511539752 569121944 914197041 668018071 564586046 881982896 480818174 642522754 235251597 540399833 918421979 616899351 710587139 316010900 332411076 279801141 27361748 619316241 354687314 218849871 416881745 965148131 324584848 573947236 215390209 378222013 672269370 491488821 694313735 832770694 992336690 517606469 209961866 773540235 498580432 225634466 216771770 919125667 943976861 621373151 251405611 749838060 718312182 47455836 306958381 243335810 335264472 672859301 486676731 514253122 507817123 959788516 891245998 576834723 151493708 56514545 161578042 571245352 992029318 365721388 575175692 398325554 799246911 271736758 312509071 132586780 212942549 360104632 525546083 705879058 387034280 280042628 32968811 340516394 295597734 985084950 920511301 191335593 525003540 423052801 467647690 468651897 756441296 720236736 859041263 374466992 594870385 553638988 29679193 500000336 288580955 14691758 756691742 212707204 900230889 836955384 972639865 216639465 324818279 520316906 119366115 680941314 679305401 98393477 751162736 828006964 77098673 607750782 181876419 771015416 25585603 624381821 548080071 789280159 709934390 840803799 988986956 650927266 471350744 993941000 199519721 4275052 360730752 192237803 694339181 53570494 35226982 242839916 671184187 131653795 751715388 621688774 628157286 21394523 241744484 156302073 283099732 121103064 71441728 188947285 474609284 949742225 45221105 936801111 992900286 837898845 495465811 410787382 558453644 712542702 971175809 198998992 643584491 363892672 383671676 835834927 54193251 852745597 375128490 863813577 332187244 902734397 467115199 29277400 482033710 296367306 205117039 466601462 626583990 634355621 322453048 170169210 333942491 417760378 380598752 847707885 425965844 827705619 187135074 673042784 541676732 901557973 378993845 815029529 515171045 80589458 22885882 816959623 577385857 205063149 601633317 355845358 685254983 149895339 917224642 557550277 370504588 931245622 894850301 59004118 553280000 882555989 37906556 738257726 751798610 796233170 209431585 674939039 322737041 4367886 133050305 919938953 449514863 422114278 938339793 549287598 685514527 948531050 241076022 958757806 175952402 209265119 377312584 617082882 261021602 254014901 667799710 805258929 786586703 359841513 779959680 179655931 395125185 175944830 795395168 781305469 818570199 78183269 501744906 222797608 197201406 645735289 377240376 4493803 901711557 19362051 662686494 953031530 21295567 652791953 942909154 392732709 629694575 310798952 937104222 488116812 433716585 395920311 844173493 939745432 747003692 803881742 892862179 174570483 388133425 742091245 528422736 48451870 989290141 448598008 974430093 343412518 299471174 668701668 792730072 467571472 596670692 394647362 656075943 465115896 44499309 187759221 295650551 91071030 588467985 295938858 762005961 995612206 884356846 158361036 997430165 631447483 857760038 274610771 893244259 509994229 726996815 923756947 344191416 811505593 998761562 805712789 348386537 44171836 181240723 247147847 754372137 5634547 8743174 317907408 980143389 344613921 759468371 889821163 312418012 835506914 899928389 431167456 890205105 672306711 861233200 799543704 494650032 162422614 180158396 816585678 889888573 339892200 539641401 138709013 440785066 6934539 957788851 44817250 438719347 690492448 515137446 169755242 823192388 976926811 532621426 247767132 506307293 76701143 100478410 751404189 639544810 157742328 568439614 139072070 100724724 398297963 344744657 453222136 108436352 12776081 933597502 302103133 818167151 106084383 45785839 150086550 512773720 439826634 918583643 330635823 427888860 714858458 217918784 466255614 990170774 985708616 411633169 402413297 51861728 206485610 28262911 124675291 350432885 450916093 285007586 439754098 590716935 417538247 612146615 878093090 630643831 948727497 428290152 613743931 857855968 635813779 883775891 60072474 777803389 372914264 149842184 174619895 455764691 325849450 32458067 109025207 258441781 154467348 202797233 590169828 199714132 709330300 931954164 834567533 296678360 84626229 415384129 500612950 534091393 616322933 958591437 95131941 238096851 874636589 466340789 198393474 917198937 199530586 413002866 134514893 307368004 377718957 507171137 970533637 321703710 341928018 956966700 541783380 241910939 15075296 553398583 15844735 117430518 361442544 361867008 267961238 226437317 714900194 2880976 990656347 887698596 855394095 462206488 678482792 525001924 882365433 466747402 690680118 642000217 715040840 344681636 170316361 40309415 404896912 290418122 398568463 533489416 313555760 528735209 828034552 509046861 118226990 125096451 805915892 431610573 257405542 57312094 503161691 673047063 271205649 992879522 395447494 12585333 991278366 947398134 567271236 552556858 392629948 73688239 253949148 541306187 690834357 409882597 959097884 488388576 264343382 90395908 432301646 776390544 918821039 287447716 736281488 310075140 793007748 429261525 606126415 928827726 124366272 934325746 927035547 269621809 767693225 852048711 916810633 700653831 947522393 654480739 706454422 207629017 27208883 286747686 39187629 489724191 111387107 69754597 937410769 220028001 909005294 688916298 130370895 716156012 440988116 327152011 382570894 511192242 532235289 558211968 484817163 492030418 621148848 903961405 10260354 362792478 356945412 974814013 384982741 611730162 562440316 292041935 657287961 976015679 296402572 881498793 752104652 75487995 793669227 373631279 588464641 58899220 298868251 570446817 47278230 48712995 301222110 782506891 779773646 582678764 515506208 122516391 876198627 704908420 390763913 858634987 430319470 861086438 295312984 30886867 999955471 948595153 291072626 94745295 495867076 465318417 758318054 900881593 295419679 704333009 601864449 358369154 767538262 289366210 669504743 61226253 994961965 118803282 505147563 152854668 259162466 597674817 901511142 57846921 144607512 755906264 496219782 658798317 686699174 204527924 369750088 180934399 120711056 560927070 234166403 990694017 765178838 475673141 497291225 229211648 209263001 365277070 105839488 231989961 194737345 586308631 513119914 19742391 294841193 469156945 298173161 122504430 519672614 464823887 29712538 659906614 81466908 643297382 92852167 998555679 48340268 426108067 818754423 726778159 893847200 954132692 534226117 119005290 445678248 974461906 189814401 643931469 350946651 655844516 696019396 702450767 651513967 115908823 701543077 364592471 816829968 812355007 672329120 678578402 87910692 546130927 149025910 734077719 448383745 886964653 933121724 606827417 984413352 951156834 292372758 273664248 467166992 770449423 584485561 913337709 464697761 511820014 206152335 232743302 87933999 366870385 244865341 580536264 267323493 224431401 86976904 545235987 420417283 618809563 954722752 280806837 698720167 30736148 484093086 18410081 876766975 243438511 430388802 863299517 345344509 718013262 917889304 859929599 739331136 125977204 121109704 905317475 348116035 657745332 285287306 268903378 159347152 623012808 973372131 182108425 393578563 729088197 337607849 703659137 649186135 505018162 220823937 366199712 43848330 593580081 996359199 976051870 674233624 250104942 802836519 18142008 646727048 656696749 799395086 658302813 420581368 141055621 820737056 317109513 135934225 265397840 304605741 889079099 768923461 102243021 397867177 724966386 249919287 883641215 145879832 297868785 268872460 526076004 749035716 776786470 667260569 549974761 392708595 369110865 653100059 371457657 211927826 443266339 275501482 948748026 931732948 944618463 178215839 963636157 53564758 93497703 185345059 637311696 934200527 904860174 896081466 166919642 384507693 126899820 113595654 476769219 926569179 981993961 646810366 757277446 606106816 157614198 370180710 372749412 570189447 952851534 358482204 607572946 438026557 905752095 326885821 6874955 286156497 26049608 804395044 221934215 880755573 772223710 47396325 695800522 603369951 820241212 406131578 838331501 811521307 812441325 377380023 108297160 942278084 92958969 190483751 54741372 437157358 773841327 426624179 192389975 96370420 585178731 563634893 375049105 30076413 923311534 517541331 721260652 715635492 322090970 123048613 437981251 125624373 168374169 396968005 206700463 165713295 989484456 1063762 267749675 611480514 50371151 631494092 662123065 946771266 23617054 824348725 479086264 117741978 608690427 414235909 938170149 669934419 589638918 676467850 772305190 754002632 282715091 848649093 700007505 106985850 490941089 648096085 558543297 576750642 586753846 758013395 915067145 894334087 569163401 188406014 194925211 638416940 735139297 946203423 776482612 526997428 924013761 349629060 387304736 66541684 962476449 116789660 826740990 341656678 887877453 901024880 50718953 842820895 349762129 532293551 331608922 596271614 882554215 523448100 532502209 243260742 282162444 551579158 204031675 125909210 518758601 450845894 220039318 5938618 529302244 785803862 92970253 256442806 780935338 356631902 868904901 619475920 507819353 185322558 687762090 550666730 664901100 571945130 284401536 911014753 797026715 325478825 545859149 968317376 675138396 357730764 562513051 628723819 932356470 874830099 551071163 387710104 154091400 34632476 742531502 845908268 400783442 878612320 102462285 950123347 386087527 436676905 765548853 370554764 705401362 69838308 316982901 905141542 949126290 735769593 821677869 847768557 383589279 322194547 662967774 995689859 280210492 396985669 801271766 245249994 842598888 355052253 98003461 200013983 591959270 758634692 11926515 486652829 348981604 168826382 903298187 229789845 581368434 461804740 203591901 695128830 250732391 949220616 746405988 174825059 75118599 26719536 560519345 547700039 280641742 924107712 884687407 714007757 505079400 425149946 935044312 949124767 712669037 583019490 149722471 522057218 30031899 419480734 953242368 284604344 109946864 138667276 745889602 656233471 565409010 365987387 614764157 686946103 290559301 667355893 838537050 687784559 464964196 484347028 133033920 414211806 51968239 178144865 937915683 582117439 847079606 692391630 423157906 425695974 202294296 426346401 508276978 885738964 614012098 293980727 788200545 96475832 377508190 134003611 225988529 231940628 621771594 764059371 906096102 770871865 299511909 956079197 82944628 971056387 231501846 965672658 247543143 370388142 62035409 375927168 455316710 142329709 20853601 670154194 587788774 652693566 777543270 500417413 831956432 547949042 394064514 487218129 882008856 611874778 286709115 26276599 649017469 857229901 854049102 684430605 450191875 522145167 918366891 895064975 935184254 725531398 663778051 848441386 8594386 113657518 985703780 753163752 843361046 641831309 964310820 65734410 348604028 66422485 417522716 514209559 367835628 247587454 214612674 249223897 591205578 635528820 967777204 173190466 188898443 462475663 384605193 230157299 485638312 119755022 522449622 395878764 314094925 321960932 796066232 628889476 680979782 928919853 218094979 361087492 154020119 232122156 563755778 505497572 629623805 500816837 43775000 774109873 478717233 456363939 859322802 9790700 899708734 30895076 781758796 842145446 275879268 772235589 778871938 219600007 424279327 701607464 505049530 775943322 328413270 506056005 413173956 954952781 843085850 241211387 174066713 688460050 963535734 355601790 222251513 70714997 937285954 865481479 376127055 368852188 504698131 7662532 186331493 807060170 961235324 906050386 679129885 264243262 363837000 394377716 916484775 614648902 999376223 350179519 886839975 493324279 517290941 884840818 265824431 505239823 191388448 234494322 610545304 115646161 527370361 404959091 40052502 306556670 365820340 792675220 602597893 180237392 273640889 714483726 282604267 442502083 130362909 993683454 807152419 331554422 72811476 820752167 599810292 98251137 668277033 308150917 298357181 260124617 994665324 613782925 21775941 809622971 739657832 237783138 172894553 204209050 467414437 999279134 248522855 81883993 259082239 959893377 346033514 380348232 381406280 687061309 90612218 841771723 582098818 865032268 410982023 531320058 658397571 621936862 42399137 322008681 451855663 746363920 793295877 115643205 201369789 42617709 208156708 487652406 682039930 657088969 442344128 292795606 752376460 454324839 22710467 828291599 837706589 178081595 147845051 421554313 169563557 180831805 624646906 51082766 543952090 209727708 678693483 705455243 704459174 352301445 205064463 460446965 314942569 886725342 58983826 720144982 382270807 792002950 208486615 380896069 767240409 743818457 360803524 64322886 786950437 306311107 360894699 798967627 345400275 172038055 620173640 35645666 697128417 100875726 568333664 233828383 500159010 31820735 524331238 400894501 738361597 89958197 306597357 70141937 59613200 615298025 879645997 126099143 444408639 252570580 655743791 224345060 486154135 812120688 320989409 503010235 778621949 15667990 854820482 157104844 679004105 583173149 506891266 448458931 539663980 379658798 679440405 485970716 799436181 69832438 721556605 838986848 213071988 703570865 910326039 463540161 943032700 590723090 711181597 613913874 184617058 481277580 406038501 922866732 407573875 150369311 612108751 349096176 219378842 457652070 239927965 509410223 918946543 31616146 825744616 363337966 160411305 695074534 725983824 815426170 848427637 443539059 609719130 464456030 398388634 881076710 308992680 788934742 372931208 792372829 620495727 429003626 995181827 163459911 976010104 373076341 749540780 130238498 204372293 679932951 407290545 523072856 411211760 753490241 303713855 144959126 110787180 172391394 964620031 680554315 563610391 413829411 518293598 432620230 984610816 437937050 403977500 350231126 191605554 150809601 239991054 127328475 729296201 871604762 593512779 562144298 963930435 164147922 802366487 197399270 510136399 665713595 917569365 399069540 819303258 794365234 49663172 479355239 268453058 503005098 23476812 642803110 548266075 345986429 578681583 516001315 222440547 398258292 383813237 869636630 288524710 59696222 133800748 817037140 598571368 578837466 666223474 248349554 243793548 412105771 486469892 633615117 777973257 602663581 270403602 934766446 618620568 755726613 548774668 214373168 856809724 289255298 27910346 595711890 801386799 756954548 419785484 177639972 497525164 257304811 493872836 205762046 264857654 151614253 864328047 368342474 970258299 285359058 200788037 432153750 355325760 53935867 558282679 565955171 355271689 803132603 647103051 569308123 670504995 163091162 793437401 292024912 742509883 280155440 918359144 450427973 820699022 108647706 679889927 778657490 538649889 19603830 841853408 866387359 254373664 65362292 687789981 802759933 153775743 980036559 371976783 131264885 438756917 699985308 603268920 193059433 436391724 898063125 442290143 240907999 24253592 27571787 443128917 476886632 256094206 572452940 709627888 365572979 76796955 481927311 935553049 464744715 322269036 878614478 505123065 176211344 132876283 144011249 689802943 977147816 166950435 560576630 666176174 449137843 862780272 563896663 958968888 54081355 151036028 709932758 393363003 554014183 977009412 539046804 504003102 431458444 1839672 758847027 701665755 50662082 523135627 724628174 858349987 328317660 11793940 870494006 946961685 202956870 208861314 334493179 606057839 840947011 547473751 153901395 43807844 458834154 423489537 252369915 75662472 841193608 680639296 454732410 902293194 678809738 274992176 765107747 120731397 854895051 556637101 574764324 383155096 785817622 540976723 700746623 881359403 200374150 578488796 842324452 354884253 35216367 736621109 854257672 885670890 784909408 953705956 131673076 969724790 75620109 848637875 116732003 836496977 762592694 520971568 48079857 401525089 481285784 126594698 15590484 641045306 22948790 76309235 375419749 433416082 512461995 33935792 241477625 868739834 123413548 978827988 602958862 86708449 371331721 358457191 505252401 777834891 878169847 889878812 809414039 441292070 163268857 253384079 153491082 811942665 458384016 532761233 920871335 191411909 934305154 555308342 305481467 162723883 943951612 522727882 478792809 718108948 230666990 61652240 295149329 716268897 813791764 113616064 216304415 797482461 765928979 208422887 475852228 484469029 578097282 970289732 471603736 36420916 625000266 400224544 168177006 144927164 479019302 782889707 684236245 483067580 51245617 88709216 944192632 937445483 249654443 52322302 153041414 654189475 725555952 123872719 302411751 337657156 675661374 372719617 325850470 323603659 347863339 979181517 688102909 103734659 195732868 265782889 470724723 165674213 582020398 167440379 714886683 72533539 988256134 372827440 589542524 967381697 647607912 103586833 57544412 587992904 468603425 176534308 842758642 18093302 660305244 581960911 332329611 380809009 118853426 667950443 575308633 228151807 982505531 742639155 550115718 458234947 546203296 362873523 691840728 516355704 217700430 988677216 727150220 159494533 441830161 22449622 318548752 833949845 295964271 771866241 708274267 47295679 923259527 556361165 281748632 727118687 139932972 406706141 739772808 10690013 922679098 415218200 333975639 761910949 159255622 42715446 622980686 959130406 562778581 876503975 964432652 314502384 806634992 884424476 254349593 41088701 743373269 128480328 868177096 575688750 403909557 88957133 126616962 142414555 827165184 458962025 219864187 88920757 855453349 801091895 864633729 698170971 424187149 257228452 355995126 552136565 153191374 760131372 91026595 450155986 701316152 782499179 573786845 818032505 541702761 889834751 92369185 152307673 98860823 499885419 606618890 458785632 637227272 220792423 611030929 322974863 541899196 118900004 477200316 367207613 941634518 220354865 94910910 807568141 531131122 957620164 545722322 652069182 17623881 535314846 280365459 578389031 374294926 967175710 275652874 504764412 828219761 456141659 458303004 328970388 917891693 411017369 375655171 912564383 763797090 561549171 618014338 985695560 402420569 148625631 815001543 226849933 97627908 207504548 545947938 759919154 34372484 302727099 221442747 732715303 288058798 724766844 685071514 713427 277177867 846578534 99220249 58704145 139173821 86353539 514673291 292967530 552828790 437331460 808420525 591492872 540799404 210840054 978643044 630298620 304440546 626480967 963095156 453799474 196561256 515757705 91224766 976120273 740151475 174240423 506800850 168854715 211531341 198080921 379066602 750786816 728396110 463559739 462235765 89826937 399912310 456748301 105962105 13729563 264078150 440959883 882365694 720162289 789412323 961864337 850125250 787027277 90162818 999601474 926303569 182993617 690872501 773724272 393059631 927920071 269355123 354589919 616063874 196068302 701598478 316647346 442553741 784672869 150209431 290504908 551122022 200508962 598527199 547062607 569713764 824284398 505012367 289254702 307209104 334337392 56457077 98355752 194189373 60199252 272310301 553587212 969404605 745302202 891113906 459342260 862291295 42033723 210000822 720789323 875189326 134061401 193810081 344571526 464000030 676745724 579319005 931106337 673432026 267246946 238377944 698910086 903122930 998830552 313968299 726179757 106476424 866153815 591432824 748225596 780173487 354371518 648286356 32618244 43574135 638288395 803160351 965051930 134760245 545081125 414046508 834956333 902539528 141077801 950481930 19888704 797713355 325405942 818479506 363168865 951818926 267226102 394499288 287272531 774471111 526171810 69676367 452958453 327009105 573339237 887040991 842029977 447664249 175370524 364844735 370119436 38199628 961843800 823735124 675075293 571373558 768835300 956931673 285373006 157288261 249429904 809421364 262753053 545150463 427697734 467756412 388742712 684832166 128857833 910676143 490695442 581490165 209174409 367448091 357598388 894623928 551812217 234157005 21099178 341298493 417145454 307573106 612881551 499420313 660705219 988202949 455625390 585891897 783384773 697764113 872977948 40324200 168974777 656605835 447414699 318086635 200069622 216158514 101039782 200712856 679359807 611655519 153251192 175717394 217107219 309568944 61430935 751419958 761115364 992674608 858946988 547659568 555465261 628119231 123541097 77094335 732095021 442741225 331810097 516249020 910318553 512850719 460552971 371200121 662264493 168617986 132317635 53231733 536162310 379754570 796691154 377008741 329609656 966117150 739926014 989905053 908802861 37873698 307702434 239369488 609780814 830665542 357575124 872759313 936832649 181125662 596364235 902633327 477999981 507208661 200451174 494187814 407424707 650066815 347451175 326845717 423801538 840313887 8021983 102465235 723456309 513533478 562785148 70175694 10847068 964277983 28712933 651364403 5608760 914327805 324863585 650609582 961377858 599788183 957862712 845666300 83235661 33321010 48535990 287001678 798250760 498876079 535161885 469874379 627745636 454069267 526403432 924662350 453334058 863180180 359812503 54412506 187346051 258497835 692817108 881527632 890661287 870013829 857668833 606713383 95279279 199489749 840621079 974893404 387581263 211100604 428779946 45178222 80803750 943832353 10294170 805786455 972719828 505256506 564918062 760110991 288932996 998759458 202879833 846724419 426505888 121159282 712112959 495486599 633943393 670723824 953687385 560767875 34180166 96350190 177570581 516992627 11617406 883270979 68074151 896604358 665798006 868450592 537162321 974578569 563885340 764173480 254876696 357445788 127119742 94599794 654800218 702877210 966489036 552993163 375190407 192553786 520087626 198664512 564634934 560851683 798039485 714450421 573376133 239876668 752679102 268592289 107299486 941750887 881110140 167029162 946525298 433484797 93824205 845818511 882851996 858080499 787095548 589851881 791765930 819771488 319672519 29891161 84114572 794238447 889600757 725151836 44167426 618071772 338579512 788091420 673357719 217322642 410177519 953314016 293472878 788083950 545719705 223925087 594806821 143588387 216312885 69264873 398093657 243867209 979091075 234346007 765112129 505367888 248973450 86063986 841608321 731400096 305125111 408050986 831156512 931354347 624235262 907052693 225017057 172856368 660286199 462486971 556037541 943577258 577623765 695264227 238019170 471711591 922061582 801957936 289777649 349759427 932828865 144893124 284489806 652760376 780943828 254723623 571205444 151744007 866943892 207312338 645778789 316388592 992822765 563172843 266976102 445632338 46646208 747441212 682190119 520228222 725259547 870728193 850206989 898842523 486989672 233882062 612566905 501762200 331393061 647610360 122584412 131668893 229691228 148080259 724638427 860403373 261288196 151865807 305506033 648169471 839250614 912787977 518589084 967625385 114050207 222345339 479228851 257179273 914115178 601573141 465904724 336160731 149644896 889321653 415140519 872918256 915908209 533988072 33529778 109880202 886492981 506654258 650167371 699129987 746599057 841095397 367795408 315805108 901556034 629034407 218844180 882828861 730087677 444477005 174886725 941672772 87750772 505345827 105304332 470071899 283666385 931328801 873540755 976096107 676934119 418729129 541160404 418831813 90700510 509269123 752631308 823421009 846070520 695836296 75461317 382922959 865971377 53600452 12570056 762866184 53193544 159270132 323973712 875168325 283320471 618124652 127632492 208888354 816868226 184862185 61928695 632411229 255503291 455189925 935013875 931407289 808826013 57275927 876914540 8401939 30503453 864003131 819709004 658969023 113168950 475355026 410418325 821064272 594591783 775978578 533244310 667968538 698961799 288628908 197334920 256990608 487411712 329133992 198933849 298736376 853891445 696777838 551265326 488327939 851013491 648172194 767958201 554143399 290994131 962809861 953207219 798396228 77173937 230725181 396646932 331542643 394657121 257595323 539507609 446082012 165996900 312443043 416918561 736927254 934097134 16624006 945057252 994195223 279590129 699117321 311596237 754260723 969242904 674098730 360762224 875203135 82026699 699084116 218471408 327418763 495147764 943833764 829782452 185590383 402368704 843944626 182427847 966189630 34832335 502649748 239033275 742577206 316490594 634847081 474931049 638440284 764027398 122768940 480884825 537087022 866431384 628397238 123211002 62173825 3421857 969937761 476396208 862988000 574092202 78199277 953471844 977667438 408176747 758702177 725885519 449847287 419045149 340274730 139948667 838841143 164141477 928846675 227610900 429889554 380509814 717744302 360818382 101577151 737597373 950748939 315049558 820747986 92889871 39456888 696194841 853872946 596033873 907970294 325775813 238882570 872748311 177925379 575871424 626827646 759807337 527463879 223170947 158081795 148843591 164590829 281559241 79607816 600137897 400436599 770800275 782383940 360551165 127461713 166280473 320730864 200086232 258366857 430759358 837369847 768642743 765458420 423382178 944420755 988597636 734615808 379693024 721275281 61054360 570047779 114073653 488462026 883232059 142930229 287726739 341132183 605109073 209905775 265436705 337966537 449865090 535386291 739351974 970690552 891483646 291239955 824793463 409041418 451562977 546529428 803826091 401946127 141554277 494316476 112209508 664268158 467677183 936070151 816814632 94845488 245325296 27810539 164375487 950664854 256279695 814615804 357813897 429643330 110256177 637015339 17742840 396047097 158166404 272345350 743677366 98837059 964955823 704954166 526068616 499214186 969665973 152377760 822050901 838382841 638882179 670844756 916142965 865709555 32412719 597929548 495790383 548995617 749186514 321469719 474938797 990178825 698924378 656480047 213083221 210549160 870828865 29372386 872119674 161404485 166646735 25409126 824304249 685242664 41054085 389503006 770793218 388425901 248160045 519774745 902882969 930129212 698686618 205640407 636402120 677304355 216921047 339680527 544431865 178176972 85755886 901614431 219864121 679881409 764131516 539710960 249821880 916659342 749681924 982698976 867042279 281865359 685941995 268304755 869751915 60095283 543301229 159381728 537829461 495644616 495275558 107114528 216637886 872841848 641279527 412880686 182203611 328598717 350740630 756477178 801857870 383118249 630433046 537646112 114268388 73390718 631786699 18742998 721551155 229659942 596106902 777314114 328415767 198039745 299108349 301018988 100285882 269996587 511259060 275133952 587288677 399443189 248392685 252216600 413574255 524785334 969451896 925722214 486079402 186578934 955704166 78040058 563471927 664372971 839350928 423730503 542320742 810918298 169196975 751967660 623278668 617137115 62632779 967915360 39586812 97304270 376151505 372721366 200373372 769460595 658048731 75723940 144592426 124012083 662968984 936182202 139044801 565336490 31178240 613782508 368401206 217838146 880721184 690931086 644384663 823255658 141532190 693275817 593437543 322890973 685425918 829497419 553666850 508262429 28693763 256085390 424587595 557732425 635560247 455076656 377875469 169223399 202646057 505074716 486172517 200295046 221815599 538135161 476228620 244489956 842791502 848565412 367533781 64589019 408445123 243987539 392112521 848846819 782399943 298891770 723055901 631319049 143603096 521112159 202676800 318619234 11598407 545735868 8340869 126481983 868796438 274573131 304367718 658437068 576831459 881488923 712286950 753548337 65620566 332796308 832728641 858318791 708528648 972927030 912135489 791062265 775743238 430070624 809126061 628428275 5116072 542738673 465442638 132743563 927020942 983196777 516767867 950010594 814877465 700087710 786992664 906926368 442706203 606526985 715189800 546689084 955699107 326716846 700372210 556802827 423282719 216181903 657518056 269507466 116030213 735903236 190069794 304079793 478052174 717540615 595410714 556307184 921257363 532652601 281430727 939540973 710128355 978932574 905985353 292059272 883673598 997746970 855344404 993770675 437578296 345691921 802706209 887106575 600462711 863431146 833283047 266934820 444507456 424772024 155820662 750734817 391059718 739238571 692728425 143099823 433947917 709417088 3776047 510359655 222624976 286942354 947830602 118213048 273114032 396559382 296888951 80037683 423175015 907821088 861348000 901474396 866709962 578029347 972787860 474382075 705543238 448083551 507490444 55098216 768468615 279915154 25353093 5226921 137619205 726043961 965238612 67250453 192064326 636071341 156752236 874367176 911530260 188114137 31082995 273552640 757596183 786151376 458847449 47111769 917661146 335513778 997710775 984113151 434181361 546816127 696688713 657039049 797268648 883402846 474812258 899022626 660608141 968760474 893025839 392749857 69757478 324821781 610533492 629189478 425207806 636346393 160342450 613541692 533893914 333956213 208978472 958460930 791402027 400003242 445320991 536598365 309634311 861968762 347667679 19622489 996964321 238125159 214382076 682809114 750929482 656832959 978041299 73636112 685873546 686422353 667271462 157999451 418521470 705636875 492710879 289862775 689973364 463805997 955612057 478620063 996358366 15850640 347737544 506273685 545351139 592990983 259507544 346490069 749938316 27005773 328546920 610704597 905436080 532627751 629788628 262536454 716735949 913771565 511053710 969633102 730463577 93728052 927018506 937136342 351106526 271652440 367955145 249659017 736941405 356818492 946226800 13262462 858533804 44407299 533348403 630267161 456119657 789456908 974820614 525032427 322819165 931392495 903249214 931937196 812963730 552941648 633494348 316657869 939825507 520459535 428381681 572474700 323229240 92248408 206510133 61139180 37135178 813292963 247084036 64667964 632701261 575156161 675758670 61142229 415446263 365615404 75176405 37480529 673063191 906521875 488017022 362222027 521621570 898469267 819970180 629058676 71584558 213798795 644335876 741070129 282558425 14295163 170094061 729723760 781580630 222876139 666600588 199185954 752706332 859667935 430402987 919323110 765180108 397983877 653177660 22478455 959933239 857625113 895964591 366168235 145515852 668348354 181965052 873796341 829874228 837591491 81570274 81440732 257680877 184474834 262675116 113748159 660448465 339365893 37162928 748918301 5645272 470885673 943200860 596601204 453386624 145688751 824540763 477151777 185388114 691030188 443513181 396754788 481558588 144153222 261136886 23472096 808045672 774577746 992892985 507798544 614548028 881742410 332842150 111981606 477348065 16430565 22914722 506698898 588982091 404826211 568311816 683423426 359644706 466228645 791264449 840484006 920891985 818887352 775386752 216377155 824064558 223157559 319390962 77336771 883990173 29764077 944415421 7137335 200908666 20253278 472542945 576386606 410121104 640422740 668638391 105825897 305659006 189968196 688362779 865487361 75487478 894806060 516701654 904194805 423523159 568624529 8321368 886372949 263203167 945752081 355458727 55844476 380492506 77866287 616834399 265901541 961294797 131522041 822819776 265934831 736442664 763754323 145744807 770857307 914210798 459077029 727156721 76814256 985870284 87172509 331715732 760388387 942732930 135510913 132285370 15073843 521436422 865100790 26213919 612797711 27772851 388420371 772746049 880645282 553689911 220606455 327157739 138995423 571190244 493594758 790394824 888340461 418759544 189973077 276756175 316945935 644335692 991785932 890134520 804027253 682247488 370764663 59196431 583866681 525516110 876044162 509330092 436567785 596151156 963943664 49173925 861403056 339547172 23715899 878320245 497470423 436763574 975085921 643815534 906663829 949557779 157942004 367685681 182164009 482931933 45812424 801954613 888358664 432654543 81000680 143913930 696655777 798852126 126696497 71896363 577405313 308294292 863943430 629734038 873447676 227642960 28897300 590176990 363225740 221244056 598174418 494218022 622586549 912915946 768336885 732606821 597025474 571388825 463334541 137773997 952413000 594959029 781373938 402503925 504411360 90126134 682107452 604050675 44244126 569684639 979754823 722976071 552671391 481969187 607700524 609319138 819514223 525497348 234937746 622995126 918707398 389141994 339513618 404241273 103770329 739199425 17188480 556308395 498495066 23559950 927376781 124440431 514571683 960000176 230175498 68887805 637974317 629458822 197118075 136697792 124883277 676405988 813481667 911660636 123446866 91891455 226244061 694786806 44488188 896188039 936950760 815729894 894738781 442862056 368844276 353586837 623517396 250247003 206265895 486130658 160725655 22715301 742715949 270786124 911185222 800417940 190836396 157939964 915573152 720976684 819866798 695202994 895161258 486917776 182946538 233495726 134150772 603385603 697190447 863631438 662388635 110326750 315519428 647095884 563563342 369124404 509410288 214983547 940366211 726583404 398369186 759231557 862370837 970976168 27066585 292170480 367636848 751787396 545374439 314855742 44758376 535776938 174532067 947353996 939961533 488193491 334848589 530009736 297171337 174628481 64478094 814341026 809179044 134832238 44078762 269906611 274152326 696369287 913669099 534252542 568404047 234910900 342403231 934101462 303812479 204987840 211766695 223919848 739911107 655602130 354534623 619208180 203031134 756628553 510976659 892266532 780129741 490535210 649511010 91726919 982725718 65193873 583129873 767135831 344461158 387273552 251494532 792319213 638942536 270551127 876080818 920023071 415383143 365756006 135721946 480181852 722310662 581681986 601433144 957618479 257974918 399070031 411748663 285496754 443788589 622905449 264602178 463171700 717235973 127356805 221566955 797022336 472949797 613419794 891649596 293694287 718356947 982942747 374999225 97387666 629460892 943723876 460488075 406327322 192003567 316536083 567265904 589415032 154021332 224414220 621287115 704125058 35982800 761188196 504154398 954023252 341460054 505136688 491819475 115069611 53382783 409988020 562969111 340790406 197856433 592713396 702831912 802693282 252344863 160350483 744495210 415621740 113351400 288594225 897987058 625597695 410245786 619215700 175490504 603970774 444940594 870728903 869370538 600486483 806056096 213612063 673604759 560190595 407630987 38428057 762372078 569605715 909319569 998370118 707636581 604092712 484794113 7613028 159893923 491399773 504046600 628995806 191207772 345822646 893056696 497791341 710488279 356622362 522697311 135106129 616574753 389390256 714443525 637611082 446475923 466690213 75644294 479262607 212283429 128078492 247260075 105933620 387730732 206124628 179678320 908433512 255746201 956004028 777122818 97273251 510527114 162703733 40199673 6981533 389073748 308004369 372007586 61457536 865146632 515270 888064257 36951977 773373289 455180447 667166114 737108088 842392441 883081447 153970965 311709951 279341712 973987416 746475450 79289124 681221759 706032241 74665803 248040129 522750720 869716185 971303293 804513805 663365080 36386211 343398572 433072372 608095889 597891759 320437545 842988307 72954495 696088565 782332694 392536761 301015057 122998605 521997019 442159827 862103889 279687239 179920463 343685076 376438037 917855177 484141635 558167689 213614198 768344125 611861491 918917386 926209668 684974058 872018207 604153745 716362308 716884839 721709640 726725935 546652713 658093879 533149764 70974690 218200533 653250728 387542783 86614436 398396062 338336260 209460667 372799768 357784079 298402653 87582102 642848378 904355295 229384816 15987475 946000177 6514422 595930624 584672164 959005679 929938859 984789412 27619624 58615780 679273052 179328787 227685947 252916222 375633724 66472132 153937499 204558005 581781776 152443319 985192978 376512239 339046448 302585892 653652006 394943746 492128760 776096038 902550406 478981629 985757961 326805955 774284419 166145392 708238486 345466736 446931194 479208837 770227747 426047220 270504012 839241307 471244757 938904942 89254092 98391628 460339196 544303368 243953992 564482471 967207742 740696898 551325598 23101103 967532014 696883027 556990871 271560970 888969180 348730665 221220388 48708222 653279773 49309550 164049258 218475423 468835443 491029651 343194697 187974927 760608763 719300661 375270277 271089336 858904519 502065395 314635915 159398388 675352892 334109189 411970363 181106341 381842452 739258672 388123783 675798567 273046636 26940915 455349488 53429959 364955621 368217097 224540051 460641646 694945769 848420172 383441677 916667387 450341561 734159919 492913838 932911090 343193367 660393654 829599082 880422535 878713146 488263689 673845891 963217428 415008096 233201380 645712916 868739194 720686083 827675831 909069168 715637940 955653333 932401757 299160694 33082668 548382418 335660362 572636204 787844528 919129469 872722575 274862280 101743301 306806022 124328035 167417995 448800428 152629596 182013300 714933257 771959747 228543724 594198439 906138068 217396875 611160029 699323202 214282022 838176637 626273169 278261951 425964073 471454164 207843305 339731320 657496234 863117441 67594976 885089548 570897687 690998777 101695397 690996104 37533435 632236334 863611425 957466603 544971588 80835196 188421168 963231942 292573625 718900865 473078890 657368189 162708416 99688995 502280634 281679502 685742149 443112480 747339417 40861364 219892991 350962132 99907726 995059186 675503490 737156774 421558751 98236569 284605893 907399438 294704756 607679761 132884679 766759048 472688145 196178026 613496275 879974886 910040337 104562538 180949916 93106046 61231684 337854957 394902015 736818724 830229901 157299194 890445572 88056353 983365679 957692393 198986901 105786575 802613382 490404815 91875940 159347538 604059293 445568240 610671820 941946862 101302766 319223141 410543677 825861949 947920974 412744388 453976543 87098184 116521058 981652010 270596776 217822601 957511258 209356812 439502205 541132122 203129082 438490278 172289471 94916778 931559924 216047040 222622686 173713089 229792464 720137808 319809445 884120289 968997969 234473394 528709878 148289117 464151099 638781186 118752038 600434297 519973987 103794521 290236399 161687005 103732074 596000727 737179796 233063444 237552721 283710000 171223793 459293435 655860874 604321744 299876872 418256537 436348892 932573753 121769162 503822475 731453957 910985888 280759997 21895815 343538089 411711649 719457119 146377947 666292872 929028797 562576230 159584019 660731897 508750748 607761460 307218838 266771441 991462186 335655408 622478525 624931717 117155947 211715048 241452773 702240247 152800967 52382511 570276869 570664527 143340656 426753475 80665256 96153555 2539043 839442465 817911480 687612178 987470422 660534130 371513723 854894923 803167753 641949389 188564115 747944760 492088216 965606481 169676097 307796751 945292541 386179442 101642904 45343240 87476747 200266778 877573744 642983867 836597051 615627317 207267606 591471372 461707832 988287008 662602610 361194009 814713740 731753006 855088180 443872142 734113857 20744093 659308002 316090684 683507542 787362515 492764304 417962701 826777800 799405781 248068919 541451880 831576251 913326365 947857778 317328471 555159370 197955065 887621057 757725285 467198280 16954367 996760971 55724296 153858240 737952677 953591751 407575132 16702673 990830772 830317048 809583760 440949539 165468481 496790608 948484479 153688 61973127 326952132 964644349 265449706 168840807 5614789 548826231 704728335 103359055 66228688 960755818 653816679 276619417 64141179 583623093 433910372 935153388 184311875 187185007 787702124 851714502 988646921 87802882 320456928 12460338 167334954 977028131 364056343 486037609 137870713 584787113 801310972 594019468 713176710 786134509 957529457 177640969 131933352 895563235 193232902 571817299 667487845 93472227 777113900 491922889 553110179 605874237 594131694 484827465 14085984 141527531 993592037 84700880 452554096 512914193 105017596 512228671 745868857 220593842 936402345 858447730 635811354 880865805 66455896 663598650 349478476 705392977 509396178 676418619 796458867 373354517 535170020 753616310 862201727 700278721 334784356 894486157 528207216 454726967 139895515 587502198 628223541 158546220 435716191 592711466 93373967 676266994 515736711 45628295 439454756 184023793 831683772 131450405 105614631 491719680 901801439 253300893 578160931 916809605 118582735 560313206 386442742 346131935 645916148 178465524 328505665 325990919 438013777 837868551 604286958 240580615 658804114 220588808 45122396 199440269 738405038 125940884 508336651 439655886 337662841 779942737 200180774 464740454 155547259 394732543 73724392 285463170 698956895 180890041 350559341 566351161 497360227 533932517 439073970 971834485 41357568 691135881 233998845 842757903 748084714 31796502 519234585 239737981 12991231 722874749 383144049 46272987 470730347 208995285 624128109 238652402 775869952 183714615 395497224 550879693 391661528 419449094 243878666 112428707 425959938 462517458 134805058 914927240 380821651 566119710 183057500 179638599 826269228 315395022 744890531 162038709 987706701 623761360 839753917 721515396 719570097 787122177 835166259 123874574 446229263 161691056 459279067 622058732 49217343 145590562 178965767 218659221 172201541 731247024 516157923 787689399 300590477 464050020 538634019 214345747 722377916 876606562 225272415 59799160 541031091 196734503 887660570 897150225 283495320 292855910 94557644 63890360 38790550 43126150 592442556 631320648 486744962 944206183 632832603 65640610 454901693 420696683 395624111 301798322 521400964 417217576 581825466 909248532 356474013 361377830 234692275 658387581 155201680 966300764 974049863 914850372 628023616 846759550 406705763 692729978 567932001 762553020 113866763 991237287 624823298 349425535 23966623 364642512 291056287 996078188 751330530 992730635 583307003 459837998 922593286 57658127 290627339 229142234 900488238 730354552 61347007 99758889 192428978 760606313 893239978 891776778 497832511 824876614 572374120 646909925 361667934 227178471 943886393 116344677 121128316 432278129 651514480 115818888 788280202 719189881 595649365 153066445 568376444 858056202 987917566 772059695 516468471 650059389 700606099 553337109 868508656 139979237 767270413 471200597 831023677 487357221 62431269 88387125 86328919 890768236 380989779 907229240 995331241 860301865 374745981 522028557 893177071 518367436 509000924 805966195 193941132 699184737 816113016 242306786 584360816 160874985 748854726 686156832 988945031 968643176 115062749 134757790 899387673 291880348 767673130 579290910 657864500 544194424 124194993 278132152 760692735 604877156 231652710 324049809 697679218 550123252 18625486 295461737 848447155 183138908 943008422 534723431 982840959 443529945 386695810 290335234 373841966 657320302 723051803 606921370 151484225 130818789 237316708 718448083 483210287 630932291 746758291 343627088 766103846 608147269 805169726 809627797 706881334 249594773 796249627 932947138 370421135 619784594 646896955 365192756 478719365 92624254 650747073 304285771 93048324 500054494 120712798 74959609 901727024 577290761 411647479 593093767 116277774 437603954 38882074 144259337 467470619 746995152 359707423 609199053 149981681 454294306 144690459 261835566 525706310 214980502 727078648 134758136 271730005 879068253 783118200 333732003 590156319 341256440 140226286 985308550 407487887 709477672 925057045 180397535 763697533 282794437 788494742 675337360 61382590 670320642 833967768 382113141 417444553 629324085 912153774 552674670 305609528 690488163 480801735 58228681 163221617 317003893 442306723 815152136 828088956 781777285 12093014 476409997 353578864 949273686 445999769 91017578 233995959 99260290 557787635 492331288 131444317 476101948 711257456 99407250 796298139 47999016 529392875 820118518 16736595 740776659 363683224 438714888 413611360 774770948 918235565 342764611 120726652 782688420 85675790 35421871 784324877 677017773 692377411 36237041 315818162 891986083 618382469 423424986 905204758 348592786 574349789 444235624 307650029 970070540 802306322 901179252 530493660 675322862 97511430 686720324 202944591 72513858 689114155 317595225 786098495 352724716 206644740 669804573 564186399 380589298 249220599 861353341 579076078 324566331 660945827 164308548 792720513 582138023 24715214 241422701 826241304 698136439 20879463 491002887 38206302 993064485 111707798 628192353 735047216 318908516 501758389 614108261 279873336 140545618 441930756 24869163 199070156 202190979 566356911 909137309 568979493 565155910 415565041 878923850 86104844 90021826 947918675 265866637 239170671 895788261 479631828 96809246 486188764 982757347 175402632 428564109 220942184 288301775 498208467 930822159 894527327 122519574 168451131 82364587 792495890 614217878 353983378 888371631 368637652 901699998 738678888 398107913 851118681 533244599 98893897 396126056 391503686 912200427 672838321 74741576 592834870 799118175 163141277 981689053 853891575 284303113 293840354 417244705 580012362 248428172 878131997 689518227 960336265 376992182 206720907 551923377 817033446 384306020 951447527 478936037 834521373 120954539 281233675 455991473 513615571 597118956 785960455 36292554 584892469 709722094 210478653 354910535 447950558 786221837 34340640 209128596 314659430 594490624 7969068 19039168 829128449 370668897 353217804 860667331 915465072 61245341 942560339 513797857 657364106 848424726 103095375 940787821 678072417 789768640 321678427 460184448 883886690 509951134 843718202 968706932 900190268 921861352 471535608 276647762 250514034 409596204 918998478 798607971 930229100 715232280 997687699 21864020 466134049 433724492 199301166 10093703 635445157 215309502 19456319 125985855 374169862 862997401 261440961 724733765 208963582 78602234 718505310 901363474 197841773 966715846 841441609 792778587 524531373 144666067 55183961 5420386 161379431 68234973 571305373 465606643 428617145 732551708 310982133 85405781 30338094 695484378 196745422 892539000 245944522 42215440 182135465 396351165 251872237 608925419 410647992 781227786 90482584 639320134 104418250 978188750 18676913 194439501 349582831 188711223 194108172 306719241 894184209 143761472 403390570 935551783 917650112 545795885 982826162 254480092 217173768 584388738 584230453 657632973 519710235 980055056 601173781 99538042 605079658 192870344 350379534 232106807 205938525 383768883 122787136 72319723 761023457 330063179 188538260 437110504 553887102 77746808 232478061 858298799 126188359 566221247 229856051 662451774 890129976 978540013 542419981 537232062 288778835 182625626 609317793 861093217 890813306 195410970 839696399 948976764 723189481 964834154 690265986 893785376 463211031 937830643 9231357 476035752 172206167 72670464 386290722 223052822 315512081 105802641 215672542 684912790 749336713 972637740 617691719 736414811 692031393 787030055 13030647 339603954 773743746 75824071 850081703 920619943 544495535 233349046 40436731 955623037 141291825 90836101 683905652 287888654 215355900 643560172 973935299 262520960 226843313 247892271 489433751 975624598 72723487 974505507 259179897 834642699 807175165 380798108 506477695 898155949 744079981 702634800 501336540 59826669 916643231 874212734 467555453 501318690 743187459 2485535 430702639 765075406 564908001 954573052 52520274 618447887 313384961 73426698 461104220 42894188 712134493 662422349 723627059 251081329 998760113 390816853 233582715 637866036 717677722 287169534 59499316 673744896 947271223 203048819 830127673 279376329 103032266 999063113 986776674 222537771 664125211 978837221 708764394 537272374 759052295 843215800 703023192 780548887 193127125 364391686 307634580 429882238 147136960 401722799 725273128 11008314 526195553 181910213 368535188 149400784 61886264 552068472 284105457 697989646 981079739 357974032 390381609 160741059 231178465 127005910 478037827 856138648 561051731 513133851 193678564 884125171 440751782 800325530 445021820 179645045 851064920 717398073 105050608 294142379 550722463 661242592 959498173 673736952 964838019 161682738 495971094 355077187 824661781 712338395 173100943 582273972 363490855 834470556 604458290 917963493 561536011 555907059 54260015 67185189 545522035 252119695 811165860 466774493 355146043 32765214 124900218 883863889 593911588 33641900 196698010 484498868 55220879 224263641 588344607 137086239 663611256 143477283 904341078 564927769 590206458 835687944 598278462 643184311 290717197 398477467 759322311 947018014 437980084 135304689 580605610 688331508 719529096 878554435 929945758 390552112 542802113 447563230 147127001 800680392 862513367 617036616 367566461 64424848 944180319 797049797 296499761 100421833 887787502 227509421 454621428 197681066 375479671 108535299 951063620 510433937 572575877 631160494 830419589 255024941 14699278 759672727 87176009 284517968 243523964 238205612 183731390 919914732 62007982 439664225 743959448 267589652 620686654 386691106 958901574 70320891 954978034 249719071 115294495 752664002 415042625 343783760 26824362 617312949 755364486 421744308 405750875 668974734 256524942 639564510 235955464 883397530 751115545 150232646 411633379 209233520 130498703 760735083 535208783 794192366 125254459 434686272 329167905 195998246 288735576 523874745 176886718 271941893 797523105 888941903 464002516 986766903 336651995 669438618 713826946 591006888 965797559 245064354 414695637 379472790 719234123 302309306 47075978 957008355 363854871 456868359 855939681 284958257 569941514 903614181 368708824 959620275 302052552 110148669 523600967 474447435 334116997 22625742 13948749 612460628 202440551 355325583 490980968 611526325 899267050 815318748 269290367 183795309 962262666 386160721 528201405 134004457 672828573 902446549 160997169 531078905 488476155 113498471 530110696 947646573 471744881 251114641 146326955 195970314 284455949 46645762 624747848 727739473 895153236 985362883 705437226 512393698 730299213 397698405 300798304 506906569 334449773 797709638 316631607 73507415 187758368 929496321 575909591 219597635 580168758 539515702 40236373 298775242 263553177 985286705 627424100 519716866 243047861 960126248 692300191 512013755 823148546 4470473 500163221 940007030 896632058 893870157 182715119 785126995 712625686 484644865 750975799 27733610 118565248 441069516 126014797 725813460 789224799 578411687 10272538 115752759 649271414 598195421 951969664 182966765 326756332 210516390 148918480 447398717 564261161 552143388 677734212 199847189 893093703 77675484 513677800 587539242 683239777 964497446 335347666 925804166 875572923 2017504 886997025 263238118 934447150 208429950 415918003 288949589 12220227 403619766 565463262 8630704 147190908 415479821 983895458 376951023 303641104 208148828 146370431 338003351 193308441 5072359 409526825 614740115 809789895 335711026 522239843 562896297 462573396 719800234 31065682 564031610 961384250 922822661 25614826 905431164 632386249 610408460 855651259 102584303 107958097 562349136 162288269 694582290 880432212 967315452 167689240 600233634 872317885 235277387 677218442 982462014 710586003 705943224 698994465 290900902 381812246 364910654 679483420 373476596 810894049 311839504 842383502 117529308 219445135 50396776 533851607 496167943 735927631 596084590 481543770 705317647 148037053 428760709 279300702 165199904 878896962 272932157 217071669 928147128 207128943 930520868 777927268 32233798 425156927 318594953 684928661 617404488 614206670 895407318 747757636 124211033 889273176 364613065 457611372 78756296 766637982 430985911 672682371 378938348 89806984 209511027 940997959 919692530 192413488 776473389 795998934 306924754 456196962 820203596 933063925 353130673 151436083 154387348 748683467 123690415 788097820 546401376 623759210 213110727 966218692 219595846 935480521 142535640 418330611 972598892 53723690 618775253 602955272 935803406 778376709 529743631 206008950 232672750 97370526 640839127 821913264 567096375 486949159 893366355 796200467 370425430 159023261 891413207 523633092 933510416 388912169 783250928 651008403 226442233 840866050 60063464 515540286 741569232 127130961 794912081 484645267 962948079 886207128 345834667 578223991 860814873 360205755 118614143 665215169 567554442 671622257 297835886 605101674 342916732 974415516 928620651 958937204 678794758 282413654 66730449 207470939 833326266 770684729 746811953 126942118 952828628 518094825 110921822 313511837 555458758 953988792 398057488 946454164 959425152 365877345 200674595 258808921 156883554 474516037 255597053 965082162 505568124 957140844 515531299 430725070 663027732 368999886 189531935 278248710 946007656 588386295 758308565 449253073 311309472 799809097 434418252 250025996 506910812 346156458 540548028 608952808 602380144 508338505 832738709 843085226 56217601 792002765 842762941 800195811 820282334 736060712 564809029 715611804 281203334 673433081 171144233 449307222 998396423 731515070 839782136 350281779 632735457 965930136 296745103 661774089 324019463 530637556 918632642 140706230 285174516 542533433 537198529 487724840 872258293 268758270 683907212 971284941 866813278 985155269 258116807 506556898 955760678 201571268 842000582 17175313 30679233 206772975 300026912 403787870 799771081 780879422 57087197 717238594 374112600 68883989 866422868 301600233 326649662 129705119 402858255 358978929 154197877 106537574 475723564 119231548 206996410 355863230 362514332 494450249 957848923 773833709 525482776 7405002 493373167 456959583 142254351 958454546 92613904 481176706 257286764 915353485 773194168 814174896 313445104 902320439 901183253 894612873 77142627 48355283 231658049 724932249 554647875 958057535 272092220 103934890 264693556 803190637 804749675 468255848 353638633 23343371 846451305 628747899 601868027 268622659 682500511 73449718 438082754 864475513 2439393 149539781 146448736 555211924 975667173 607906520 918897984 333326115 691841361 750276935 577546230 204210296 802170933 884514752 962441859 940027913 334863044 413137716 175378729 572989984 929107382 641443348 701374980 906757296 398223886 116110385 159267304 758278294 266177083 865255288 799959221 917710080 608445676 188895515 955540269 687365146 865491756 422143281 671631043 963801074 609996307 930432550 50359317 840088591 511308743 472593925 185640913 213182168 341514688 891921148 801479123 721141571 707282151 451856760 262232684 856451650 431120841 635661528 448727139 926558154 76731303 564579723 712245699 406806494 605578208 189735085 336227033 24466070 735570569 473685146 969076356 445444595 758156222 651557231 524921119 524589288 920430222 152415615 331505241 68121673 70055099 89217906 573856147 68414489 514531244 544731423 567510584 709409546 911382324 319234998 549282785 433024386 647131496 461402515 523591229 81748884 717728957 86672411 250986071 307438511 655078697 299250434 984742600 264615398 579172345 418977359 863274090 426090740 545154590 846248124 172829234 235636643 56750692 961940244 39006650 805251649 99131097 79036865 543044655 978101904 801630036 383882338 231995076 863688805 578615983 51129807 735003768 774803558 752891414 112688963 58851567 556452993 14319822 414168649 443442263 871643259 553024310 62652271 700922594 970456828 65649043 779787397 959380683 522041830 728493718 986389757 999353318 661518565 649796860 329724421 653060982 33094567 995813006 864286649 958790022 172842251 655406679 506868762 256145994 73579941 965826649 348308688 211625187 371671227 226957751 739263824 539421808 497318818 415788150 141751075 354625199 797649002 315494658 87843649 476578499 861102021 486644365 116128009 571284856 814961960 879681578 273941464 829350044 793302999 105501771 815080328 121933024 964854212 154077988 177637006 209193738 835021481 532040114 899683068 843010107 218256174 685135208 994619730 148768201 390468710 585155525 496609305 283201813 581708073 76492824 568151935 553797614 815911924 80470155 365745406 435418840 8294060 729513591 362935506 992089178 534989440 250643832 767563599 626882699 471507220 341505958 665123250 570323375 455016292 84348030 835706766 176903565 610773397 61524244 553583250 724884315 750879726 608981532 555467497 688052864 990089774 66361030 911267404 54443683 841688597 986898637 303155933 903034020 972107101 166355706 754483938 723298253 183299691 463998994 394864608 104419964 895057568 5020025 682849381 943360048 439602282 1755543 424431584 758954792 128823769 76636746 230137979 562823886 298524273 621078793 380617628 912530552 16229157 514771395 70175677 504238238 365246321 667252697 83994747 98893237 254872291 791459939 582541612 767200578 204313213 766088215 330426797 734666408 258997477 611794616 953661034
