6590
636081445 197007903 674340711 261421014 101514091 119615893 686923580 224564058 402028528 420067685 570194444 626423474 355883601 356186061 81560302 998471178 176995677 865956538 118194062 274219425 256835148 424049286 565708425 153371416 948369326 255781768 107500049 748440964 900714492 447356986 964141481 704075888 185501951 746126260 270181110 871231103 44632476 497416679 156287466 784075388 73303932 58654458 140538193 862126710 762373935 818866989 343869268 12918825 884342359 650183680 166258759 215832786 249935015 246873871 286823850 206221090 249359533 239306702 503284567 33575921 915002697 745677287 373293562 221977545 526595609 773494443 427556500 529381401 846621548 853769837 260170254 346762767 718592606 735604202 514094555 715603461 870535095 756679682 622833731 660976097 826966158 584438439 152912830 269676080 593694730 962247038 73066778 286444897 172054150 137581918 547981612 97764589 624811192 825490029 661676069 856433299 263150167 461811661 667327848 534126908 871007064 538671126 563973501 40622686 736732781 991043143 541673017 530407865 539652628 85198356 421755505 160915657 411210181 441406049 783869195 82537602 776906565 75653554 826554790 30649147 795508236 888612504 916946266 140625795 796301954 551085038 987334689 784084616 677570791 932407414 63528302 333806245 538592892 996790930 305144614 418523383 229009122 869106918 307109694 584509284 508733084 974367267 757910727 555447110 678862718 627903289 454570275 356764288 786546990 837797023 572743881 649368404 679252217 241810647 666486458 813494440 558483566 248860339 941165789 613272943 914678752 733907269 592723461 269313970 848931286 110264758 619827125 227256331 755837284 578576300 523070622 481766059 414165169 175955737 679709430 275525532 699822893 499280143 541689862 192884843 329799424 414691930 190776223 464401305 845112573 558314131 928961383 585905017 636279725 699677002 323407628 168142114 341982182 211772395 615964019 108683831 591754026 381799677 638112990 959556779 223113626 527660328 181805770 462755500 52243791 504174858 44607067 834930009 765355408 167015878 937696283 209416742 910313018 457930661 218096594 425220338 538825513 883016645 611943702 536467085 461801110 662877173 44021896 472029953 398480523 665769003 213661573 224554485 229280351 670822895 595452451 944246133 712266048 928165997 319640415 619950709 136800331 17104022 79613107 67991370 551319010 25401674 878354826 924665531 868802206 355719408 487395549 959419986 547339229 35765333 893068265 173756649 180828512 633702950 931067092 885292600 981515627 374096893 161146430 939264101 102643216 281650864 943552499 240106826 645542824 987445683 268652251 363825760 324651137 593773574 144102602 220879984 863647460 942873043 331853397 931610364 241643426 231775275 220393812 888464010 451230858 181117159 174465827 366496538 515385288 856552720 541551474 671464267 814245752 299374253 262094504 946104410 700137200 793986793 101086830 216641486 310088055 632897253 316321099 915683713 582561401 457034849 677803699 334225062 312473974 481464239 110538166 796174955 68692638 166663913 761875000 376073872 707612897 10829926 610277367 532435524 73843666 576757965 590294985 553976673 12835858 392275964 452088697 791842675 492315757 312973899 641691902 212487717 486721061 178221288 80253992 351675490 833419674 810071162 866724098 332016285 789548206 232726320 132477833 909713421 272861001 780105170 516522090 593433260 570754241 117938336 990957023 315550981 267804837 763782722 860848743 352717213 525357823 914308475 293480831 89961948 356395652 374248114 124156856 612519345 825970698 109803684 174775149 515329323 608103622 689070677 170020972 507381647 700578514 321055732 151098427 388432213 615206819 589952757 155227911 372940913 774694900 370384497 430731098 253852858 770409673 632936077 592894521 423591279 609145867 281911572 351653187 326328196 521640578 126173638 86506574 160706268 473010298 426557771 356400013 366078853 964089924 742167424 923287209 8757140 319120683 86337003 886796994 487120351 492104072 536186553 217905751 439459302 614463960 989825152 78010762 522889891 844523397 490870065 133442439 981878653 391749874 245646435 598923908 267647141 291986571 76747726 140839419 875364871 321235349 352261908 116660995 4140369 910843188 964771391 370585418 170037948 773335941 102220541 728554967 106244924 575929949 640218341 754797551 295904543 19458296 4783290 689570820 402797537 869010377 369429334 422400154 195430854 806571608 916228659 769122830 496802084 291663112 28583754 175355855 133941855 801361679 472486592 523359481 873801989 793250352 453615519 186744124 874011093 890438406 448981580 859638419 685282048 749809845 55331777 63570921 495259951 704764136 481137560 401112829 535871779 889881765 561656503 536148650 115327317 603889678 91367810 432340487 33622682 250437308 155010116 223701501 140882156 719009360 108239524 807784544 877592821 897086541 651996801 757888036 160895902 783522119 720331833 209699587 591833560 451513749 687425112 64562025 397811031 659684332 572264506 711463947 828817091 739368651 620521899 909539837 738543024 613183179 369553921 979436783 733605425 477706682 181223539 511184284 370604510 446764045 710074985 678072160 949281253 493976713 980224333 372094069 789562695 940065023 951118027 302156171 38210884 575025357 323180067 783551576 626124467 865565984 48105125 876256750 954759583 667900568 840887701 625178819 526714042 10271183 434784120 889009075 982914660 287719476 828598552 388229094 694041374 260568497 720130291 894809878 637343576 480938885 511137838 496840337 295002234 52818637 960592706 648671509 276460851 45239871 367605995 109810919 110675373 413900231 612587310 83000650 174630317 466586749 500303752 775284216 222182016 245059418 328246291 513132704 851229255 733717288 935532998 95620740 950433128 763137147 712228370 414440846 35435142 594058526 919431676 789897294 809545286 161721599 42334037 483870650 974555615 580152643 135837996 957778065 87714514 210226906 918218222 312745505 531699997 618252602 470005931 655455078 436516504 939360144 785418176 448469548 385170010 677261329 452494845 143926260 550377496 245771540 973161160 740629902 473810440 244046242 838886157 978186531 847725201 808842644 817510616 609205967 271124880 855705881 113840216 510579347 742830702 966992004 994711575 244156146 746383880 444085699 649526035 87369560 557487934 768011903 7144979 632235668 659021509 372578229 141512692 520582777 984869039 984140259 35598452 912749175 408325455 525644397 517644397 331753646 219717289 321303853 5127503 317778823 155109277 30982371 291549951 839848741 910756294 424096440 17093967 861537037 541628620 30069962 215245545 413390226 570695396 47532578 294504241 677643805 877059217 794274519 905614168 127865076 469209410 414369872 142793693 483280563 358001722 155670669 323356018 572857465 770205770 648833710 293619883 192595266 247972762 928643143 315680134 479221855 719150853 389132505 228304352 952624005 744533407 265644000 264179231 503832988 977319349 110833905 465481236 983604240 142506865 416571898 58677079 116226174 445948980 786682694 997900994 531735686 593354173 148963292 742807649 652170896 795350195 878294221 675537194 149577481 970648622 401281652 697866730 955460347 408737168 494255241 417104645 67851308 5754097 821893143 311844286 22631758 885767924 87155841 185942109 811693307 601244111 717786906 230410484 902809078 234461698 824815591 902701139 699386941 150779480 549613155 585907943 663724711 843537658 58328277 925086546 566905363 907739701 5681179 242504896 907146413 590701106 710122888 752861670 51312416 744281348 947187299 910589240 961901444 84462019 450184413 842431007 367433341 265442633 212123434 388447855 745810762 8804565 756690166 749111260 857694990 914165497 278258955 127031269 793123366 516809180 884994812 112913121 380816287 545733879 173534920 640895713 747519188 624414829 711400388 592710022 835140914 145370561 610140741 866628728 94865929 763247650 344149257 957633401 452553357 455204619 377011275 259621160 620110456 377399913 716533617 293393311 244361115 6739857 960351431 923988613 800774741 836706635 934655010 271331292 329660804 895811329 85464265 83645434 914262467 922833714 939341156 268499814 565610632 600776618 604232134 767128997 743095093 558795629 819570145 898547687 279636176 237584131 115606314 5791835 458795895 466851472 499076358 914172000 748291295 664490021 345853227 373907112 598536080 896226814 732909201 125413524 5354848 123149291 465961521 440147912 627863870 170890720 123206900 639338242 370807548 888475308 281372755 434584380 802671778 657594533 367627772 423255934 853313644 126228682 640907138 488134963 33715994 180955692 345172636 924227622 569852268 539075013 647923370 940060635 444203800 227398523 134329350 994933735 473946468 643514651 408786802 305512732 798607139 665766087 787821921 931800189 282990707 952563620 60155113 100147791 414237175 334763658 457333344 43312062 509907290 739819207 105092393 904477459 485249152 648355661 221216231 263175906 324801065 472911214 28521697 161729807 168787549 726433543 308984323 672063516 696530266 970584830 438657355 367106044 225544976 768958593 338702057 498906282 701201864 744974531 147267543 355828521 972453115 159122694 892346806 205462283 698110818 697729447 253885557 970037607 740562734 373400868 812816508 567384340 627615988 258705569 129388931 856456606 118321198 522660803 245274490 945589691 824188470 402660435 72386783 24827403 170809293 202800549 496434494 222169665 328477318 443136371 290925517 843340004 692349625 141077436 976309946 601877882 506810216 782258313 966750175 649949050 400458404 850043477 549830517 541546208 537890794 242708634 592299265 727506747 971506976 733582067 395901853 353409166 507008304 784415239 753351352 642693930 698378488 353516404 609729859 765873950 866863460 620412756 920813723 764612539 741256588 394870232 639425996 818938518 409967741 946875558 897286438 595240086 724867046 397707577 848484396 832046415 507860468 529621384 33822636 792506151 261316675 226188556 218651347 988893806 29573557 825001332 452052259 960391197 145769710 883070156 749615480 49727041 533803247 262972529 712671682 703524417 479763555 524638479 7466866 752450156 725006414 343976586 592125647 898258338 439660513 306331987 931665121 498358103 493629025 773992330 455888798 165600616 548658675 398220854 345886893 643665164 979970747 850549756 997038284 211429256 70605307 472286322 943467719 326549613 363693674 913924707 367983538 810084955 771275997 13992234 974923645 608039841 862073721 280329819 595214631 983574700 782065576 981697822 459676038 553116475 983289576 78359387 413266664 27920050 296434296 388711469 101264443 519854566 880006167 494322279 91580453 53416294 384931460 778521670 556656866 83886517 669432522 413814132 688353752 896369966 813966452 490646294 124816580 789970131 857598245 866957207 323627903 417226446 183972721 578890426 653730579 670400764 491407716 954618139 383319683 422402196 685582856 524722195 177170867 862743777 883824891 929123376 189856770 471681466 103231091 349012924 840285515 499873746 56107626 986873804 516313001 574408438 382352529 52167390 834090571 703950864 865952985 95718196 849272436 680033317 722886308 879099015 242145684 955449771 747788095 78474720 299200360 909771538 212021834 993740733 288297463 37187964 917420172 188859084 403815861 140644857 887763169 851715920 447619547 831594720 714388729 378684656 915663628 32239940 141938570 723008594 11732571 746921896 409941216 615861186 917029233 342603486 368597899 410416042 744385690 950416245 363713229 174363281 891595600 952069547 70980288 20521620 28467300 607176113 920927294 541769835 674136981 767487078 335032463 350560694 896225460 605790793 14125031 124414209 680983981 599007447 374779948 622239193 803759500 622084325 929729105 236348839 318377720 57043531 318964662 797805784 251203649 203545177 105551088 144049965 403620992 710131847 133457371 62616304 473690735 857443793 457349668 811770476 573685213 723953656 781131867 380249822 67542050 802226175 677357601 565971011 346149873 251664791 373994411 145139057 532174676 426658170 446770717 764634562 174102879 441769748 606596890 443121935 947024608 563417564 612209853 884255620 522096977 451716992 397212703 312764137 5453126 618698241 641206777 719789104 250710570 15659116 256486600 265559863 80519812 484242085 467853167 768814146 183264282 937865241 763720612 897699460 920744284 84988400 835292421 194140013 777064522 704627476 410651556 939916619 962829124 481168272 133287294 659943803 386300742 765641194 731274504 847713393 60656144 355715051 369990510 253576247 337250439 470373672 348862443 942100550 83628023 971189391 449564454 300214175 784936446 151642466 501391446 370735684 431831469 251239180 778886603 456485451 477693614 708011656 724413479 656061279 211189476 655285538 951434285 766020666 162066570 229679874 936189145 201525411 119813306 935121285 649997549 259733889 750513994 719615285 843476707 2689933 643826059 42428495 386553626 188119862 703096132 332770849 656704314 461788716 663778380 894732640 730407770 231544576 627773957 180031299 523427259 844512281 702208705 512186665 621866697 612958640 545687625 116000253 600211733 317954213 796673747 125474470 212732285 592779098 541311911 818600045 723928772 908730927 479316570 975524862 489333661 225293599 556991954 2324045 906240624 499339610 778040832 441655791 539212109 163952262 577595947 960131767 676640277 361840373 450673747 981824950 707211179 402970404 485947689 89040104 784816443 403182012 471525691 445003019 581449106 746524068 526703785 229646778 505631256 115162848 790032076 156451524 162167101 351561938 947480442 638869751 265366949 557841867 773380950 640308875 805815542 203964823 881883666 434832007 667700013 947575355 968281519 440493915 713900210 573450095 882424204 338582700 893119072 651535022 291576189 917018877 567262488 747355295 465402251 744354299 566261739 123299469 764500064 826855121 248839714 800088991 413048151 826678323 133492320 679314048 433178404 911548172 435026168 815803790 611375885 967754774 26537993 97886275 384837787 608454418 983424089 63764023 224605851 955202455 447837928 384819987 444593607 349633173 628986271 837361184 586199948 232956504 562646782 178966274 225675707 267988109 952330667 259063548 873302111 228435601 224590209 369097895 657312805 952180281 265375109 853716927 775527015 698754811 55270921 841857463 990583934 950195509 738450498 545701015 181373592 353951117 633142180 827998467 191043065 598693841 724714387 580014134 775725342 501627428 359783657 889876541 997606302 843725651 128464526 879509443 911273930 357921850 296672948 260912251 568138314 782438780 660809059 748162571 476619521 466746151 180779262 420119749 350196724 133650034 691398247 520120638 398289803 732553884 521278373 343821450 933685163 45226867 674704388 533306764 532173497 728322406 259075270 525389906 826010710 145908207 443481489 678437645 551825367 119805840 121435903 565979703 50689898 54098359 416427089 360107899 695522751 173861796 613389412 445188091 311158015 960858650 593880639 637637055 466592117 763643040 854684908 765819575 811438394 111682574 56898263 535080029 206173076 966210180 502107423 654638557 212047761 1036195 269099609 835868016 945794072 348986759 333796080 201294286 843536402 203078329 147678358 172965148 719317577 51553379 702771014 651570202 114789442 278024317 293605906 313698956 507067260 579323650 813157788 394455136 689073665 56398062 873460650 54922474 334479019 894179800 123548647 869607983 323607630 859898398 932613202 509890565 951744734 108808776 889291832 554025650 414432829 447825127 229451529 116087100 544976073 470236935 139890067 677823877 710746091 29227291 413176536 972632783 363054878 325319223 490806508 145398501 690324478 707659593 982658955 49299781 321470115 693660821 241174026 295299927 854507395 857292881 538209939 299626187 229523676 520688350 466708339 867800077 326694147 142319569 986545068 42384603 17259722 133453199 742682460 248004929 355840934 418473817 257391323 507949946 954510889 591546296 247495822 593167484 756803210 192924201 934203743 329480374 186904581 688172872 215760065 876227449 888027110 319580238 657189731 29919971 499619446 747601598 789739048 939008505 183616734 71880079 852555877 707922756 466835222 82053254 723082118 890140613 8095256 284640386 135301270 378083303 201257280 959723738 317342351 660575791 780374618 579794239 940785621 297103514 527877406 277355195 509855109 950625881 185585514 917884363 981389688 52288714 425973148 222503306 448194860 88351751 563833228 979543889 887284471 230464152 29735322 513276699 206744691 389172635 899470301 928008390 555478992 325398963 607223977 78885543 561436672 471375953 54080547 145292452 619990649 25451614 606606100 702681502 393448771 471276965 362237463 371602427 47252167 709110489 591070692 848227679 610091457 158216487 93758406 102206136 134540300 975152088 96645859 554557653 803495055 69538298 195773096 438011704 160026982 680331396 632802878 430659034 391173917 49266290 585511209 477640275 310603657 783405682 653618859 344461018 134815406 548320225 620967735 170985259 60615071 110927351 266278973 819644262 913229019 790983640 644339005 514530286 191949446 230089234 995148729 126245564 59051554 81306990 20476123 568322648 254613773 451686896 665470889 768436891 468205222 674816209 328491797 36696951 880157875 643881244 593272280 913819204 651071388 79406806 696517304 374825565 477826550 202870773 297985390 480866311 379150572 522154358 891429688 395877795 345026845 190355563 174257828 604584818 260104460 151034390 151364708 240860049 598898173 963592115 975601483 117018474 34813946 873347952 55145812 421236301 138587259 99650615 404112277 654797867 461509464 648005340 305409088 326585946 879661306 473279621 656867028 564434947 538854418 854569319 432781320 119628518 37400138 579744584 237097341 242315274 766711036 182972074 153022733 274803945 375970076 232987646 241598365 523162566 204050862 121126718 556979783 220584680 701623111 424332300 789591278 566876804 939254729 966782187 379317062 879424404 237662746 111573522 984568484 589293485 136798602 637529052 450144025 994309950 275644649 77239176 542849315 962465602 906727628 212431222 530147735 577277485 231333103 342931795 668117760 637972694 720971594 509619684 153810024 246872945 716365287 695937819 734009780 135477513 793830595 895984524 653137358 669948577 655739242 503893403 754094431 421803859 28277808 58977147 370820704 783927192 815213337 812761798 994915423 876564517 128905965 132526960 105127757 848836463 177852281 916851821 965396537 56766571 388662427 589555293 678510598 842597154 167513593 791574815 495721412 476571520 304573558 765981792 652799327 89519346 128267419 611402723 614723736 921867796 433725615 864640474 917965254 859601578 52639426 365696134 734068940 612497519 648849867 481858155 769347246 408211907 540756232 77391127 66320531 441480640 872118729 205398278 945933198 623908300 339403321 506908428 758806181 370376549 755333030 947223752 144827656 412928198 565506261 927104712 709795019 633970741 818034150 382623612 943132268 985740984 282459421 451149755 236312628 603020736 500206200 289947268 769079679 702816849 898624076 302366406 394985148 652573686 300404224 92449769 814048792 295960472 30997542 769372079 16270867 392371562 127762863 302749480 794694227 491128028 630038222 638304373 965256616 87181984 721124878 285189957 231730224 983925767 753626890 921605405 264934811 562767880 23996513 517708519 106687166 210514787 367097681 186384431 206163578 104855931 63178562 963025022 661523506 340034385 457675189 419585506 101910520 1003145 753182999 609468 383612466 261460181 999195702 345441170 244740757 979192184 288787617 68141744 749884449 734346629 508562364 381207227 60856171 408393669 822280067 301044290 863277098 943390543 177964503 318514739 658881628 849744058 606955027 375739847 95434778 683163264 730523464 100643122 109045500 853717675 610670585 733394678 850291739 368744729 480940478 78458539 986763274 739366155 604263358 44199943 674081192 410134856 547705343 457547137 12018223 559350028 595105468 37952866 992603847 173441489 974183521 587587510 72839785 546387887 212220095 502703663 426832579 213190819 860486269 62597085 227964215 683987962 610452173 673110638 556026531 267986686 667202437 761248492 505332891 164095638 18410607 9834566 136454500 241128597 883816551 367413800 9659041 522031311 29601812 277331334 479751768 301819510 440409979 979301403 385998662 943033858 195601514 179104046 622815279 999010371 145655536 25725845 531887789 190351781 200451891 710531491 624054454 35329555 21717661 550652411 720095089 471323804 52928954 13089326 964324874 885333666 506334224 370798255 83767436 469224500 743875858 671844618 826029766 433415591 368055099 758008347 534329975 129813683 650216496 114654302 900384540 915330642 794319541 745775805 177543957 937819318 85075921 917932048 805426967 498348211 52127108 798832553 367601017 355145439 962917242 313110177 270798849 752591958 873419090 546486539 412157146 528320574 502064421 193933043 44932968 721784942 585428165 846612902 268107408 291016509 576044773 311609031 966830289 430756569 613437186 262886527 792092902 463465810 969353748 33480710 992416271 83632410 303149547 798701786 25259888 691692793 992015921 836749508 170424195 949025632 137588128 561787360 838356334 68496060 697799307 911812026 571118101 505732665 174785514 823469047 270947583 807709750 322001094 908890738 376105020 559012749 812270186 338540742 101648515 360014552 715064017 575207317 242166333 489740499 330163283 650381713 269002631 403657770 878791029 943064372 984514205 846663980 945582394 962586276 207350119 405443650 658620491 47533693 500705333 963427960 74273428 947591646 363264654 651197115 308748089 85374031 612848635 278317278 789517626 230344833 846682546 535705471 672464044 792974898 310111882 225583890 757244681 48089769 353094005 377082015 901657614 418840148 428448173 849794878 413081051 625950807 383629996 213048580 306156250 31463593 70222801 21332797 872529604 342155942 853714608 374328833 764504824 590701358 590428653 582591909 580065549 771405716 85128135 75449055 164834474 972758373 69814825 501431876 142224281 330755826 478341070 164475150 419384063 487833359 879551006 11488654 161602321 726191100 782412949 829111871 795392629 317746228 171241129 335733071 548573563 499186510 848630411 644658917 520237158 662362643 753878672 135033890 853143563 214148278 63423234 610738620 266446139 819988770 481963613 674642341 362418046 870775166 476825399 455202962 351761625 114014476 835726057 456003609 772663206 322297389 635100409 24012140 261606874 901784125 758654397 268006507 889680652 26110144 666331646 77459391 295131253 194664233 92414638 815559041 418376349 142901185 455874450 773622180 908524177 824814457 465465761 747131899 589598025 639016515 628716294 118974253 352040111 816096472 843564514 87733301 437355103 558498112 396379259 452713928 805887339 418359552 174907034 544399612 852740944 275739425 604742745 416323745 628615099 221389177 946811007 503891773 658852493 647820277 845048602 418718167 688990094 803715084 624712565 537848409 834864836 333535558 888232909 608326217 570081102 570611272 604402195 373684958 115849350 957904371 533344340 146719991 779092674 728925834 223297217 122328071 888140595 404882917 13210154 253157356 947041807 651310983 229385595 16397531 230191152 946900259 607305309 423699868 288916001 150179123 252962893 561932382 987547210 779953702 383668707 580264385 485183531 232841149 25892076 710378536 564943505 832225792 779324787 443818463 932305183 563449103 796347024 907137246 643553224 432899723 545159302 589292479 806877002 680660651 589516508 335975434 840664630 145616517 494181223 777235691 811067319 332174941 920287141 566568641 20590945 841958667 469807231 561779299 223814292 959665782 130779041 338166974 327903898 874175519 669130786 263285168 653518065 738927215 186505368 582932521 681500198 371172406 131094323 6754528 108529313 757985663 115260176 934621121 420637762 368404032 159551666 311820039 217120763 686924491 875988291 784995739 290552266 690036966 741922275 831642126 498861497 21375378 397945950 626694010 469743180 392444130 300262110 976060559 577189128 250140139 865041310 535161959 390341841 129871096 440755522 70327793 522839364 241553981 250004272 30243930 953588204 711400837 345844855 226225429 881312170 368578555 578173913 18670679 39868218 138520374 826235830 561990386 832891095 225710793 996605013 239168705 746170903 528215756 806077480 164723132 236919413 404789505 551003570 893450199 458907144 270494077 757629863 786215368 486045193 981471851 97812739 68161088 913190011 587318537 641006747 975474204 699152148 269093107 415838082 414830757 918133547 104995536 464663458 406781850 450931086 85912407 672283412 21639651 394723002 844269379 674614471 930616598 949322984 801801052 989403014 327375516 165055320 146064556 197369766 440033051 985043996 83958796 895545634 455052538 41282903 306665566 60512119 783569667 680121783 64098354 233367186 266623429 313212780 729914507 417085240 28609951 749977105 589504248 987660590 406509920 624022543 10013404 762229157 102320956 378849866 302938660 433694957 732913095 997498804 163156464 993220668 12109927 958116675 656214491 191457620 787297686 606143154 569597549 160586496 128352560 63779253 621335358 568753240 837126687 965892813 112936862 616839259 752586682 653105682 382793001 92705656 805366178 252460973 468807244 739016101 38204833 703912362 230415936 193653310 197194386 890605179 46415020 530385005 442396152 706883172 465116947 967778938 929957706 230831155 312348553 28868061 351890775 807749320 763579379 463341527 979512698 963771545 847367364 997828076 982455746 913325243 388242442 529274624 588533340 569570952 22238304 896237782 635508219 387431148 340419566 640245659 990021221 961886954 910258543 51713866 341003686 691490436 216154232 466622056 586357932 890584886 737992309 724544945 373531053 581626802 929666974 473248421 58172471 727539953 108305812 947655677 974134495 306794292 975523795 717070698 924162390 76839796 985433308 33332606 824615305 291347319 855189408 543803213 519678704 949472675 899882027 452406285 41975750 656867 774823517 150824280 878044998 326315469 667444620 283887547 716193877 757812494 573981177 546574253 98116261 146829987 639837104 223902624 779517105 280270322 489280231 498962019 741793470 350854459 527253260 872654857 320849791 551379071 491694555 440362947 807071119 841448811 319416677 286798773 254738862 535750738 86788210 863376844 989706627 956492761 195361990 220337917 570095045 785252154 816282475 921189750 614931124 798159935 411709463 168895657 913708928 169200002 576268212 34861240 612692317 283969358 818583849 934332214 647483992 511168197 691151762 805282570 59906474 406615699 148017533 916889055 528435493 466940254 510244705 941941561 728673680 131476620 954478426 241503207 378267655 620603066 52552003 908039217 490347109 964282512 163733634 529462474 789574941 630023593 134874516 606743441 474098506 29434933 562799615 891825239 156443140 597940893 66112417 606687310 709590167 983344704 733013512 608279865 969006742 229149936 124811336 601326507 151309228 383094684 856090422 23763758 725787803 695369264 167103345 68255914 863460780 900189430 439815740 540268650 927219708 285040524 600390055 200587164 806646909 367643079 15898641 792136724 666621889 996174280 350059625 685321510 411699515 538683976 195230648 89837029 57097052 626854333 417675876 72043030 699200275 173366309 910968748 749055221 324272198 364117330 595232843 119793464 963554955 648091037 91296994 285136929 623899249 930179882 444982065 336903215 939286833 242541362 32750792 818323110 681646079 357379405 668166408 477347840 597750054 14454778 633325986 832143060 660983046 808834244 511836335 815708322 155195003 420536449 367027880 612915023 216992767 451938430 938641499 924006794 830500508 380885691 556697451 29829605 667344594 612318856 39215437 431843098 72356476 243357433 572207941 76269937 640628615 341973701 469543267 522494217 752898078 151975068 748814049 702803195 683848329 763985705 184407930 528865717 54374852 419571064 133309107 568052393 997176436 669271594 273713608 656938151 847011281 750821751 113348972 621680365 495248459 279081862 872816485 255126832 632985637 179916080 307441426 421170502 289704335 537600536 176854151 80907450 673532577 584493348 323124802 60978150 157451260 256711453 747770680 961530440 453573121 423322873 550441393 809873163 489109977 666895526 260680676 406030053 949086536 547104345 979605952 531197482 979902493 196100349 310237767 809245496 355892741 292563492 447256872 470006371 889862000 808017550 997388034 749998582 215741414 852364679 504961275 614462692 116025802 332392579 725465619 646799185 559842968 236791357 189600868 28502969 5719120 552352418 843141502 396117413 736013677 209725354 505602024 92635392 762048254 831608574 960414608 564929096 459722922 451143816 566540242 37162446 110694321 978863543 501772961 887263050 266694511 67005325 184442983 269369257 922598631 561395165 547241340 169301662 835230852 775890940 174569406 908300985 614972727 481991615 982534953 973440118 399122764 537912369 597751793 952463264 517458059 647628473 808372284 889997571 937046277 458921091 586823248 421766241 904682907 507849965 423260688 573601425 440093773 732484278 828954319 854749435 209893351 720530259 881161237 676085460 375444631 547331449 156552652 781301253 375393142 148239969 386867382 433957323 305023448 93873482 475593798 669753702 911040154 153927117 998333002 371535834 551892848 470043386 500337976 737586398 505804855 201144816 397249227 209170176 151258260 499579717 446494525 652196234 835032670 698544840 663285695 566898871 824914182 39041265 931667944 607312752 462616850 187606997 407417890 553144544 605418116 871088808 405818533 78258810 940332647 483931589 214987079 467017749 385412869 179390633 59718159 106077902 531683096 344367784 941465082 562715297 467729669 674026012 339266772 637999831 266058075 67534738 420386365 708461928 548909771 260408576 615389932 311805530 62620752 332029350 328410088 717375218 780485781 139835975 460150883 434393877 616761877 361130825 117173840 84310915 232301089 208689548 766705272 676626196 195355946 932675673 461931574 958371221 920776302 841477323 459795743 675453936 186328091 465638731 10145442 478835901 80346369 581645702 571694964 553877561 837850160 193069430 912312746 895570849 821701183 264863820 576885295 887119852 532627422 82702544 851377510 498562603 67519972 304093135 575719346 618896271 59452514 762766946 514730117 553127541 492510981 10610104 811550940 714250739 660759883 737361773 244581147 993553277 55817013 792637778 557456202 4990378 644510692 695767680 72606599 859235280 195621211 635648156 600854080 657625358 925490139 509517569 167472514 975132018 370111191 237406236 774929323 183630328 997735421 545133994 4931354 613560955 434279513 481947852 258898125 91862206 212857077 623673617 924535759 815992050 72256265 537257621 854153982 29598478 487339170 167972955 816380550 247294276 166340498 731977181 377080809 626038407 416553493 159002349 487508188 830479632 449615101 401672982 501419889 628840704 413460233 729212217 965087302 437185266 963888882 824898721 303928302 959938975 776547001 923309145 399330170 287446847 592858766 97750203 668336987 538180319 185320726 492976086 441290827 568477252 35841383 257228015 142255623 288037100 488980333 154658450 154351611 318631478 980697755 634520374 553927599 155482942 212031140 176725924 218140418 649143464 126453678 185101565 172392098 586650963 972493901 476106942 13767268 218416220 661296853 630407229 228531095 845993493 371035262 656206802 26009268 808388986 148761477 725318013 135470094 466656553 607748345 614415583 786003331 785118961 609170356 206461800 895341020 535820564 703736646 113860630 196839736 187768532 466784600 217923847 319425627 971228659 283489519 926347064 118083391 841034021 270815247 160559967 937937881 192797193 482233634 900773710 77063861 672062990 144639274 926990820 659829261 716510412 190939034 58473325 690328799 31176091 284432163 191581736 855124790 283780363 430580034 436169303 590542806 632388590 7294471 884052446 159162050 517713088 898636501 319978994 682288028 617255235 312980608 419538346 773329217 816537383 945256911 447787726 355776100 163136178 963668103 499324199 753235766 402420019 352444900 363582045 429040384 469358331 472418112 958245274 382660236 638196770 66678394 178214838 29865357 872204931 876602652 317010839 540593870 386203101 103562709 160581209 753098405 536702109 333776434 190577545 379743306 961608443 744397981 300297883 819373900 322400257 825373944 716629290 39497752 679380157 265202863 56083720 600065461 960323832 915221260 780433984 308332063 20082021 650478053 865831461 124656679 682034316 600116975 654829336 840008582 188438551 109206266 732635717 123613921 755270372 887471089 338651241 190451820 748072773 184401243 807269799 612837863 974730280 527053491 589837773 555346798 272868627 223566000 298037047 32966066 301394433 310590323 256017114 973240654 751330310 612285235 263250582 586964141 129699614 701506799 641776658 859510873 827656620 128411426 79436166 325635811 728897893 429723914 863749928 465597232 854096566 99497646 358852704 440314435 897126475 297055436 947942633 112294999 247620868 920226889 19742730 787048600 403815524 793721409 699932953 789760803 948369352 666048487 281907474 28823239 52988359 930807610 655140653 852156851 659206252 788105946 296591276 269373095 87471233 226412893 778354987 748672628 882306961 92201760 330586729 212583117 756006191 164798591 203968072 820201078 430872926 822333941 561879715 110476594 5998308 785062977 224266516 192289629 794374083 204463089 672435550 396460487 145923540 869888450 282356749 156017475 902566517 552833536 917630813 622822839 850996846 35458018 759674873 163074377 551669138 502679942 653695311 151204423 78053786 450394619 441515958 152881267 608139856 212446872 157406445 279690344 533398648 812779531 776822331 417419975 690687608 869096805 620715552 331023331 489080057 78500440 203076542 27153359 861870083 44609492 200898067 920115269 880113726 594459691 852636663 630286776 279188960 667026 954928115 269414856 317517066 583403548 96010631 118411994 571850795 351636381 659745287 795022093 924557281 390384594 186346238 665661197 431207504 76816039 40797224 969498035 510259393 724912573 102631205 281308299 227537459 788394890 925217222 269432918 514530617 579662906 237534896 186087620 406184116 548804754 820477596 788693071 262498701 25529140 609283827 382249501 686748714 976713105 114530802 269709807 231850830 834699671 349943231 663227647 626158349 542338266 426331422 284578061 691085879 316125504 472525259 397996557 844819636 675395853 346575025 305078293 770474078 794648298 164886572 1831401 215298886 409365776 299734373 340820024 433642238 709758135 818153893 989013836 364762555 917315201 789583712 593766827 900905303 76211960 473500664 82081027 752110774 732812716 294502688 549611276 6564061 112405889 417309990 765802111 489782523 251152289 447140815 788717583 192005538 545960142 103702094 915607366 558116607 427233694 631831607 931259584 383202450 175674138 797800303 211587552 747436680 321641172 420245716 648537418 35664291 313680849 454670378 613691880 109925212 929363224 129527152 71455316 590879843 198515598 374323223 121375324 629306166 880166758 225665514 865012781 130970840 558365336 350715162 566401040 78945899 778522334 76652759 712281281 112040647 622480328 664483744 810756978 983404718 650926217 544174044 112541649 721697522 119693260 211921477 269063403 498945632 323027170 888332193 970328498 902779153 282095820 23096967 693673334 499562850 153955098 152367611 669794054 586051367 322693226 317881465 865946003 819482931 670601341 46270023 453570028 600579064 481592583 610348057 375981207 913247773 570687754 553812007 326635067 153970334 114270368 507344057 162596688 362817937 996495206 522486829 509473290 28806239 604379154 516105010 334493826 988947014 851864696 28373393 781373487 58191968 693116517 958152861 785056127 742141329 984497530 409367029 163152003 246548968 412221542 578023491 768291864 971490031 308700015 408794981 909503309 715605095 185221387 445200470 599696433 361089570 662548067 990367581 121308804 657928393 368211883 384384044 776126947 603809307 207157594 159807893 343305671 78710533 593504361 399647661 284345767 529544753 78567097 376711272 549581097 341536017 793784185 126158851 960050635 166527370 404451303 227633730 362319822 559850596 754839864 103553379 269766097 416598065 142977224 418904599 898308597 240455034 969891824 730939054 951234692 704728868 3388875 435859643 392091055 539380080 944831385 172100180 938082641 709420489 292683963 589995193 241442161 836001749 522540804 327549473 119147601 943054986 996541937 358731930 600959131 24813128 876358284 751455190 250936286 482299839 686478697 713168319 776549189 325336413 188328544 240661889 160144885 511912972 983329221 43432982 35834695 973792290 695686436 347210991 863183578 974787575 281988091 591789965 685951104 335979765 487312735 341075912 479673198 297340817 430551043 20382937 373035311 143092369 790754227 139924733 294843129 843934773 119693735 43850365 786094103 874593811 671901502 241458008 12959319 727018857 872490356 595612661 753815177 143370865 812790952 951825358 36597638 86833173 479588713 639071210 126982355 870131078 542682215 68509286 701510300 443650910 588811172 263259085 214422943 764218570 412110218 349055097 939750073 944606007 46000129 826545041 96678992 552247304 631274004 14898535 128243027 552391514 188710362 78694860 521171640 678643926 659952403 446759951 598804036 483816185 82914543 521222100 32390700 776046423 523798337 961679005 905975290 239535374 727996696 620152428 863886429 457206741 733702884 758822820 100009066 36726171 868833487 884130144 649761509 315734060 31291615 11968438 884772853 281414888 466243714 230780372 496350717 67312224 280531254 281205653 995553892 874157928 130881535 591065207 447133546 165133419 570534959 598397211 942366846 629063871 644291403 852197362 546965808 806894238 150852961 757858456 335536809 69420299 778234733 243373729 443053977 342091846 941143998 397542581 819120798 363623515 243996692 12376596 827362598 244457899 148975838 344016327 328805310 403599599 329371623 12886837 872640137 363886697 213263500 712751790 589432327 540965516 741166615 213470659 804472339 51714377 993370419 461198274 588308500 330909235 318488440 46284685 547580569 231622998 609170258 57938580 409563460 731118148 540157239 759909668 321093038 717830471 213370666 680220201 779855517 691296905 350559233 515350874 415462928 847054461 760843259 9464584 103139750 102887840 959567564 17601494 982652974 604790381 417239420 245014818 581779754 512098408 356791811 928462550 27441781 317227950 852120259 752265998 33771018 759804698 585668179 295758103 717775748 468470877 759257510 619361895 520047901 458214175 740445417 668688318 143881219 570293691 912990330 78597904 804018778 164307156 581060734 441394944 35785484 653211402 228473305 988109846 604327911 579541941 364949762 169614802 428329813 19114359 671148286 390189494 190399279 937972429 831732552 385989891 39197278 548712934 705012311 923473096 712389468 139037435 879846998 886238808 542723803 53910172 354818832 131872412 436019450 490061869 210448013 389997628 182174444 79800981 894897497 763199863 494945094 796954903 340857958 420975226 99359454 653190925 556116885 470226313 851352335 842231553 393073705 794490871 712016979 740550498 779834115 210412371 286664831 158214742 607049425 142164509 34959215 816761690 907258429 221572249 186199815 298319101 116317221 720126035 951623447 336472396 253611197 855348739 859357502 837512352 261817824 21387223 259696009 673819504 407908590 516562138 570952160 499237171 172628449 607165542 939961629 830622317 151503674 500423925 814013866 261173365 39348232 338583087 118715999 424669511 73125031 21515025 591708894 490402242 685171629 689569178 206910068 559828588 58186830 912968071 980276773 573809640 59470234 672374338 524210387 23938966 64731022 249647520 397582734 163362408 244837603 474847546 249329029 717333300 801258070 150015990 409144774 454265873 177186122 719178193 616032581 99884838 752354573 21745813 755539471 864135213 872724007 560820349 556513424 786231559 711314991 79988234 843557236 741565371 242704172 291995241 347340642 635421384 464028897 454464623 123721566 804320268 842165706 878199309 389488646 276428821 892453222 794616272 734465781 637866234 993135599 668884804 113746765 530870595 894488179 87232759 592193056 445246698 830857323 436214135 932541706 973115280 997728890 56636436 953577616 323801752 666777840 414597477 277263577 428587407 320654876 755201196 373734201 899782122 180364121 198721076 815486487 878914039 839512595 254529257 698023302 430939740 438436139 618828513 41567396 696416021 481706687 450468175 454181483 689278873 879884588 615770008 913200728 622871543 376203205 887995277 964204321 717620976 743835851 866612647 552453283 121423649 432412961 576784041 941298255 116112043 938635324 436612867 899980723 660933265 563849977 146472275 286624834 860089153 87386781 49871719 61767521 67881909 297466491 813389614 41896345 193350096 450782597 385963884 308675212 134404739 609790371 570145112 435623914 994331645 798796339 578783096 629737533 683632196 886831011 952250025 749199406 812318190 89156164 76544671 955963860 216887386 544443016 553721565 838255596 662602938 697959182 963017489 151278336 520824311 673829773 597853249 504461054 945632100 287956887 32328044 843470222 770605925 813492969 521963788 351544815 979067661 182482501 423623974 565383942 622966940 821900417 225638402 289678114 365536719 220609646 221345711 768662848 129603397 403947417 342802409 333626457 685660245 169900472 697325035 945103072 745350272 728021505 318828667 504587520 379786620 28165115 379665155 189815115 705767174 120262373 149706343 708353387 709689395 217195502 36840158 740571562 527933582 917871571 953109068 789142155 499409814 455267603 885837453 115462567 580853942 955956369 215086999 830548756 765613016 971608243 826352291 714242124 982393266 639847268 758080777 568672234 292987586 199049219 683897439 245976497 941387745 322152718 460373743 485999938 61974516 478272367 557025203 918712250 256567940 480893800 457789010 538646104 284583769 641343536 946782453 398956681 783946586 716853824 396806391 652507108 22276267 220901620 806921505 318617173 727257164 867466086 693534921 646097804 798057440 17940597 149181496 601584419 180362321 216337385 685212588 40316630 889641734 32208719 991358316 628457583 765636698 726661335 336650010 773211556 609835513 658032724 808389188 410448540 719459452 91658688 116935837 239118096 915371724 461625502 277114436 554308785 996600853 911541985 475066686 501292313 851270354 610055602 952911472 409556251 558497694 360833356 604980039 917796620 784498075 316217009 59724040 370201972 393945051 182146561 412487749 49349773 358486022 420388026 823370928 896639035 917932845 532337777 640318230 777646377 872296541 460624662 540840158 174725657 861163775 521975787 16965101 215381520 423795361 317205172 76736766 654903869 707548197 25402868 118891106 202908792 638186363 804678453 685385632 40429216 434258140 653222226 59144670 14985674 72980564 387500897 630897746 125695019 248924251 468168538 78891413 152859663 620964989 816779772 155689080 688734732 573428783 16498855 720609075 187549767 928723361 432229114 124227042 827543646 259450316 629203021 36958586 104955028 764104882 662494089 857857655 32539399 375383297 245907209 64871588 283991084 709968103 555078617 347053116 668555716 49368731 410873872 249132239 89841898 774757511 103615919 16911189 831739028 485149232 891475620 183262943 822493337 132279381 280532834 991218282 791142735 143392604 211923821 287210902 294049883 526515219 885978301 623403080 305124455 553904777 196762605 428373399 58749358 994728580 607340907 550824749 587606638 910685092 164422667 798454362 416369409 269228640 128619737 220994216 603535562 331213685 655975854 646091425 867647671 369794202 399065376 712677575 591702865 780784819 583542302 22831481 499619355 406346261 54637311 696676912 309311797 636169160 41055895 40424519 208851014 893817001 211922320 392219254 350753500 190304246 647508378 355803515 760001405 237200912 929029213 129396383 95812580 731461388 517493042 219926300 172664949 677620858 660266343 186132448 485361255 179066357 915643885 70909667 921816488 281072959 511498815 31946280 910548855 239769569 531453617 642466542 219944175 929012121 673698429 181674586 763619086 212972733 835277031 403788898 524848557 885664124 678455749 266863931 369560323 383461110 831731696 25519348 654987078 829996880 700135943 728757131 515883881 210359872 234978227 531598059 987356766 792743210 181793380 221838322 339526400 642100214 13212793 118890041 190259545 74441772 442325213 762713636 750878372 586811642 178928961 209377558 927277986 849081515 508593563 825619637 525272099 342079882 839954679 886507548 144674264 779500938 83531232 138883713 167569241 570513703 348430232 497641497 828768380 825395099 466698692 762537052 640092187 240768499 592436768 264027717 250152015 842398196 583603944 854145153 117329512 177637028 826258364 488256400 297072124 930105766 538219333 552410633 635945511 638112949 211229481 784850827 172580435 544783568 402474618 139562428 576169099 464582259 488129278 519659853 993768167 552253288 416759189 697026382 129049360 125087939 104519654 457696453 555989710 743401439 274565902 100451051 830870259 852383368 132323443 74064297 981104162 776003317 130545674 862111522 41107516 557391165 133422521 115503842 335401785 592285573 760215684 126095396 542366296 298081362 633628839 47142101 869982973 679266237 260296590 305552293 799387438 544681830 548123115 237619554 130638910 432778133 873303446 58397226 18506981 601166963 660324608 981803297 171017722 691504960 345824051 831858736 523768251 278227194 483160501 535963214 780942292 251001616 56250372 470288965 474702744 351449246 292695560 768426126 952635702 125115614 159572235 561623490 293895325 320221645 82853304 727756119 856373730 322583196 212474582 549735500 344965287 752583814 112052880 872218572 707050380 456655435 142806280 56443128 816028828 841438551 755705762 952880307 724764301 299752489 87864575 500229242 679864455 433391092 271773646 693408090 992757577 109726528 180550218 62022588 359591261 972814560 353975660 265619062 460892048 457604414 5356900 807902315 25739050 586016068 892671568 52974169 120890758 202238848 572232745 739851598 400645160 373399003 138725124 968813790 511933677 13546702 261601813 99958651 689785534 974960332 334126139 118289586 814893153 413619836 424005418 74083326 385595789 668269628 385853781 524590568 213881158 199084473 641041847 159270252 785778930 170271191 566776252 35740657 326810415 489793806 972302650 606302535 700386154 231057702 15568872 924199905 824334760 952377969 669791185 246907814 68006996 183065986 128134884 828921065 477619669 863915052 569181655 47491463 128209846 108335120 673316932 449966232 352844117 768234997 94752888 81528138 257745577 142501261 198434775 523115734 499732139 422773411 990898090 566314373 531971230 684480995 566522924 891353950 777665388 518532209 409589847 873330726 741813220 628665521 452311725 91861721 9063348 905812389 858835630 807305288 878464486 32097327 179382824 657291820 218877302 471492101 653350316 230140266 221860541 78215826 618794338 802266182 245382523 836797559 764330105 625942327 661959267 281532572 907606865 184833270 520866471 494614341 594837124 739810564 245011564 90679826 209868033 173893822 110745148 627847713 263974502 985614569 707006319 148846372 757239433 425842030 168732539 417051645 400825380 25349151 453128010 854683257 120818008 436273101 674691112 262765793 276347415 580189450 197715929 401222374 269559109 912707155 209725840 228419917 996445433 197968597 881722847 940276104 96892222 206084490 50230982 678739805 634324235 629071079 12443757 673557542 880994124 117738747 475062706 898840627 53113483 793181636 39418624 783823244 114187508 724350335 631144276 321746999 362958873 615994858 960166517 104291093 696464066 313447046 94041346 481834188 714122560 38208997 559420311 655306474 675030562 528127121 256415899 20900817 990395738 547465148 650782041 173495054 445293058 337947748 895144309 786235729 616890153 61999489 841686144 829092840 47143914 233982783 523589847 438866210 55136545 564570658 519060260 172007289 449559412 312965136 74124126 114073444 88506323 645131149 158169771 742180626 827322730 47402660 882821342 316 665407852 361613322 859613960 990878375 316791900 130341257 501035509 936039403 918524495 840846097 317367125 913694191 851003157 909030720 634789908 80210957 110003535 76797269 659541491 161908285 315948756 647992269 768114133 579628588 579877008 615984728 681303201 458726228 209664070 530568585 406598146 690154900 556958940 206131039 562906318 118325428 86778098 253693172 373475599 270970450 248295629 474604814 911884175 616029055 421237347 831273394 602582140 261357968 119936656 60608185 798278295 570834702 806827536 594853114 620752654 586181478 347475934 817186867 842025568 535086202 821834810 512286472 535104351 955252382 993834901 964356497 552898877 952227667 536660890 834748528 884250873 254815960 404733879 445260356 50617020 419074493 728183379 41858455 480289043 394582997 730740401 965222807 25864706 712561768 353672036 79201905 571901023 342093244 23100688 400342892 720140052 589140753 51394079 552657303 566196442 865858095 800427681 61280638 207307448 372359206 666451025 597767656 64081334 704641497 153721027 747974757 681177614 383887728 990786910 569586666 465964175 356416499 504028252 272761163 521789447 289951495 904588854 83149171 240550498 721876845 63200889 764021915 11490159 956089961 873948420 250915802 271199694 331601207 871706847 766814625 388584115 869405209 198868805 766612175 762569499 648046893 564474919 49026488 560253874 326218539 382087996 851098127 894463063 883585146 743000829 262351050 634272609 819122311 631852509 940986129 434304325 668361573 879887754 734239440 288020445 82052023 714199271 7916835 97308994 442196988 662687048 487917588 979878316 346291255 328218005 438633127 944608032 732799735 411160413 835452291 571799329 333510101 687633730 657151694 885382148 313336993 51561215 772303150 252416104 511269193 457147287 441583657 481449350 369002888 633424757 893620285 762404350 119399219 802612111 817141130 820217304 620034290 253704582 980303577 748233518 96749315 320685668 956945817 558243380 88594414 165341757 275067313 51898801 218548297 594189301 969548387 785265532 89967213 537825843 785175784 413878787 988937665 644187327 120027327 405936479 180542757 54614586 888328400 612350902 602788677 564592591 389092098 731067643 175904116 37271675 941235367 669015913 448526834 163516686 754451897 949765391 267201844 140745835 642961580 76267315 585938656 956755161 27858326 589914264 97735482 460613635 976223574 975017399 166762413 61787761 135960707 436996264 265852829 983828866 15401918 600940078 800994485 383715782 280225403 123801363 309902149 330966790 48730608 94638675 588072679 594782979 870460986 249020076 367920976 996069038 376260993 502658442 859695197 185056040 49963544 303302217 251553581 425034771 80332153 729941714 111901282 873460784 853807272 521863322 35072678 523985794 14121529 946885696 904630308 885132934 678851289 272451824 426510642 268111272 979298787 712121197 697517831 117839096 42447902 326930669 510692173 447562510 726842494 721996536 542358237 216690778 565470517 286399689 697341437 605498195 786103450 91925943 454087564 883928023 392243544 240009013 740458147 70916117 325735179 823039438 239991114 818923267 469799919 771315896 565112664 151085264 174125023 677312486 404446476 236027257 826408044 467915275 99923510 877752480 80909445 410750971 824706201 656968951 884035193 588372209 701355732 745087258 93278575 979384746 916608466 80596195 72150954 241796763 868534600 96126926 35217702 843889517 335701820 116613315 770734556 197628531 512709117 697019754 402190016 190744684 994125398 898133713 413326940 180013796 544713823 481374005 277511568 23117013 397485223 706164254 581315617 157479949 829563444 819644829 714369890 211622703 815597903 514733927 993293976 5562023 876162337 125384425 147393323 249539737 516044554 571018581 947673066 873070639 771459218 1539113 744194899 153668373 238070724 82653188 775481925 593847497 129292117 463034762 27220675 191900613 398759436 937372140 323839211 970168318 739961964 607496189 263082294 801259939 767040141 466634345 18658967 802233474 132350318 645994612 830127672 765154713 709343344 289624379 518699748 586474397 190946023 418321828 661154484 231226298 128863791 995824140 230647434 990744743 990397853 731870075 201306247 487105823 1866705 87968137 978839680 876666577 90944175 719736347 811253505 226694676 206826867 112379153 635394968 806525186 99084176 167828288 737962580 735864236 361864811 728114422 931701902 7310862 365631677 497735824 398508820 147100392 665084657 673542286 374786629 554426734 842466104 948190819 718904699 44442583 308603826 419740795 811141636 862669183 125705920 483484083 409666725 700815427 760111598 641421303 442473352 386304549 829208812 57972905 147155714 929584042 808414232 434473542 131943787 920106665 622905729 658825552 853697664 865378987 974556035 928322277 223596585 251478765 168367437 540993978 796819324 485406658 727980277 590389459 194679618 25774503 22924178 174811210 548012867 739840194 98087572 126764762 285544144 290964896 582461757 737726373 9915485 563887111 824014680 26907994 839783214 367841194 722240692 501520980 161336482 456414635 896032983 603540612 656364352 85518786 738864948 103253537 766947437 578395184 410689133 556676556 146594069 937573332 787733612 558085429 694332083 833027977 585956193 312470190 330693227 225580703 676104999 51103999 673296531 43497535 4546978 437575714 366025782 556867870 371855953 122825164 796340339 376454405 410350496 887902936 827691299 762200530 495398477 743165373 282245812 531631381 259193757 973114461 218921554 586601614 990344119 305878588 418718431 912644503 206393245 586070021 106453205 20438582 882550710 475224850 121627809 362650702 53579252 15921208 206434402 432944341 228161305 351160964 406050798 850182230 712881132 215741702 799096226 128898284 551067377 896151914 772681667 98049696 600100978 24905729 53205025 817106737 516696890 637005504 149414307 418541472 183920713 784446483 884240983 646276149 210427659 587079703 777926669 519513230 930618146 681430881 643343526 363913874 954028824 438562462 258156964 253628633 828407700 612194066 83005381 237456958 661454228 446633468 796760670 649115379 410320838 845411751 626977594 947283439 97920374 711227160 97117289 425952577 120032212 762272780 439206780 436481584 595113108 569173532 724348278 249436417 441500201 131397534 874527506 682609145 871891883 345656795 658789747 75293419 954218257 640126014 242541129 276213842 713813277 884189243 809396948 585762948 912060861 152052528 650636983 715805596 638115235 292907952 495157351 368093418 567477503 688777329 570548072 713884040 969765290 818321448 696081035 312426437 785034900 598554634 397296770 210468248 667531390 823022731 688445291 944939127 304009970 841305286 370769116 10802467 893442823 566501293 560266041 356529263 802718754 543824015 796665384 321504542 159150296 140220244 226221701 278057949 912784898 99696853 716117795 543154956 236929847 769385699 364031038 164346989 316208361 308902612 614175124 350167924 809537060 14409169 602401605 761194151 47071014 72757399 995177098 741776177 47176993 456561894 894308454 446009976 899546220 477090259 504902461 672938387 94064426 799535330 760685420 532789444 645362871 688307585 148138972 948369877 813854006 907551434 627328278 920247139 794245547 421106925 299723732 377610931 282811972 689585675 6027750 960381897 279392148 749947932 503234924 778883050 491246399 822236397 312230532 718340381 766724068 377288930 294946944 856051018 256796963 324779852 925156039 444165768 820567547 918545710 522293814 233390267 723554342 223140606 569467062 353249500 452691122 506059835 76656733 561134614 857586178 194005657 794399977 928805586 797376006 509003079 537515020 483335430 143166212 131302999 496603294 415931302 694750878 919857932 845865817 937042883 271776803 633347351 864306639 759824874 508538261 174001682 273176670 888417410 133853263 372055318 599737818 995247616 655237485 883727096 51291108 889112868 269907954 386480890 593982637 331785237 973653865 49428413 28333921 668958743 149925624 231911166 234562443 243350494 332600727 688205036 559079797 722364418 473472158 249303959 275635869 257412407 577277645 433632789 603047375 456101719 716333837 582013063 674543940 448070836 449723419 647319843 439187530 420996765 668580236 144063212 481964710 477382450 933073876 624974106 648648725 909146744 61961769 688354713 729503256 528926689 185908412 836320110 273163002 239446115 5692891 908386236 63168606 991158366 416361821 304922588 781693040 370107862 644415389 591449745 517809807 283615948 694809585 664381984 46332261 774306898 385147855 860451911 671525135 455672662 937105929 28104984 274224155 388080226 331557922 837056544 526207171 427103470 596098716 535291429 572928687 25027113 475400712 666306798 153939737 488787076 126147737 418958146 894461855 83116734 155541805 877677703 380664938 510567911 623503492 96600984 303410142 935458608 913466832 26386240 560755123 284364452 635822782 754760699 118367697 19808657 37768786 95051020 511377581 358345246 584647531 672994507 987660541 710353699 501029254 48226741 502545211 153234160 461271679 465742073 542122175 223436301 344324852 915220263 691318559 369537015 959357024 46927196 77552811 662470729 286646792 860868828 825858817 529407120 99432366 375926581 70826700 399745187 748437976 135676736 312277991 454614350 726354541 691655581 63338996 820807475 585509863 811233696 671510277 574571782 419490318 828683146 867452176 365261687 744797130 80625351 871797664 135932101 499128411 686296612 292825963 183584056 267804917 344793974 132358983 333067318 270450858 437971608 738906169 791418227 533422721 106974715 520240338 667589822 332707176 530033172 370562814 473998972 159444722 417832867 920858556 906195697 163079564 17492797 880226141 827301671 972794420 983605363 345711800 686712177 111609581 679688862 84521475 783895356 438702984 402289798 807397089 588612802 291336239 351247278 993913115 595875201 534820661 886899708 97667910 307889516 808503008 469459227 642769536 455761506 921079333 115507606 807557741 943869645 80314688 28693358 772211356 320045377 949242394 728747563 770831781 662080752 410969248 261654073 123159525 440024912 837012888 951155716 165303644 271278444 140117307 829666470 140628908 801233047 841503289 539519774 547719713 439435547 18447459 275231084 423887127 683139423 68420269 31407292 841109957 167855920 426580316 339624619 764779454 598365470 875199313 320086891 578376854 550872661 478608352 238352949 924166197 626641189 821818341 346646337 202095296 929406366 820710591 707261938 27066033 359026770 146991390 654186116 381256111 27146372 378317504 368396522 185297132 514027608 848599336 574498768 376542264 776695855 370984482 171153668 733001692 148002157 605865827 985429067 707508443 740840346 19946286 87142966 534246520 751541060 680304158 945687298 439551254 5224899 263126741 371103937 234251546 90835736 230245725 884683221 388948132 7123696 695413719 614087993 915000764 221925430 77285762 842223664 9210825 337206743 993598852 78731002 124992850 931079516 309316536 595587576 336603609 2594516 103523347 912888820 116707909 49567163 469242784 860799159 148246026 955574721 375262120 721782912 412753213 62074912 376133348 712916740 942581826 299503303 995276056 586596115 105925034 442690227 447874891 42402512 583586881 68760610 387443750 981185257 674349238 879576998 652809349 633038673 975929982 531941911 822719425 561421041 185188657 277990019 917693009 366983964 348163610 675592873 507182738 762964231 336172832 925679127 263781223 16610955 701234459 932063694 276446646 183758664 563043430 659947791 645818363 100312662 429148748 111251276 912236584 631922707 898546330 861397872 592647379 565143845 671615297 456250349 690786704 857501255 787724166 231073776 605454720 559521921 77244251 619275878 578744597 928758060 928000311 659074038 8207902 972335270 134468784 499498564 916572276 283686653 272896838 772381070 690441857 504291984 842296836 334786263 219798141 894221988 539338129 643552516 733986936 568754578 284481697 137933800 772167358 819969574 837878274 612234286 222821534 365234093 892378413 951506219 969440359 997052729 834322287 826338479 380784505 4895086 211850145 728152448 754086385 509224626 878432881 493527880 387920634 490434991 797204249 601990790 390992006 366957445 948685114 754926283 80949588 402336625 379065066 283128719 128721014 683927434 827098486 73736580 717419406 799801867 239411331 471804521 389349877 933183384 480360989 807449840 31345063 952216342 388585284 185753063 388086106 391513281 66607391 644390549 543187066 98258329 553953710 490823291 751901847 527723741 756553291 778631400 326008393 494725046 815985962 764043721 692808251 9667162 824176198 227277500 945087359 70722434 662150329 818462461 753659789 111343282 860751539 748388459 711233854 254787306 401010586 452154097 107902505 816792552 965168103 351719128 936242802 818661321 97819328 891333502 661997062 405068884 699323397 666585161 149875502 488039100 105226597 261716868 224874040 778453873 535561790 335465506 382890160 391163584 207566898 203783628 414653214 782184698 584297032 287921489 606774847 403674744 578271411 451118710 651389879 406462125 184261308 563588104 430785624 100891571 268441167 862430257 411020099 682218478 704349305 428475187 825757558 106050957 176600790 918224755 516365860 706785510 493325169 91870867 788326404 286491100 739914276 960782986 944008761 214979078 614419950 313517342 586925138 293232104 665052861 254944892 469474177 439195716 998709469 147655501 603707988 301505345 428169970 529981453 491282968 295960249 261871851 744466018 447850220 705125754 675508017 913179895 240290384 597711157 12986920 153695957 291513514 256698820 402745460 791741278 233167359 481156235 783935298 835902809 407359731 602866237 965746751 155152294 544945453 123698752 842911310 403593821 672504174 32169475 845307983 907364702 806725903 742286273 807019696 128268527 293386635 804291185 112731288 977560065 844939559 909236161 710027844 692601082 747360115 608822308 620008617 502223194 987524164 332404366 399624400 655194493 355012730 531485959 925304179 955399818 879015992 783227377 956098507 235051663 374809070 943621615 377086665 115050504 476372421 630668441 190966889 569169221 900379698 909650662 167461984 764178272 181489950 623541573 189606300 523631239 74262225 125165788 857142217 236358112 398992449 568863057 825583579 504455269 95538896 663237639 648864592 806653001 923742587 748944928 378545316 830530039 392767579 251591705 99372800 26020865 549714467 683789658 731762186 7929119 348590754 805951072 593732273 519543727 417254210 196061288 865159656 627692404 813745252 200812787 468389266 367618275 173201059 508276176 248490162 366182675 513960383 935880771 495980375 620608653 104180244 913473537 566673158 770274169 517159476 827822185 164850237 333977143 456622668 190702577 444973533 70366746 838574595 379250618 552634057 689721873 558703950 596909246 447717101 380624072 231948072 873298938 925344578 471116360 151174060 168371983 880899117 9799576 853978990 962036233 596354788 942120749 35658671 984566404 488787421 957943647 850513711 280679494 69787794 668314 614667006 813613592 554862046 209802108 181503616 846985833 447840994 296854108 341448388 416198573 243872006 994490371 921836897 121126007 10075862 480075155 641444165 196056629 778877327 115367129 348684323 733491059 805654203 948314439 261117050 991875967 35972493 708770005 866125924 402428092 462171028 663455057 586987202 156744460 769384728 872159347 71417604 923819039 130628400 733783305 837629156 362476278 241604882 460090799 518955512 317149709 241410087 635921665 181038041 318001896 17915406 174776821 481889069 260643103 711236244 51184309 213691101 721414721 170622525 240572348 331493365 526990648 809454573 152298664 849397554 759280806 933103579 48222841 497082517 342547103 865195182 649629328 644829952 575824417 27555835 93847042 399427644 320214774 172624633 599220655 819854890 558631469 282632325 398718 660984941 42666775 764335149 221706020 690683260 271116580 241098100 554039677 438356624 934152849 542429931 219822856 851931898 880635880 826322398 807996732 257583818 484771402 956025058 272264134 673837568 47914811 76599183 549814187 848588647 240974834 589909043 58394720 857616813 659412352 828559321 764913773 623587707 173284647 777282140 770442112 411170337 278718074 514044176 491213590 416732708 737685837 143207723 737355359 726118605 863496178 209827052 891811827 840873464 562336985 793684542 839527121 953091198 495770904 951289542 282811248 379937126 910513684 249464929 658199879 633753678 796456226 761430358 315600771 717228234 428563109 670485649 358118526 860360135 947831633 504338105 98725471 846543212 697667064 960801267 458935380 847941818 63866952 565438286 981553131 446568756 341926683
