49
156823829 -1126432693 -1085967716 -396690018 -1817905951 288111195 -889005103 -360792622 1847570325 1841189145 -1382072488 -653940418 -1566709073 1144715090 -378339502 -1213190906 -1859065982 -1213821165 -1811344869 -385425518 -1734728590 646549207 -902081198 579275282 -1775476449 -1250624131 -1669599440 -1402079411 1094551332 1704192909 -592561854 -1323624537 -869865823 1664609908 -727654025 1831295258 913975056 787110229 -386223609 -748373593 517960691 -1052726891 -943181622 -836348357 838530692 1100700281 -1311516877 348562780 -667609134
