58
629216478 -199274293 331207306 -1512238644 -1365835303 -387979447 -1101526530 991527180 -241711612 -447180705 1725646252 846929624 782153732 -1329987222 455144360 -690000779 -105918228 -204080126 1074671923 -1288899920 -892440441 -1683315463 -29999379 1570493678 -861859619 -1790012947 890873025 962507623 1924216443 1017602188 957056956 831545290 -1594774912 -480978094 -923333637 203930023 1774877892 477654259 -649097388 -575866209 -72129007 -13836530 -381300256 -1619644841 1939338575 295760180 -344171906 -1144012313 -687340134 399053877 579397771 -329616281 -1995367769 1125598582 -1204140021 -605053779 1215411711 1357213150
