91
1507696968 586062842 215056021 -770274837 -1038692143 -1267827745 -1344050689 -661678937 1714191959 329159647 -1946158696 -1916703006 -1631858921 -1411168040 -978527461 653749601 886364052 -781856239 443333304 1720564971 1507116205 1504819188 1377128114 -1037084039 1416410106 -331266556 -1480819991 -832079739 -1806833717 -1911964830 -342719730 -1715575140 -170996185 -1258013303 -1222876565 -123575350 412685965 339553396 1459970629 1056772469 -1565168184 84262364 -65341323 -882255491 1526839061 756055399 1384707913 1991143182 -1981387123 -1914150121 583794538 1438804636 989788431 707707356 -127949509 -1490749448 199762655 468578243 320502625 -186569290 -725191118 -47757836 -1142202096 -81412571 226944905 -1964465139 86797034 702796581 1966595010 -499161737 1559036517 -1648705161 -1397199774 -555594103 609314601 -966516080 -1789476891 1529364474 -715302618 -1965330335 -829160456 1752188583 1955030656 262265792 110144756 -1740188059 1893070456 1098388530 -1670485993 -1696433578 -1033976125
