84
1422872056 -1918598370 -797433069 1368181826 -214074299 -128612138 -642689763 -1843195872 -1083036501 -888341784 1803405238 -1574069530 685829737 -1479052299 1016966543 1557719620 -141446615 -797085258 -649222108 -681565039 -1649207029 -971860133 -360275545 1431935665 586429432 -1211673124 -1067475233 1227922340 -1344284793 -787068014 1659035572 1911502021 1386854325 674434951 670984658 1175110706 169706141 -447758097 906248563 -733156987 64766955 -1321115970 -576205431 941009613 -922949248 -1589971030 -287275245 -1456541908 -1776599330 -755901798 1472310059 734939919 -559009428 -1843963833 1759860962 -215311504 68556837 852560366 521809869 -1100866692 -86092995 880541048 565086042 314723086 1734849993 -1756703415 187557900 783024064 1041207170 -1130465859 -884129992 1205080588 -829962236 519204736 -883778874 -1275048073 1347612826 -261623935 1648031182 -84984833 -1987477221 1624267805 -1807698880 198674792
