83
1822252690 984868744 1269321060 -1177176857 1920608290 -1718425128 802846291 1906757321 -899987410 641846628 -462251454 -1192598878 -1844989649 -1012649482 32043889 -324445704 396793852 713786297 -1899495964 1933201900 899806077 1631708633 -1999083891 7410834 1381582797 837366338 -901026165 1654583644 -1627015063 -1562798831 611714975 -892432739 -1534586582 318218486 1031305761 -1859444287 9857694 1871382851 855484336 -294641059 -1690983471 -1584019476 -790072645 1651747964 469832763 1197516540 1992656460 -276610891 -1624317594 -1086159835 -647771262 -24072558 800555646 -108391977 870113912 1585801110 775605322 -1584489255 1738228859 -850883923 477550742 -271526356 1148465784 112215874 -1631777951 845456810 -745793929 159715673 -1691326424 -166822524 -648565479 -347931632 468779249 -1924363176 221746635 -144582533 -687415841 -422780885 -334331623 1064020894 -256752892 529202845 875278526
