100
824240719 -1321406948 498081700 1119092031 -1025385118 -1751186419 -185772554 1910364120 1035007908 1143836597 -1511983235 324753801 1885991923 -458608453 -1880659908 558252613 1625788830 92680482 1622661077 -779770480 1439641535 1045618477 -1077091863 845918838 73424032 163810960 903297961 -611594700 1798704516 1154619822 843656266 821290543 1354933813 -1257995706 840343997 1159360927 1160473077 -537764393 1473541521 -166629975 1247106436 690847663 -1248666278 -1006065280 59300108 34480490 203540676 -1677980779 332118643 80843094 1357427952 1265416419 892568736 -150993789 1930754704 -1315724491 -167402829 1842893738 -1468716327 1249408538 677491443 -802807196 1242157633 493782873 816857526 1099843813 -878104094 509982106 -585912470 -786409528 1056020305 -1617097650 -710587143 193040889 198084219 1366691690 -928810199 -671716304 1262371417 1650384070 -864669822 -717399038 235538141 1926222547 585115969 -737556545 472067885 -384037171 -1223192868 1352745416 -156987600 745048668 1371712086 -1824498554 -993351119 1603859537 562871698 1647195814 -5012183 471719036
