55
1424926034 -1328810312 1435943069 1586284265 1007524248 571744515 -1947417926 -961713812 -979433347 1559605209 1136117987 -819743523 190914416 1571309273 618332542 344660935 1692343338 -586216564 -1151418359 -410305133 -968050970 466220816 1617786178 -1795087070 -369325422 -235722119 125445979 -509994519 -1500640774 -1051410486 -709322497 -1658173642 794592785 -1790195131 1956446191 -1401649728 909500680 -1595014310 1076442995 1900300756 -867258821 -291505001 798223706 -1307672223 -513673354 -1581658913 1508477147 630746093 1743859438 -719882702 -481211109 1886986799 -1283749002 -912594852 1331580276
