54
151388032 1001827669 -94152811 -1000198655 -1283499420 -36190027 -20039425 -1772673956 -1570410909 -1286109396 -760523562 269054899 153914354 1142362097 245138741 1430239468 255635997 -581004733 -855385763 -1292323544 1811729544 -1041951790 -1021961751 -1603215544 533312377 -702248376 1018022952 1853858271 1492647348 1332044969 -502915249 9055145 925699548 775918955 -845136961 -1423136826 1914354396 90276256 -421827993 -1756524942 -400232587 -1404115382 -567731012 -973136381 210536839 85730513 1743150161 738925120 1962838227 1415216863 704237204 1316423332 158795808 -1694049997
