159
13045762 1466142066 1096511881 767177132 -1679582315 1646322790 1704842736 -792936710 840037634 292888135 1756610347 671286631 1873882507 -862019673 -1158024682 1413286770 -45793713 -1729280987 -446069714 -275110018 -1595771030 963571712 -188635968 1246698928 -173114813 488022708 -1585908900 1925882830 -203282447 -1580593401 -508571099 841582593 -1799440183 -1740224920 -1016552161 -329058528 -752749627 739356718 1537564303 1669447063 1836216432 -998078339 -1758240764 -334470588 -426476168 141459998 -1746545883 -383415760 1188792958 326431132 1733707753 249859066 89083253 335409440 -1280415136 260816740 -954441849 210626186 1041496115 1809196874 1390953283 1593199276 1595872862 -901842144 -1976919444 722916251 1016452118 1894141581 -1994007200 -776794817 -1348336754 -411831597 772710781 647411355 1850118643 1659208123 1183138308 -787791801 -930044910 406015014 702677591 -575987451 1549636155 1918138013 -1478379331 -1465638871 235745098 111120057 -854316433 -1863096774 1302871388 964073143 -1121995323 644836233 -1110833001 -488271027 709215654 1798788395 -1769264750 -1416242742 -1373285336 -492968810 -1132799020 648833723 -8306007 -413634306 408960019 -861448040 752455992 329043946 1744029436 -686569800 1017687561 -278122863 -851645429 1698844606 -1940833364 1524053387 -1380559827 -1403610635 -1633314412 -1712126634 -1567880766 1278078978 1420998978 -482255652 -1712250941 612913383 -1346071979 1201608553 1774265682 635566407 246035262 -716819914 485139028 818022556 -1696939059 1706215423 -1713799105 -1936829418 470841236 1549352906 1738368886 1710845935 -119126102 -214023652 -1157683813 716232800 1812969143 913183643 -894050713 1754861107 172556968 -1733085179 1214152451 97593038 1321323649 -518606310 -563581043
