182
1631117445 -1928607628 915875687 -924347490 500538273 -1993227228 373601255 660133147 -545254504 -290395242 1702254632 -489402648 -1254436183 -1804004876 -1934674671 1364137100 1314516759 965586800 642059205 -385389503 1524038187 287428218 -695897563 -665527155 145251694 -43110190 761387155 100592532 319053323 -1661112329 602665067 -1912755958 -492437020 -123234025 846345415 733892312 17525705 -495059128 -110524504 -249406714 1851993435 1376115775 135358874 -1346315252 942475996 -1377643213 -1823495467 409668231 -300600381 -217437380 -1231629815 -1389428913 286709583 583738705 452300805 -1927303727 164348930 -120779053 -262282412 911445799 -1250121017 -1228613170 1632344423 1714956713 1954857287 193694651 -693018089 1141594852 235630147 -1577740414 -504858610 131501584 -1385630593 -1204703278 720065382 1397124976 -1676464667 -1897879752 -1492948096 -1291890830 -1439775982 1470051029 -880090330 977664112 1327785804 892855711 -1579143615 138166800 -594385407 -363839404 -1374011835 1192176104 384427337 -1257078803 1644062326 -243233232 -1913644376 297987693 807170772 -1855817886 -326618737 481234422 1379155776 -1682566794 -1107752663 -227493510 -1407443698 1502717596 -1393195330 -1340874433 -1934632547 -1875006329 3945763 1844142073 262354337 410325452 1604135484 23737946 1837782216 220218556 294903064 -674213498 -143190564 -813998458 809196782 -778157356 -114132986 978466112 -1956210067 -690091331 1451555047 -1624622708 1698756053 1434789534 1513158941 -409875633 -540967353 417546199 -550405288 1965045961 1977545848 1551829117 891744963 -858147734 1249353510 -904306782 -527188143 -1766268759 1009098679 1087578419 1543368307 1237913742 1744346121 -1007927148 1366175066 92751533 922710513 1876409299 -1591260229 -1602608221 -1163417489 -1625091622 -1971867236 1269836851 -866664127 1005016090 -1777538194 773250478 -1060359688 -1555426568 1143396718 -1825676190 -1455436563 646531038 1063277334 -1189248662 -803758739 -959724730 -1613119503 1528105278 -1484428727 -1277044404
