196
629867947 916758679 -1029888909 676526562 -1550160755 1700078535 -1076229502 454519927 1436968404 1659345775 1670346012 853929086 1922769028 810416459 1153790724 -1549826417 -1866437802 -1973725013 1391724036 -1460243955 812603537 32997811 1904057271 -764386681 1390632536 726374575 -785809579 205062288 -286333138 -1575692245 1755218718 -14033505 697834289 1648480909 1473021713 740376987 1007429467 -1913854096 276233081 1389198230 1356614089 -1454881514 -94348076 -240961412 978747425 -1497447558 326157103 996025095 1964192306 1493873479 1809277360 430845287 1963947459 -1766938982 -1595832737 -157506234 -1958847535 -1635135161 -537586712 -939014134 -1941844517 671763916 826549824 34743202 -1079309252 408737943 -1800980141 -630492695 1821001096 406750895 1542838902 536268975 -479484475 999486916 -1337297627 214997961 401147243 1398289522 -929961314 198938393 392840676 966976369 312577998 -907582621 1012459281 -1712765209 1962664689 318898048 -290304185 -1101271954 -159346572 -1879973248 -1095524314 -682548890 1959740836 -1811452935 -1560016497 1564526705 -1469872360 330626382 -1877704592 -957746041 1674754759 -1401410107 -399827043 -550467708 1456941803 -1946429569 -1948966560 192665564 1204724150 -296789542 203169915 1825673746 318336502 -1283837742 -646810922 30020029 -75177319 -189163953 1977620859 148974958 -1778172256 -533935320 -1339887253 521773650 -1482795336 957623091 1076174573 136902183 -1856595702 1425692460 -1221716870 112714261 272767649 -1978858216 -1200721093 585009980 648921184 1417282179 1960652028 -1874779216 -1249291906 405957040 -508477604 -533970240 820284736 -1408832901 -1882721855 1945068083 -1898481191 872746121 -1490089295 1552127686 -606864683 1460834113 1194552848 1879724549 1966268649 -521325341 -1724260943 1314740236 -1114180241 -1957759311 814969470 -1352389969 1815132421 -407140579 -1694980042 807279581 1870736344 -516573558 -740596956 -80768072 -283040660 -301878092 -448483434 -377695519 -1956475853 1233387551 -1910040263 966510429 -608218430 1761143641 -345014054 1209358810 465673569 1138657185 -561370037 -1133100520 -1037809395 -565767034 982183672 1140617386 -1031865375 -1507831507
