104
1480720934 1481105712 589377086 284351368 1191780992 -1684803690 -1357000794 -323890391 -469281070 1904177849 552436487 1080787573 -1764578653 1535054479 465010730 501632908 -1913318014 -1072496083 -1041104057 1515527119 1002627267 1252043350 -94209513 -24755681 599203491 -1419275479 -926091183 -232623660 631981864 1194550484 9733626 -1870729349 -287481375 55569945 -156469406 514770805 662567929 991313831 -1036675541 -1235450090 -1836980898 -742228410 52806154 -1986438834 -692113998 -121552320 1625871642 -379430825 -999345214 -128134455 -1315736208 187376331 -1334989828 1762097751 -812915659 -1392546291 -1642017864 -196936990 -1907585975 1586551094 739154719 85225770 340427864 272584393 -35333449 -646931565 -1982619980 -1970697042 -19636189 492922634 746704462 -1860260713 -271212570 1853224656 884500587 -144410767 -1883858565 931385862 -913389985 -58699470 756867690 -1316766192 716611988 1260113078 -592717410 -1100098035 424572385 -46585142 1210081999 1145089261 -1664754066 -889721172 -1746187829 985805447 -815197842 -1499892042 -1277412949 1480615393 -660839280 892536619 1725973477 1606746965 725383590 -1265130275
