151
501285389 837433343 -992204488 -1085126045 -905821198 643788708 -1244071225 -958556240 1337652986 -210210633 -1881545093 -1226497106 374433298 -1445607185 -1503269777 373853980 833725068 193323389 392194549 -860229009 39932305 859393818 -1270487850 1778905941 1884282382 1444210032 1970350356 1680272650 1610534118 137890460 -1025482426 1397484483 1180579357 855971620 -730928017 1558645493 -1752070595 -606407245 -560519862 520761137 -863430527 -436079045 -71265659 -1582322776 -1984081115 976088512 -1742317805 -1973899257 1037994832 -298705850 -1769096745 -1240521444 -1105236576 895012977 276677821 556157279 -744703103 623748695 -590104905 1676366606 1013773158 -1811275187 632868866 1705264593 411775944 742622507 -1626891150 1778862888 -1925971373 -430570588 -144746292 898994780 -367100013 -938681115 1519514976 1079066335 789549288 -1489997304 -199791786 23471239 -724317720 -529943019 -315658454 -1896118434 1964122810 -1093497954 1384747328 -1231351898 1662757373 -1548052646 572587590 1905492575 -1487633746 -735200773 1735182230 1111862726 -905581798 1175472356 -565258376 1835748519 -229373481 559178410 1249505561 1553057244 -13410397 112155820 -1634443528 -572556496 -874193747 -706473800 972471793 1319986225 742352866 1081346632 578571575 1365776775 -165237105 -108441604 1404726920 1543090901 -1978454 -1823962697 -549005216 220911298 -952810149 -1385611491 326837239 -1077290083 -252290467 283518400 -88103141 738046266 -930435328 384877546 1265525722 1356051784 -168021619 1030866261 -1180570355 78046202 1914856853 -1168029217 1396997307 776578043 -1968621565 -1838382224 -912328830 -1310492885 1384329889 1803992765 1090921717
