185
1820005185 3261596 -1080874893 796374627 813199635 1391262683 206430207 1518025497 -1524901167 -38769865 -1254346387 1611910607 1600759399 -754511719 -379667882 -521576185 -1928630536 -1595824473 -570571474 -1492941290 488408303 757787046 430560753 889214757 -1446124216 -1489534366 -422745062 -1365035721 -185747898 1898716592 590599442 -1415032683 -1473076489 -1070921066 401262626 1595412561 -1235530185 -1111203393 -428177488 -1210170587 886261952 -1863658917 -398300773 578718200 688646691 -338448046 156717555 347267435 1323376479 1996536242 1876111363 -1682655462 -1112283687 644322853 85852066 -222703165 -1683335159 1983428297 986389859 240103872 1641027219 -523746850 -97262027 234931781 489202370 -1599157191 -1048175464 731914682 -1491572534 -1058513593 -932491213 -1589212485 1359700213 -521828339 376940732 109036613 -786607912 -1060710806 943834437 -1542929242 893295103 -1648391586 -157546324 -1319393046 524473194 433848824 -1038022869 -1594626623 719671716 -216403126 -585125518 36112773 498901407 -1830046408 1424031834 -1841277776 -612204664 -295703108 567168958 1682961480 -1376326737 -1833217485 -159532196 -1040395554 -1981595035 640962942 1558931795 687378305 1704291484 993839507 -473226715 774846271 -347854992 -1835282381 -1361344418 -1260308447 1610212891 -1251253566 -615822669 -730246162 1704443243 -1872248564 10967634 1479513015 -820281505 578455683 -1747378864 1034210724 -1580027187 -1495028958 -635236381 -1345261144 -720087208 1764730879 929463890 1488092403 -1649777545 1805790209 1269802069 -1624947818 1427466627 1543642468 -1274245739 571966742 926850364 -409390196 -1840421046 -420961330 1392916945 -1005725925 -1555866088 -664350723 -1411112696 -1138785754 -1024848264 -1022037601 -1776457844 -13266265 1455512387 -574661158 -1513230832 -151475722 -615295822 614491143 -1605615088 95849263 1801330597 -861126839 -451287178 -285167029 -1497881593 -1305291988 -60054091 1248020233 2699853 412560607 -1736891910 -1524603485 -110418239 -1647342867 605711645 -1489143183 230116305 -1996575263 519616767
