193
486810846 1674187808 728296989 -1421262629 375433372 -422821954 1065217437 -2803033 224248563 896069913 -586471727 -969233525 999821045 1895146157 -1915177937 1457683894 1671992223 -1727086029 -919904243 -1606019515 983043448 946296158 396974903 -1249274448 -585621518 570178445 1989173457 -458396201 -477073583 981754155 1055394547 -841235106 1757108856 529533349 432456149 1929830936 -790798795 796989633 174951687 1011674889 -280214824 -1754876740 -1224740524 1501915137 -1550062003 1128331180 -1863492483 -1438329616 1962250400 1467202545 1303382172 -1969164146 -906719541 1630471164 1757385296 1612844529 1482717236 -1523800765 367405314 -740098363 -1396916657 -1641336313 -822198574 1864646784 -165846345 1863354775 -739057796 -303496514 213991489 -703618693 1990040495 -313001773 -285575892 1115487489 1373398483 -775412142 799434750 -1873738377 -136626628 1632710490 1054627000 -1002075533 -457633876 1161899741 -809086381 -1991896112 -1560090424 848977026 884299433 -639606686 1179312895 1019565052 -1951207407 -1385675692 338872227 764579461 547716962 -107489721 1621577691 1990976703 655035611 -1590352517 -1231942865 1464896017 115656653 1233947260 261789642 -631307491 -1671771750 1835911609 -1253275849 345349103 -54045709 -184511895 -945878315 1123204564 1469127631 816549672 327943313 -955541545 -1891478120 1435831578 846057328 1506971941 1227708449 243020510 72467413 1542382502 1652692977 -1997871702 115225460 -836887356 -710349134 41958792 1035404370 -262899555 -1890907850 1564661869 474733109 491901035 -328817920 565786185 -986939831 299131067 706381434 -440222296 -1466445158 277625177 1886278117 -359929853 -1341710069 1062954303 1225981540 1111963274 -694599458 -765804258 -1893137597 -1823614154 -705837444 -1733419319 839261813 1073183082 1389197819 177822028 -401477184 -790368968 1827203663 -331262443 65806421 -1142351745 -500982779 8108362 -824417788 154211312 710362603 -1365934076 87609861 -373672443 167060453 -1127833587 -140978460 -1462457151 -721370485 1318905858 -1223970408 -1037648230 -250844596 -1163344786 -182787538 -1178945380 -156940665 -206534855 1572625930
