141
1637034168 330417471 143970135 -54585958 1611984789 1121098329 -1223986909 1323117172 927306213 -1890459600 -1186149921 -1207667374 616354873 -659724186 -1807438656 -924601083 797338627 1233956486 -344594027 -65068653 206896413 -1174539852 1780651357 1152428740 -1043038156 1618659744 -283891208 -1885597708 -885031504 -165991079 -1215242603 -292900750 -923329165 632501481 1652470685 842271960 1181554277 1315308413 -50852600 421125253 -630167007 750089757 -324809497 832565886 -1783071640 1325338319 -1851982713 363401035 -1274426982 1067386677 383479641 1256313201 -227452651 644172103 -1958309341 349354886 -1226898340 919898237 1179787808 1369075201 -1897828130 -331664403 -1984655218 1594666227 701566123 1414335902 1264146170 1571102501 729789949 -1413659265 -1624628252 -851115924 1179166783 -613558051 1001406985 -832424944 -1221313348 466361773 1822844077 1277507712 447654213 -1381357074 -1907915961 -1177338905 1837468479 -597535986 -256293528 -1825829370 1891765009 -1919428497 1998757890 -1650305026 -127754650 198189201 -542733725 584503992 -501472325 -1196052682 475124282 -825409447 118637914 822237457 1456462427 290181413 1305017368 510737688 -1857609500 -511982676 794982620 -1946829526 505490370 518283611 -935528575 17562488 -541826665 -298887354 -184002564 -936409779 -1629860996 685757246 -141985438 1824483291 143811763 -1034933141 -1160572749 410610252 1879843798 -185866990 -28261143 -1608993781 1941982141 687318039 -1851870666 309893095 948596096 -934805789 1267294250 -1550559124 -1348175645 -1763511573 -1823688351
