156
674351408 -999680078 -137050539 -1183576574 844438973 316984233 53999310 1641286150 1493938000 1249272245 -1936748887 -616911567 -755209696 -1354121298 1101368484 -198728508 613867285 -1601201658 1311917509 406141812 926245759 744171623 763281686 1920754346 1596787891 68390745 640194660 978943308 -175755191 -258396841 -502302440 -1567950467 529006438 -780115100 526730971 968845263 967700848 1366675407 -463518040 -1273959973 834404001 -1817597364 -991017707 -385463233 1793454515 -454532207 1694665982 301821156 1714103018 -280714543 -1370436832 -1367171265 -1745595412 743045155 814630956 1554095687 -984124119 372536502 -1175368116 -1354241084 945612504 1444354468 933460064 1774599421 537046195 -682381249 -780450881 -856105426 1447776550 -559003925 -1278843371 956579578 950044937 614816249 -1549661408 -1370897647 1261352182 58857187 1915821336 212081282 101938282 -803957883 -582229530 1656912232 1910920528 -1341735019 440340015 -1767715777 -501423414 -1755442697 -1387995626 21780178 -1667235033 89238454 1229903338 655295272 1157248875 -476747260 440157390 1256950471 -1821861554 623034574 -1624745167 1562822308 1414898367 -992587971 1458860991 -1104502402 195885794 -1552564008 1655598234 -448450621 987533900 -952792499 -1960536494 -160926026 1124696735 -73222217 1560273667 -610947976 1444904020 -160164866 -487659223 1687143100 459229520 -531093927 -1287189096 -938609401 -1199542680 -571531613 1416821706 -1140216454 1168392884 -1386415584 1945072182 -1522989559 -190099723 463435053 -1173381261 -548986492 -1816242969 897598877 1965871208 -829579422 284280157 -1800668803 1028533696 -1671655293 -1431589282 -739251646 952968053 1590600037 1768130120 1982875735 522582253 -1319082525
