63
502480477 262284876 463881701 63263731 393747255 344282728 244795218 752656114 661899293 948416384 536882393 364417399 184230115 764486218 755489503 439179746 724617897 74092564 891978296 603062806 261762041 557831656 26265821 377700346 752657086 851622646 660977891 254579516 204329410 289315488 214067183 162495085 409236433 160564141 595627145 246071474 48479796 673982653 390094894 56842168 596595377 262935460 765446647 670249703 309974209 331137617 440249265 186746300 313396382 300950775 669741833 291903917 993416179 811631186 755311886 110155923 852809354 807680916 511661573 601331527 809034714 830912384 315905279
