60
121599882 799437366 565701232 379103494 742164886 274681731 862434766 899716923 394062179 912193930 142765173 922205569 906033911 273843056 442578442 520236612 486407552 909475842 913703984 904310817 494105198 691494547 22692721 135319992 674937121 75088157 780334033 313242381 513467939 671270052 91920459 98375508 635325756 787483062 427077874 886496791 914252950 592581655 547856220 376360608 699413912 392092706 718214114 150047290 13596317 861717217 95754135 802378398 289625325 150872309 123029334 737460892 936950372 806232523 776757671 914111335 819611054 592649111 57721644 692901775
