78
71732218 956688417 664435363 823224032 974616444 266142147 797453005 573662748 230269257 921003247 695357153 197795680 128092753 549624240 399640058 32390968 2740319 170379996 99887404 321357991 179460546 413921603 962335614 231511231 183919649 572125974 603231916 31848454 634759364 415534377 452166003 212886244 547164902 571631363 267291882 788431513 674361665 64296539 954724967 840807666 366368751 957485849 975147844 322085665 734146015 340322484 734921563 661070546 274690590 266063932 712758586 967795021 187621072 778926119 113319002 347535197 928668882 250317567 496322294 65103078 829596310 396784066 272109424 862447365 693105762 667552498 447510405 649861269 527742011 410903320 347327787 420387707 299282409 777632973 642447062 429605732 547182579 259411254
