78
806097869 567539529 650850766 366620604 942069501 40829429 796656526 721565411 684256264 131658692 971827530 278320537 415895411 426489877 630288733 323955326 776150048 131484467 434582827 299510570 581139909 245144943 53244486 499562504 487693675 701799150 999054747 532472545 848826606 573401386 112199312 393732798 790656369 108823881 530424646 180101651 661399346 202693435 657298099 482703793 935086142 253197796 37128565 969005644 522443865 10112647 454698434 948934048 607780278 335184863 635791490 731301528 783002635 33617558 363101564 537293934 761634277 395275396 896308267 881701268 966885436 773724615 65581592 625194878 135285926 287873954 899597509 185842465 354735345 784107562 628894151 164363034 971933544 495879843 755595776 444887288 609861644 551185590
