70
157340481 442122465 418239496 518038506 380859097 101093935 942432212 377565071 508103647 211748571 507496148 281449980 506027457 916476957 841675847 699580479 232326132 39123664 185933195 666899871 241339514 23348896 140736391 108968171 648439208 602510313 425020409 96426719 290616753 336212576 770064670 75667796 344892953 897981325 232870116 490749616 966954114 845823978 573305076 223171930 71233022 791340097 42963290 314572215 415432960 934069252 664046124 197534209 61424294 694777744 787951985 937060399 445773549 301913478 401287676 725124464 685628517 915634446 951866681 72666391 235732593 44160604 247197312 640144066 735705853 131303993 662793821 560778369 499118928 758299763
