5423
801683181 603828380 935547025 807778162 599679638 235694971 502149835 522786649 66965195 188127075 115450758 160987849 45944652 296339993 235965157 734039185 963821388 673685846 352931103 182488261 589635568 114879674 720699188 754978365 416976369 432427331 767894034 278650967 827305776 780936205 403128054 603965136 214718425 398312652 692170685 125948114 766196187 235691998 55043904 852703946 389995605 793011227 544486873 512287832 456802056 321720770 665279514 476236943 163661542 8399304 786453884 190171302 108731887 814703381 583618921 959582775 545454920 367649178 354494989 259891203 654732502 92569306 784409500 249217357 685537311 104365400 216636828 536653927 488636590 723414889 660815454 462758879 36041533 99217071 965815057 162499192 583421100 144327612 332938008 157722616 419680777 934413641 684940327 825450825 902002989 147299492 335079105 546576939 874755495 531065348 928062870 35840448 651406281 338775245 880448503 624739836 83049305 429919682 183991842 912870178 505463712 220534482 316808964 892966630 333871218 910301764 81912001 338917244 963485441 12248987 879179169 585483469 459825963 506293397 809201863 215303418 664605747 424531003 790480667 822898791 476067916 914879289 759113644 134468605 274675298 168023700 552689733 775976085 606777106 909155923 861777675 68236106 286578124 878207284 497963472 578662281 829913131 906802268 967239579 439600904 3176331 951444622 49211684 690994357 359990220 277031685 370935305 811814753 791663983 844820079 509375261 385237511 420473128 369752007 777745511 466854506 594842044 934349560 399964169 275039634 93409108 77632929 901001460 256802198 450066789 136690057 796817500 840509462 420755458 711478515 251768948 216094749 868385475 182830749 406972364 40540709 19862080 961749006 240359705 587563637 608741938 24964713 883547689 460529545 535666746 119916930 88801214 920890264 141512308 548041381 349564843 814647473 72793127 678939436 466555164 983426718 469470504 745220148 197136257 476953231 759600686 759171538 279548395 105669689 155266082 982967701 139725215 608497186 597883350 648185877 244575061 125675885 145621811 723521590 299511624 319024334 333854721 350602006 674159235 390121605 999174681 526550762 196147592 181141574 870033964 558217626 940948135 773562769 842419232 724119045 181756193 217043583 855950986 413540079 328268487 463947444 773077369 397564236 688333363 953210505 806502336 514008372 70273294 432545651 121902687 686744741 531705978 514381057 64842290 541543236 908036734 361264539 748682466 210825079 541054685 270026097 558718503 188163353 142890673 740112295 678655657 242708554 323924852 634374964 931687356 149317409 101730991 281539687 462591836 58764325 579224071 153806565 50525734 769807564 620990844 756824231 689685175 384251779 780470834 858825877 996225707 116507513 224245718 634568750 929312060 86208509 313292040 77200207 502437142 434216110 491004306 241299515 255856758 461062899 147701663 915130118 683132209 785203013 53367713 462496944 387236774 287804932 985322265 525499989 538592251 821983236 135161576 512976915 362425722 566745021 236419315 605933227 967771616 937866182 982762853 841370367 945330890 788870992 229114537 263595181 522882932 308501367 733259473 922034115 279925359 924975289 213388615 830368693 869325615 669893852 605486978 208118808 865694659 404597129 417110245 309553458 362080653 931416089 671791293 584709153 356534397 907357201 898928785 549679060 769368261 450165781 726655063 358202610 216918106 187157969 352612068 282367103 392835595 209393650 857075023 762809081 99530145 83754794 964869846 830411800 587476899 785531616 460500154 49501505 164778826 450152320 423787864 718561850 771079066 9917470 356773453 764452688 332665885 820588966 642556429 220766443 376529587 765431249 235695179 924855932 759273963 903450251 509606846 919321891 753068609 936956564 31546016 173463850 38651072 566911682 502241274 696309638 244083700 616349094 720538306 142023381 371965958 781885934 272975132 243273911 439579784 441335387 604235134 641021073 981931 83761365 735128069 288095219 504330440 832544444 274783563 528313777 540133652 327769240 582364818 438834088 936727369 629719227 684479894 581920888 257375259 909098485 811259467 370499661 910470728 622661928 850820134 668021619 179315862 39154579 93571005 64764120 244783789 987490385 367491978 416083687 361582923 579266897 629443234 874528931 415632107 133048624 659528286 613203557 349673112 630470502 895264379 572245656 983965427 573608793 574188496 747200768 523048491 6984558 830079739 758472768 845986559 653473220 860868013 308857316 837813296 240238543 846513645 942625747 188355956 295289764 280365801 425768750 547934637 700704870 702101798 340942188 549121456 578820347 667982143 975429549 167871187 72459850 127695557 127486229 358195147 987683767 500546832 128333936 101474404 433227449 851616175 279052767 983423935 771284708 13018573 414269864 347907896 961627674 964106744 460859960 144374241 980067511 741235855 338185510 512012751 878741754 159930235 349659853 829497842 869565713 917689947 817522107 542060091 135228093 966891379 605263366 866678424 831215300 324949873 896173825 375141529 780030330 293184058 423048484 148733667 516954819 955574965 353356158 825303851 458322988 187361586 849811441 303070603 636397109 586905121 48470452 415793036 7726384 325086866 724860616 157811612 11146314 110916924 776634497 928531041 992310543 500471197 411473758 261679368 532479448 341444716 450449982 768650169 616233192 427969777 786937923 500289246 426003263 122928043 929210007 802909728 770562628 126532015 328065072 790307124 686917311 979008939 390699244 271545258 191519925 89684928 498219220 168437856 230068314 279560825 379423605 710464217 492384746 217256644 557589892 132426527 154964317 212912524 89043675 497886624 581464855 613518401 32997026 876244646 848650285 912119242 863897682 933211301 909948469 319297513 683541171 952529572 655192765 317519834 581898177 537599173 77801479 601977180 303880323 489783384 387239665 45061585 319259507 128589821 269112357 17018313 631312066 827527358 131759195 469805146 999580489 587240130 456719692 279925305 170201 875570553 2369937 438610530 766896881 61439255 646184129 462922274 696684799 996907983 725043007 694794521 936490117 826611197 218073324 619111580 824609266 685977632 374570034 25492466 577167184 695103488 681949935 753522114 857660012 80114545 51387639 222738017 490054864 558338993 97542319 93924542 179230602 915619624 853782120 391974280 659531499 833489924 882569224 379200522 899934916 973601168 309166449 165339986 657882896 812287645 891673321 595918177 624620519 116210689 642243038 72963436 256838506 671914975 65953785 173832938 917401345 424072398 357446744 673990690 284981359 903345955 219832620 923748715 620828551 872767699 691783904 4713214 430443255 739640987 566055730 914354222 713503398 832495969 99280002 101824595 787185436 368132592 208577052 820225067 197354456 208160996 789467391 480255270 209508096 397075230 480886564 343866739 675275808 883930221 634816478 551291031 300256567 947685761 385894144 38641958 689494867 737698932 460569355 518312951 763991434 762074545 941696978 449559315 346007747 737227962 148128603 551580922 894606182 281820672 38435010 93617415 305131096 71142117 904224488 874165891 468586332 272898475 50264325 989828663 30820535 646921909 470950431 852368348 608413290 602018794 312390918 645076341 95768471 406638353 713754144 437835700 946747919 461175376 792344537 378449571 717375144 143509248 959950741 678524161 783405516 394216723 595817288 5957713 174246969 204389104 829550894 10420071 743118764 497387091 950498126 859841651 726529942 6406400 606312611 927340872 714577965 950146983 541565670 320469144 902348363 13412145 854072534 231876836 728451554 859343537 253701148 552741834 370243880 613125752 83866564 464712688 201697146 364013544 996137552 113745937 23189864 349804913 483208998 144800771 129538338 366986824 128847995 163209437 239133725 627853498 704449261 43471561 218562660 363352654 57014982 351356347 250625958 168376597 452045267 749715695 784967206 544758738 505101372 38564817 930600764 637539036 716445285 171919985 626283739 394644565 507633497 417767417 409361268 90203817 436206325 296099460 184697043 877662852 854366579 351656986 938297983 94161478 126358352 745788059 144924534 272216081 83145613 286164646 96797429 418194963 686556307 599657384 273651612 964333181 63942653 825131929 788325320 629106576 527927840 699041037 680221974 500075472 553375100 950707196 105094972 975999980 680106463 798065850 651201283 545424365 219209974 646642049 479635653 891245745 96513074 853779635 485454440 111977511 228955834 259792733 271747106 248639770 142856368 535140219 964665056 703003690 246661784 580251682 617881489 884607586 223473677 570251150 207180853 407037403 395564378 53091213 75541622 261722333 306373577 466330375 175025376 60352533 359836440 453610954 752689184 342866949 149101343 397756542 584927223 531113683 560475775 669448218 559471435 406345081 135430385 372073845 146273518 662890900 896628014 892881099 348975470 504055673 971756599 902368698 85133899 793561573 476949850 715938029 897804300 562997545 832903218 194152190 768840692 754934087 719173870 120009290 570155775 731911463 159740284 456950921 655276128 515961998 141830455 766564205 248825555 568725788 199336694 235207338 448920676 80916567 130611279 486388156 768184956 390809244 890292021 915024836 357504771 486894054 392591282 777679793 75929602 672124540 423257379 574320323 544893384 843468687 864795792 259816514 240132764 291805861 451421292 582626064 50411594 576732446 707672831 257564588 573390904 391509997 543040950 790234773 299014919 831891483 633196973 322336653 878833665 319313263 159137567 298119191 194648858 365967738 114469030 322827033 520934564 629366928 804909674 319889241 900811639 276661677 115987028 461257905 823841609 315380052 667464517 464901210 487776015 812581083 899022835 303467854 592827994 890042759 217272411 435308385 398392674 857173449 6726860 444296766 762210046 76401462 508021742 768799720 769577313 728666110 71644884 720882900 82818052 294398820 205893331 993234163 657446863 755594548 462515882 1303966 138448920 501372340 398058542 909712684 144099966 135184751 801184989 348775482 471952676 697321458 581192012 546491783 538073628 864420691 127836926 897816655 990989172 3461611 632613220 217344325 390321416 828015825 785568872 151568991 879324276 927008610 658273018 435227631 552754450 613844856 439912763 829369963 464097138 302540470 297292637 447419594 695302363 111786441 768812279 538424872 565182653 678262301 446006992 294645166 493912179 604016901 594294556 112284670 665656094 931228208 565536907 596680420 151074638 704111457 321767223 855607240 308620462 262639945 756802127 490406579 315498146 200514957 170144544 930193393 873575216 803227897 688278096 810246723 136830908 180599380 604133997 11451327 771972907 440509446 104256334 961108633 532425136 765235899 439464163 386571994 946083442 87646291 492159542 173659598 235292594 557646767 90213846 175271064 589288766 261676810 19887676 780739551 674271042 147217315 702175355 308095783 660087508 948597847 180868116 403726852 905427039 449009863 320012029 686536376 888322222 244666543 262575835 112331950 653710184 392727468 688076594 827572888 943918560 173830251 104336542 950581477 230852933 804483722 816160095 450794176 615547667 512845030 654660661 128391581 201795513 70057810 23616450 465789506 137098425 95284119 191990383 705934874 986239848 768843593 117769104 855397414 984470089 862792125 54488010 112113942 713378675 249210364 168292473 882861044 333786926 964185467 204177295 393417648 924853983 924062002 544437392 640659952 826962542 232248697 460914709 72405081 841984322 685091848 765136014 569763982 494574901 433594187 81814481 988797008 684161281 617996377 217166700 173624682 750117147 176750878 663402333 381186848 934129403 255408691 421410434 815949573 805235968 82734897 777302091 869785332 855896370 70736610 359706627 646189910 485104412 588897955 35818726 953272657 884731850 91369478 922275656 127454420 464496241 785728568 476486414 896395906 49609561 133664110 613078000 746159101 333263631 303838511 420670896 642613171 447267835 5906942 506074533 518944493 670952360 125825648 219165209 950401397 175877618 126002622 148946521 675142378 675886675 519336957 165301334 491555595 18666433 372656398 137300931 838619587 829292645 15326160 810943653 706624083 803958857 871744714 338281004 415255377 937595145 837690499 724052201 925132805 377963185 214190587 339762419 841383199 136088191 304064344 226141618 874399220 470931298 893516070 518101505 404728916 799265030 120203354 257969936 501653951 650653967 662368050 356635258 369393735 657971876 863406541 812017502 265162666 443153887 439939840 718158026 323936485 292379364 213494852 525721233 348684817 223917233 81912893 766075040 131029467 363018790 820509826 106746455 111106331 703617297 760761989 412344280 866255330 365871833 147160548 708317078 515673476 453016746 189936114 464447447 401887553 55993724 464597673 486331946 333308600 951370000 252288227 988585302 119992656 724256016 55468872 400653258 827528382 442672883 854224535 680799719 288900394 665213065 168536999 572306664 118502298 642289344 264734892 823095272 271463740 47732303 311871815 340298153 31434449 707053587 913286190 510332436 333942218 157487726 53279228 511347710 559526122 782918416 284110837 799454602 996013088 697467980 713660416 587024040 89450672 979506947 94751676 870832631 883858842 723561860 728005139 52513743 873329741 503855854 908776352 131216039 628913304 409271497 239483198 748200469 634522817 834623436 596697818 736698334 907011479 844798388 31721837 329033062 213494472 673423380 600073586 166768328 880798409 917070964 312936643 206646765 154690633 360711351 156626522 487161605 78944514 627631373 888214608 958512460 485785385 230025950 358432558 313946699 460475668 335865587 565918919 682224324 771223787 724503323 156179851 797210860 153171388 868582106 97567259 355698760 168816627 151377110 657104868 982447024 763537659 78629058 271081615 838278891 812885033 746322483 767960043 387422286 25764582 788782985 29297340 730441181 219975018 784900102 253561205 674939427 887825200 323918685 590646573 750072252 826834509 649667347 987475190 874452586 745161012 964823010 421303773 325256261 349800677 789756092 740963766 381248518 349486639 178078184 539732062 775104760 353236485 140929324 276760365 511230854 59748318 603367896 651315685 512976365 126812542 787289020 442816320 606291750 156774525 800620906 170224794 937751722 767765327 315361759 905738550 301099296 262686479 274503536 510940836 448044232 435700891 983276099 500620942 23330931 129545268 381397513 744806748 112853620 728311874 632518674 340496000 600907383 783878937 116519469 461428723 512381412 825579096 285725593 399851491 710439658 539839249 975774145 181259198 874132738 74004625 597976211 414529788 841852671 125805242 690526979 441389160 892639235 331376093 851173730 97329377 10109689 193473859 455120545 182737289 121396337 654316543 189437959 929221415 6484847 136870555 153185516 993017938 743819672 223451198 432456526 632193461 535226744 206502761 252769033 319498032 362517538 583197668 763903937 601668667 604341656 212442411 565257392 522802991 47364269 173105599 705984813 256326968 308664877 110549875 905734686 108749050 191891997 979306290 703216803 104682256 82040708 176756153 94228196 894892878 454269922 891532069 633718812 446869739 850569710 993826643 316045583 441714041 277772005 550536624 853790656 596862583 743570496 533346484 994627858 418069011 837452086 33302368 813254974 654275936 682701861 622947032 189021204 123972378 346280736 678143727 501531914 710487382 711246832 255304375 706095951 851246630 419967881 285393869 261717658 642401330 941415728 633380934 582915816 986150655 710856672 179761141 892273363 289761479 364840165 328175815 586677075 337710048 736340571 513336922 401349585 165114381 153269638 434564317 551823680 780040862 947433456 737479957 75241936 270870324 713726271 508853184 267570020 627348036 649057948 163438957 246321152 35899632 515285663 838233769 886170157 136337685 834817366 333232674 148192683 933800748 185319943 92515391 274302589 157828515 555189257 105766817 168029347 78260702 380984835 940934588 218671631 173542929 848314612 112311762 375893785 270993128 452661903 2517304 399244300 454368032 936625447 669234564 932731623 903479570 416407471 865143410 738568845 713157389 546095058 319646468 100299918 259317161 460352299 367732896 588946460 737282511 417977684 168587526 331023982 770129051 644655667 647871978 585043106 124895237 213637906 533054813 752459886 878041412 63996352 323694801 38700396 92818245 347605086 543352276 698037659 57304565 18264634 279765131 303157807 754028218 912666248 602823371 751758351 385641440 821398063 16405687 668115477 133437528 869252503 301063517 943366959 845085157 616506383 744972323 856546143 360152326 859229262 493054537 863754195 887430514 494003542 520911644 932625138 780541619 608719501 365177895 468200969 112564224 159229658 404962608 925782206 397609458 781001665 435865679 485339762 34528407 490089227 621255867 306084740 909396234 800816446 79988045 968413328 57741328 459129085 5794012 356579810 896161664 447720262 249649107 164417618 38915044 800939388 475749132 730689134 490633591 886863320 10531425 315332541 633668419 534679773 776702282 739157821 210484243 172364229 636741653 815374272 332478868 255835497 275940787 558350353 360250786 592151592 279814835 17566385 292383498 115380267 979173315 92003560 551494988 651401095 664237653 854978402 984993574 309078557 769094502 507766501 980494276 455388849 587037266 481360100 582874793 182206744 644705103 887524197 271387878 118218158 393034601 387977275 580596470 310329742 4738586 110762175 197872254 895864610 518183808 648329625 917550545 852308324 978317528 311850680 355815528 242774062 551192034 493107087 906993408 859811773 297458275 565419141 538192664 835774691 324731763 865242065 379066166 483472748 824389543 992968544 653291804 977362171 297936178 730926790 581946801 901488749 682146563 34042435 765157039 768442089 814306890 471844086 235135754 855172991 707795983 713234657 473949190 867844332 330381259 277489685 860460178 2803202 949320402 158116517 637625071 593973494 626216254 513721928 266561902 677364375 624963712 263456265 135562317 150713242 671921812 348898238 809961167 188060257 451840732 471681102 911267297 240519604 823380990 800261491 251521237 775509416 668858653 471449502 465888640 69009706 638805709 502345936 482731289 711139306 50641336 170797551 488708329 321140614 618323976 909985011 826882168 92933334 457500639 204950637 400951367 618429502 789255994 221508895 75015921 927468501 607671734 607637228 380453238 742302187 209124626 987271696 304649607 997484884 710848316 12290563 332395746 834730950 765314481 553922586 742621262 260698807 272960592 599196080 730352003 86863 263310442 699543043 579131283 144673436 206393217 329787883 10242437 669283340 164218780 252307418 584329628 459160732 430401652 485535469 915993345 969289864 755697512 178524116 993131761 177054291 929642482 173805269 895305811 120500194 544222971 709244408 510984036 876296009 549440628 408917718 881562191 7512322 992396223 408421966 873139479 939596819 936525564 815958591 935481203 965412935 163323044 381922273 653817942 869946033 64133325 483697404 616828213 588974747 108913090 467005928 434363162 358301481 479665150 940663005 279334388 269229603 749047654 757259271 559429392 580436508 493658106 453464963 176169563 889680590 652422592 532585107 238604813 627583944 990585734 192499987 594585511 430326285 95940245 920641074 839339862 387637501 337885183 245648848 13778103 895246823 223472728 412247390 96132944 366215462 40101195 337408182 521117262 67246042 404551912 239409016 272000223 744946066 192875127 967843280 737785041 432679079 652233334 393549721 783440999 233296299 42625931 521942410 772229675 533136331 941974433 599801765 966280906 304406736 666889763 343024443 11269239 844863050 603600347 473274556 894065702 767153643 465070617 427540682 736421038 315392700 250388427 104609891 320419479 206282156 890656238 623005461 212854917 792662128 373588272 807318095 311580212 17058581 415996337 250471376 278021483 715057545 818891429 250078994 799292525 884685975 169259770 507497273 796212519 422128607 640385647 946017457 20801432 73822058 953082486 280040847 703949287 582999704 775795847 555055434 200071672 906801361 908871580 490052225 963649080 615779545 246534142 540036692 296249508 779563698 414078827 791478930 995290046 27647086 7317987 218899062 865208499 535753379 59961893 615820226 991956644 846536729 123214766 968061369 208292448 471376128 787430031 889366913 349039753 290815202 53125012 4971526 67883612 984247028 199109644 564256027 970518886 612697842 945863594 657774652 97711402 380355938 387935589 22693547 788225363 822940106 49911942 872175391 222871843 304433627 157238112 531031411 52580052 481438320 759780641 678386956 694427391 600782069 450530814 410141523 9550832 823365258 455542615 455043549 390090515 657505900 342412260 864005216 971978143 795356297 679874346 526024028 945248061 941258998 344382449 638471112 279745700 910085513 662605990 874875355 192391214 741002411 738922914 138472134 682030713 392658417 666385450 334825856 580152694 322629453 11184382 40779011 193815869 434683520 189016906 30331340 433225829 359248482 44290931 194978858 82075009 154072878 841426687 462062819 973628369 580413267 282350233 71147684 728143366 603333325 682336555 682725001 636967210 546794840 490972747 543230714 246969028 691736785 88946465 107518352 173919726 761780626 450471416 467662855 680158411 907860906 879591585 552246643 95743574 244746054 819096467 785035730 393646363 61233131 953167122 142905353 306092172 970014345 597497604 93151387 118390383 21324813 961909133 93731904 9385046 613790512 884722206 762365466 929723208 902619004 101412202 911520895 981829603 126737366 876751158 694863984 516111170 245752186 509363658 9131488 945315899 699405325 488750340 445668 998138963 255214616 393616506 666851610 181186917 502092806 636064891 783671747 384435765 99039652 481892345 312579086 210992116 820984661 216053386 915098041 681991311 936581716 879250969 346188654 198648576 351741326 880487930 255695808 232048715 508090272 247267194 157909162 115901203 942916933 492074506 364659209 781292833 838039902 269815182 728125367 588480906 464377374 306005815 83040138 668297361 278024468 914344503 973438226 401193988 514298646 593115999 994710920 327279177 411380146 351861787 923319715 271659486 872677349 116145645 432186701 681742690 828337261 834595812 625422735 310102199 770056840 654948571 104051969 528727275 653318358 219501238 230221769 441249307 532776007 890960000 224016850 955196816 829884653 23404775 190644043 728151068 991689240 973820253 385900277 365204565 331193468 888900769 877651643 985242781 924865447 13776306 348604317 878907775 280120327 408554753 620278802 984863835 469266941 690826444 317726771 974428958 690412863 241671205 414231427 214382908 22451966 668568974 197632916 364175865 9000516 16141446 320309855 798452767 401901141 131237406 358530186 184888395 833534612 231983519 133898705 686563360 793349718 444699966 508579845 580371673 18223697 289116457 389015098 641971446 50805608 949899795 415670151 396763437 619369951 589336522 545852462 492454128 780906892 282049032 81607506 105721635 435487906 479486245 383275790 853422061 756725795 453354538 5729722 868517318 217756753 108493223 392297755 341352145 893562301 157081037 622375253 517378855 906602185 696415652 606715235 663935064 337456881 328912985 572067070 99369243 842461281 476181311 330551395 378566169 575471190 427476194 579258320 710815585 981938250 420464351 361807392 144215208 985885388 464025750 586106909 800335221 952507387 549685098 151322403 122401989 364749154 108208123 304969741 473735104 732667021 884416210 382674706 827387571 501895512 807088564 962320214 967042249 984811892 420738979 995106916 638541940 233824925 101674831 858882157 665885175 767734868 546136846 963017644 454430294 426946292 112197341 694638944 926581115 218913175 697175207 640643999 73692820 216183006 497834847 112306283 138018507 78213078 325671063 18234023 201576041 451125778 138683653 849519179 810851301 140103288 199974532 813535232 173838500 800488506 539009752 326530420 161627929 486805185 130235968 827138375 191265364 76484613 726141223 5584649 675014553 535261399 274389490 741303599 449729107 403931497 701904748 44841270 437127928 752807917 601451538 157746271 177753618 401325144 781006549 374070826 840163182 692342594 92269688 28955894 346045735 807819624 564775728 384692037 121010399 254864432 785594172 126741104 334894083 443983921 305800751 690092410 13451055 576140928 768813429 450511176 364943888 154971893 721478189 740850926 573196843 993124866 16442576 864774780 345626127 401676667 662509389 476797509 51982219 757797627 203223403 420059037 220946877 554070104 133477461 421913578 332600139 328310150 30256820 865867969 367589579 341044073 566043696 577749373 546914561 295639837 491264266 284435703 416603735 284918957 230801970 43289606 868757368 105407586 494349005 459180099 32413445 120789263 271372340 646564807 796945493 624673632 95810923 726035372 788524442 59586999 843144377 198243351 394414860 981797355 932889149 86473948 341360000 373095043 88034260 332341781 279125974 886101266 361277616 839217071 481904022 207825259 856600818 536704994 279309188 53495508 813136232 416251230 404109422 706772675 280049474 168627470 829984454 534163516 532087287 897674865 636165720 115392287 159675570 403274527 876609443 217875330 326913711 96887451 28514711 463665693 321820684 584217789 219968656 606804472 342352489 460150100 403637252 178902737 615089455 771888681 654798536 33439011 640650649 119113203 619241574 136335965 36524002 877491112 138665823 380454932 736705706 779716249 387957164 104481213 771212414 395849123 978145489 270173156 568192803 925020039 205671031 704488292 90225785 59583089 885641777 372886492 254651928 762591534 715855099 890705409 678260861 651353287 225498922 216595386 929363140 425500845 129779277 18964336 342036328 576922913 127633869 268278497 425585616 211331521 573334896 753929659 380441984 402911229 756914487 908019333 115371578 866896135 449331052 79247982 673842896 315396934 623719071 251045960 183056189 376340974 192760822 536210134 87105673 759601816 275322811 216380563 957107988 702665894 569469755 808706928 845698709 265194682 746686903 213452915 370710993 666523572 937571881 556659165 711769956 626233981 370418346 369562013 705611409 475079721 40791409 118882167 352026169 657562908 365507748 867848477 829519928 19081206 177423990 722308264 620970806 154553924 291821202 165993680 713493052 991023554 73820663 161837124 919638089 611231985 982862124 786426118 299988344 404241225 661647077 367353168 655008292 238956170 234338626 232616667 220639289 788300694 159309971 934798558 410300442 925939261 516528995 603886500 755739444 297178796 487477901 337872493 863975354 228867215 699645514 570310094 514170552 544922508 626082298 12489499 717143263 692176408 127730730 822499498 472905351 164561456 438482674 138708339 604618020 816482414 707946844 942275315 159921925 929241573 138148668 806657164 70286112 904275014 565658317 303511363 517717960 57660436 449580484 828759425 978026184 358998127 714599629 358222972 440815686 188509242 114707658 706141247 472858447 109958564 601592438 314374502 845177369 100988499 400144040 518210925 888131125 285413485 176918094 36703328 879520546 151088022 487075174 359091546 227630583 73162952 195051265 74564521 405073144 49894103 911866018 225034653 701049668 69173317 914542370 331774170 6210850 776246260 455874657 906018192 26229415 486394937 233186762 684692395 293884085 356298290 981022173 611970820 599864412 945604134 794316404 209031856 954872217 277507953 623420227 903942944 239412793 161693434 11697814 856347499 277809957 7727135 413865676 704872912 474614433 564659068 570883806 628819376 318124964 590767206 748192617 740122655 551615663 792835331 830450288 143508666 637610733 434954548 196519541 241904514 869550420 922486281 698118628 715580334 594166892 369032648 419903365 880673103 432582266 821233729 834913078 813227391 394286609 85420049 18298646 43369831 870305623 663300240 679851552 177217934 367501369 446601609 375948350 148738008 927352894 14767693 705584462 662316111 49408014 385639556 915801837 902564424 615257422 214133014 979180895 307356971 452774584 185912360 786269013 858973763 287103939 4582839 711063042 297537695 79596566 15669800 152060572 721805630 161047585 723214106 179842445 551479870 779906258 225447680 615995910 355598324 920223356 888175758 706089013 302849006 207845354 789418658 197428339 27455188 615601928 123579624 855135520 820513829 72860240 460368511 848823472 989424539 232414833 207127340 660837851 77521654 890981227 930375861 360289449 899487376 862927551 612553584 747698202 347116349 968604768 803716644 845078865 155961267 56907092 469567667 165697113 203300293 944661171 374885851 359714325 57070431 499203817 444010385 5767085 14067937 613355852 600729422 925616382 408965505 537962682 621127910 138298644 387831382 990716543 626880551 211427692 598095032 784639360 202897104 927972434 403103966 146479262 526567459 612102813 892169649 466155384 337141749 264543424 761054801 425979202 235518212 145260147 327347787 483845056 852019013 109003350 810373632 567576976 873957943 594315256 332416670 149723133 559378917 949353688 308344507 769105728 496243872 765474545 479489401 663121626 233394334 772848698 744570322 553943714 817559673 307916683 924357439 138980978 341160176 109883865 511068267 378940470 119021607 570676577 580021292 426945258 51880670 396025028 315462893 856958702 132364492 92122465 457167108 998540153 116689859 993921744 813993361 742888871 929807821 791162858 406350732 456152668 460322981 630378709 788086516 165632342 420788606 825928869 633524338 760635399 3510549 579131198 401620597 550700870 22794308 117246453 91002978 281550505 393967106 459838131 221023009 550076032 16090334 152911834 184029008 209139415 473964697 443312957 312111048 533568259 419559299 814473255 597728865 568825247 107717324 219501003 95805241 233774140 880505351 650531212 625617782 435984035 159556797 755205923 220248774 310608519 919111558 365533007 411848739 443361613 963363390 464578308 38958952 542712017 594922702 717332238 747295559 815856966 293160621 316668438 414398898 848861047 594829636 630331585 889078194 38010756 215020593 51036058 844337569 966605622 590904335 559515681 619497380 762609145 232430563 782960996 875685492 863132688 411873240 358954528 258432607 566873191 984693988 788063412 799433950 89430884 113958435 397016511 364608707 286339801 514840983 981780611 635902410 352590321 294958709 450206630 265656993 519534985 790570210 736756569 381596723 925862684 757399496 218357926 270414983 386553600 854729973 511453225 293586161 810201289 858680006 791034541 325830212 466552951 440730446 285155660 163522076 197703704 91035374 664317299 133329829 522759977 705438948 283307917 928631791 819559973 338867799 983802582 687970378 73445857 621290002 523054608 529056365 205265655 127428385 982467814 454697078 583317519 587394587 400277240 914349634 285560383 758647506 742985850 181192699 703323219 595255114 536954087 355686616 926008225 506992695 783454408 347413958 283131863 69375876 868721919 384417385 912047116 686402806 901914662 872380259 247504610 13755883 703308193 481353429 807796921 642794693 737091699 248503794 498552842 245254928 477645414 328461511 328195017 223692800 74260260 512502187 677979306 256957666 954953875 106791578 499053216 874226212 939703351 606974047 898968016 810630236 149062810 284432739 684236562 746358651 858181253 832137422 790616366 578971405 29617472 244922160 216972972 533772806 476164868 848961647 489582469 346342268 515519175 118624497 876694433 345458799 521565182 745399488 377139427 707544284 67577118 97426430 274162941 928125947 924902268 536500603 744909447 664873691 224952489 78242902 25558752 327134559 161945688 24678275 178122999 397473572 976741193 512171323 486778326 167871665 8519371 416456034 357355419 726091141 300975106 260537001 874025559 535755789 865296564 533831989 702671217 951665858 823813438 224684739 846656176 810102697 453643744 850666510 206438473 842905042 43192422 126078831 464061486 147003144 754573903 940774429 346898923 752156823 929403301 609931891 445075332 572049186 494040970 15397556 24484805 987597487 230650670 871058132 756265136 142603276 920277126 955429177 753838211 314905559 630776436 665918338 861142321 249225167 138555132 751345357 12783330 117681244 257134390 668630614 828029176 955114311 214918921 846760840 717323278 936655658 74996240 581594185 396709037 701209208 199942801 949465778 456492952 31612698 920484985 711675688 667071787 290651847 114105016 19039670 623658580 891881884 841462706 486456657 300482224 383694159 311068536 50453751 103735172 276556583 403356739 844344381 780507972 93960924 294007496 89896427 48294429 419984871 817171115 197634016 504816217 214014563 372234664 900878372 794428037 630084610 219359975 190040925 888991409 959543714 909907242 260958814 525603454 900677394 707713326 293787667 649375323 533416006 385602644 658950706 492183973 902728797 323916171 533064164 969305246 104147484 471870482 71380258 234184483 574426908 659623259 632173228 830847269 882761043 224144426 606324364 976952786 413103912 870596250 632448167 538538462 344633664 340100886 960188876 92213678 386610526 857732912 235924061 789681629 293231207 525769939 530779878 267907059 45721633 589479210 63187301 45221797 772348798 314276835 591706698 752274179 877441478 261311691 449506201 261994889 786245549 137801675 972883647 694338222 88389766 171680147 584574459 642751689 665285214 496668634 778452412 878759351 206463789 171563581 122499386 348023339 168606030 634692154 35566095 64875678 230351595 954153301 409171026 33243811 181916689 680415368 519650228 640319679 663416169 446375416 162570997 250638290 454669017 126099693 685744946 140994711 234741016 242923849 730846011 339326268 195789000 733650022 157782815 147255075 836620360 919333333 685168144 621554795 707081536 327473130 515722219 257048910 593765581 631796307 610597643 901244609 374814924 955475896 180597825 397712010 974360896 885043748 418358583 163037731 552208818 920841223 292949276 769947520 158835908 946652725 938144218 453957479 510661456 239084190 46987458 941459992 283643638 35193794 603240420 578458784 65920329 204092862 222677446 838737045 614401902 803753096 534828594 843630230 427284736 678230533 678068640 224287707 635732928 633397781 330135659 81285514 917616941 123238479 507115795 106236937 540561215 763848674 357905644 433068110 635010216 576949271 565378119 773712562 460143357 110967016 22209421 184034415 497324171 153214367 605013841 766111991 699804346 372363663 704968430 766954207 711287812 543935372 454395154 671309180 211789096 348609096 183038404 693969043 337839849 706646395 702627085 339059442 576373234 284106486 441155932 925520362 103548765 192057682 760786099 230308917 885280402 208313603 96674725 203825239 91085439 946366063 337103443 202849188 843966638 986766336 625567758 792414467 70289201 782272888 741958092 880282518 651306042 571264047 373841557 708924329 480538813 35704445 546126571 919463185 737950488 776853832 235506669 613989682 865378259 911365864 479967982 523366831 542397651 258654990 445304280 692796234 677733127 865833933 793181170 180356437 498894824 950233047 137577360 270636037 477037418 98799723 673736712 82381381 144461716 868952191 1548175 197611155 623583414 595423350 956023121 689102664 573843247 705976888 631594008 715949306 840173948 851759954 491788614 703673859 577999274 774500223 674207179 759524116 846074563 522771298 868200432 413938037 290371067 824664548 700129769 925396297 507181752 438387242 520117305 165167346 652948877 279194202 639057118 473893739 831626851 913525175 441850015 824518157 665262063 884017214 36110279 738731819 682837368 634241336 443615103 573672140 625311451 502945661 278245706 715945559 659818345 777684352 149423432 824838537 131549240 185200043 83340313 600575243 241321150 873894826 230519688 252095856 658977936 831880172 409762409 460418752 245983406 192341297 166543342 802663906 718802253 599936947 590214053 800274356 199167506 174060622 96710266 477177701 665409743 884802675 592197560 747629016 301094094 245111732 130687555 154447145 813783782 778646323 702226593 700908343 348259317 35100601 610345570 639811646 880743178 634481679 752131363 284969982 453295085 97457032 493189104 431241121 610169097 87645816 139025849 497571527 896288388 426033999 215348150 658890401 3074736 106930745 235838869 15587131 806274592 963740681 64319763 363530261 138778077 225506077 282217864 779506103 918034277 733009402 808228070 75491557 516085063 47958093 504458176 778418180 950501914 543401385 52078702 100354303 598630357 757858280 28801327 910007155 536985085 418550623 274248940 210281376 909167570 99149528 132826049 433328879 602812671 383988647 91875132 459745989 857080467 706959927 12883995 672400124 39190776 126087768 596012648 12800374 529956558 923391524 707868624 395647447 971823253 213833948 269357344 501100084 31792211 47679530 255337374 358526157 212842050 472672787 872096513 723450595 493805345 510974142 571743812 387452658 995821731 94754649 504313546 225210112 469133960 805394425 881262418 803854695 966186742 122106067 294459848 32147863 146234017 452672316 332834307 792278633 226470533 628930425 427253281 629549111 974703971 292315063 669484763 154691504 51013314 224455526 210029616 83539728 980707164 507113084 520201408 400001414 572941972 969526446 421588075 937068987 130498627 157433254 670685798 607428771 302176792 106679933 990606638 550953173 758361590 75066015 40848058 312301752 873960566 589687569 916150000 715145257 481168091 661324559 664634374 408389590 798084192 344234252 180174876 163373012 551883187 958384818 145822318 793608575 690573641 526991343 413384758 532319885 754560674 508417765 302494235 208384762 123787316 335667747 925788538 969537187 753288511 838792875 898216268 823657953 533118553 525868951 454898028 696265069 55129915 349043111 732288481 441952391 996348521 186004928 130626736 126989145 862503987 833571285 639668765 158260521 753236346 72197137 903071442 65693048 662096388 428481725 315042294 188879962 18741231 177277202 805657056 457747150 819377845 53331980 734421523 703578814 580844458 986832512 390973192 471749159 377996424 320298844 847565838 759602380 200158290 135238135 566292412 374619086 648371115 896095755 1659189 984362781 953338438 121776972 572151384 253611430 118984729 648124106 32459905 549548859 149803616 650626313 918742467 871074722 518179919 842571872 640227005 2532616 947886017 384418434 211233724 663811564 207730727 188590957 35661934 736082032 966431333 516481288 162772988 225647938 511419975 381798874 282828866 294547832 644878348 378203989 17779369 234903598 217419068 314716175 838023897 696853918 580925466 794569371 987185083 136663613 765638313 582082040 248570941 560852560 405367358 283481744 695832962 967156413 465665924 451211894 132168771 863273989 623754221 180156053 888880854 774767854 796503928 740826555 198618840 650322378 766357649 210290958 68761395 927661091 785043593 858062171 128525411 209599831 618344102 413307956 132092445 669922497 708093173 606472542 740909806 47183112 299290888 451005795 23969082 399130534 361806366 39900114 207884723 556158687 228012903 749254724 346602457 419915757 651235252 380245432 326750176 220591518 46274579 100286830 882626534 906666615 422468953 361541926 165248574 696294909 89596897 827082139 138465905 52835996 140559339 897892741 49806366 695029959 477180972 880658512 209172376 894751337 515022655 43322255 7701506 589016122 784085203 624923989 219662790 876164582 789875591 430052191 655713993 200126415 363654894 863433326 945191021 437305900 902442821 906063540 493861322 885275033 876119273 880946919 771622665 553258242 521985272 463574353 90508428 941679630 651562533 647982748 576077645 793250924 96388219 560742541 663494590 628434785 765189987 93547112 394834244 980904530 133099567 987744044 99750891 790094856 169732760 168633082 42345088 563023353 391531135 598652034 923431043 339174044 956525886 778922618 287082090 391735850 724487819 968170208 674443700 80157224 694176479 837279575 477112819 258508064 524169481 426785529 209950129 463585775 484180251 366094316 448500331 58739811 262003864 149269907 644994092 910871837 565345183 206219820 643561991 478291323 732343523 91842632 493592671 45882968 890269104 793016952 593870358 917879710 916110154 264812872 512587217 697750252 557261139 505802987 330772300 588119446 877641234 549990727 301826673 211813857 750053378 497002973 609992568 417765203 858263247 463878405 883912779 878921750 68077195 477110201 912729552 699821374 735097656 902496445 245921114 458207434 569507572 527169903 677089896 824150296 299548153 751126776 361334054 151475009 959758933 717543441 675413301 389855139 902835078 473018989 606396087 258799282 909823200 960366285 826853365 875810279 181014164 696171287 131528540 554310314 546366695 687701388 639761728 393058732 932299538 376709129 404817816 96736845 822680364 802402712 783522899 512691001 526827835 671254051 717139140 185106752 141109682 635895289 700480799 268503665 642994837 169086364 510187886 397619971 629805566 722177048 320619573 374235149 904337999 748573552 640705480 293370894 417876072 250753380 617901275 698614866 432373571 500661383 490603625 422899470 293305526 846628703 957904912 866993144 755127125 576354696 94680910 645175815 949013280 413709053 292074281 135901249 31712290 139302056 910445500 318623176 436568440 208281982 437807683 86537575 114251320 5657816 862889924 580693005 36985217 67808372 103669892 681318899 219238623 183140934 346143402 928782519 530490327 753397954 521524564 544260907 341155800 181021687 498451322 123557948 726910275 931953706 259966708 212144752 14467841 505631673 545720543 322273346 14510942 327904385 172621892 657158767 433102682 162260294 497973487 779006474 99174035 760235541 799582668 755329056 10268420 797204204 871524260 453272599 941797136 828302237 730528845 905393651 419055596 525771658 678009686 633014065 131057603 828963986 857092947 425560053 980433318 295403397 630149942 280160796 903030018 879734484 178022712 459344906 558739067 256793924 296056419 164665428 701503897 705077883 886317471 85422727 297333507 372584760 989385298 86107785 870168166 30448893 960801567 36972078 816332538 415918331 780709043 69414773 555026514 652912227 515554108 975243289 933846747 133763737 894651790 731814476 539916469 620056206 916623482 367317197 601016886 892096299 116187028 132059141 642879625 182682529 822701053 274878938 189813886 186943608 707297363 615956023 582667421 532562703 193143933 424453402 743977439 897715989 189292300 36809433 582167635 39099482 183457253 301065370 21071583 688659921 616470140 821715803 883774589 124841829 160767966 287985376 805981598 143639784 909933722 924485673 127937725 749314088 702602343 481864045 213897195 821032467 289382363 42990572 857875018 214465177 387871125 685123101 559041720 363529873 779403237 247299944 489010844 332929051 891227009 467556461 395442195 106267040 637916085 352859885 955377106 255700984 628334549 374170105 238161434 953464810 968572862 829014335 369227621 259790633 54623508 760488324 620713678 13140898 283022253 524192046 463359999 163824861 969477387 978375180 662343300 731234968 337390904 757966809 860457602 817972759 534099525 489876207 639924103 449297321 544776343 373827505 500786144 837790536 393245678 466420053 442705465 273426112 981073215 270752218 519813557 947950993 45153923 39746067 115568541 805938689 643566065 697596609 119842880 190783422 35590915 986798953 152582039 877593858 124922823 571274878 936351791 107934067 693161006 468837239 640563641 121947958 884085395 925201914 893059279 512801434 364563047 443171415 784784288 468142961 849447883 169192144 247906632 270856181 38958517 734412068 607921158 973097982 40518724 960048168 276745942 320524878 987730761 604682833 746278730 653931418 492614546 339743714 309847383 935127004 825562881 872432227 800071579 628453797 803442539 601454039 288159240 191270186 398288226 718478260 309691933 866230227 966325533 942419073 939438968 990338994 925319199 632872401 77565137 580345102 130462538 263708868 679589826 452554797 452547745 863297941 271920391 585895821 313464891 479946304 918253245 850712443 6729466 540560242 631358602 402757136 203871458 342242959 328174245 682160679 527731269 357139070 370330274 998031809 149384108 109704278 649984366 514016321 657046459 12448489 701438033 659493555 132442058 958735941 880274486 886953320 374035312 473917320 819047264 237940304 513702474 376642401 880398629 179715448 552784771 913009979 141169390 473761703 900749789 843989553 891632714 548201849 558773530 570386495 185312382 88459881 597534507 854095170 455467943 725195597 199892337 675152811 571975538 612998497 160945674 400690328 27035183 470553501 61205895 574674992 982084346 320816057 964984729 856765626 381295686 228936115 497572279 935153146 711628631 752265405 455707298 506581151 451164299 392194750 372577466 119556539 373783156 691726262 238531134 497640388 117151639 996240285 958955629 346296620 3018119 123075448 400645802 618594135 821924296 660467946 151869821 612521130 968335490 892274268 911911282 629912389 769673095 706392766 48623045 109583693 331092987 91825896 688039363 987666938 659178608 175810617 673391743 642515585 73640348 50065003 611622630 779587302 691660079 309642747 493421599 477353932 992116673 521712872 641302178 667143491 50847521 889111884 210750781 935509315 776068414 855917333 97471861 181736018 775362737 292321157 664553659 217737834 610158843 704212078 122497960 179649328 921121276 839503743 683337798 577212557 623292369 354336442 752010562 923183564 536729661 997155443 141529345 520437801 687785346 399894871 664083701 789767497 164128826 827285541 510128128 286322754 792158015 73899873 791647400 263345385 775584743 660578753 316470338 286207614 531621717 369900258 451697556 77277221 110642456 486467659 906008217 873644895 506252267 374179168 55789320 766680140 652932706 498847640 141041377 559551178 186132677 191099303 402841926 717590133 389415341 393986969 455755684 58192444 110892671 966980946 919649098 481027148 417148036 443334583 8448842 723189032 271336378 129598789 746192719 817128344 530627644 49003777 693176618 216988703 702696890 194496362 403355940 517693427 286059131 762151418 749411408 913185468 456023461 519064016 780718236 376077098 611369009 468383702 402739154 677158005 143196263 469768640 370968786 321082808 871771894 320468497 741783548 712009788 751673514 35306034 202644247 652142714 695391947 390823397 772579337 234513202 968611171 525191046 10883974 174299898 626740841 740773333 25069008 311338837 590547859 247063888 981764365 453595331 70700755 627091919 478095272 341924306 493539853 453240319 76634173 422376085 623025542 6655288 699904167 690177880 221038128 261183491 192452079 588131619 502477537 591700972 198791036 221006748 626503714 194524571 346489745 108283892 495975468 588573060 747249169 797849042 374800317 302032187 697497888 726805784 31420903 462500628 543739848 649246168 347442916 374006085 339928230 27990220 929247970 578735171 500702379 279296531 661506551 355120170 671273842 883323206 266324289 212354336 71055425 937684114 984666174 626727895 384771694 899675879 339106992 789318783 427595559 777140150 298058624 749664738 603387367 687020789 309034120 253402315 624116554 732246398 216568234 574401771 194798718 381639476 835846509 583274312 977479246 864082524 422257886 694933988 153477891 418716733 617062217 573548029 559983178 27273943 577808035 605966918 37398035 52601638 140582299 930803461 522127669 972199783 404949671 94153865 742831294 234408245 129824583 347850749 70331015 911411597 881609017 91192078 973933511 728291064 984322847 222426403 383818917 171143576 545990837 379168026 618250084 158619317 408451921 45612493 283593689 433201684 127699368 287002643 643091590 531200796 746423041 589499521 963166921 685226222 496885622 256864048 570673938 472113098 202442597 908347515 951216516 688623350 67699667 887442169 659659680 413771308 509190811 716002493 763422735 835195500 617596188 542967323 907881382 790623600 624032341 107195480 959424628 140475542 625839200 691599543 503035773 467469420 408318764 734113804 91066565 436316876 686476560 261826068 365642080 712056515 434514009 786268992 382277903 299667671 847766500 144114748 123680062 500794214 8041636 626873298 486449090 476411065 590237115 622579991 608922749 781161534 55907839 454687475 533594601 101240765 217738159 713862411 49027271 947370941 916721071 964340693 948304097 328778545 710580818 591004889 391484254 218277924 579033881 618319384 920596742 550116633 449076755 360694020 652314339 39706534 915020536 50073367 971062647 516925950 528801589 908466813 557748976 286321531 643555665 400587156 224044228 417250626 340369521 663287688 784503902 822639873 194228288 406458651 861315131 689544073 120169210 229156501 717455372 904869627 6123655 486674967 272417276 88699778 203866941 725665417 768206374 750188607 88007932 399534998 787746205 480506625 931505499 874653906 640067336 915275199 920808266 304269787 477048056 842668457 570944744 600847330 12048767 407821448 974188425 972970360 534747824 369288427 462327145 79292049 597011629 701562692 795584753 201753975 307191031 891641126 356829923 541636435 988109849 642492743 582358042 400480262 236053086 241661777 835026754 281349218 955046615 55479573 127053170 848775238 387918836 655826489 129985035 833416267 833633604 213275358 439879965 98230851 612059630 425499844 790955318 556634673 641440184 183035269 823757079 348426664 281881900 856350167 744788208 734456755 715729565 611463853 43270066 304634214 680163087 445464684 586226814 19870084 652153905 885160963 404980822 893852035 864931886 656994303 110327187 514789721 278554064 525681715 813278034 121254310 33845986 252934858 510464422 995224192 383813561 737909275 590330512 89130389 334649418 854415105 562334403 350664877 733704314 846725029 560182215 249450000 499619851 555710061 112931574 16655533 382384773 721934494 305909516 10360484 816165151 766072366 160561932 609593755 995785351 912707026 950943860 341910090 412608418 266996081 229365392 185307736 636589994 979833135 807144667 211484749 13932957 913924307 676135551 301962395 61026085 432161943 409786103 818361558 933131700 364083913 751091031 524444542 980673936 438610082 748242523 73882126 383829813 227125916 780182030 271210255 37331922 51554779 493692862 575666792 265114337 706146371 900467455 133732261 347386183 927907881 382116452 201687037 676665617 775302227 143083535 808876942 156566882 999585543 873505355 976238481 316407998 780558245 987374022 475228382 536423389 723191150 586089243 36691660 909570864 707162893 641092316 136127260 864201588 221340687 603513553 437206095 342508763 39278218 609525172 304592579 360341031 910799338 173908756 933552841 990230669 128080090 257432404 511328911 564747259 335816130 465382102 66620799 132135111 750064498 256638123 853222829 85169858 61341522 401203567 750279314 452832373 867165572 769410187 21952412 944617099 558478580 811587628 490870162 699684141 841734357 868190693 934900488 209769222 534931367 162075807 59194189 346527705 925300264 535873713 600891749 433817152 132360607 446302364 85885819 196280448 581106574 176183850 205425278 595503096 476390251 974475372 446147437 121595084 141386993 985647972 201538336 101781163 698476315 427489663 100177231 777832304 81022815 41529249 30875177 168464482 933165432 934971363 994897559 977587624 590289775 562457381 511896944 922571990 974746301 39305952 594392541 359173061 788707923 946605148 565733003 16360828 91641741 682542543 353156633 688788434 290185870 365351621 865444365 275462332 216844473 971775978 752854663 704647840 980412218 55489597 568952145 130018765 789597579 877705814 611103928 331798667 338713816 664110252 18843650 902992051 190962070 417292685 992726982 708095316 70680899 847200002 380467896 560678735 605231681 384256800 899978433 700440036 636075884 985278760 373918502 832534457 331327787 496845144 135489947 711491422 302920328 781681990 783363531 695194793 272912715 997238708 16804240 487700393 771392802 358206273 876949841 786623185 510580860 3510310 147708244 100363898 295570346 265988778 357872814 35250209 62513366 715955895 107688111 716755689 56508020 52537514 474057506 853631031 452530250 323655431 626363625 756529204 320585834 894825302 553876226 976186078 185779747 851392444 910538396 812560246 526910229 610033553 616783295 886936314 823758874 974098628 616692201 225213736 943191857 534313124 535608182 144882973 805328207 133308405 37462883 229354623 386707019 640281509 996640472 751815572 298642597 157635485 889381480 435937723 90781001 660341021 788420940 821208417 285393447 867547627 489536653 601715540 635562203 971161627 555897645 889319646 115433304 615794270 987536436 159321329 706364907 374370657 217971658 868766947 573287337 816918936 802440060 473990593 579047426 336005773 413418069 965369569 318992271 618917884 825721731 303577256 496987568 529858852 371989276 570147064 453568866 893386459 876671292 176829392 424974066 319675411 67562456 644029796 271843391 755706183 817244316 764697757 374657372 40760016 705243641 890030014 613456145 921723698 572116996 849605497 327733652 283555987 789565826 141257602 375041082 900384382 524171216 867929647 899710770 88398142 686072223 741850948 710290516 479476 957523405 624980567 674108476 239583879 633290397 983372585 426464263 605087161 239789363 226208399 586502078
