7893
315872939 792390262 420462390 697542595 132771857 736012877 667525280 186599393 264360652 225857171 487836471 312867712 834250511 967951208 121649258 739241737 968723619 773186996 354574668 195684834 863892088 597816690 632997028 749255813 540677789 607791173 675052204 9817443 167689833 497663740 294881976 739320092 744547829 472022247 515369447 505605226 614443998 252182772 9022833 548925682 338662341 766229213 506475516 652570902 353355732 402264063 407477094 409701047 917049757 813163716 240933709 38381534 9144843 518644267 46765741 651022838 89723346 981407005 976596766 347293731 663209875 428871656 998190808 733059775 787291185 746582409 522638866 823213995 142706509 221733643 34028391 373980024 512663147 785227018 383920614 163950778 396315714 113645530 74737111 717288238 279457475 804380300 642947923 584937016 783243232 360055230 662146393 106987420 216049913 290325473 551715899 12435256 696429104 839747968 406294387 49886983 650901124 267580910 897519895 911294496 127082045 540878099 616125165 76593013 556154460 17812322 900240748 131815107 642629852 939010133 489195760 124748932 18613220 419219033 235245782 691667808 638966804 754709088 739162864 74207888 613352672 232577519 714725660 502476165 472276550 692206900 347160909 632009491 810297304 381381468 254031776 660718656 735623230 758520825 644319844 205416075 351255379 462875856 600149763 635110337 114663062 278301148 213184618 39113959 735593882 795646668 361128163 135265892 304048194 498062862 558196326 87239999 98519130 200079366 676176664 412210010 730287032 100056638 852083678 172697231 826358954 608376032 601415800 396374280 463980578 906379781 290238649 305434870 734188291 693060357 364894063 54531807 581920261 385421473 205041661 821224270 87804838 297115771 435202930 825336518 100611920 3049296 170168984 394854161 591499967 698012631 485665775 272411225 382442259 530173414 871810365 842163098 164643682 584735412 79883063 613096870 325955989 141718085 735104463 114364512 784371950 412115083 422509622 510972133 459389744 226661080 609869015 69680868 45222211 209282702 792327461 106041944 884242319 340625623 377588982 926280427 325178476 364323887 792653561 186231735 384744764 587464219 596858861 857417256 669004566 231946347 960842822 338128996 122354162 571204119 162674720 123523361 112977226 747317466 613992858 281737453 247431990 295669378 933386037 950167255 429064868 708737642 189398948 852241166 800519538 257291302 715853720 877602916 960338047 917522623 181985416 974069472 203421069 474056778 522924391 119257738 827985795 984041962 660354057 1908412 926023492 184375548 969223011 15572599 104411719 583276018 181002718 78081180 746004943 137682957 309904327 22027784 966245916 252139417 16706947 831240771 644540493 320575915 481365876 830723574 798669062 518073541 496148521 471592412 28339588 915547565 178842405 844874958 206463879 205131983 65661493 628494619 238470036 685027702 513897009 183335588 622897994 247019982 638187754 694768952 984150066 56783364 415271665 48148360 238974012 547529471 305664616 668265003 448656114 66891280 313973252 599439786 192089453 599837821 941838828 48668726 587379929 677768725 325960581 326961312 275105762 992216950 615297550 389488687 297045648 190375524 746007918 3121737 690182407 197941216 469197488 63872197 824898394 169020418 362069895 621208935 969254977 796579526 821647114 356354801 881358737 924399854 965058615 666056999 24649321 20252369 325017884 483094618 615452047 437165922 125730428 547059132 709519300 592929211 797713989 434221503 924163010 490440650 691075013 267328685 93903386 527654728 688949392 67508348 888931841 132480055 418907051 245210826 196890305 855352148 454610088 195415861 662891464 539441545 450040482 643900156 353255060 448968291 364073634 667096668 952387008 673149188 644073736 238364726 364820322 728422797 280605152 59816748 664727551 336665715 481633617 341178135 358376774 791463256 359094803 353281442 785561794 165316059 423030298 109195948 855153455 131178614 389400039 501779226 308580199 589854187 136276409 367774536 394122334 380662874 399160565 414670142 809649863 640087868 589867643 579193465 835242234 238130354 795351298 709101941 230015551 451886151 149103933 114200116 484949894 727375028 629522347 694141938 477696110 73102564 93600435 725208458 92513484 380104388 793696306 319981989 696208086 293092083 818377228 839712501 283790415 802406312 672131455 24194965 777939890 212400334 186418860 439381180 704728020 129387009 461973975 429631752 329373732 550498298 330075686 866967156 626337002 505941503 296413312 910117859 572997953 633351380 83613765 817631310 160297476 300186644 991804544 265632852 999473058 560921717 920410490 836162050 636649494 64401755 720269067 225748229 282614930 628343028 950256315 897160126 533664736 227474530 369131852 781250068 897882687 730777063 454144503 745596629 888771660 405551341 766365028 98370586 723952485 136779232 870961607 311198219 132663854 276462674 434842548 287850600 517149849 100618319 147941215 522655778 688514525 183021043 198191771 939802443 779942248 925197385 920696457 706999614 67912710 908222062 341470840 574903845 78840012 932885475 474993693 841607588 234300496 941277179 860937458 948794358 992121525 486992710 263416682 377488703 545623975 980663425 389301812 947450935 176178711 342260732 174778599 134354358 300801766 812033496 467016998 439965730 7764381 976733622 107427835 666876657 148163444 961995929 971046232 903762691 641020964 404172512 388503054 901969 813783375 428893069 352715244 574286150 729953441 45568404 338087457 235319716 573758514 456143176 701082091 617969165 571661525 393226735 217161447 904488471 141445506 794599138 539143359 186643119 677534343 468963672 255774555 942994538 322645450 796543969 653610183 232565815 494156932 566217563 931324709 856295070 808277709 19769599 630743990 58144933 180074706 321757263 777597685 103368831 488929770 791305485 202614546 872984796 918699708 702304943 76979197 477218577 608831912 415754480 345973834 801524012 782725727 595741400 162943808 698861249 929129426 782223837 172714909 852409914 38372044 775964011 529304437 332782705 346522124 695652928 916731957 138674817 420396215 41937862 327737873 386083037 108865386 775999151 755329141 750234086 757401817 891961771 437860807 291474678 951717792 718128365 930899961 217182379 8319462 963177164 550077522 265240780 323667099 80812136 357419727 75134431 700033768 996782344 493866109 201533425 469250164 491204385 961723451 189743330 900133882 205199483 967007640 382072484 259479510 429920771 852178365 117601813 17541922 130874298 893935912 335581866 110026449 904549246 108273202 765517669 136584060 497290899 501802626 827180146 118021220 411155483 296211482 585538754 236178846 224052805 974465459 803681543 679036265 578588321 321082272 93422030 978625565 54094141 987778309 45362840 66055540 736368107 405978936 305996036 906898173 241125780 459127625 822921275 124472780 336595230 504549528 836629745 149858646 447743459 438741891 819967814 297560343 664536891 816665575 284553770 629292775 514605131 215808919 564507089 153058791 104342475 323197705 685983915 309303483 353127029 694675267 323644726 757319875 125790019 682675954 705973313 239170479 472818721 280304641 588791533 110536335 835381479 181143532 534363494 515948954 205651268 231619339 300864752 672723206 915313492 728613467 43432866 115449254 193754775 533688654 660765884 152228083 424213579 149478091 338268498 293076076 723913606 580701801 153048302 422952289 788950190 645058256 305558263 224875703 767826438 703490746 960093911 656370062 696658542 478838245 136596993 291206356 11642069 682354059 165272137 424400175 992517462 513548190 704033447 84154731 386272689 700141719 107876921 878346385 409025588 841504000 436996564 43196964 194294300 358101289 634196480 93813523 183141212 768767395 677803805 695714727 916748173 581376938 270899168 895703972 778175241 389062019 487009187 832656781 161745632 502826449 671295711 128537997 352972287 74483994 55377239 400901274 930931921 53708440 823314073 510881010 31789503 572731285 47891432 451471609 488658617 191847430 575484670 647386413 749415166 852408127 710937181 910185339 240004504 981692728 77330544 924533155 584773478 885926506 582307286 527315225 174450750 305640600 584819583 444786730 17238255 349640579 471320175 739978029 604888533 196879595 637024316 489123573 253648079 587181656 319450502 589111118 842239794 376688674 232675281 858062636 163150844 465644261 431225241 493101151 683426200 904273031 574242480 410167927 114593584 277124791 577045639 173577503 42512151 589479872 696082743 985340426 646866070 499174697 667329564 487483548 89324768 87095512 15508710 389957103 445469353 86256637 102308776 433408479 527537136 65798713 560663872 151989169 893312790 853456061 671900697 841038375 533897901 638116956 238797526 725046088 759578081 486405442 974640872 582295422 523433532 961154704 884764180 482197442 71643283 147098327 895115872 276087023 535519439 362031507 192692981 719490170 52466449 983229222 998652545 752291601 780038991 564627476 243917539 834793874 181856453 773473495 396431990 395668052 717809764 828563316 642349366 820316180 864049779 844505451 737561839 407105244 505838301 283518848 254833897 248331318 26721412 844652037 721880018 286769227 918944830 277969627 750893468 249457043 59803986 953362855 836226164 97165174 296395543 921777387 673907028 894878257 997579246 620184103 628467082 503471173 255427998 747596575 194139950 597634178 232735049 138236334 387356934 574280992 797727239 745645307 656046510 943630603 551809424 196251683 815826936 189884901 748890380 494302846 581012502 34983614 403677040 71823014 435920584 863017180 479521030 973742758 256928595 601814493 982521825 704782759 163927916 75290598 765219333 876222724 552143280 263167850 718949113 787329004 389866456 940865356 163351030 636361967 602763011 717867270 276155234 279025565 479769498 529921575 645631367 376850083 347514190 973353248 34676223 942524906 876334705 619246987 410079144 511443390 951016743 586158845 55910863 326811269 829772037 35718814 3993100 69286877 119241480 873768813 970173031 207109867 448982529 249026315 408117351 763814051 804336028 349394768 438829845 676850857 495756757 559632220 538224659 110589059 216629495 72911319 406982447 910969739 877116497 207336325 702681964 394697216 317523132 891867411 268816541 268051343 891311296 332798218 687461448 890169558 289854203 372772202 733838845 758359415 413454035 567897641 147081355 184235411 783391324 113981107 287798321 878077496 224101604 642882056 155166660 942353052 28209387 557421511 707691826 513821539 251481485 749312937 916231676 976096860 570355406 904880564 535870874 571162936 210236655 246707637 159318418 880979499 252997777 130895664 97804640 281099547 948567737 574784319 299749457 837925494 678842049 91000739 655575904 907688558 395266865 436177108 829932314 896041021 886703361 11960658 395259158 58876485 137536456 618387763 439962050 324568946 383519564 520911409 89976877 327739667 909081062 451903691 176410997 789207828 932561700 486820777 690043474 701858748 692988798 995326193 565052213 926294625 203727468 385329140 546775118 130206399 29656944 676527938 808122739 939630476 796044334 71892123 72526 60844690 133339030 895518862 234406928 794177209 620559769 742899970 954429307 183530196 864337971 138282974 217256547 317227143 69655554 187350384 833346085 697700861 780354872 316660197 469023622 262104581 962280093 713651101 744764352 410593231 898136042 585575359 996151029 734624962 203017625 950801049 57261856 987602723 999853065 758418890 427127434 635483751 608912190 236289356 19604278 189979265 321047338 275604463 844624220 717648498 9612781 873432852 579034793 101218220 259556081 437281516 318595455 358485507 127225846 70010896 36994044 32291430 598416561 605542017 73231152 108051570 255505515 355368762 763168652 574277282 959095748 333188652 750387272 274091179 154729838 320880472 135253652 163671982 826179872 161712955 125784817 428588526 529199447 179861098 931074216 267466162 182058757 196866532 813075916 68446653 936541604 394591379 815989543 396280578 785224429 121868364 28818506 185279279 26763717 649689328 514754656 28354843 667647306 417851480 74113102 587714183 489244871 84802289 299612563 403115739 245815815 383278562 811340830 770067555 445262522 45605153 997027790 877337088 823586668 527501223 196436080 240956859 401532911 398235687 129336615 761202899 848015805 427996708 136220739 922059093 705188404 314735960 137038951 539615851 528162053 146327085 149888167 520983480 166849114 845833847 124760985 776181456 318513305 989120490 985442414 220369188 769374433 387242470 184876041 264309815 319301456 259212154 89985167 596662677 397156966 783802338 998793146 764434825 679333937 900001761 11394019 713517980 762467906 219170554 961885622 130434580 319599231 454451295 955487545 605926536 570514439 345447628 312816685 20331626 578447864 8465357 22248454 653122950 659846321 598576292 68307966 578226804 130985300 780288097 486417355 272641771 543333223 184914468 833104934 919582924 140237928 783953943 380826399 859282219 19244416 166904951 96258293 450100664 838670704 652535956 80502900 30453113 472728149 52129767 667554102 259249693 874417247 870603768 735963677 362016593 972929472 60908630 245083982 40546436 140441705 309827279 260488728 907410571 506039879 161360967 85841225 265712061 762915379 121640571 884709179 634506182 192705540 504605420 241304965 307430277 711367702 410929953 219899734 445937147 529513908 894544086 758991587 160478689 290443858 371660444 620827780 340807508 707608119 372040022 245894646 568154090 691510047 184018696 264985203 67127372 702242223 198187124 776341385 686999795 84850822 704640500 477303216 596338968 713525437 415754669 397053531 745343142 81790952 50316794 9930548 20227245 166525586 653679962 496040082 430485354 333325841 420709782 300009216 955491266 998519330 139525418 181879323 502603964 787372740 395860355 110119818 66080755 871011822 253116018 11588134 436962063 262453962 955881548 219367961 804653263 545534532 884838076 119873312 749687748 464696317 699763910 249734095 562560743 724189619 781332122 736335907 549873553 454390093 949182243 738916850 43907911 74382639 810771109 186820649 76108820 964848714 15417789 451860985 942033785 724081508 499791417 432240728 378793729 81950765 310280806 778914534 83962071 57464271 274830982 621339185 43333677 989544636 545506880 32347369 963556474 570961971 975586978 183911931 300594729 589048764 809265382 195943163 504874186 365112771 294653504 202506025 762202851 756573321 795083391 438207416 232266608 418600898 337016508 36098311 507936037 410001149 393270174 612889827 83833235 890343323 783755555 575154512 531755704 850649338 820360078 921339643 225981130 219394706 949197950 185800820 556785731 858528101 922227583 416529624 293306506 478391134 114210357 77134036 638474278 657751038 236093816 361645473 232325311 395692188 299718953 944777867 873301272 272437132 724744852 374952204 237102397 838934059 662780429 691792614 971853970 260520378 591992610 495606600 992352479 418527507 920605415 841438989 50624094 635164854 624046460 697838666 720211304 826403296 939806706 998170261 273970725 593354828 184023649 196660536 600050647 799120752 899224374 739794535 741515334 321268070 354249827 810162574 913574589 549587104 832614856 539644081 572007210 779568660 252101189 773156076 775915958 491279858 908107607 841903367 474121054 179343620 405309551 873166820 114535136 221863217 799050411 520986710 43462695 386781747 339177558 633461924 803261569 554169199 937782222 247721674 725337804 856496985 430533815 93181653 338033456 991066523 274677464 152512342 57889974 538600170 264422928 401022979 410806312 471368155 674220928 655392836 941948960 652749638 80194503 352954720 997921972 789251937 791635322 45443661 554402266 791653239 184914199 5020699 98494816 88178566 531731053 14384724 360846493 975639259 643029292 954420615 527555238 618502060 348503511 298515421 87373132 363131241 847197094 813469868 386549561 251012590 754262852 860545042 289627301 198981591 771963604 567882060 718060113 58221960 26864101 555734271 16048137 185066380 627861583 272407796 617728009 964580306 906673430 471614326 396344280 801141964 631931328 399003474 391701587 306301988 120796692 264167051 6633166 275164418 250841096 77795802 408746672 361378550 739197646 756799621 50573258 182082749 428607877 966628098 76612980 926584164 449208597 35036339 459730050 80220055 108798692 166173759 165522007 348697970 944672230 58783455 734094054 275504859 46959870 288800090 621384833 774109704 197242972 277372872 336294882 183684246 57909553 290737010 748392002 51048969 858368613 684286731 538130551 953760830 965621204 145767523 127170543 383698990 623785565 564885930 322346079 578440385 701998360 187630552 524374496 794782136 937930878 212936493 484795478 952629351 736752186 455048258 377137245 943028428 862027353 180330214 205161043 944738242 327799718 552351053 611215868 441379793 657747963 881892524 493131980 322478315 203626048 791111 305764328 251164196 248593823 164585292 634288265 843968157 423544545 441390729 627137827 478000945 400832106 383571946 702708408 936376216 509396625 13565204 446190543 570253118 646024471 263618031 527089801 658423201 252409140 607738889 867458684 958604875 691789148 60999334 457882421 313050766 281331605 555800279 831785576 608198956 150217249 488091151 805104370 686050568 607720593 851868281 12507588 610480638 914458716 105148314 791111573 655970230 842004668 462976329 278545253 210304545 230371681 822475223 957865622 969787757 693201901 31033220 127329928 248418697 958208567 532995383 472084322 501910051 431299051 17725067 660456946 862192793 258184427 640895858 443866847 210484704 383169078 153557345 160334012 468616052 710442768 997808742 80975193 933004769 308920246 480321496 366104973 234160122 65900446 513067405 439340524 497192013 191879275 537283640 30512147 943913908 134736674 105289408 380423840 162874658 585027073 552696355 312207594 607539525 517321095 924575229 759727101 546277024 664015489 619993679 877946717 90919680 531286808 409915643 669337459 291923080 176912826 789697338 380525508 539728199 264849318 652723699 351617741 996078525 12590664 89920530 812143304 167973239 803732201 926476346 516089952 793118037 985608735 611026931 182290515 463767590 14815805 344955869 324401647 631464859 351748503 591377571 164111852 293448784 558935171 705760054 260527189 30525750 887191915 349103094 975277134 163475708 887803868 890070741 539829066 79388334 44253531 637667077 183841962 539797542 564750293 732195191 424174488 171891147 427312628 801457610 118824169 141242698 217612421 919501555 735913715 719073315 238181397 481261531 984946183 853864051 904273163 583067725 199984323 128861599 53784316 191828487 547542324 118696579 879178117 967287031 955697328 946424753 932750939 548471426 107492719 398206024 672974556 253265553 928463532 94236727 9581028 802765398 156112985 674768293 357928852 627055787 685188658 867154369 59818012 352337414 22160710 920317227 247304825 957206243 594126812 221627944 470936600 276354817 110806839 142119794 617446393 350518977 261920956 939473762 145255753 622393918 961165978 455869515 436960058 301073530 242752606 302504510 736909642 317212534 623727922 448053916 156920303 366301625 441198520 100760422 909507860 529392431 102130657 65992427 964907594 636530147 584305860 423117770 107664281 363744642 541372161 760099020 409813019 588933868 360938138 322362695 55540718 147070799 808542371 47983661 123407039 613559569 214954712 476879052 324907978 849357795 19305272 281736577 232879319 731211451 562228950 394887498 910190257 421349135 277416705 567969313 586573259 25567614 313361106 525011719 220509813 184940579 165311185 185362857 377089405 121943543 90667765 477499224 15335891 466893236 137382797 470693847 25685945 475196073 183748896 768172358 739676355 613226105 173699314 561116981 219099420 404801412 13891859 479188348 51067725 135205234 949292561 610601947 68129493 365789542 71430722 229206691 499584372 530713482 718449460 79302563 20863718 194264912 273714366 216985242 122459078 624562096 768204554 939525172 555552923 440535491 857780430 672915562 225086195 303355746 560851233 331614010 690910796 664497494 257950665 264295304 763641922 809165987 322553375 278433728 441165132 233238844 767605370 824188340 365861524 128408975 642013469 942980856 195723310 796895208 453939793 58686699 435394643 537361314 499548753 875689181 791087406 719979011 175745515 291501129 757177265 903981286 260064452 44521674 469207181 468017607 801925365 983094987 241426945 260864397 706223773 535904523 846359262 832816504 132186060 550618087 943206112 410466776 222770274 583372494 604413127 130200917 332200311 99070426 617777364 519928230 629220947 238056839 520211451 705079489 639030249 564917785 709661083 797411992 241189600 603778440 461060911 592365121 464814059 155300023 763463078 270555534 447190864 766654676 824359519 452562773 851816823 290403761 359709379 268811417 139909514 838012312 258782649 704156627 590626129 179773230 747313183 366322996 285549945 298652890 501988188 305843289 937670865 755582228 959737567 234155816 454345468 202335504 31514549 365824397 989709283 626514596 565880551 632578352 986975486 454026109 517371527 474434961 761051744 671061001 294780061 552489133 623543430 905961913 901513678 852959183 391489494 688726023 312272984 958495694 79259157 107936932 423445788 109669946 535184756 487105310 480072080 306907154 140301963 131746968 406382354 929704448 673099767 411016263 450974713 298032962 663512560 173481921 757192650 174003743 752478301 423022338 924399876 250364988 410760175 196556920 745071487 144298986 47972311 820513082 995933596 388133829 712106494 825834752 894017152 579616246 337129132 181431448 858902435 982189967 140469284 807038413 571490969 606328059 3901810 10108196 53814680 767642307 554254409 432993155 107193879 73438141 149511713 444028333 31934735 278020075 622220133 465779117 812722136 815682291 933316743 956569148 764592861 317115107 2349277 984304666 790787173 437189386 796206087 384084196 486033272 293925877 502135696 848054044 131443966 197297215 483554185 654976867 316620188 34529561 430917968 526977744 894803488 755922466 102361524 245367675 704414482 791710628 743243330 513806237 352808408 160242973 183515943 275180341 670400389 889508758 874216234 167347361 692722577 977500327 828810437 472999594 45647902 357618869 894277406 822870543 586298170 823861436 42440117 569452527 561198883 487043004 559794328 458031201 822597277 446660217 230610587 320000466 889856788 784332335 188568799 753166562 283370114 936894379 465694910 954813967 572570795 485556709 131892671 186278869 427103834 280081111 293493876 659881999 750823068 297018119 90564681 205677818 507606981 5783680 96769450 886702763 855051284 828571147 875995691 543229727 346794391 256634575 356517215 477524138 837580291 878140209 929650326 523007247 521417906 804933079 410318397 545971385 829395618 738052478 361115450 590436991 222897566 906608993 101778428 853507363 826106111 182708439 522365617 601504010 152818736 110680071 451929359 521116950 436446530 742241720 932734382 648835921 418242974 757774728 596494077 349449758 791900731 708264148 552957789 344467282 856433446 720009452 893344900 813860108 914496137 621504077 572371558 742691885 809714255 968027300 254097032 27215565 731939584 913078151 729571855 563655198 512255916 989499352 934807939 663278473 737738446 904355230 50941091 288485107 720543155 704751154 610229147 429611647 314380008 601671474 125772171 535112860 30017701 215505137 388512374 703681173 883889081 95780738 445385071 195506834 261729050 324125330 985544663 678280774 670026577 243371572 725587157 988620378 755561792 531941291 645202485 880583246 587455201 341839257 436918724 698502822 708002711 965185035 864556425 562552871 639950416 146651952 207281691 510520514 285064759 441755555 915593622 731322739 123803789 598182138 816999938 325587669 195778445 721915816 943360672 520340408 999849374 255196636 667556631 115847476 77511428 452012315 188140224 725911572 127386999 913753135 277133269 650951496 946249113 770727244 919592601 44730038 683645634 407698578 232281541 219388267 78788553 430866959 927002565 539031520 76462211 961295168 105273034 554116977 38817702 425664876 880944578 277284020 817476096 531808891 435521276 159674247 984220653 571583171 575660791 318800230 436358657 940055736 500399895 908190025 229744219 330413319 354411303 920145642 130389176 67821727 276709043 658393286 496765089 335156212 79695877 50296659 458723348 180348125 769501496 42778475 453140474 549505299 357844918 509785110 17481308 906102650 378746034 144288484 565072145 935642122 466944527 418164381 390277069 93099534 617488283 972331168 13670258 781833787 478732100 564927141 525499521 737045792 764195084 183982166 659501325 150109108 941521222 169236401 312836336 143684155 586327908 109930995 661119502 459678777 37388829 711298223 348224327 634314859 638730378 351289443 573017185 159777623 127535045 797496213 49784099 623851255 68497445 971547482 374721656 346732454 420382005 254564829 343592769 136251569 960012482 375621271 736570694 204321485 72794160 894665985 81480373 72394139 813619450 81433614 922096327 447584813 248505184 784319067 190168268 412883429 773508298 843917349 183468830 244909005 419906268 660927156 422299549 955795433 73747193 202225136 603732331 192724398 844300308 490687839 124271969 830814895 739915829 261263294 766135884 319043239 240401557 796142108 216625582 611509034 71437161 384202634 129065227 842422943 319725397 906409665 260570523 169390721 36631331 322772675 7381995 563114915 712006728 956384917 682041537 949350938 728464034 342080684 278354216 88182909 50955685 856643552 959399970 445995604 98587995 869096057 741089659 440092027 664967947 39286817 865458103 320451058 937408838 385330044 632180755 152384238 380596129 265329786 869455122 543948578 581390795 232882791 912078655 651429490 693125769 169917638 620627563 587262301 78438285 596469686 833050425 901562406 739110126 141795964 479541974 820450072 875610020 371713641 607413218 304782049 910822203 37935212 683795492 616609926 646523437 677762289 158078774 540053592 989554089 543267809 65981375 622178213 717989280 940464687 285685296 695393313 875974570 762720016 587625322 640498207 970160309 461675648 590076079 314262625 982356118 526835659 843068818 290593000 94262654 318372554 786055035 40289441 81444689 468392591 638013183 305715801 578988010 447036231 264050485 976152020 987935794 564852464 925892647 760732375 288085710 540174990 250964711 214673646 161544218 519198667 822825319 593536719 883753444 369642001 394904258 991660859 541530765 611345730 677029572 67315123 652157720 96085256 483737697 530416877 112949221 587369597 165321656 766016524 79369182 37839337 769279430 980631243 464905765 908707160 174248418 304411910 346592475 78052361 812464752 457646126 813722104 759431479 750859562 824053471 385941861 582582396 916198704 848983602 489872037 92932683 701203105 363454116 113803822 451023674 518724649 123319075 572061968 711779184 153653389 294284335 282702194 983774686 976107752 823883529 139034575 373332731 337127683 14159900 280797535 505824534 784635704 540059022 312633628 662223363 745560853 517459599 819635649 352304192 789233170 432817627 893277426 431940000 911438968 30608516 260177444 939143592 715485065 413749841 435664292 682724838 778663069 691473387 472452116 292396223 714358704 306404462 974058515 481790060 755582431 835880560 941895596 192679513 773856704 729099870 223893021 26357984 57973990 817614008 581465029 848159849 474239841 82842617 813660910 508695194 352454683 979376909 934490936 22803174 205639708 758809290 854992885 47716986 973716490 902544070 570650340 937492334 16064330 38529821 114298014 249936859 757397941 339733242 4991154 736694782 483616976 442261674 715663841 142239527 272757600 659915373 440838764 121298140 667381408 234144939 266286314 476868864 107240475 957341279 653845434 285538981 874308180 980446355 778128707 218039222 476672837 208728814 2354763 218794024 485180617 572471874 742123554 217623924 769929754 7360604 80666999 804434260 631180827 894355857 982196755 575030063 24927132 48605197 819180420 168011596 765344876 969605571 201953696 402801127 287125335 64974588 192132484 487591267 978223986 57178885 981372256 263385638 773829624 315627753 550171603 919263898 278283554 752621712 951923129 405459443 313798715 537986608 387333180 634952272 662177675 965280004 289243529 95721757 305618102 803797030 578164218 710325972 551265392 139051074 163559661 373788600 554558310 895571075 950503648 113173108 931911792 157480422 65867466 326995297 448474343 138515113 719926936 795327452 711191948 102710936 244975911 397945433 238018499 990895584 170787358 454371171 54309406 163259900 993094703 780648423 352518582 412241078 371801946 77934376 646997456 808996569 746645616 3252100 347128785 872303504 50634051 153309806 504400170 315068738 48443945 988848710 694245470 216336928 156429522 385370293 937405839 542061091 47494639 83399835 585417257 122844287 558775175 485639464 837514463 764810241 95283679 188333157 479461549 429980895 482041446 876336243 667146057 516531132 713751396 378783912 2509602 357761193 622158929 640680228 400031818 355318933 489815953 627096118 2674351 959652196 17353102 699189317 542543443 317576573 485410389 852465795 12232769 150590875 178235382 637157631 55230102 230697905 145420339 685413439 740990251 79639267 929739732 70174426 823555286 270617422 334466444 541136808 457503205 175814614 119151693 110151712 592598913 63543994 390374249 792529355 647302727 137002204 298394647 194883855 186545834 84482446 972579825 851201782 955751973 74133289 19957224 385389407 462679949 252472136 188737321 985408391 729457936 359402855 215019934 357328990 404208952 707391918 150394311 152805587 957430850 955842844 222088284 661526425 300002925 754060837 492859810 790352403 229676033 605140031 957509721 262601313 592633529 422492790 216012966 729120752 144573268 461792927 519335689 801288472 489105367 641404279 334827951 876373666 450895407 454609378 440727222 540252113 211420065 371975080 317962771 562038012 965791742 989624634 617276507 89160366 944810516 53141442 357434250 565922305 117401104 372048500 570584618 94055985 642823021 66834108 219195633 110252090 93324106 52391115 417657106 562957978 788538271 79517886 139611033 931969127 503227783 681145791 147253649 50073279 20731611 710555540 400873568 661377292 285994328 165181993 572441303 758374387 357323442 69455921 893415702 517117388 70894032 669567194 889585003 590268649 905867235 418460024 322789774 784463181 328140671 365926543 214407891 479166040 522982441 301093725 291676560 377809029 9202547 988154997 15201117 968016910 94724087 908094102 649836486 438764604 186622774 51644287 892296371 737594307 19558451 163816852 681569239 799356033 550950790 819619008 762570121 152212797 919287726 866142053 253588505 114582967 913681386 42584525 278322196 919864689 530549690 256187591 390642761 668081019 909638255 73145523 888911009 348620926 917619276 92730779 817338088 587189294 334832125 347360377 672958600 257856569 108448426 270449284 675727172 864823981 907934180 114941663 812724328 672808629 416769679 662560028 441625705 762616209 17382048 878225192 48423792 485059078 220054374 421854069 605801935 349438053 796533153 700300352 558816568 893441666 630906429 10964727 73358814 286611646 400748062 66334462 446046504 868557497 425316001 137050520 202342981 678938170 896451804 227079834 15499053 939527818 576864326 804115014 230654845 906397769 207167431 701701012 578674847 24207112 264389922 622903874 593813588 583874731 555544300 682930471 784179119 802086943 926402047 814451194 477824084 869717228 894430146 433155410 512428868 61239422 897290743 563842833 684101918 822157802 472055059 29560838 793379546 987609160 730631685 712052862 993599898 833719983 389684919 907238372 386541500 441566078 968763370 210091938 679503219 955195319 576560560 542841884 316114419 271662115 986294915 534457046 865504429 575461977 743198806 612968237 134257424 453113103 924449041 666263179 772607762 634950267 218066620 136190315 512135962 869204953 783400072 418986377 133656720 408566394 837550766 906822728 445584427 578783304 495779828 225437519 150552331 833133435 183578005 780683778 140633178 53250177 750327569 742889615 587381079 190599677 426869077 524187610 759610291 521288604 380040667 987870467 614248416 440959132 125359680 493384830 182804132 425371532 201953896 674350655 297256093 709802666 413817221 274160826 445980528 910282621 598477500 644841458 88151679 203662301 719457804 433750558 782737760 356393653 440100831 308301937 474955625 348510689 318077867 973012715 784250271 53002705 159209224 291088012 946834455 149971874 245253850 930746603 97837102 237381625 339871966 589335111 154621981 597423762 422775447 312984288 411103125 802439283 925453267 141508106 642851677 713378972 463324787 236301950 440367410 969640389 137796586 485698609 837703785 598793910 468774829 877949907 906682192 613769637 551218909 650977245 998532643 505647639 722755189 52205465 315069524 557635821 524934024 153413571 960770216 396546334 622570348 745977568 984435019 226319070 3044810 841950869 738811366 656875709 152264855 57890316 56645727 90244056 530833902 561455743 480642312 626661130 689450065 716976219 894238052 99627682 552015990 22080466 994246324 587724362 723023869 600508783 929847820 688413524 823447902 168575869 476215415 440093817 732138214 875675563 212863827 364908206 566718360 427561078 14120060 426412382 53533262 922435826 582394851 652174898 23658405 895390092 676439114 786252608 50475117 76317246 129874145 462961301 538988770 276551197 967882219 381845674 593694933 407652420 974717136 867361848 264870528 289220902 991245179 269821872 672785533 185965771 24658655 560024667 242267640 229429757 127489213 213288565 860708625 908941744 137594512 520377874 59715733 564498330 125947653 451636882 925759423 390313579 527671056 775192584 102017209 708670720 576953454 679329522 618097262 452035923 266406305 409505449 240030984 813509705 90791889 823538617 481092404 337510884 927767888 542433337 274295900 687678270 19175569 627443205 42352752 452150186 46374104 34038136 762632313 232535420 769949032 973507092 204017351 515256272 755417597 636852522 43983900 889551791 74437697 257827522 532670955 436718950 888708761 535392623 43736918 505022439 428831558 847108192 464479274 493247864 654120207 188632146 31530722 164567074 165179599 341167281 147310046 742600631 963612203 148007984 318983914 142436207 130658971 757900737 910099032 479502065 644589559 87984365 44840639 420567024 348344306 421590497 520677512 226614617 119452375 646595228 346709836 458778511 505156341 421297172 860600509 832861868 803978162 398399408 674700719 606793484 608423981 638345106 285313060 523265400 846211417 488597200 578960591 316694385 529226931 694418500 390309932 564483354 904424319 265331927 792602834 839483297 134430495 274243691 114785407 610981242 351645436 106824660 288080696 60738842 657919625 10899852 123757989 142930846 146432655 371997125 775958386 518829562 749193455 789456996 874334654 594084150 148833592 240696563 272123735 952436970 500855477 797932163 316868248 426687272 278567835 846578956 24853895 908974695 710748277 319183795 443783376 72138818 643348986 291826973 374322699 219025663 568941052 963232535 350885928 910495844 355273230 130540528 591192328 879879949 737621417 84276822 797341595 416906351 535935074 149046691 249975798 681955024 711748289 545424936 100359657 767700320 33231338 803728497 718016701 39885833 649372876 1732541 101854703 486347277 358861320 613139585 39029159 892264688 486581205 497311429 26243221 163646579 629173597 7244940 278901464 122014176 773428733 396798506 128367326 116473188 90717675 528668302 637814941 769036838 948384840 258127196 333018030 203806812 901482139 697302063 746955749 397575755 640903719 169621246 711076197 143547866 695155460 92021487 910073027 53103851 618590060 966470325 231722543 710197882 461187508 67736307 782780845 228163401 120110970 921611453 821019078 560692519 900143153 382842938 150184201 96970586 88238414 258371571 773949580 953442111 558822799 184933680 166594863 517130459 65426759 432600553 413071305 112853708 293606689 523136133 888374739 464644139 748173090 891456944 65156171 278939210 982663018 822392303 55073726 365485 317895644 745404354 411321226 761647741 952798540 454425255 921532745 38495268 493526248 60721681 919946411 109448786 624486491 868422949 679588511 879729937 248339489 429113509 338054022 816514992 377264816 78328863 665104350 820138302 998721801 631175655 105066819 160928051 424658643 203305044 934798233 719238578 212088510 58139976 649278878 209164888 659112786 544437166 324400950 431143712 794710436 222822437 270549415 412190591 573084054 399850153 718671840 962582311 436868039 523693912 304808859 890240040 712409009 401985236 52176495 269126868 74740615 729182417 674360124 75191846 358804776 595531178 595650277 927241624 760103805 192407560 490973882 789722525 648558430 193149850 753216357 725023321 872430774 952399360 535596182 147249715 821460613 81870737 410966815 325189001 192608206 515980807 576754661 523394740 530613536 319504526 158860275 588665717 415005808 500466595 25057548 181912641 710656614 404311211 339375762 60582685 33151247 395328750 313908435 374313601 229663015 325312486 277621513 812420276 805953480 611742878 14946461 491889313 406487418 394926381 847770549 929258874 798413379 454621157 760189406 300627994 652561956 666831775 803596049 476717468 335727561 345006863 257257223 620628435 182126071 158063277 743994088 816753760 155678740 914307989 189386119 292196884 961799020 387632597 375300398 704874619 774288453 377878396 351577794 236082327 627150840 4149463 121261853 448607000 235177841 538194081 591386888 57774244 595507697 259267526 93179041 419986612 511827411 7839559 948114064 784306065 521953214 663947708 894945834 938182134 885267977 211347451 967885762 305278411 794151986 923806923 517759715 94359593 168893417 237190534 757398248 4728081 524821747 324962115 888977178 256898804 895875605 133792006 538943592 728539598 10982105 725169253 182261973 266345280 528032478 68490653 88254285 861183381 691254165 198105513 109127975 927193938 21857775 207229989 676758155 800906689 469027585 596117162 534051732 483721364 848743642 633473038 216461948 164171877 895080567 768868531 945284407 776162844 368467220 904058206 783934310 18676211 335987697 694485290 9715842 749542066 480024515 452010416 967294321 170335190 941679393 407284923 32328671 947472126 617342058 127719083 963079330 183715988 540416482 942151961 526268235 111898522 872395296 369821050 753984416 62285589 889266859 396567705 188370642 131756012 293555601 197897901 313608888 356441956 874926578 946398999 187128741 80325973 306005558 846965934 560561659 620747405 100305189 681094493 949146026 615775884 196987337 560723235 204638676 114596658 109492027 250536229 203466558 213806390 355388383 827198402 9904647 977813758 254397164 414549115 234921756 802000997 46519473 692506482 971025633 893435675 890134699 100413330 969379276 874958209 952856990 845486100 597238999 412644861 635480944 893469994 293731411 978614731 437067980 4676234 430515235 660516597 998757697 40790663 258501070 118029017 366071698 770437282 661570764 994645934 148058170 567434765 298470342 54666889 779916084 731872962 428318743 950401382 153292460 898341820 368153188 872729968 999868216 389526770 904344421 531802625 214324596 154778813 514221436 366855397 121491698 582562183 297420712 536944848 883312073 271346832 905386553 49509907 949713075 729427221 415536337 454388956 737411636 421452225 506798127 847838242 961401524 126802765 897879353 773440064 617936882 118841646 514865448 245392429 253308123 509883988 982039429 380412044 208419892 860547063 204897073 748715367 293129697 945854118 579301707 772181735 973202413 138908091 375354427 926068191 849737203 88520051 773953962 950208257 24368012 669264498 805362213 676298096 762250367 883598280 416054683 130381021 817477604 705095349 242362096 310149666 103947667 605406038 538293709 695874941 138869644 67744452 381088999 306590794 432837083 307506840 712642968 932759898 803868244 436722349 242863760 972323611 983849606 128765997 172173401 361174631 121670674 370583895 678904636 437382961 263604663 767553327 347703459 903358982 412800570 320931914 372398159 169107229 450728638 587732272 596473436 702821670 509678021 975687313 322565119 583209012 151313553 488174267 954617468 854065837 254552074 174845931 120647549 834099352 744627858 106981251 168386590 233795534 331695181 761689749 934495287 377737221 776241723 324617978 385072727 601245439 282170049 464189701 368398236 138775077 619879691 370115770 424646005 393132017 538982589 251636614 224769909 853597621 578336990 654356699 560270015 524640977 675435257 821332328 479737174 25479958 895551983 381011632 218021346 211219385 426708881 384655652 550065621 148161139 444023070 354497742 789493929 316966675 849637798 66564135 814906224 798073176 763420238 854769675 530768308 140369354 759630166 469194343 672839575 409920301 419306867 324788622 909214017 390790717 74653093 269648813 970713954 689951572 151527635 221047856 325015500 943609179 901609658 948017812 420484722 720630081 480199019 805175158 422361356 233572067 935764932 915045006 435033428 142508674 602430595 672440236 42017342 852714330 793142850 543116482 737393036 737112336 933550671 562563535 712243604 492928643 832553649 2070282 709739722 980161065 673409147 498106793 437032171 753432308 188735189 732541349 842023484 634688043 627998276 257000695 292278326 586343422 248867565 675010184 52802881 91528622 828338871 205178414 412103946 388204277 489912097 46356461 170399746 868666731 701443064 72708030 390352366 497066943 714088411 731789477 78802634 977555266 161404242 534565180 194987960 258914552 651282087 401351269 836186514 215061715 372633422 473795837 95135444 178776424 811548713 209850130 173401453 357488732 427432499 931178439 452146034 330423168 731586625 319642585 966848904 498192201 233295171 494815642 209828079 663576985 667473395 323595173 124448819 35872523 4729348 262797810 672910201 10233748 374315425 594248217 440007431 61937128 345942474 877242593 588460505 901178744 72347193 514421365 849102124 973979872 283300877 889932642 141619026 326133664 988717953 210298254 517383662 821140082 789559975 177912734 935922743 424887533 636280894 670999286 202690437 175112753 826801600 915534690 735393941 338056200 788961351 474049436 894273479 341443083 784305455 470335556 255804871 803977131 554973526 914885774 773258110 26800608 576169181 365435689 964574109 546429489 129087877 358385063 791898602 638820080 105104962 271509978 11641640 699831688 922177545 627403921 925448853 248938871 597313396 601423618 998825723 907813952 475101314 432511435 776911938 82711754 18619736 200099747 820813008 435538552 66312894 691437127 950371475 826058087 689360726 504722548 314592997 297029358 40164039 913782330 507499213 31242916 381075251 17782237 113667357 113337712 435346048 172520294 361520988 982158222 626274734 582921558 600949375 14557654 166748105 522009758 40847675 211248422 616546485 156743964 32994787 347002872 812560278 461205017 36383337 957129372 352223026 109847139 547348140 949149936 389785478 720293005 84341557 167204433 543737332 638447555 877185930 787903442 99641577 777969075 882684752 156596333 936066358 964196055 127543284 137510600 48594135 217750182 56246315 883528156 734411769 912213596 543149830 148849614 109423387 202964547 418204123 382942046 724117768 224900241 780257522 751263260 925363792 828399526 292880961 90629231 754954347 367917731 269090478 700984159 862395535 325944829 4107104 321314913 213126675 341847018 974264669 349669707 7306958 595878164 609687015 780798154 258570913 998849146 608486258 620394893 68818487 636093368 302207119 507690407 429907456 377236024 442079424 218893455 769492576 366478123 74793459 899671937 711022088 547117358 760947096 849625539 766504701 49303822 819403154 901600716 195292157 713103094 137941196 31864699 460313035 992067546 10355205 498121235 157313446 833475839 662282794 245833405 891488826 415751131 277727492 58867233 754128885 774749276 190752315 417965988 181623157 426215700 481781918 148966801 816676305 839962111 584702542 836824946 379920779 181403085 198125658 230152417 680187323 326314826 984675340 938359381 61454230 340357411 289476357 847861911 157606875 772738588 395271015 399368601 78772423 55324625 358386114 871644117 773163609 697736452 253608524 342781794 953337204 118816228 828825416 483465297 942410740 177093437 218774827 910676890 177259712 934294090 657863085 728370733 241728171 656379865 64191986 43681824 789375593 800724738 955517656 912640366 357394962 533915501 605764173 451761577 688783128 193428905 628662521 668812358 945875772 844866534 284351062 943623488 412149396 548903683 28968831 90844360 574267715 133248077 829476138 470006273 853167107 973071733 19190668 141118515 6325963 405601736 317154074 191144454 162931087 233650077 810416649 732771956 546762706 913609642 725500089 989649158 987389970 954432885 287085984 589009212 699247352 809485504 519699536 692479420 567576641 897400319 369435754 270056401 970912881 674422966 716229777 315681225 86484624 990924586 179919007 230145390 914844217 491060145 389813968 812357603 940286978 560046533 378263711 496775098 320330954 772144170 613640584 990850144 378829686 669758771 112807097 159132443 563995968 193768556 457198196 394523155 161394625 373671816 912748487 594898294 926464144 681840357 231105208 948019284 111523444 830927574 189085630 150931229 937566843 325448500 307541246 161341598 546092539 617521625 669676884 672770927 358099408 865704523 279110492 920136124 168180795 315594713 973267442 534970152 279274374 249122673 819982828 546606431 282255468 208162500 55182363 824022673 501448247 853105766 797461733 221370041 671237860 475728168 102449688 789689508 978779594 817148768 734052734 997626390 146542602 114669697 662463076 587391767 279987833 618204674 667316153 803136464 864280661 187662795 651172108 226177149 703164720 993854078 79615839 774348045 430183929 810079099 870555139 728433608 284116350 938413779 49767017 372537676 396470832 622159011 27026698 533028043 885821276 556107279 718267424 55229492 690751984 270547951 564424201 725474808 854947467 769293413 518577338 84709956 624369952 6537400 986082831 726018087 445644318 379124458 489097645 585254796 384881482 937762434 261808669 160586206 543154319 892534273 248421912 770015395 970260616 628163308 488972785 535580127 794339164 935164827 36245631 393778897 908187813 777591240 780882086 694205674 84788225 375349715 441581446 993017026 97673546 72577140 238682371 300036668 18112187 153181751 667948984 125889592 516592625 636316380 574026003 342333578 338196965 856137821 486768295 977695159 480398998 354056343 296287502 912093854 598843010 376666815 63328152 907218040 849805333 815000563 268664726 444997787 882863830 71310780 943575775 696510781 735491627 462954859 178639693 213638046 975620901 743709418 353560893 634357095 735371316 829225193 19596724 658749711 122164821 34655743 366024090 695389949 494750476 256773182 668970931 577153714 161503255 961472132 888910715 246242809 311534341 628526412 875134866 492975547 19457560 49956266 639601928 873878210 70860414 938230082 791308384 952994896 89556689 252724613 812855883 141061211 815302815 422011843 625417106 22035136 720704876 818178065 366149734 250944879 342184903 303523691 236610454 59443899 346465846 137218106 513965310 712751437 721344644 221606774 41727900 669867710 205326224 745802788 937373938 709647807 498848854 333958177 935179459 475844779 314183075 859443877 998554426 392690398 825018835 121827334 545819278 570129061 338868755 977898445 437236974 559767202 162180655 561492756 937360867 486399428 590631931 976975320 178175584 222140854 982665719 896956179 417417818 136926964 658536775 68772522 883143998 760509676 389012508 776502470 642897761 771708910 69065064 947937153 428927581 867582935 715281077 216650918 437597424 695930527 48348047 907579803 857037095 792264294 298964051 656483686 801591082 749501818 172612997 558494510 345353839 569390712 201618192 65151496 419321110 407838023 45470961 850549390 80363989 824415584 74008715 543957695 391883734 972505920 73391506 926036762 72944245 596485158 271786507 438117621 276186158 960840051 671481195 254457448 625151035 409087990 381265318 726083944 837308357 305434604 942046804 724359583 59995629 949422870 681792905 691840661 329743024 476435947 519359058 295071188 291567774 252451912 27539005 32422871 539896334 315428241 410538831 613551358 175635887 766468101 792351613 939277740 203887705 487303589 378611847 50866912 756395223 622697478 988843071 37338362 748165422 429430549 106658448 403154391 533379933 142728717 844642664 993027069 883674320 123356314 47432951 196362219 704690940 222564199 827543269 988133940 451698075 947299887 854126128 150814563 336539458 378733511 20858566 739592930 302925352 950717056 152223421 592247903 372218757 45325778 424984689 775347458 351490033 82428990 426164504 558129977 96672173 738885075 44735826 630106030 612550069 340049025 365769954 500751632 168786412 362931186 367275071 463608963 757743937 364233337 121860271 412281100 938372470 820448382 715449651 850194031 300030428 592074547 719892539 900358204 145294293 420827134 264363951 972033131 322889481 796251038 904147146 57459284 50157113 300103098 718622082 648428431 18114736 855926379 9151976 686647476 947097414 546274038 849685253 532079775 863733776 384698230 618373795 126483591 666024608 885774952 176114270 999173726 159342496 734994038 973738811 910780168 480390098 721342029 877475346 764007486 27605303 561759907 496865673 861362560 88575370 655077729 355781631 984042437 18117314 874910461 178909236 521176089 620340565 247787589 602353728 848500298 274263012 457800046 737528540 343149322 3317772 602616617 711986776 232064785 187220340 372334929 596701426 78878612 868268098 19326244 794878081 557622473 326813009 17496121 696969431 863337474 908350879 782973615 45524251 533667118 857645887 501660527 437328582 431762998 805274217 182844972 868339040 893907449 948043028 758160150 156869394 106305400 112167129 86766648 750972514 436645386 562398353 428079925 834284624 56599858 628794389 96752077 433726584 936666279 103073375 78145059 358110524 231899247 350266561 402411141 344212798 21033733 162723089 555003915 282123301 463751173 992722092 986759106 817554605 397979670 928142349 264456061 98684875 482412499 547235788 448120162 64845855 999271218 650382039 348877716 906672677 551633639 551838780 809933700 784062706 866400699 426596358 379926998 84057045 379512702 586659621 639598319 702891814 30306975 120486693 853619802 652581489 830128106 954912811 180419168 245146472 830212124 445760454 97057710 716656998 879127903 141312314 10089762 39453948 133280990 664253375 899353477 991644374 159916802 792301549 876546309 92791593 238441246 889232956 757215439 580345738 434849612 339194290 655417752 980406545 283627030 516942326 122282554 388564443 629168982 119464007 388394917 452000148 313334150 145502219 617163341 458510254 743370408 734538436 502249471 40592097 821590819 658107517 414876521 216552977 312953918 890804381 466783516 27421117 648076727 600391049 305042275 528251619 980221425 739889806 285417383 937817062 93753961 913529869 862075443 689517258 526065316 816390918 103027978 897207777 99207591 436838461 787569559 725633367 923439585 891013462 806003593 527350300 759818200 10092559 829428868 264728929 887471016 43885556 77048665 709222090 245422899 823880908 49147828 845156254 967200922 271076263 533021079 61181068 492556210 587333320 437228627 58259422 650133918 295687656 12566979 802830253 305987968 313550239 449352229 969678809 212838530 613049891 345894589 715219939 564957783 644827647 322473248 914948263 559917160 663178032 821406605 957243469 198487552 477905641 236285467 327876754 30765898 553880083 183977494 140027509 367053398 833449590 832259201 950894554 414910589 798834597 556603531 989387592 214764702 439776298 72786169 352387048 402880434 89184568 145327663 334976422 254632078 674667617 452898730 270555196 910734913 634265862 62253424 417180079 758892414 473410690 552580860 947998391 676029593 502582115 106354320 342153079 171542214 707885914 540107011 929686974 210291201 464114473 423136492 369412722 548683333 53364800 524712971 491517594 948768758 49733586 217476632 396746242 878534232 524835120 284396352 220176382 118546027 740091226 289523776 102014134 671372470 222837979 632331457 70770469 383384335 583324392 532667832 398017976 767926721 647741954 352253802 802944938 23702605 630891105 875463253 61315004 830225795 593531174 53610780 108265481 672922827 696180698 276317882 160641398 572616816 169336582 545124813 118564281 99333952 381597430 196773671 829853940 141376397 932874017 639945 688295094 195269802 732544528 233014787 313217220 861096805 446062340 111040782 94736011 776107549 662883729 467992885 312165957 761507170 764019197 602554923 809629914 927647399 42408351 498241266 543620032 850500718 964287747 686066126 885192102 132371688 870370924 333565018 390778290 694934618 680641436 419092357 250794637 976222491 360263154 182559219 947982552 68506815 694196906 458366701 179027201 921072791 146195273 905313242 25806455 466441336 795319308 345901248 2793038 187546304 473893184 210833582 286084345 982461978 386856953 856823935 26386974 551335348 528047016 871712269 915305027 561979176 879968394 48087126 602122221 74315951 386458368 635301074 443755184 561477376 498059674 560132292 978534737 478239875 447482921 240704594 327614987 131849844 891149416 442485130 982251102 826468609 256460310 475932198 552995886 782573601 275270786 423635675 980317634 534874183 534437170 706563846 113856601 825853798 440089655 894368205 917741810 528666784 960916317 823109758 378435873 694207795 447262496 852636185 374645963 902579750 103218559 751554880 794960989 348006941 265165405 294551144 906635085 249529697 63440533 923277250 469470969 148448747 629902817 114435023 534205339 859728607 50594976 493842616 670453700 234857465 271186379 489195020 916538090 517128720 30300796 335856988 52280809 220443477 519382194 932763049 519672230 254894104 971150863 396287402 171043312 57239386 684557689 124680885 697565921 177037328 971859239 789304784 935380882 791774309 183564510 438505267 831832017 245351126 678752812 42443475 150014839 342542630 663327141 587866863 142637519 306786410 916268743 952604924 350349315 748293677 887774551 681807187 267921338 971510457 895750824 525271670 975327203 633669819 124640571 406703174 544278897 122559653 902153251 917452091 704148756 462591040 21909858 430829570 856290375 945716478 627857275 384655550 851282284 45396199 111614378 821302543 516356806 815080118 263727458 94072835 694250567 749533590 911965908 298503544 345691837 434449642 964090967 710468156 680256268 906537436 67176494 23623380 47778028 392043323 800080996 187470637 43416993 377600800 204425808 708554599 62017973 340095541 782696987 606203050 634407848 360259372 655534201 478013813 935672092 574583639 806548668 79597428 664396197 803934940 166876360 843570559 173072927 433808061 357352242 587357762 247759024 431988425 900251233 496428004 934739755 368906590 812963146 930375386 610385449 649918748 89952678 780359354 237909243 811042741 684548972 350382276 226455746 693657651 217201676 94814646 604955658 195047798 404070465 187412208 805635175 403764700 656912198 371669968 895652479 772369940 866317144 112684629 518600983 694993174 10207580 750929949 656914917 467168493 85167992 428253154 940295166 164020533 889312170 731835292 984651990 513793347 948074141 402011991 941901003 678877368 18603070 706627470 714709490 492595256 773556185 590133982 15942926 317956419 875224898 471061509 14527825 502426563 998483596 499387505 264870657 801472052 632088668 291909923 941836189 4536598 887326628 996567226 874491625 109595814 19585048 135174745 591007421 445389682 245627502 888556501 149910742 300908286 578418073 451827617 429446711 861092633 856311056 680300083 598407986 453260873 162427468 256447279 129344148 513580044 256858159 911154990 777863988 565303965 123623031 303246058 511992909 139853306 204767724 307497982 821127245 931126168 974399191 767969067 546444185 211794166 159179421 344338990 165047145 273125036 822563780 866886657 887892354 860826630 423352107 526709874 161136637 313032658 950558836 11775584 958213213 209956221 690790750 700030046 118026730 821156909 575063919 260157460 693427068 742771124 850703459 351087119 441402723 54344120 716872644 34559807 885412192 868120395 661246352 588965100 716759554 834427177 968100071 297050833 511789732 407015840 924028420 306320397 386867550 841762867 259269718 506482711 72942605 503976092 874383303 794161981 968080819 285698739 48794105 535006906 474444698 442301198 332706623 932859183 959527828 909031474 108927278 51581141 75094503 605264123 92084133 551744221 244586575 466352953 630512079 577150868 511273406 43415259 820173981 335022371 51403851 146913919 836644936 337766913 702187332 739854849 938802658 567352908 958085962 708097862 563605632 992411850 341776527 378490047 62013213 240239434 3048772 930399313 874769829 369837807 172256891 735485735 916290894 571085375 554689445 744228878 20299825 831131184 978012061 311553727 663357799 637059253 89843910 673927059 749028282 436230664 804461524 738445327 559813116 65100853 802276606 737340872 596781513 946591866 239073943 38081636 928973663 633603717 837164704 737077986 728115072 5877743 201707712 313098796 695485273 121333314 182107544 499971127 935318452 799113476 317840079 278210757 454222926 742459908 712075064 506137535 261273238 913176871 678378393 509074498 812745633 140969240 739882579 559912319 813866696 595546900 818341194 77603369 650258538 737795474 144825962 185095969 655094191 689884943 389248397 102136059 241157598 657564503 547072000 336979235 748143270 78347584 682271278 549689802 449505512 693034264 668757696 418970770 597436886 726151163 93850412 529227935 788472600 326314450 235288686 411287732 705954898 846439238 237922416 963252730 567283923 567130924 975039592 778985610 798935019 601963070 685514100 314787320 175500616 647386192 337359271 370757709 46972260 665467982 862339814 812973381 383343476 274804540 1375659 197599287 884263065 766421640 217895247 464340618 251962162 830978814 953837474 785308699 327765502 245954258 655909496 840093303 103023829 902166464 104176029 423284660 388366689 48219021 949256016 980256689 61868909 480457284 355517037 575615099 329851688 894964693 166151941 862233603 414715388 413867786 78339697 818877694 879676416 31722440 378108843 502488707 785484353 56241566 712908799 521213386 354860284 308768212 50222425 817837827 728392135 342896446 635979642 614308098 664980359 1518807 638754714 361624187 281141748 742603263 217463316 326540375 837064666 889411201 338865819 878590807 212709187 31028868 650840650 84473685 310519558 980776583 642321379 331382272 181130179 141634735 444414662 581347953 182277219 634731619 320876574 92262426 829663394 684499490 854143924 168071145 159580467 379762072 772487148 571908117 238618811 887791820 272656992 753915640 640848436 533497239 438941236 255016089 25687380 38274440 912387810 178859930 895112526 228405237 837718861 250784017 725630390 553603885 84492609 105173679 249600771 802055882 490560288 311516153 455670884 24229200 737941902 151883286 522407333 143638931 773474533 89420272 458788316 564947338 684714470 494180403 744576338 390213166 173447698 410142936 498206917 621026252 613706153 828064765 750583492 251242086 479956017 455106694 913161635 499997950 392815867 809488409 452783169 25213516 925461802 520633213 930183757 261361211 758714686 332770987 424793738 118813933 321914191 998972571 344378675 987346417 220319275 627796536 33063331 575375914 316277327 986471777 329097036 666200272 99754158 927023773 950896535 9676506 179808200 39621748 497624749 791255678 870021660 543224750 927602801 362415068 480611143 827438550 108150489 715650142 338739343 582936072 212721968 517931670 218910842 782306030 843135267 270725963 159350511 486954549 620037195 60931622 1310598 964901605 248750638 960396722 666357379 350357789 34772859 569086991 896990231 548312474 67821677 978941300 505550887 397737496 141798293 849471768 167468639 754704103 151958370 126089067 864927908 310266317 723129574 483823844 277629568 838081392 655208405 366950445 800317335 498169104 131738769 556280310 171105509 530235750 217498482 861499652 626277028 77507854 553390106 482083560 770772770 372279467 741841161 655715766 135207931 533083694 900584109 26277889 567968299 352921704 956941975 767684085 770769087 487801953 980598133 826240643 714823780 1013142 541369449 59509373 362446474 305264942 758796555 466840874 997023402 605357593 135200741 680699549 786535014 643562540 442169596 706661794 335596041 458100441 11265063 14437764 352957756 952426699 913569924 766097487 584526491 88281502 119399063 384825952 201330885 729075437 314858687 348569234 570311227 112753273 885609902 757106706 936427362 590953517 421314213 814739018 568802491 186838749 650884737 172645731 660833590 309101497 975232410 947214073 469135901 619772195 506842255 859601892 279461260 298056560 362725263 149308398 562039535 323166108 990585544 605989611 705581230 90086394 186140697 718600026 119932973 677913601 41984454 796480865 28177017 258364390 129315792 592812122 45471067 277667069 211649781 541397664 895251959 165693748 623889747 758026814 104696935 328077244 187304819 389016216 70661979 315373300 128098881 171183663 188527747 811286151 72795299 147880735 599072486 217456374 658272398 135568400 106961615 771727267 882878026 91171540 843132001 991039964 934559104 185463756 203283787 385904561 816568116 608597024 387969050 50967865 972794969 772994829 287391081 670421035 466560287 764333918 71546044 665009033 159529805 896213999 226409373 217686117 221015605 119556002 327459266 975004648 870219012 439503076 996542557 223004679 183856210 935339283 951437480 887262058 115559967 431559454 199027970 692932450 902450528 245725128 109476633 536987994 562973918 524515277 179884919 936284319 974577283 330558711 19220849 453130658 238523785 201590786 236883189 562499304 754062342 248246219 548723585 929049856 89495845 381328336 920127840 104770823 169870583 136404896 783221813 993948542 199238131 742476633 327872344 773214237 882067050 336543670 552089816 563652565 101252902 415511111 725594262 60077134 388477243 398323223 973307371 738555787 287986380 692090898 318797128 636757041 719182564 647517910 429362558 148329077 8895599 288869974 211516256 566771854 502393347 426830854 96850631 258677917 570125780 882206596 849356188 42172981 332034849 618035843 596562800 747970138 350972296 278727680 98966647 542367838 357505342 923347218 499290607 813044048 429223263 858231068 559330893 928735401 224052196 452262616 310481756 604545782 211681326 756470655 543163848 862699393 866610164 740572432 301718671 945989124 182166878 31856754 631214954 894900694 50719934 353234486 757326827 169290094 262767255 200522432 564724245 806511868 83217603 49464850 874035604 486956231 228121862 8914817 551445018 767136672 845718061 581161602 76072338 69523427 892309915 558081364 310869314 137940431 276851114 847574625 562191511 729692956 186732718 186891643 531077491 807525190 235148558 649717689 82300431 501471360 669130201 323811161 390942197 86566332 868778853 756443508 443459253 782500768 324459723 833405842 898952733 348324601 193382570 838912524 54978783 440976351 674745371 583239865 920148778 68930488 667871068 136030878 916284454 357749905 342209665 351090992 496918501 689540386 264270706 168621680 301445495 898628656 357208830 456028659 938695733 236386793 335267585 991120363 778035107 605390256 965536489 725126433 848964450 68540333 244422825 996713563 92399753 762012448 420135875 999853562 474507005 520163538 399682248 953049982 821067368 386078798 823268569 879772420 637681042 118036894 338626989 815025921 527745753 162030351 512048993 398946883 267069937 216901962 71553538 67694046 603149788 591879249 953984697 964859763 62267897 476013663 948806048 87388648 13522897 325428938 375785274 249446548 84996983 388786511 652639645 107221422 572139620 138221849 193804773 705709991 282182657 185011218 556631096 790690551 999004024 724368760 321620055 736062631 768318253 813477071 615222221 189731856 17029141 344733400 621023530 595342879 422445031 528311924 380515734 604710343 882521937 128132089 929066382 465038893 320016974 418191620 709347040 449981196 102208539 149044311 518689292 965534799 59702579 133617137 133840009 144110771 272490809 201204406 495334891 485669455 302880176 473863938 604731270 802234171 929240921 558776338 12598772 533163098 527581647 884753943 27514889 153875463 139600756 828110062 560246740 533787269 731043013 915468989 356061218 687486600 113680391 897648021 754878637 324171244 475617811 616491654 724103170 450427703 148242970 513755234 692448531 245137462 774419783 960955070 40435308 909053962 385711006 777697878 716901622 612062060 70303415 346210004 839187771 231310497 762152435 539559337 314198909 582476773 844627423 382894579 112113485 764908337 407416808 880530904 144643367 977870087 210294455 518935982 827862792 370971728 319256463 328784457 497377523 124081642 855455868 556797562 231152262 961214113 620147728 573800956 632771397 247324697 384674971 424632594 187449435 948293487 600066417 618347417 360225349 83761808 638695723 457012453 532080343 169025998 984045334 864249358 37179867 105002812 674106229 132042137 491426198 740539345 26278323 908225486 496631858 911810876 661751863 528793516 446119727 630104170 704948550 457980579 784702570 526149360 500345196 181666609 496532140 933372898 226473368 920421942 368623987 886679510 225336595 736625163 763952930 173835681 766222721 481835174 676774068 512646976 510330681 994531634 879066100 330290355 996210590 36578192 526678868 966650542 722331921 883048097 524086939 477033431 244824562 207463877 119130535 997623318 409163284 864408059 776646027 447724603 223974539 510468050 888443721 499415094 335258387 606005156 602609400 406063096 969655676 951962844 980420294 326737091 777595768 916879461 64305396 673916848 984591554 422214864 677810672 722135718 260188682 507851641 671110239 911503144 921460596 731303978 149671825 535286961 973384147 99302168 596344808 10440511 355656298 231813416 667067662 145722884 510391112 679601378 797998880 280341337 245432761 206582788 72389317 189186846 270010655 259136855 479749382 254070172 39495304 905417549 1937156 880434648 431536074 133433073 16584705 604636545 543572702 561064781 641147783 434224914 550924481 800224815 154412711 390288125 998742929 260487813 488768192 465390941 406831556 818467995 434131292 47436126 374626465 117093310 869074927 483790469 462689144 529174594 494649951 169009877 822563428 88788241 207260847 570656689 42847558 142287564 265810827 176933058 70063409 137247497 812381151 537186675 825167714 251862077 489814923 746564799 387530777 917789803 897094629 26595877 114981493 173485989 703392881 351691694 222797782 32755726 561638976 778989528 131298 662717436 941491685 937780283 513438119 621729310 499272268 206138797 987303215 550902206 873721361 752691078 514422879 195033922 242765316 975100111 105058060 628414823 122607880 485200785 727448968 385684841 485689445 909507295 734398028 374861945 242558524 160716783 791548911 542855775 495579013 658283132 323909349 226314380 371266873 272108824 293459555 280545520 81057376 568767643 366833200 49930849 11759934 304844925 34927277 696930054 736941392 167534283 336702975 748677888 496557073 647840615 342359703 84827039 96028322 568521129 989384913 130510075 24151804 325392441 180734865 685736990 269901305 469455401 618979229 464043205 545049983 281292006 201753649 23200181 734109249 867204930 50157917 133991096 280420686 862008655 438606104 234535516 780137666 997125617 468635159 844774156 982173390 179535441 285173784 897124222 737202651 548802496 211183838 281520515 528815281 115365472 49359319 568085894 4285441 929231222 753297981 600250565 370484756 592815758 155141985 701619705 386254062 327495862 366861520 706571648 594177868 849187331 612937653 963238521 284553348 906779335 693486559 863874283 511280264 716090424 993275302 567928578 441104206 957796721 910275840 132961561 997195547 744969537 694400453 159354463 974432200 730661252 584567944 908247529 46823394 161467450 569057118 298461379 70584626 990151481 241399146 549234123 428589612 629016341 102986718 122577857 811688442 940186079 595837249 85794706 353247338 294552659 522894750 163385996 165149685 766741899 96912786 460613189 984507778 975088658 199180680 411946595 450994012 453426446 999896802 456591991 303863024 909051401 637349556 487000691 963848935 284670977 599195268 267295047 57916884 286724603 902533008 73381736 44214342 971848711 198209521 147229297 39610997 841288025 268111168 660336842 236886906 64852755 929289211 207784394 161894315 918398173 839849370 294187496 612718369 761431218 304653856 173699469 188097164 516215139 507800232 809821013 973083612 147372865 759472813 765672414 450770695 392091552 955518608 948107094 4924111 440593817 364467019 938245399 879791077 885084915 240591329 810095725 605067193 85533232 240232426 179361079 700971135 86993932 784510367 910328321 414214398 157409974 620336964 20263682 188796868 984958117 934137759 843906570 797626636 179571919 453824217 51202915 150233 609448850 116901531 641825117 360860094 26909138 825610714 245359268 289954370 383122031 368562088 692470255 784527665 549632417 196804165 951492807 507237492 544832330 372665901 804663769 331945915 879804759 67227308 935265016 209112574 957378696 701158119 148444458 243027604 236289266 819539200 865326630 1648633 630017512 272351076 285574208 363478208 442138002 240654410 902940432 448221205 505998544 202746895 480583572 920390698 900491344 236056848 171322103 508352404 733214467 634504462 775096999 80190286 63048033 171084793 405932339 254853877 910819653 577985145 876736242 955464716 561546493 464150358 152293983 336437806 666158387 181769902 945798985 676155477 43422210 981732592 671189371 870218489 84834940 457387722 725340249 32132772 741669819 387610865 913224575 201027303 77757087 658068690 382558638 600641247 872635837 953059775 998062337 947543330 392188609 129940291 198995388 734790807 60055519 43700070 417652892 270943925 811910222 593342576 84957990 510739864 24006814 261116376 397827638 697269961 578921060 605910471 432216778 849796168 778763421 364012144 286519750 258936860 643411137 379115309 709823319 571183754 49126647 433194001 621335716 856909737 432414212 845233367 283277804 138401006 389702770 877847735 8005401 895063135 904635856 284685644 254260075 661009581 16579184 216430990 237756629 786254604 223800056 983541694 139219038 692077571 617109904 18341538 120559946 589019949 194774812 715699653 49909238 642144671 810521020 795740238 192935107 585121024 963114447 134549650 635568148 449131024 30238581 950172313 829278763 739427410 351083682 883817522 662923059 319833570 209308157 770898830 14797305 728892159 717688426 730962344 610842901 851434386 973773958 931701366 272549932 603023210 951032560 754653758 495520777 816351388 325582435 100027247 953919591 622295700 203127990 485369907 858365740 227931706 311948013 440967430 22667265 64528483 196028506 742292176 987041798 582455988 656092851 106069985 654254818 87485038 198513611 518911857 754967695 920021025 473403195 263763341 724409006 935765927 799234089 939234158 774467888 463234667 811425319 919401312 55135446 871551934 389064341 217018778 158224365 286107197 90420024 679253518 891072154 368775503 481670597 171694287 706061311 598163185 359845672 893572046 515915748 69970556 488362966 676499075 544029056 412041825 395235343 588354133 78502816 228012779 254076273 291141252 705028973 403385582 860543266 720715572 631339114 176288291 130345715 621234543 790487977 642187037 848730154 390525012 998758878 314827025 708256583 252118705 37120882 893658290 539106107 40285444 611846025 122127345 717452795 464190181 146334443 717543339 570257373 325608027 105547491 360266064 138625234 469524440 411742878 610552496 916911849 361395634 961755157 467698142 155584706 463962840 418591093 28405268 562755500 238113226 765854355 214786547 200715671 276241108 529385406 771185636 810692686 812641545 357188732 187264112 547883976 881952353 448247629 333940565 653015980 149895688 952396660 632584374 477907948 321704284 195879656 826149533 575220369 550499060 971512877 121921821 874651994 356389470 871797150 107503426 546568747 836951668 864257401 600159117 959498212 910658742 214911286 407959641 167049044 263601387 232263010 233612723 350795235 768769146 52710371 726567112 158465890 174757871 71961709 163733083 342759812 149097023 814634706 165253811 6900918 483980133 929454979 550933616 816180563 375576162 509049513 499237725 539840132 665035060 200611678 11518845 131877713 512089607 728699240 740523492 772657221 303993546 469629982 355838830 46861467 128515835 12442680 286847928 845947730 390300599 500309670 29795564 57953433 217041582 628186886 16873272 164046802 935429427 237574950 502114231 703210222 565815977 55868029 981276954 262194174 130640832 913720943 295135689 958492488 116304570 420223861 198133501 788163269 51555128 327068232 459076736 852048899 5027790 744985873 627628688 740320675 161542193 122705140 287047667 93249061 764735947 797129464 845840296 69132220 327222270 833374414 563040603 872217142 195191351 846373823 860719331 729009230 943852351 527583485 460165272 561186213 605675925 797178894 880997530 344066593 206615478 578595329 88508998 605497914 979855401 997483724 803145579 146258824 689054742 779362729 419704458 657998772 917270961 357718217 752477239 52350450 98616450 306675047 389331737 574507484 255998831 347926783 517279287 603748623 914983601 668137552 632035026 226411574 519499087 935199794 289586007 35413963 4636119 443625235 42936372 335001901 50682913 80998361 878957151 136772561 703789411 639471624 984168904 473749099 66852740 969813104 330605328 574125431 126762087 65167625 541970121 998728713 774247533 399769339 234301170 185963970 65270642 917941542 425018428 612844010 92434842 160727421 389099618 72279854 657420209 904624922 627335310 779440546 548281658 249822734 204814230 13288390 738753423 782046195 798488594 943454297 133704671 804960567 227793654 645816458 319022846 79070707 76969623 959731579 718515200 610790229 93777804 546914876 121948134 354925655 283635452 409875917 432830848 880912335 392828900 214609862 823812193 858939176 942544710 160320197 238032015 522340118 926467736 672819489 98022096 836901617 962388113 335025771 733917850 659531360 657253425 248139297 379741366 810551031 494421945 104848721 700353809 201042465 106054455 369973496 718100005 715387835 732086611 44769654 200716717 228883850 480526739 839698243 304017615 353304345 869915062 314522736 651600358 500624450 101124954 352750348 208600091 704198146 481504259 811512258 555794126 681215004 634644880 592391348 904609914 15405267 15837647 131090882 714941418 73543617 125459541 687402837 531143366 610663900 68015470 890945088 820932336 147853454 540064980 784889 128647824 838088841 754791303 613757337 148122330 775126069 964919844 938390799 558257608 976759834 924298674 8954262 958716919 743790251 16187538 431723369 42820038 386706388 785780866 153549082 148911040 800374507 119615127 529840186 809376114 369173890 713997402 268743176 565440907 24061857 522997593 670393485 738956002 838747972 818458975 245456309 121682039 552975218 907941255 92296585 825960845 67773026 324559105 760532117 675134444 110261093 427266265 656575216 939357391 331917490 699409740 283279296 588079529 990351199 271238114 873260524 843755499 910448564 112566653 837291389 48852514 922926324 886428585 383850329 709881362 766032714 232624099 42171358 277700126 107522794 711463825 744124505 284881933 240865490 84818987 723147858 925922495 722067476 935145960 566728 379886302 541902593 760099665 733106423 576277456 389371821 76271968 866810882 812690290 561894209 56132839 766623464 62273993 178737645 849774614 487367705 893335427 320936544 458491277 319592167 852579955 301978540 627346618 953985944 245883875 957448436 162430531 709297650 654159771 698572238 667357472 319452797 664162187 692892638 582888371 517562152 575518077 539900576 392703042 967227558 333473831 244766413 641795831 676547258 817585453 453618684 573490310 465827282 210674986 604715730 517949003 458964645 873586905 158512364 313709677 514600298 795117352 532582508 960153509 830551027 298091272 40591006 636574471 637595251 789911800 206683959 832516921 848502523 787411577 283329100 696588838 430870251 84623508 200801388 219218209 88006683 332475344 729270254 589476812 59025097 642830392 50495061 562806632 494213791 431186440 650892727 857681520 260634431 789205579 98049845 660634284 928379838 397313562 189566781 718457538 246387302 17279058 392077967 936793026 29807919 915060884 624023949 82703523 300534189 242131857 317558589 787529580 13527518 930014119 574981403 378527875 841543840 672702277 405320155 243448204 918572700 558492780 813387202 96592175 263727244 591096763 381374324 463340455 141338066 366305812 134166531 964355272 800751927 49442379 933339499 694799186 399764023 437482207 808397628 965460906 711890915 91974449 625204603 326675607 375054266 930841871 727673105 334113357 495705295 239033736 268085533 266270149 384633499 83670991 655644682 365756296 92316096 550038873 424770484 815412730 168422257 755099255 730600359 536042522 400832408 16503943 50858910 845494612 228118928 507883338 599594526 811034570 560471781 421329212 262339502 751168978 148831533 919618320 297307732 821851627 56156793 496015918 424733788 599132607 194367221 752274254 861065067 240293016 811151836 227782532 204144703 721732035 1724747 182993901 813980313 734410124 38118011 943265904 8446959 524710118 871625283 514630456 257695309 647271553 353997166 302608447 653654483 25908919 112148410 903317013 859623160 728157283 493285520 463916953 355568464 491065952
