8876
945434911 337366119 869023459 561112063 531019403 847826761 65073912 251511945 829500622 262221639 311536294 754780281 937690084 824870808 368817442 214981188 964460323 973476871 421271190 179187435 758318025 207393881 741484734 837960673 345461104 551252569 795150241 572951219 253571209 867467465 234859720 42152294 333539993 928401299 217925287 7306363 400094544 47754196 994799213 975579270 201572618 945208256 328475847 561348862 207843284 567707659 719973515 97986730 63396136 749832519 98589682 551083686 424525429 600372264 436189166 231065416 119583688 41182410 646751189 51674207 217920857 373823648 600180750 959302449 899596166 29552779 561296419 304549928 30039212 663641467 169833582 732025789 370766681 575107737 177949143 102889783 146914150 933742485 976423641 208591349 965420220 467277542 155788366 403379600 850322218 552379825 107708314 566193884 172303686 17140054 830731488 29892906 602950545 912789775 578652964 450176152 139172064 779932038 59994109 814634344 446144208 531753205 579163462 687650386 546441651 120756850 225588488 958180529 273051501 506388413 387697966 540238790 164005566 933599009 841579578 350558484 690318653 774134732 183153593 79382542 563793831 50261568 831160894 873186768 508362557 209481545 366718288 680157951 152777932 948810882 95624697 849822333 646522972 140857809 977482634 429457166 874670605 13615795 295488182 783984543 403774227 207432228 463282696 299183584 605318839 841127090 154189046 941644305 949178666 657790500 812769901 819535248 14885856 275669759 528865232 295431437 830486711 313649912 780721761 101365428 235193932 428051290 561194460 31249420 368613469 428139904 489655551 459414135 747986388 865176338 709738322 572908969 634140472 465124511 133813714 564288805 16521587 872489620 268418137 13760677 590035874 357679389 658039397 131047777 43485190 58609835 571019491 228194145 559279226 51334760 804349605 20409805 708711343 392184503 237269236 144955218 194506595 616530381 723123567 121807868 933121389 808641943 829045564 554473121 35468320 76915660 295019030 882799141 472236959 5158278 407121672 354357369 563005107 344499657 753765928 122723448 70181050 942090578 444124178 279013356 739990757 462193212 449979483 775957626 698743396 200171955 260821687 116584566 317350606 631608473 922681056 784203153 38210690 296127946 666251496 609101438 593298077 28697654 422333998 756194297 142501951 2116500 852242821 746296532 177566801 286533603 66724163 79232558 379813959 609155653 930818196 533031502 849997368 257927470 276563876 899382872 245532266 938445329 213019768 457261264 8752826 434217583 177542588 442646263 964351160 746360545 160157177 573021451 915405508 454860980 952059397 41277737 234667850 726437422 686570176 696331490 43187660 274887223 751866301 437532728 331874141 642055777 646618815 440992218 312355847 465991959 489932174 774630247 708484996 2868447 508508559 546144909 522025088 533499473 313600438 158631130 150092056 572317852 738216117 270297828 189093615 349485758 536171840 798038372 786526559 939160135 672411757 210401183 711556596 405548744 33888492 56822771 725117086 844042879 826514624 520637925 926643662 859239015 787534812 914150150 727379889 86794163 648853960 54237197 926446538 314806127 86318926 613039535 830171506 417269752 437472048 909646181 716848280 411660104 769724757 103709040 276966411 360152913 157984261 218096188 507186689 993962201 436082907 154864780 365164435 52842805 675163036 112011113 418373499 290350261 569047569 536739652 142436996 888020518 928219820 805346526 206750817 112839170 833793235 503516210 636334236 899241645 286799756 2566038 388862642 936145541 49081335 865206643 502129669 717244729 548218694 935052448 445204428 895492984 138497686 300931833 688615858 468033475 910525531 446661763 430921516 188594821 523166276 552364907 60014213 934640112 52267698 410011687 315301419 872831596 41408262 912632729 210732054 232921455 369832939 818929137 956147842 700383991 479747670 608919387 838420633 235580141 537501760 895221268 685317809 928054453 848813361 545031143 136360945 86166420 30504067 758369267 627312713 251325673 424749626 144099408 811785554 875348159 70375331 386340879 682355806 356687378 373209348 983806174 907751116 863929154 919711899 818112412 529617249 489280615 344143769 630837789 486677035 861042639 534276630 351820837 872533472 265431877 606856458 463417381 797086834 295916859 701937772 735623845 134877392 145032787 228269221 882292905 369886974 732302882 217092277 717446362 973143828 394956129 565507512 887411764 551636739 121482886 69535658 370424441 16230621 987545513 974763655 68806800 986987892 105444873 377403756 862556271 80436188 833617176 393947622 725207841 582355398 647752931 291874561 65262571 377588150 176156262 385343351 100201138 661398274 146689843 425719046 489825146 614611548 278174185 935558912 250989693 286218195 14254946 60531250 375056847 69517784 625206395 218163355 764145782 873502382 321989968 114099013 6906822 957284577 415441461 118733469 939809599 789275411 765653871 128785029 305691142 286653183 274443771 214147352 186726389 208370211 536898918 633425263 156611178 174344786 968652026 908217824 678928930 143688497 530535154 106760225 131139927 848763181 138914551 919464391 258157591 61576396 313051864 211255561 668939635 253831867 332525872 84969071 752975867 90584007 610075786 328146528 208984934 116569511 771444060 543298171 973345899 328861427 500117693 834047011 185704839 600424532 873922303 605718576 336831302 188176654 607101097 306831174 766528627 221327559 447847111 240250687 396279110 474476045 518770376 668721838 841277558 863309733 965879367 238851951 172817203 12506915 255250828 96826131 566662999 613076343 161540219 641235301 806559176 658396698 106588844 733086769 834476023 199759032 505848608 289864740 151709664 676477777 712872531 119743384 47306042 475093186 122456695 723055585 810777272 573912109 668416506 289071706 100484992 623601232 294247594 372068102 876216762 858419436 992081542 191953356 712718422 137503044 781883499 246684155 91808583 960515851 544358001 586086013 514721737 425552389 556249565 38373410 182114624 966826525 334949011 758930548 121512639 419403562 403147139 179551279 121194124 50606069 972812902 962627211 222284184 854033339 777566548 416659718 281965530 818357384 289661897 607225209 869998029 844095333 761005531 648491561 160602507 436537938 524642061 875623392 258165449 739616851 692633630 364028669 922088579 230330076 132561455 294720671 966657619 825833985 182728240 762353939 824930275 617570636 164522099 3606207 755382747 595949184 219188149 385389080 385075613 185835540 694473348 644784799 316120354 200966101 45855816 389067078 956623159 344620514 234368587 57236192 967206629 985865728 194140186 987479424 27150494 285426806 886580091 599356119 301523835 751462157 320027334 572466354 577269380 825450282 791271264 304034199 40999849 449556733 172209225 893888915 656527085 917837536 372751853 543764384 76449164 407715621 443749234 74744190 104929860 934744865 506604179 945234857 757159285 514996635 94034797 213120256 966696982 503318249 531089981 136282253 368577195 396135749 172676672 507231550 654838818 899957853 583561071 617559270 542425728 265213382 311042213 756181598 99242875 837112503 385873255 372531190 819087080 679162800 434548685 445282560 951167054 440678634 504203982 543368442 782373151 749034368 84847719 32800792 819157051 979510438 513367936 489601521 237155862 281411679 570765044 859603299 680054798 776168838 369709310 384919320 291538135 541864347 681697082 256715400 902000963 950804461 378250610 273863672 939898479 46279807 298738588 479361893 709270254 40776668 560746516 743837093 60930289 979123895 797530393 126210210 902642618 39692268 341958248 3542899 781739101 739924034 247566055 864830045 912620339 966991670 573171776 257308613 549645719 946950885 302008632 996767701 893228966 950899803 989375195 350692060 734154520 794877427 151393952 848027157 368441015 369680217 368703515 841984105 469518942 718548608 733689492 518015302 355338955 313124850 986912698 649505871 912843915 363935172 169495023 803432147 474576402 395235711 168458734 65860475 794112190 90210612 998953077 303484036 883807195 336606227 928560442 286352888 785146976 921825407 425108102 224088847 730143586 212158711 82614088 706234879 989419953 967696958 230167051 643091378 537890307 12207708 540298096 135838219 912187968 497710914 601527585 869751777 776135860 109145609 606326935 671168133 830389648 757623317 468032915 763489195 380758241 313364334 788287344 799967024 863908846 862380363 786129196 855718999 220600012 275715674 180560056 854274096 705999574 557148818 601751925 687027279 392573404 78410199 155589970 884272695 612854538 102241668 4094243 46219348 725358411 506784006 747343669 232746639 348658495 418738383 883754715 214929858 502257613 166645923 629751465 86795984 218647816 839438353 264367697 382368889 527973369 958446905 175578334 140846973 403937966 961039441 507018523 498010129 139780200 305710873 470831365 388629707 830913049 102778172 171988095 671923876 801812124 505030807 812661631 665717169 213615619 406016044 189222279 275352775 364320478 563908911 231271449 226297480 312143377 488404761 83447448 426694688 170326620 291159060 946606570 714599634 40950821 585703308 303750754 749593926 48158030 748014703 165026923 493351307 125143854 28621183 719343567 95171722 366146926 983362387 817390225 619284124 202808684 415463202 999904552 88993772 950285273 936796781 732638648 261135844 99057328 190336786 112804434 104405533 89810399 296828153 897001491 783893502 621378984 541834657 71639541 578999457 924032110 103075081 32997278 683909533 285397871 194241359 526144202 576184306 266821909 591056992 685674483 506028444 156967566 905881431 503235367 817780891 69273494 215990668 48340024 903774804 47036032 66668806 847596507 549261784 293946749 172847334 389975178 70308508 766886764 262208158 61857841 641128710 590102488 143290771 681570519 80525565 802736481 482484533 244246315 83804149 388530296 327305413 188569206 707106403 248452804 980364682 240143901 825923135 144806683 667457536 570093251 433356739 420260554 682797454 577102997 570196687 455358301 817229015 564086434 876728206 804418219 794292312 62741473 387816727 179313735 569638077 617641676 416585933 853816649 18974554 253076937 942292613 281750697 336346793 614693946 457603709 830601458 164685558 543914158 26898653 501597894 51850820 292509841 197005502 995869316 802503573 417812450 595247902 674117596 216346896 143413550 764048730 64878060 897260771 192204428 317581971 399181638 968059621 254158079 64391880 231829891 194771819 804246043 935944259 556031757 503709312 468997764 340722906 101727596 609902227 89595737 371867335 521950305 386332092 559805180 343409849 187929340 372680732 99867577 169060834 103709125 685433881 807285134 51611529 650382335 763472713 165479582 121073431 291368897 36232593 121795404 815023252 146421798 128283 435000015 135629780 574866711 968486437 940544492 413449776 989087069 961475061 832076271 872773576 311717685 323128173 171442255 662023356 900307287 834247189 858791093 666302874 928380391 10195814 538031019 976916515 470275097 840022312 998869741 886933709 333177328 937788002 236389762 5853203 521058075 48150603 856511599 573518161 468693472 494479527 370852912 472967564 985488842 934945475 694534200 953450312 487440526 251649289 876164342 60451218 429366945 588747713 277440719 35117916 907527239 477710981 884146286 116624434 809498666 828137938 714363487 345975283 561635452 367470793 927211757 703979205 250383996 690670418 621648227 426397936 601828584 490556879 779544752 178970020 953194996 95160161 434389833 537436399 441596660 792960129 405094153 288164560 231718481 433393249 792115225 835609159 471535854 980420728 439363751 237536649 353998449 421715632 31034297 756611014 244911812 17839352 22499343 268405728 910464814 7212992 775657353 255266617 70709852 829848944 200274796 190249596 627335481 527193335 350601539 273692592 553338776 964815142 813675375 136123836 936232059 172134607 607802046 900816466 549087220 968366529 977254499 323091344 281215428 697059460 515162361 117914824 718876641 218834694 438017603 284709997 463206562 432058772 10220039 258129844 339231421 625584334 927277975 453539358 210574017 109298107 729521492 207355394 571713652 675497216 967562326 915435755 379806488 30571086 73685929 487359437 63725891 632261718 405834109 419597609 547501537 725251012 517433037 663936891 916434639 655821475 529407065 468558614 197045518 272380994 209107893 900848354 193911998 695205194 918156383 140114777 181265894 897133491 841665616 241656838 49468995 79980018 336739909 253644995 290194438 782324277 962026981 658350451 742849069 139076826 478359474 161510482 420033376 50425305 75650144 524416152 104103664 580400146 878436712 896787778 216101518 498459358 730436899 651222451 136530064 604426366 27382302 251462452 296637159 551941783 467601595 202219944 807048920 579998668 907482876 173422065 521055123 281194833 31983174 222881379 294554732 228248954 685381335 186380653 603147722 92076085 187387260 725076281 671784055 531547963 648469116 591597452 631955861 505195341 685713414 883927755 981625942 593813918 984954263 666909079 744971468 180617093 295438235 668306803 959413646 607671693 598874762 828817919 544495089 445518090 684104197 436300903 773674214 768779409 446259085 665108085 501859899 726914480 482083212 747032227 516233164 60737931 814733513 1813348 266221563 903903452 700165651 582182607 537111566 451045722 986397047 600816351 608227951 562955942 43633359 583531291 701692789 799641285 842830884 161914535 827303849 226475484 228521022 169253143 253648335 273951650 525706091 301264504 539637117 645406410 918795294 968138776 367126937 224500769 231396326 787880133 373700662 802246710 429885508 186489485 627545751 5260981 845772513 685291599 586773212 868019585 525807909 28049819 343221955 764757269 644176821 137167981 195823416 532586734 722485125 536361220 42827488 336955515 349697130 149320552 759507818 119776936 537719955 945364334 620944762 793682607 495331694 653460808 522078007 283213196 507435750 40396582 940430978 461040691 977929142 658180617 554939546 953634913 85910064 15894319 840771632 373119673 488359028 410070310 924951366 826501024 137928532 478450935 193188389 364291471 610996275 426089060 302960976 236945961 878935731 377437925 303577146 880000831 180975189 216437267 262086195 597676555 204744037 103153300 604756135 36620113 811332418 603475804 866052170 608182749 21194730 131139087 507057536 225206459 31562984 849536431 182534828 566996745 415715340 741798224 997055476 315784672 416290367 91878199 200990471 253432218 979671137 860341386 370978162 182604578 278983639 742951924 477872311 661248293 826047180 252188321 427119336 802128222 37192609 475447210 696135318 766958547 746947066 920510463 391297822 263749233 994730450 538081183 999544724 756773384 73717158 444021600 930666357 669589227 64949301 820562463 956579522 522745835 490575149 532834300 9949975 103681316 356109416 593912536 487398552 90345980 695897060 882128735 505865262 494965062 353721346 539807511 30018346 523012606 171574269 516108291 377719489 404794458 817376270 515203030 609963724 721749317 603320732 25640845 772582120 336490545 421619256 15410985 135832068 514796783 888477792 130445110 144078595 126954929 759917652 658413316 660562430 542797728 106154196 990107322 699239680 366261416 656647889 828089179 464608393 499404341 394300820 616312211 922355394 750188369 235783205 518474545 222992094 972482718 807024600 501247433 699495517 272011790 944330995 212672083 785409012 147692385 727750012 658661739 370701358 969011791 670203886 54082482 19008810 289020642 636735103 604981036 591741493 537518215 625237869 793250530 360229259 163749143 210503402 865170912 490421402 92956613 393211952 393814082 681594722 691086102 793307627 780962604 35297145 905256881 66137459 49248804 152875961 649647478 770938007 942080424 745463601 77168538 290530363 125071863 46052373 316998078 443155694 893084303 513079233 401516062 350714215 781863155 94152136 626114540 315901021 869799572 882041584 795527380 641001715 588634902 239456609 943877586 826538941 867908042 543526545 656948563 439121361 716135675 933696264 258057316 93898155 640791731 767921674 446608892 742580801 421030216 990476202 707290123 967399388 309197005 158866970 261353368 173415712 259513488 414044605 316079538 797840919 714895271 181957280 776387118 166348647 825125462 763888328 909237322 497832277 389676684 635086289 573166347 140560460 87748197 685277049 756683290 197977297 451855451 179640694 325371573 551149557 566602918 409111062 514443876 474103240 37586902 359972857 558772730 308089576 439213260 791214973 559263449 663130546 527286755 509448041 516392851 637835279 204475595 974877984 853652319 79399748 699640601 7035054 375413448 657170329 236877403 567256424 794732689 363219285 675386063 856403116 469812493 952117716 738673567 889236027 546115174 378465438 785239072 405263919 146631144 119211596 299429462 409136375 774809197 412485618 404513842 894501111 646302157 506073221 886565887 803738046 757286849 383058526 425821024 831013619 193352959 677494334 374711352 52480901 971043566 775871990 369317587 11095171 31991335 939625212 369880670 8094620 227412340 752553653 717731809 389658960 339645732 503260766 142992177 854888235 591259367 836564918 752900219 624678456 76108543 120262561 954767165 996432614 851621124 475101702 555406748 442238734 143352061 90244014 531630877 140484275 322501246 813399232 834686312 525621543 945210371 571245048 345594447 304790753 784147247 588467163 503415964 850730798 982518053 529258407 705346635 266931329 338065002 641483366 591670508 83291106 219299298 985694481 598368276 25103558 970567184 282505703 85034916 53636600 876381269 187378276 268218271 28996396 120588359 239269658 884000596 171777281 839011304 909139752 497033224 210963803 847470088 448456889 10165620 455458307 267483927 128476639 345841509 330462183 330556001 624666100 634527838 478291797 483516871 161397608 151836736 829796398 887546916 100237693 350863419 231923140 527940249 443506164 497057071 627082876 858960665 524713515 959589961 666239714 322431049 484546183 463092425 736982570 984425366 414187327 321466335 738680220 949944477 178785051 489426461 756619161 169233190 847204217 595154821 683683771 249493162 904885406 996442654 14302946 373163783 245749139 704391910 70254235 204929870 303669199 561383464 433432030 523142692 753728300 700839746 969933162 400895875 136518597 87072091 847081013 788639504 439460752 73132842 831941281 451689823 99287697 391612806 766169549 892937334 244416684 32598509 714612375 809450143 421749177 157225496 875104194 944743993 140509067 168516158 398896830 553248455 579412790 54116492 722713739 256418155 230171829 562638617 522705597 59096922 548829578 460942256 149043950 116361179 280024828 778774026 143269574 158210395 73440016 302674099 863522893 556225021 556585171 356212516 84184565 373579942 884526822 736385100 231933426 182456484 516272421 509330268 289388166 651805249 577600721 2668683 103511351 534529140 134310449 686605868 354638078 772229114 349103741 287257338 366541190 740696875 563339666 429663575 492061213 353133527 609258875 611803748 949734679 689103745 944299685 114184328 510928506 999502729 383128369 97563328 181773578 500132725 352000562 263619871 32010514 718214786 959302174 134418071 940279191 183975279 112524893 415610059 439963411 903199489 861759691 255217521 581551757 731225996 520669218 536315410 923367750 748316752 448174779 133832810 483927976 987866024 696834829 352761264 865319170 270341218 872734093 946843027 518974630 184084038 545188730 155422133 326520050 474638398 146676709 229546002 257876939 249870823 309524841 446668752 127823784 812265182 325637542 300348353 127339293 143742207 751426871 871332773 747909716 488051926 105867475 132928677 471518817 609859295 761913444 198807954 758240975 51136759 852863344 51249063 861151489 860133222 937917932 509738220 305970468 644730951 6621819 397858806 244287876 676154660 341091758 231724915 833782423 617220023 867081076 552633414 977717284 869583269 498680014 310447786 136657754 594725003 593316782 475673177 777849735 290445798 115084752 80662061 15616778 1020336 788527230 103829728 471736591 869866699 602498581 529149336 534609102 641047774 682989660 533626675 272780932 824306256 392345868 87729844 327408704 848351260 941062590 315651395 930573703 583048597 187527737 116628899 481255381 941220348 277657177 669023689 15104035 795041052 807255382 294575030 722774502 676550689 865987924 482336094 457469970 475116515 762767456 18792147 357099383 566988974 481693670 491006854 393213714 444742627 346010067 164672284 880823715 637747277 863315997 987113153 112803028 152629867 481018217 281399241 688554166 703450387 404966030 331767843 716122417 970574448 208995738 972976100 239271260 171336120 159960825 220236217 435510577 26940051 404775148 6387465 228471783 254934415 8500255 331544109 18786066 526960 936408602 847868704 808880607 426585641 411961990 223833472 492183452 792070407 963338795 154438757 843593768 954097941 724623159 60714688 592074581 284635790 349232277 877410684 833594269 87492604 279031175 697059833 679289495 537093171 369854793 192455513 620128765 355584524 368420959 795818101 396228071 995084013 992777997 857182266 731331948 469305034 561883836 234592506 79363291 889354504 854291725 273953888 618937858 653322322 351444438 45843958 507504285 380899533 124362268 629446770 157589212 721337659 549742567 231672691 597063182 94513314 82387873 169774024 481915454 266254590 705073652 84722857 99297183 281956688 92845853 164531452 868251749 225478078 383025020 539819456 572924191 140039319 830930989 185792465 199603426 292597692 693272276 443442244 28926351 990266804 33739106 930305874 837516441 885166183 310203868 110783177 408229978 942132544 354042110 744818974 386276274 867355260 595172258 512127865 831176579 114825168 743550200 440493027 822897530 908191942 983660418 870547687 474973520 680180241 612344554 449838295 71780173 383193112 190082313 547014154 643958296 529655924 580561863 288214789 38406184 857727620 349957464 688851174 542706684 734287271 677236328 292038239 179773946 994332156 499321494 691721283 237227888 123548669 409504042 305120833 724152799 244887213 55767375 888147299 738347351 306900113 385784173 525287442 264520347 797254120 975745941 347912767 840955631 941940883 623645896 342587310 642941139 311983391 700454184 784553589 607892334 202562076 70953432 416347845 467399668 82556629 190649414 232059952 323548940 889615443 731537512 323371389 806761833 433305852 76553556 946358264 91086240 112248677 918405531 257655275 994174426 608788162 837470066 460969717 717326081 445998966 605127188 829791687 933428766 67179890 743448275 854869503 940182802 415286805 360391262 39870429 889335528 473900911 82681686 770111170 544111490 132190780 694537759 608227749 31090480 125184368 672942284 900980648 893147012 229879922 475387011 656312023 279555584 684367969 125692314 120124450 23316976 23842604 385078790 686244530 369223904 403965832 388575572 42084021 17630660 502110822 911196702 548209340 945509882 278360721 532228964 781356669 180885638 670129941 466283468 200136695 923863901 959664090 513094633 700490997 853056919 814372849 225088643 402171983 405862476 674166783 50280444 738174162 999769628 8861308 100257114 176704528 490342246 519005443 893374584 468732528 362535215 864512333 766437129 604690098 428009714 514335602 515258438 259001138 347368552 215231460 908442357 439926658 301310367 22829585 908008771 77117079 715980495 121385551 40744728 936909623 989616382 363876283 247796488 914400879 589014295 441843616 523691450 935774685 566659698 596432589 982415956 305021516 322518913 161735478 128374896 581890380 722394295 897539743 107264818 637742898 4130426 996151199 806534130 324147776 962081325 306092297 874600998 640812207 74437907 658239852 665862433 109789109 120453099 318678661 288468792 407154500 356828881 609452133 783947682 2649928 332790362 604066628 374935071 761479777 220683891 172965982 220389357 464929793 442285348 176575893 533304292 375925570 947499870 462626460 244567195 128782960 923433057 198073167 652369731 492732327 463009137 165819875 629650425 485611147 383145081 749712186 740118614 125801528 622395067 655426 960019597 277942659 657374191 222784436 888038065 397420990 7900223 906703790 547657642 484037508 458383692 365629413 37892342 549815165 767037919 555492909 25515577 707416052 112372053 917885778 126779263 502994244 236554570 746150618 926062626 226405648 97892974 463445696 381779021 947176362 925308319 58677109 328343159 585951796 706103917 691422904 100739416 342969332 882850842 248817164 758045037 306799953 655477424 817310924 844566903 992879540 392951840 220542978 545135080 486691189 338296665 392536814 511271175 361663545 582237758 36772703 420039933 634597546 218741669 758198074 210638515 743731060 284476095 489848386 522546292 824495911 102489018 436926406 177975616 251532076 207245641 572048482 116969259 479560187 28245529 954082202 919569891 344675210 525161677 505952492 671674850 426008317 727992436 619350154 480607443 975557660 712297177 48026228 633139640 869420754 931943885 564086627 908408506 404742305 524331722 555572630 867290149 52632461 497269713 158971161 49563452 399925764 689351213 598104268 868511915 851046440 262356167 832040548 813155945 632070710 392709238 442465366 834545291 474168850 287660606 579272115 147568429 731220994 376413454 350397102 634667455 727361292 937329802 695416151 146990103 884916334 575533294 319694192 178617821 247135507 463197478 530892423 479966993 42767386 512224027 16525970 660804066 188197661 231937223 924756909 701304332 901329217 655957654 100204974 870848249 467737797 397039278 431198883 487238414 809794662 511611476 816360594 923459588 975294872 770802848 139580598 979313409 988908821 984298627 200169807 11184472 103741286 260333941 270274668 866338887 143991451 769189024 469968714 749899235 392742009 126976432 533478457 418216644 260139846 467247317 675684713 277509976 309622404 535305704 521753419 56514981 140933174 142470895 34287757 101318536 539846159 335557915 709299991 930806661 731056340 482681382 32197077 243227933 705885073 22003852 262223457 395592561 205863589 83422768 273083420 893575928 634016129 184635921 369539321 56061711 814969566 499094741 690250300 85962179 595529631 55465487 290729991 271703644 963554133 476585414 603186208 723534001 192944467 566169704 712036402 710236643 288529018 885041459 683312381 232054516 105906413 140483114 154380109 982385245 524160247 785106541 427666504 918293658 137723295 306907355 904940829 386130863 438888816 388385475 357842046 780420691 542151144 788727411 325729949 842625975 278116453 859008038 918067863 382575734 444301448 76809647 865127813 247740332 943259403 53681881 273022081 76928967 494529404 264591699 964374556 33854402 8041798 892791210 806096332 480415150 770290198 867836561 756906628 234625705 704708845 375468271 484831476 287604770 665334866 89262950 434415452 171895725 247631347 267924712 201518603 356196049 146038164 516429993 742550479 397553923 149373299 121605196 590201169 842758513 69508315 443485220 498589410 832770937 555756403 17400104 433552050 567219336 917475654 806245171 915666236 533971842 184685763 33657257 520905694 321741164 264948182 957927922 339682244 522773591 785728829 846720532 294605832 868925959 644127680 62903976 468174483 70159994 874074015 74976450 549419008 204542002 765824147 497212011 593086375 257511744 791958502 149893965 995604847 443094186 316153725 225426681 564366647 345500928 171196063 480429245 557080403 99215895 907849150 210546783 205846017 300869650 539052288 134590385 378579534 146624027 972714744 468290863 730041676 73211841 963596181 792291193 848803345 683498554 60926736 416747392 499103916 866484622 49584289 554869995 666673671 819597308 453709778 81127410 757685245 792411808 71843350 385126855 979124898 94314143 746752086 810217623 439193107 853239320 578650567 891758365 710113937 778109355 267787711 33329217 834760455 896898391 876333617 801072551 305427372 979764793 316074483 765075943 474372354 405974196 319172351 589562501 92564983 61506276 908179325 346247411 748817759 31198993 100490196 557170441 803000944 772533752 976921914 778185930 675924267 167884041 477347947 387718665 331573677 142774585 117309488 738452903 305982207 152117303 977808057 505539309 851702499 464053738 475714777 370423253 728396002 440733243 308576745 459191793 986688509 682814469 115942398 803632632 240513094 205371954 338458906 881155378 562519731 273724635 920169418 674120228 71897048 523876841 731100730 618002613 94661116 254294481 431037082 520657590 376599054 48233033 546006480 639278200 438179658 507783330 440868090 228889945 870351025 613124547 798975906 879737623 209445087 892057470 485300721 955042661 501495476 895847205 38320215 855314785 329967398 318239563 14895184 127126302 32197471 95070079 48597311 281603586 440714819 388492696 799199237 121714735 193085222 506229106 111562910 976368181 336751261 803955913 302978788 612639335 880479735 289174177 254606640 539420573 957581721 289754173 18088321 680350312 62266613 833216710 345227986 573768071 590113542 962257069 830634993 271387095 350254974 289406028 492914983 419501534 599313662 410636785 425921790 735425307 360866393 127979543 16575894 673426493 49758037 510247671 879704338 723984673 682543226 148054745 892708027 814053667 298775347 738020777 376712240 315957581 745330072 795312165 164575796 342649825 559964137 617924718 634924677 642318824 799894256 156699948 848301771 710991005 258196038 450006357 589245466 962117384 9280334 83860767 587717823 485266609 356441859 892423575 761818182 398643881 765054049 382944427 907652107 530638125 959908739 508418228 666298319 456190592 540270398 271152261 540833475 767947588 116825645 456311411 111433667 129855666 177541350 74828393 617086783 758772519 373334727 84655624 254211773 204520236 647091566 929681603 865791141 629583240 872404647 341667591 252276076 697703355 673051085 440075710 155322012 521499228 872596840 873030313 360849258 270499005 92004861 464625346 551314122 932442662 415789150 262312124 143085978 924319190 618356575 750420786 719443180 646863221 958912343 386755213 314922302 254344804 574581799 684975308 439525668 982315278 844960781 473937189 966315761 422545627 538846998 994694501 513823379 483353894 782759722 883008823 341204711 341404265 239542522 336821935 181542384 39787506 204205470 511954982 710370379 347182986 234863765 648549242 651184074 131354358 297263423 381898736 273352947 920935700 44996575 518941613 442573672 648709031 88806020 742163290 790575959 447304974 411295297 372348132 626717174 689964725 398136932 980145027 47907824 898323203 43604139 609746239 435862215 292033428 32364038 600770531 210081970 788167048 369577754 753467956 955649642 535749298 826772898 919618003 781948472 522683030 355261996 665757499 483861302 366489869 34348583 168920516 970338315 542377614 345048862 182659263 159158822 749833097 263974885 280271236 444214270 587763035 217276800 879008948 177561149 704537325 663044513 62082003 773688181 891796865 408182612 432469190 565834467 598578829 541462186 816846763 726118228 551729629 863874254 376516204 344858610 707373502 263208615 444385739 993597958 529870091 440357614 380750820 893983391 129385143 85286274 795485085 881317168 14228222 187888013 553421556 308654789 368494523 597294358 843698415 382844693 514220436 349389500 592100754 247583815 871027970 132547639 589124072 562942767 657104217 519230763 668357181 599312788 104631188 824092694 563728790 297716825 102900731 684758047 402235190 841881414 751786020 187029673 907963966 719514823 228227227 680760294 950398102 547099980 986367646 715116619 518752062 244009853 683751896 721007453 779708342 437156066 899532677 977469560 497693784 824385628 474248384 433532589 953805082 429909536 464010392 244333916 7889430 140249139 720910077 464575098 994768810 557911963 732089857 230139858 157894675 182342587 137463211 617119643 786829076 201830321 700646083 653694418 839076282 378748229 174038648 129649062 998874620 888282359 741102694 601326223 267187579 576297879 132044823 337176096 738421324 776177300 733565207 445318149 984461329 993258800 527096422 779151808 25073607 367740591 901416272 776482161 156584451 208520716 12045447 666270305 644568208 684983732 750575615 67182795 58101820 331888143 695491108 933229913 669122609 305451235 322437893 817817534 59387588 553658760 759237488 701258517 34011381 706184755 145909104 340812488 54927306 904403751 207362501 436949105 961330285 375043196 673104759 342949726 52054024 717679090 352862688 385705717 644016202 130581926 413205015 437105452 647580866 657105802 855257621 876895189 551010340 916309400 690090425 213662329 901488918 959170992 303044280 623737325 767450507 464690439 307086925 207910650 482204295 975752003 947840501 799192722 129071249 879113872 376167528 905472680 628864029 442787604 139979867 322558396 659511227 509371772 456513051 392113531 118101171 780295841 756871904 820830449 581399542 515901430 186080901 195093758 60647188 969430703 323164665 330130914 584857346 691281029 803040615 888354895 50031088 577377900 502310490 948164216 192132563 132813954 510136809 415342922 938281942 209548792 959854262 752798808 918860462 686022399 87352223 548351896 110247716 832233858 873399117 848163571 548440647 982769305 64521544 168319375 540480261 447314307 283650026 802306296 148938158 788724414 11335244 898773308 642394375 500705111 142888263 393803244 524606817 486774015 186921459 32567269 203835406 563757559 897332409 932755112 267454238 861605463 223853027 714406785 780475509 809877762 716460534 906562904 487261391 278209287 73733603 6510329 336732053 888844955 257525573 263800567 221068959 416360740 407455391 59494789 22994395 391984682 159229613 39990241 118515805 499741668 783492784 811358089 10652433 761838449 936858099 332451227 764355265 928292097 922701594 370477771 334658019 636814629 572052663 911921707 78892389 83796682 908538080 681568659 71747547 712629128 900357610 420852567 159918223 354217664 129030621 200307585 879950787 502292676 933396295 906390804 273743028 597454219 98362536 801315534 861904625 206372773 461750464 349120183 566200359 815044190 329083318 864051144 489913867 847487599 298955678 864175455 167602014 208015862 374941435 58236393 705944068 188631698 323186464 761349429 806251852 928435910 382952971 800904411 763757712 373133897 190113769 272768900 519011169 971985121 491970209 807716717 904188328 176390468 159357718 276165970 901007807 246063464 564111965 955876634 580162616 67826562 724551652 945734659 375254110 67116471 189510623 488900851 574360334 44977532 530744186 103779959 659410119 635542797 926374986 411748437 715130937 892055205 499622052 312491497 707962039 328650188 50860883 303574240 647659255 860511412 121280665 225021775 769961531 163836492 628567361 338691793 11002523 391629192 778938171 862791527 69126204 646395793 359724569 512314393 656081869 360181277 416833756 752565658 855745208 767819650 544025440 263989777 690496650 401763071 547742425 124188122 385561772 829937524 289831756 886692261 249629953 624421162 492739618 880479560 925161713 513525940 982496232 87651698 162971455 895171320 422861199 563910021 317969014 323445438 227454989 853218724 334074778 364278920 269509470 111002800 20949889 261267994 958797851 628010454 737972338 119028636 159561285 379145642 40715856 785682275 170838229 511330449 185267347 744972491 770563377 589612698 151162854 678991688 250936284 66585807 739178578 99360373 483351917 205585597 239920103 262429343 432300225 783182853 859005775 752240209 744624893 720854730 237277858 367197960 267977463 25660000 806890070 392995010 306691077 398995479 321543129 536982532 949086694 932101111 916203217 141753860 42617197 929580974 596839211 757114616 456027045 616323237 650428440 272011564 729775948 737098670 306224523 971842386 308352769 259863232 202288892 707651541 11217911 101360696 577314752 571917190 659551077 889924880 581424912 234906320 188680833 196309730 858586497 340012261 554389295 632653975 838111769 35722883 78937555 93907727 871542795 165868124 807647991 949381696 360627446 672045803 611645291 637646635 628631931 663607880 336024011 277914060 15289036 416575527 780277520 622780274 406458235 518849335 227350534 436141778 254340892 387938989 433595250 860974413 498319099 592786840 317441019 57102209 459193079 69732256 46325431 363352923 621117054 62094984 993596381 990805461 858593303 840035174 922834415 501024916 374957592 442360956 191758116 254940855 861858299 434431780 479622012 330381312 543446323 161101658 148837775 210526506 743648185 473266969 460045867 729651364 215652074 165633836 201294641 466992620 683735235 331175887 951597118 519521523 613766833 325260105 367661576 788195474 501440350 506572265 270635825 317224235 539761802 321537287 416226796 859016734 625039603 990163561 388185149 453328037 774112495 97741160 50957549 177276367 244499117 822910595 554615199 868015722 767812185 253226559 387622771 271001771 897893835 851940748 15048438 385903478 937801382 498213680 960494360 121361756 691242635 902458634 689314679 948207927 600013495 595227831 274116483 920296325 756621369 357543090 159702162 163347603 237020759 926491186 59116095 415894826 86715888 919661988 144135715 63596050 272045751 856199859 635293634 622371606 579577097 53084935 366547005 770113029 574639144 127294612 850045603 427208004 642520831 636856603 73041993 622293621 991156906 594780769 471206113 258975640 975957836 458112004 320494716 158941237 205055471 125394489 116997293 639015122 793927411 321888486 439427575 954207830 359733467 375749321 86724026 234303735 161323417 472895388 607521134 489069507 295023156 370920567 880212008 276010571 127678573 912906983 141161426 161653857 130324234 803665970 662017666 620755648 433071602 719546464 603768674 512333061 209534041 754307795 412976553 174195748 482810609 811371097 835739898 355041864 996065914 388322722 325914635 27211243 993948662 866935219 938973464 771491039 355020887 765745221 267437384 969188917 797482981 488193207 703279284 234004389 823361604 330429879 850962831 895420832 17596899 76659130 647220706 74955202 965818407 584840848 989433361 164818648 163113322 544112839 555069978 464823548 475634924 841905485 280707256 606736007 741185541 450125621 672946487 4057246 659522701 227207737 162175105 731889122 913194510 720314120 428280401 879299202 313044012 472206324 769986837 667857128 49857891 210184155 834197001 841288681 264517460 458451375 339020912 821596414 311276670 65942623 38158132 231522699 106745685 113618505 439028103 829196209 519194733 273995222 438051950 864279643 949298444 598853722 491736927 915715218 420028760 763433236 657955755 330032182 947819748 473980857 673137196 337826789 421243876 996533836 783291157 397042831 507185624 955612798 957227603 809669813 977278646 124774917 251804371 420704188 570787465 306158767 699624177 91495574 216457162 38724851 641915158 991679244 210842262 434100823 580643060 529507970 560555497 594711611 577706840 652883771 825386696 3294612 501089234 844076418 761827056 201465220 915764704 36822963 389371549 693830442 55335724 159616560 996137869 935794696 539590295 90416600 856994092 43786787 933891333 331782903 205449208 692711780 864978665 990331033 132206933 533239046 904071675 666361379 250981485 125694135 350272692 918105483 93298349 380412458 340176228 834684370 613693057 48014662 79952628 973389006 797934629 629502986 891629665 858491698 431717278 356906756 745567915 401054811 806279351 501968376 395150397 564267712 510542353 965898324 427068530 206556178 45626758 293081219 256734385 717754010 335986978 493249019 90838722 528210474 228104437 358181842 893318619 293276942 845826404 932702332 222614185 607241246 48303705 240897552 99274825 157025579 484628626 163665891 26869591 150009361 776725749 243797821 648643469 898081872 315775770 423436995 730937402 323897536 566548616 626196429 564471217 564595639 861241646 53206730 52022903 346875926 308923361 813603328 353441515 808738823 336061934 497359498 126940678 277514632 873912715 706503515 631466369 359015375 954970249 26409038 708493634 520753071 395273873 735022899 115471173 665967408 709288405 326007684 621365220 151021074 283382349 297862094 694045458 510844390 760969495 240747630 883244808 460682798 366414833 902114785 131490119 280609948 848147872 495795625 827677131 914509100 206180740 367376899 530399919 958591188 698729360 323123542 677862797 206089785 255451954 341871673 70831695 596954771 178519491 477001840 997168917 818709559 540998796 515179570 950586333 58457241 767505364 186827988 853602624 262833566 723457359 530807278 685281491 135474914 376184788 282627975 228102463 855342830 186712052 711233051 201121589 18942408 984547592 967444248 939777936 923989750 617458287 376582650 444261155 508032320 932560330 994896133 854927600 706848455 10574398 297121669 874166403 305355681 63788583 605404044 295559699 225978563 717462048 386568391 658289020 573439993 192413249 438707649 824835047 833318101 389987117 754392755 341297592 208954015 150655318 63383028 681775779 746346807 994970977 438367115 955394713 380136145 806830015 85563141 558720963 664761564 589280215 496374819 233102915 82765442 749744195 43041165 336810976 381854283 656735670 27598918 66443168 325299307 640278869 534932180 411879649 643967240 610670870 514551586 133947691 276836860 174128979 427502800 824854550 430502606 590542078 293313745 637262645 248477389 502238117 434510902 521604849 26433775 328592075 682465146 396128874 82648530 580929059 193112723 975308160 691078093 193012815 218575047 962308897 27080962 864516195 903991572 357685327 210980953 867200312 979449955 267053235 563278855 29507005 758041756 878633473 813067490 592370693 348521451 651932058 881168048 946625953 255205286 885369765 695948698 803213029 237480671 579964412 87095769 426701119 809405393 561387524 753342254 541595370 683027602 852285878 553714924 628970815 834269097 586729340 769087110 819436765 809233085 684264449 18732562 389746262 50719395 735142583 30081828 361859068 342599562 872736740 836291880 266972876 149787981 497072174 961507472 791308917 374872494 305064417 382339663 746334722 540725542 277405985 590702743 975534441 705669014 10757608 728046873 511080898 830100073 695581122 546526216 686763939 76970674 867237086 74808791 80195006 360639690 282988580 111100151 285114616 714198609 689731887 242576837 470636586 837817594 567138181 470188877 571358974 134942188 69481907 484396288 972580231 648371555 730561636 399960421 438269932 71511006 504243145 526463198 190206852 552717326 597912271 537420340 350680645 857375379 602648103 689019784 925956566 191394480 663827992 771785914 358185678 761949983 348644354 841542248 930173484 240148641 82240851 323961914 667737744 702721872 823647900 919629784 948177456 204778568 904388270 542936798 85154316 741140902 148956159 15664722 875557416 451541595 119603098 956722546 209697127 727830961 598205428 250805065 546017784 5706799 40474411 736659078 538209965 593615026 50662451 817730089 748992463 239050538 614412152 747862697 494869356 91808548 689526250 640850667 866231792 620843628 748239116 171820906 282357033 912657881 271122893 609180455 496576768 740003842 699481755 773458641 235560291 567920897 218107833 785218145 471881582 890439422 190744698 454987911 249365417 535355869 711598794 581990783 358501994 999965034 89319119 345036434 617908114 142397217 252613478 795507131 167832201 796376400 970129470 821493528 113715040 846279282 444040576 180876145 847514564 6435791 706752763 296044591 283325668 562912702 155998319 479134981 715755704 182205147 602626493 409929581 944166822 730604998 477553958 239520062 639589918 749936196 303893731 225199279 388477270 867403205 694726357 370605950 676033331 528991550 706610696 817511505 30612677 341226978 990899447 184066419 199720544 9464059 180900316 297883956 740049775 462855699 900153740 950040606 57582161 56319176 450104847 581829025 226197593 305285168 721023118 561025015 399268855 136550486 406561807 428463265 438722158 878894904 717030612 338244961 681983883 512918055 549546163 902976350 341596380 903007272 651327748 624483613 702102774 731356833 487056434 916650400 500161681 448880169 404225834 332291408 240833231 251443789 501632730 628843966 316850017 688744392 869957063 244851337 587856684 334564535 398097794 953017355 821378999 444144105 927226974 713341891 306817281 481346993 327543812 193583123 635045897 7549262 584223056 788572722 40060925 859912345 650852506 951853388 508277193 546152353 319249611 767496501 909000849 368023760 827124772 872667680 291135888 809576735 338382854 724540676 114588127 676032888 381282100 372608106 238041375 215796908 226236953 848297846 890683949 555971404 891853933 530688638 581654420 204548239 327846992 580470740 22332702 116512751 995351105 987305862 607945656 274490385 185162435 659989083 222693558 313104800 288374301 675327737 254284448 466723256 445336947 736156955 581455199 420442495 580074280 911471518 106714844 471073357 176323532 650709427 292545710 229009295 417046015 200958951 160212889 804289975 175624347 456996020 885589701 792493040 370629716 749404748 883413015 245662929 541369247 193666014 437179109 401902755 174122542 874115000 178132609 14626247 145340422 542743062 946420176 886282778 99397136 429436348 171747968 173824801 746563956 484562081 532055749 887916397 934333812 853480646 222810012 618835108 168025429 715701777 537149446 470880707 909137177 214417063 919678816 130139270 869138308 467824915 656560809 862091533 925110649 43534373 466576284 151122235 355544291 211237172 265027530 409070978 717311175 254820834 53760433 869442420 825173231 417413096 717425115 232140120 844498686 765885652 151643161 125139477 101465468 401660691 355534798 996358143 937474628 322958406 17588507 784176271 779605650 695551280 504095928 4375712 982386895 135139076 94877576 564367085 327029261 709774597 149685208 588427352 465906657 732619343 339107966 23605243 47994541 836336363 743621869 589085351 521538832 29571748 850973607 300151382 777819949 798607450 437177264 952178119 849802848 773253583 732609359 501637510 631601183 34977431 693633570 750646902 930017648 126189275 444416488 288622448 261979011 986484279 161374579 662500655 888361563 701801117 902589001 435265700 789101525 454067828 920651399 276312276 192486418 971085370 499804202 252692437 841819844 62097889 706632194 806119323 947165425 242564668 940116960 418897703 539975342 53645252 163638675 104965287 644672834 808435895 447413727 451685843 833649297 973889440 576015511 235830518 630072564 435020209 547605863 470214245 40050010 209415855 326880740 90769412 871526510 831553407 870021498 943859857 366006917 866018409 440337043 85395920 672835266 89438010 705426136 93733023 989239674 352311501 754941496 440807220 241900936 203417077 144728855 199184099 239429295 933323774 245379052 376046773 715824853 453263246 42260401 773714489 820833057 421899598 781607619 471963788 770370045 492877900 806950809 761906204 136281817 6360596 451817047 933196274 374421440 592956848 873628928 485407884 933219095 949090788 159501087 90545322 628024258 520035103 35135071 248534564 209620911 341710469 256396988 648689881 768936371 257230724 598923189 397173123 806061128 17021496 324005036 340762220 677326487 425502469 897201245 122233046 71822976 654495658 204682915 459080832 728084282 407924141 623040600 218937233 691574787 580321960 725618047 126541433 995318043 904694184 441744951 327983148 856603178 184081672 880892160 442226067 616554145 691066583 165620824 192769819 137666487 31376288 469052137 237508282 429695129 849914100 806252887 28255701 159378621 827861383 382988529 206383227 929244989 379606458 529883959 11190838 729902583 129226259 501201235 741706006 639941839 441564569 818939165 598284854 242730653 840797067 341545342 478438958 327580305 94077034 418797127 535322466 28834766 462735396 542191586 838985619 758516254 36815241 288306886 130316211 813258924 323308476 408360660 471743273 456931037 79112880 997740368 844288701 151653727 191989236 54038518 219010793 429578868 393079468 872594040 889495825 875839484 105176771 437966120 339142203 422909959 410727568 498996629 753405512 202088040 725011032 842876046 602548646 326030061 485889374 806443089 255025766 29439040 732424155 623626049 641799618 850789801 95737535 426132949 539654746 497152131 195911169 289520538 304151470 627410951 816442508 87162660 447446034 907447860 268583785 22912115 332976765 352198090 103677805 894208737 588319397 147469225 497085356 770764533 348990441 170976094 115949073 105293505 105723367 264341291 113390134 496202651 419453612 485079986 773593013 456610143 223045526 398833574 864476222 910197070 457200438 524439110 457941861 705633975 594289229 944371480 480547904 191333938 800918188 424994856 730964252 520820517 698144298 538535312 654821344 99266621 236106892 540605073 771179829 719520406 211594916 476563390 162410186 417958043 127854997 754491582 509720854 669652365 152747282 974281140 296077790 193606394 450186101 930117229 693778122 421317349 784829559 688873916 823682222 321867612 824619474 7208882 829893509 805133884 226121749 319064599 597971660 367266684 866814425 382095487 11999817 287466531 592374347 846213274 625931119 645979870 859554792 482499611 373876112 828293155 164103702 64912032 688262794 596026566 209295930 889169279 872629992 541250728 949762634 769720635 312811470 57863513 546584590 697620149 863469198 793961322 534537303 65495805 621328434 665505801 536480766 920894663 475017661 15339321 621233177 12467920 617450014 589667462 714359604 759831852 959077082 56364281 923444643 416678798 653767795 958214258 749583025 734935387 386268473 954113092 43595910 555503476 13525209 997081232 768356552 141886513 289857616 43518635 452585568 551266632 741585329 228772249 882477670 914416605 159699833 785112989 62346686 234934526 673656473 872853734 569698503 279061983 856071417 431748501 269520836 53183288 164829594 480797551 930772836 707634728 794734948 534105325 451839475 669141087 132083031 703837092 310450750 38238224 649365062 592722780 742807175 98168162 386922294 206730596 243182236 977888918 812885460 839965773 866092405 398385055 335522148 212681330 181801022 324838321 289672269 257790910 838858861 297119126 753748031 285871903 49444262 115436395 192094890 986491200 983375112 732762659 267710237 933759068 737718316 83527840 776579970 279628510 422459606 687024061 178894192 926160553 277314128 860027997 348282279 398802761 592126586 551168111 72946125 533188978 411522244 251961441 227012582 763318268 908045408 560723396 363012825 256376042 726342518 363713459 591380993 140311104 292748221 754606051 168924772 254152869 24383377 165647493 198205803 856015815 940753798 646894308 473298018 149733773 123133698 99112136 544382445 666895141 827154638 276827261 845369374 540089607 641531554 91376699 92072260 574919988 31359556 374076552 554307238 497695827 930541507 894979569 590508682 188388087 435036180 131477324 870644337 530550741 997384438 729026576 807542027 796452327 556932271 391995814 703707543 201493942 669209757 967129124 662134522 478919467 985966731 111158477 498649063 590271781 864502891 803197353 879674136 732260911 609204357 200977703 101270261 467766026 513640102 177665243 426250741 302834423 165562545 298367953 673931497 952053862 144554046 187458077 708665536 955302518 124403369 915661459 103138454 372412161 657202001 589615339 951526099 74952162 131060388 806594640 455147585 411744289 464070715 378814520 288407804 556918411 195462438 747357737 665137710 498149261 317122430 372014626 335013517 454959049 447357807 65991003 598745682 938543249 885393525 963588539 877238833 943365669 182916461 446710957 642533522 995296621 670789733 271443581 381982313 100875661 960711226 294283993 454722972 842200393 146670256 763677961 858128387 47019320 548532734 719814494 727793630 467758206 90631917 77294601 630544373 323420873 575128227 445109395 993023398 957922072 82363540 167990790 282839446 458720702 577830138 849102249 442314134 636858497 501247845 98094816 525672578 386454519 251725075 195982440 658323366 346590385 11119447 477114351 967579283 191069399 118284325 907215188 893363077 206718332 810903201 154781752 484680537 844270668 573546022 324429294 983944234 181025767 807612192 974806325 769940374 73667665 455666980 426265545 102780841 740233094 556911143 710177846 580005406 289054749 975702381 917615801 963667476 192407808 851779303 132360249 552040687 460172452 778459080 402269073 70759340 605118413 306925877 299692352 504795939 25208726 703835880 329958305 77272161 203974971 94778904 469702655 469462230 144091412 257167693 684854270 362855280 138057446 105610027 794821061 897586519 804413290 638462739 353784539 313640456 336741762 350791026 300230047 465836717 219600301 891817962 127028387 541917055 447241349 326866219 78478909 615424236 396679935 293587246 101026339 560885428 48875313 665254246 232585942 954182922 145055651 455561014 859491051 998725356 295202912 123833736 261162408 760453309 860895714 795058521 631566044 489086231 379726840 949592008 369475298 56682146 271859689 502527123 529502922 311915800 57757140 401903406 916705477 518240620 550622508 895518464 824955736 116846378 988332730 692756093 542395005 234457863 901820767 892331959 572019828 918087781 190818391 139376340 776767190 473593949 425000663 364062156 853857144 230343748 284748569 434498781 613665556 839404183 679672819 308653117 629570387 642585591 113785032 254489754 573881966 674835311 929236020 172149769 806056700 901405434 331408154 501881366 365712760 387308925 968933300 803851011 953071750 876137907 575539360 404609093 301982423 365603191 159929915 610272654 612919421 84972769 890038341 181936469 586207860 886964173 302696685 697744565 60142151 895407347 3455045 486659977 466288057 967560334 235617572 518194688 572343826 395349662 761240911 102639663 965355164 83200661 656876064 634581502 431340682 409803347 597380992 460499827 952684162 972546277 657931811 365327586 25996821 663655074 670128173 304605473 456688407 673678751 713016712 806881273 650171996 749210325 984615314 83839369 637210503 263425244 698698338 584992017 47893407 582280223 196774514 825787009 781434752 231361548 819668877 135398414 955060372 327976815 462599949 312607186 93918569 299486476 109703331 522073515 998406948 587336346 739285022 62745439 752903275 810643860 611674206 875014544 466197628 525859003 928985261 742752254 929249077 126655465 373895407 95437329 221301776 205484827 852240389 783926729 516814324 653544821 929383682 574058783 669986361 989609486 282007430 930185069 874764147 935040016 15903084 547802000 885176993 178578249 525708862 76607366 831736682 229711074 461049666 491817250 876934874 746419297 892969463 935090882 999700684 507523448 689961493 355495792 837077100 236509567 744963773 203710492 488844756 272060309 858524086 962440991 333340752 741585208 784490730 269488691 203505416 497183078 691668018 585896294 188271529 845124727 693960221 818464070 221155877 716249513 185149398 124474332 153911503 404227259 34883106 875201412 258539255 48571726 122591397 85109764 126706671 40203498 805340259 877222077 324945904 82374259 308392740 343599911 96659331 844173073 318158820 807201260 169596264 898501987 128486137 395578396 569425187 411217222 732699034 185740967 838199635 136080388 592230010 457455418 806315360 473025150 638079378 185316654 710532946 27106145 40608132 622141063 316789266 189844824 991975223 78511126 957854053 336877558 944014560 543886192 737657480 155032388 56666642 867156161 376133543 811496485 918599509 243811042 377117247 277740009 166472019 827543033 644664636 183412555 979536206 278978111 96897404 416466156 143567447 615971272 622051521 315625890 760771107 605752972 951474605 420670989 762942840 560674176 143096065 500958505 462743714 251412508 292721069 907037878 891705740 358002661 58761666 373880332 574476451 522742547 775106916 387632126 776140154 787357436 421491070 393894160 842744371 515861411 453495675 523565261 18370542 452446076 753503340 491478948 122914942 93806658 796798099 819648325 89039297 443975172 634669559 654191349 59613843 700148915 167637976 997772522 57242718 902220745 240491155 746484949 506219502 519898250 239233711 71557959 3462867 683205456 850286417 38740651 966082862 25677702 559901361 455479446 934341758 895824111 716629558 502277696 570092740 692592993 385515629 621985740 502122978 812600230 451451848 322530944 510473284 225144467 381785419 409086816 312185479 213362258 399108004 827553413 806753081 683347537 445529291 241895582 904566572 430814214 874872447 428970236 911378717 761276778 659878099 893332703 293825669 670750756 933277018 335215136 776285360 836769501 725345363 11344290 455846077 52143321 301456076 766553070 902345204 908391027 123813466 360931392 25817055 497420651 932154810 291629719 4755942 112959568 236087365 575183369 249700694 981456566 26326665 8134548 2283542 605092497 244538387 495406294 59712202 106414291 501791031 531544589 502182150 730882894 219484347 22981689 205059195 855355174 400930306 300139019 902498996 237939861 786947161 476609423 153583439 392435096 421058875 627147361 227305286 391791889 783365926 44991886 763016748 57000879 823358038 320197574 922995560 828321178 463964741 206748751 434650440 724871878 923134839 225035065 282980927 871523313 97602703 988524034 147263402 135932942 51941819 858635161 648802350 256179538 709930615 713927138 970066548 242501884 127338342 411436279 844896115 165827849 31906889 468194705 897689867 24385294 326751984 247051107 19729582 567565009 637633084 946771423 317867120 468043313 261025475 676437957 295926741 104219494 216229996 40179172 194230636 873465417 64638610 155204113 854229522 979545849 93998766 925022585 689334407 173124003 793199046 448462797 873060869 679163769 992565938 862169820 932971929 532523772 81928194 465304774 786591120 278310322 559796977 157366385 707503898 259840742 813961161 512702480 606084642 16082962 537796015 723783879 767461334 311232340 252015871 809897336 396186781 61609829 582217124 366391486 749618098 792191910 410385918 246815000 799131374 76881786 110404041 310079723 638406736 305279023 178145907 194176573 8159916 344393843 712450244 792653901 358495395 498109942 135557338 772787037 363186557 918658299 544962603 164396126 109177613 96852161 425026492 878206871 932299117 393483139 249765132 577092674 569124955 631563442 210620749 129064031 293013048 612847247 753871468 584162677 165590184 87138856 698479424 773977611 979080057 324185172 25018822 15018119 886005327 567363225 397909660 461286920 668640610 936470630 291782735 366921865 810436659 643914582 289048375 620368265 8512865 394708621 12338297 854672868 817041803 504225405 651578483 930143248 271549664 259778470 97630293 919377343 190842557 496920656 837169925 5572199 38162695 455755512 705186362 766335984 882422692 463812161 525213540 646232290 853224129 431495793 343725232 417959848 652095251 859947772 337356807 295755449 64105483 977708889 424218594 641442782 156147336 199266422 831329503 408222379 13547995 505939444 34664233 463011804 563283480 421725997 825727137 848968058 737018349 886260841 455804537 143912186 312828977 77434282 150211097 341641394 716128054 251119103 869129051 363481187 300888855 150694706 735034969 496830198 725302984 90449062 201305421 248479897 553437156 678780698 546052980 199772503 440748479 679069427 438205082 133326592 536104348 582630329 554533506 24448727 135993038 450834468 414195258 427351826 841379385 198239745 665739624 245830386 100285532 969048151 14621584 647392910 42989928 571352588 940798450 330407002 470706344 881055950 950510271 950326139 3932327 116516864 617704048 560263226 682071324 298479095 25027385 539242663 713883902 513481350 889493597 609478127 461070265 758456327 286072579 662386087 875123510 493311089 250375319 902313877 818538741 675215448 792786949 13300035 579299305 685581197 845714833 878101555 526838172 92794866 462975233 447239795 274684666 396388912 473863607 263489584 572297200 359243682 876888640 135526638 518613533 757478137 338578668 301287128 601487939 432675599 921623153 249579228 510811054 842946391 239545985 752763509 173038240 455108658 680124617 180450504 86511763 736541419 493200159 519029081 621955711 412501118 575418904 269781624 934175221 844428484 116785746 385324247 981169353 11773215 421814116 197869736 510637146 493127001 450175694 520824482 542384605 684535273 656023921 352575266 608027814 436499209 354896020 542472241 808039148 251917360 207784418 504625068 544390196 630860816 901519854 807658045 828249555 726444455 479078346 301523377 279254929 591762443 195597071 163579727 80303511 682906705 618959853 459354308 217988949 158101009 975923315 656403276 891091447 599370376 256793632 476563970 793997816 608110224 782843363 170387363 567548870 859679433 452418005 365835110 688114632 137352906 83438860 357744784 341601512 571525221 416906360 453531780 683412784 819679778 420014310 863235669 981738452 428599477 633012268 755926156 971106628 936581500 831818176 695398386 847549016 544053476 726160693 690800456 424949671 42603867 881459885 539584272 356478911 587878225 323228582 902200736 28686469 87211297 483557401 815903379 288459992 18957097 32505405 361331547 983407415 291356928 244172170 888168641 782310610 554364622 430045818 2901198 100457018 889488559 111362336 328834978 746882039 705828225 746302421 790208531 149459758 804321527 790240192 347775097 406948425 545305484 8507220 170113029 352102036 31436228 100144662 814748635 244435165 438044671 210967748 411955361 281999753 605698963 434206456 507145398 568925589 598528191 224874259 371079914 178241732 24566433 443678874 633804251 400890408 808833092 302428748 224126994 766533665 348522118 803131474 20427191 943116340 650123890 784633721 142742743 598525897 929606919 729283222 312639449 482953465 360214839 828475481 428673088 86451685 290921154 186749683 503040806 402169349 614803310 954132810 897747285 358506822 49131249 230715981 804349914 881350024 752391652 223048411 708194532 145134229 749874252 767232560 795173433 183811763 637714576 927043150 693519577 937525 873017505 310146933 221252777 49799560 185606127 848406142 513413086 483663865 707145454 288006715 922261614 234965114 280857492 235953531 984156747 429532846 294798349 850704665 945695282 248008550 642711961 182708792 933273737 93477568 973183532 693693415 94266095 141397169 745898431 231246341 800543118 674723492 694698796 681632099 205056772 369283984 584281655 466575577 515799103 307727012 830542776 424859625 758050230 936568651 711486444 608342679 826643258 78090674 61064140 565808837 833017837 874655535 693522789 156743677 478648036 192896973 27995564 260584753 539500805 634297758 216978694 187669438 652524489 602825327 432523206 458150649 858934428 467562687 801089116 636210275 530141182 90011131 605185709 864434327 405191613 658216272 664928631 648189130 303809847 28646702 22894653 443934366 252778946 871061827 137477310 657838028 459283331 176345629 927141214 464920816 315157965 43628782 855025419 911531025 616308647 102833229 350481543 555130091 792344795 963890587 676432603 352068626 341128967 974102922 448929822 9730634 902933886 413906621 662783626 453084070 646519586 657812679 4179571 690326406 665384979 326382930 738148933 779688000 816205429 882348066 689735308 379629062 252906003 25774412 938464124 645636037 497362172 528325927 412847980 287331118 549523945 757330614 311196650 214224022 258916713 372914942 132362711 340470630 793208915 120107338 989049304 803188034 951332810 364466907 675130089 644341032 183404539 842349494 382176345 20362531 923581373 467429806 959918609 385766307 778636537 764362574 385331296 494404572 406856769 200297111 890802630 244864231 61541658 654906851 750401089 334381116 400252746 508054019 239618467 991438290 318999268 264112987 234398194 838706668 543927916 228313381 385524502 397514434 148642320 961607947 818014884 576201336 214086846 681149447 449784500 980546635 710433150 798377872 36766431 118318009 705304455 443860134 675325853 17382980 546163105 991128306 115476381 249818671 519797342 553538355 936662557 511994469 981767217 104915391 767305642 384252503 981523867 519529400 491568961 333439629 515595505 493074984 666611070 419243233 913283827 784768935 719480282 796372910 427670762 947074847 632272204 511878773 11431360 571700577 760255155 273208177 298133241 201811900 478811180 461380232 459851205 820846868 628997444 689137231 654515253 602886818 104937794 368097247 253835873 718745236 215022659 189010582 486084179 610555190 418267340 825014129 8504664 411871875 536012536 329764993 845718734 528703953 568589760 931207035 86735619 197782861 778047231 871933301 448042514 215482442 301689452 482146720 968008272 716346764 893602533 81188407 602015329 827537037 931890611 182685174 475270717 37569083 327194093 276263966 520985033 155311729 843535981 87118691 355710326 9730592 9552722 290759548 178506031 794300017 790675662 356487595 46832114 681453309 572437743 118620450 58361556 119026492 23688021 500343457 22688014 663232857 886732612 546428175 445544590 704667127 680569993 207535713 820663806 503955270 321016069 803774468 453814974 788340101 937479249 728367562 241474918 90173488 106763993 978426229 202460031 92323529 57002954 995022107 847704146 292649009 15445514 886854 524766663 301931747 148808516 184485805 248401108 918069536 746108137 666445703 564036115 400494141 82989354 181175571 274290136 418806408 527080771 887809483 922361045 259221234 255779821 120764328 204674586 498590752 940206039 798783728 119683643 642720327 299322074 965403349 964849435 775652424 474949035 933282008 587024446 881505164 604247544 235965611 573574185 925182370 993596171 741488302 673730536 12960521 194004137 969967861 127079913 913364181 263774677 895271005 549464060 909511082 707584499 242383726 510756638 871337930 282014703 621153754 28749150 711262762 666014824 673741044 194838889 261428076 141531852 43670710 974864971 799204838 422988389 148637585 546493782 748015985 328473184 328676120 59993970 883045015 511848893 365921299 387436012 289165749 916233451 668898865 591745241 378801843 422183401 615618311 476221043 951727914 133018564 380020632 486453018 1148463 909863372 792627532 382913864 226230092 858251298 39667747 834601625 392613788 220034573 359467539 325113139 748100551 47424912 207457679 312217430 963820788 577931270 660540192 798024200 572812101 572139627 959061074 100661055 15583310 286985310 12739984 931425124 388853486 403266921 688396362 654353919 921692028 404371300 662910293 560089781 267483799 46650212 324834669 365118122 576299666 939469541 612406504 317623050 804585289 883575262 791875564 100920464 250834965 902374147 418260932 390181043 839706405 277648621 43430217 887980442 229739132 847925961 130775256 355750987 217807696 79097332 935163605 241587040 607276562 502408110 48382832 313734821 757313203 449113117 303306594 500417093 186091213 839884318 468284296 677315279 150518773 843220376 333044883 709529589 945165404 240153831 408602474 776189654 599422376 474753728 706809750 865690415 386097677 236101420 961744465 391288129 395527436 802666572 730291969 165974312 353068656 154575534 990959976 816218691 950590343 839445865 421020987 135581048 889832684 769703714 827691124 330217850 331569414 496589364 559136552 57238590 867498145 402080173 82844160 604861365 93754144 114550685 156992566 549285556 172825168 767918402 980539303 767936017 482007315 819104869 791424876 965110108 839977558 750360730 987991346 853516708 678835592 131052462 50519475 557995657 819105226 403018264 659807909 674441547 991275430 730925367 264977502 108525144 204404856 102816655 16407539 465168529 398464216 79786946 274282747 827951068 124968039 499006986 988208093 265737144 532421827 963953627 448691520 889544607 57457399 983967255 875237354 642223698 137857785 498848770 729563653 140283999 787032938 413887089 309999964 490193950 841300544 539411172 573078625 630932124 68666607 39008935 140189235 437483518 238196876 625265577 722987114 129157730 307782999 508493598 651772310 254538694 14503200 120654752 732994059 90059600 121252542 428324345 514654489 71918311 821356806 21325882 776543600 732739301 912554392 945622022 966868128 668724624 756097965 977868507 832975254 829380632 558242965 463837932 308618867 779667830 631361021 904799213 316447808 94615504 251972583 400315577 460975570 829997406 821769227 918358562 344094093 418148616 768423247 237880354 824804621 483242962 197218178 319148255 727436497 191528873 965065339 631092383 447829851 405813271 184414151 565176758 856722611 672853368 668176442 959463131 863368069 198364232 980970149 68751237 884909029 319335130 28770182 881841586 133440198 836874243 477154207 157934306 156931183 993794109 15458966 636638346 430938723 661232765 673189540 865620025 141577889 609098 772996685 254058450 364847714 739201281 202891468 507489053 691708572 624443963 685775828 331361708 796515641 962050067 624071016 112077807 556340920 289421430 391544750 382262701 51083165 184156415 160785508 426311081 562984817 530653251 562692676 421713739 606924084 848696221 730246353 70215275 304775899 991267326 522531277 168581214 317803007 67912951 28711640 226083706 65987558 990049273 264307688 592757971 589874194 973469683 646951636 830355579 358566800 256060289 553167352 274098737 154465415 910064330 85937044 110816710 584157161 902651924 364160111 278247509 272366265 165390579 966413400 327031384 351783581 930351715 416025300 652170977 242950578 882165008 651626014 166220990 648645321 407996757 154569925 46793677 921331897 41979739 257494768 861489570 337997703 77476901 162626247 277022761 143842685 542705288 823712920 534737122 708160665 530063253 233524098 368377424 127726000 49126096 17480945 100770732 540066641 681709484 870474295 722703342 980771471 833738329 114383370 794589786 157967586 816241081 245030882 534552839 946591493 548817236 845184879 311507514 401829840 173577339 899467645 108609748 573234313 868584362 988138018 836760583 760426964 870889305 624006321 340419882 336114182 806048551 765945503 485911332 606973216 554697294 469195122 598469906 605394081 226695978 824904958 562630454 741005052 454596126 174321335 762768531 957846290 271388810 81326696 786848768 736703613 124980703 998785581 80348306 346166346 24200750 819152080 677914265 149726455 984641031 706530405 678052466 308364002 748621161 149577497 727798570 249907431 809100458 594327566 186649495 875710561 788230951 806895224 840376362 343400612 176070512 738747810 209324163 393750212 845243081 284549174 593134833 565566922 922406940 47956526 695016061 639714809 55816003 538161586 324931309 207896409 672379923 576465493 397148261 583797809 943746778 278152564 470044361 647549370 280578037 494379936 22207146 327541119 154711604 313030354 515692609 564838614 171364734 187395243 40746778 942832423 462964375 437580554 98776340 615013466 153330287 969260331 674602999 213378213 475327512 195636033 220396551 988606677 279002822 259558976 193065257 662814406 131826744 42206323 7447051 611160169 672849777 748975110 721500332 565798414 871641551 41699336 312117612 773847746 278666321 244013375 898854529 544871472 326013519 925564460 972084953 11123802 765892619 507979495 582652346 391498969 886691999 977094864 13926292 905931568 158892152 558171453 239183460 908302570 902687234 394048074 142725577 950052780 457211837 843858734 101249074 626770896 985389989 779722824 107766568 568082989 528345702 698907774 835707939 522440843 946210239 929804979 290983282 696651919 41356587 553430202 751233035 396526564 293711883 260896289 609687323 342184958 338003946 474058725 45006951 301097270 625650183 265169186 579000126 25733773 623431158 923974805 31691348 277720582 425222389 371191896 149321578 104396582 824848903 911425896 916366399 908164244 338176285 317480848 296392250 659920679 803409184 433134098 193031753 746720089 184393555 139790754 665357130 626521783 816311506 336168626 703898964 628066712 60963100 776510075 98077629 583320471 612887439 301095033 921029946 542967074 657095223 270419605 946695657 820572766 572387588 243391195 29487212 239149240 179679071 97581096 494122958 427844428 866236825 326976793 385570330 376116193 979704094 823082953 962722920 425396482 201654927 729374952 251013715 569536326 292785659 238857576 344643978 829342859 887580167 782692243 355836597 440956790 677292058 742782032 809920127 564992315 907866003 325266171 775508359 227245751 242971930 983708095 90891810 522869021 52655794 687726788 705681206 773439724 176579357 67810309 342472327 260944292 471806312 700534469 330266453 598666374 901695290 817906910 276149026 191474032 818094543 738973028 913542113 609895084 823632776 277681200 113652825 861346510 205574039 684511589 665760139 606375566 360772451 484210859 145877528 285228132 64450929 757558694 416461648 790778597 423471177 370119337 216806553 12693704 299990317 30474112 887576369 179298108 291578101 522777438 705699469 96948373 884874097 6967525 317514862 735780862 362961608 690245107 469420217 56996013 59558111 841039712 41834107 707035070 428845326 881522119 368746126 644910231 198605656 15408032 231699927 482309718 359797011 761971792 882940179 15653010 8973606 129721611 303031854 393733458 327984584 905811714 335431220 482516034 7283611 924919768 31725336 44716836 41236533 676794100 641615689 581939677 108272350 520078661 920342628 664584613 542940300 514539083 409501278 634540822 542109655 227673362 317448819 727526479 804164287 308256331 108431128 764424308 22565598 439396958 82176219 656830831 7092904 551633231 65495530 146557851 148071771 421076128 348148247 336459252 709124625 12290603 127907056 950587951 394150959 208411707 472925574 838035255 457239500 308073001 43041303 234982603 936491380 236001492 580952220 604129738 1871878 375216886 667794764 301125034 616080373 974780475 308186182 73462075 114512498 696385590 993308659 621769893 24222668 635221114 495970781 788123820 451295247 350800718 214982643 83765128 205598936 857082925 367545534 827566918 884151764 378527746 500738957 916027727 791467947 119545501 258495593 407538046 594402471 917430374 670279682 833777018 253517857 186913943 365456234 423072638 851487233 216764098 577172595 692993340 149052637 283401233 913340660 968248278 276234023 975844140 643754875 318561321 853298533 399806577 587726937 849186359 940072058 49244845 171405228 814581503 813323914 459885498 460626278 820465973 519888600 912951772 264889196 319386303 860158477 908137897 10896379 978988525 69704159 266152479 413582374 985936157 889330362 283611611 660356819 978020024 336858130 971807371 551869955 658566750 550514415 990092782 157277488 722632304 518884083 952548510 940781131 911581211 263617743 348581242 392029431 480055941 691349699 563637467 982342564 562417287 360904481 506829935 870875551 436668785 345950107 253123335 863264557 798064078 243294481 37629427 311382784 253729037 81472504 436627538 524975528 656788015 281911892 746769235 945227347 51818609 4454411 367779225 30717796 90552045 112859497 95248889 997829219 976574609 69095708 890599635 470953328 290231652 379143936 572088531 372278748 749059069 529636467 586860369 571287853 798143193 463168570 632636446 630443641 737765927 85596260 605991025 451431419 244338579 867041454 596335384 276039632 280634145 530766489 665846153 897815716 688588895 618378831 3684737 766241019 300604570 723340449 109817732 210677943 96369468 487186160 131272654 426833219 477778734 289237154 186645292 151174416 479537643 439807552 178425553 372419444 66410119 107762124 845491908 622807120 310020770 763385982 318494169 242197727 597514521 722701217 631638463 315125483 492931344 414592989 211088626 485342415 777398776 311874657 64980549 582273352 370422317 887033212 940558379 49125503 740364768 871854883 61273741 963458525 318555906 130324571 245216311 68702825 137023780 644684511 219489693 603784469 751917592 815887264 312717930 355049431 322137029 737178131 892495401 802684411 957846773 677230157 9769835 77309776 508051420 125381843 517924096 390315829 721895880 746320643 584484205 847729979 341759948 26640405 255236541 293407703 540772651 421564230 802231106 942596857 21072113 758947650 230522324 115240991 63234290 853157668 879940124 938911031 50963096 4695943 973913329 427279949 786664651 510201036 415894754 288481267 942576190 378176427 810089718 628759362 118266338 812132284 284681405 259517455 832627206 593375364 615146228 126672200 783544493 614366515 278967475 147175157 870651031 435041508 555671197 492222567 634481594 945729016 179780049 757694091 34196013 486441425 413132568 659874396 196671951 891935208 394257687 320193077 4640253 773685082 998583996 323587726 146041554 639994241 476724744 366153545 444498605 838091576 933838875 429992793 408319227 663943910 966259831 278452626 475491465 868340176 643175156 438049571 712347441 876816912 328385879 564663483 816892044 394134883 949363453 782823931 32962590 795622129 222069809 470231061 305047225 220312608 966728727 805297186 159577316 861383074 166998517 981625846 619545640 129219248 97653766 330425185 625414217 734761351 926248179 414908501 970549622 547979270 27571072 328152583 764069858 865122085 548394706 519546449 67933416 431023620 310945691 358923623 840460242 775327591 724686588 141911901 548981194 659923308 108694337 245572148 196199309 334590874 888720317 711776324 606583003 234325542 18364900 786530311 66057838 735124038 262923171 693908967 488165251 484460954 143223911 743997224 304166252 140662074 185807436 163602140 658962005 648372161 613854276 977739693 708600457 530796826 780232976 869729664 891647913 902934813 506748870 541959487 605951239 218105864 720414856 675783449 777742625 485653627 81039188 574223101 449156336 626694904 365063883 287395535 736316039 963757153 539402913 790948845 554326093 447271383 754512682 228918137 768833570 444862550 286259245 368901481 487635250 542314649 761230691 224645728 638645035 570384919 195304013 671641842 111902253 676560612 128000270 395291361 565723204 589173119 80754172 560411178 141433603 685875097 877036360 222433668 324413800 929567652 929916137 608506127 425207755 673431639 701298002 952887249 203009722 210696520 628647828 502171007 667240542 187424107 630579768 465301089 132716538 938414352 78932950 116993327 282377010 502612221 487033516 823383283 823188517 473363316 865572494 502462869 533558807 656649155 381435813 46717628 236444862 779821433 561596157 347296749 256463574 843395981 3858564 47713839 985057340 662214495 440516392 591412143 248792504 682138002 107818497 275893462 130019016 315442134 102031115 546289239 143491291 350043796 764849460 227044942 451217793 486464930 908380031 277759689 609226158 886682664 660917069 848168660 86931017 236201840 701130487 931196764 732088458 268171381 235002760 705676710 925346181 418374623 501476985 953819612 95689337 148929910 820082017 290549221 263709290 100119495 36929705 539777215 572523429 841329185 476228381 427949206 616937082 930658217 180480739 393657921 922298159 395591335 877346683 962010647 75600963 279721918 777815398 606554282 649287310 939350913 987421507 117546496 824660748 100315861 758573947 697719311 237797856 604199236 37458289 29537373 905512455 986654808 662817805 14535595 921352440 358380349 381279399 912585711 589977304 164468244 243921272 952741580 343117350 307901908 794624546 996255524 745099127 504403266 215801144 523408837 638034359 215162007 507040988 421071584 142365253 533574340 33476396 664771938 337959249 996311687 472821847 634010665 930665630 204164012 822825058 985484568 85884972 364968999 95698750 895975284 703238162 892918247 575687367 701761597 307471435 450910447 772978264 336523767 337964022 23111697 376035388 614184748 552843009 743178031 688345281 597017049 231968875 253994092 903732258 801636163 845574503 854961575 155570666 226142079 970855127 16513491 188354520 215758590 161866459 198099961 111181022 792238303 807185410 773818516 273949666 806011382 587214251 742198192 600144607 702185795 816382416 624687939 72011487 150251632 282381781 343619724 162847300 280717671 18744936 620421418 630229335 246807340 833271870 719721683 315423553 512636562 865998189 896234279 476486084 365643800 678639781 153854611 109896702 113154531 293788691 259080169 521359715 39258975 651377624 532060403 408291371 983912725 870191529 854771761 420175283 482102848 510443723 111750561 987962242 468907013 724869176 712776057 345547577 834795370 288614428 158622983 498261806 176769998 658484911 251402816 422542026 217497212 386828806 10524100 980808352 546830807 666929840 478399681 377190704 654893771 881740819 323646501 347290270 747474964 751879647 550240741 560945630 238835589 360137199 681443827 575119846 64025104 744978218 246140298 218860071 699074113 814014012 627838028 737738701 153507471 198864645 815528147 597498545 285434249 218844843 109100478 113774333 33663427 937305228 352425625 819470238 389767371 578275450 780161232 558879458 945172556 93859818 955173493 407029575 963746754 37944793 632581548 64944874 302152240 687623316 324311208 704957725 837841071 218438049 819721212 550000243 310840 327690201 388137084 652338307 545668168 428107553 769663622 32639811 84248451 731574684 414057457 688214282 398705194 238160997 62265469 944117399 830677278 545206756 980771346 53624247 227565162 482785045 344660043 832544386 71566774 91519735 499243750 12107804 9938550 878653366 948532017 821849944 199526465 574106235 250785449 103838691 418160338 538784823 544381338 712290234 295342644 557847103 265045737 229180941 12112795 645363520 121349509 620836167 440848489 224775353 324087416 610432501 850527427 950121400 990215087 35587314 381478442 578664017 700901912 437667303 12699867 351037061 782878493 219988128 55528484 675634768 770382916 32147960 492222703 679926016 310202396 405822308 482372784 990157213 125255205 597454432 60247838 736058500 724244865 823166645 820688827 818406673 17447521 737645704 980527833 200731406 145284195 518977006 792672597 826227133 796579173 203027454 536405737 689270805 256231880 516451714 358117558 763249778 648651551 933638799 504969469 180020038 434458525 525664167 452721168 201866532 653331120 393686219 550244984 435800269 662927562 571277857 602249585 567645391 727174250 125420297 444549739 296759510 633171813 821522989 9540851 832560465 447519358 35957724 857930480 300561039 765666919 829929458 832082156 966777450 336941714 709383153 269525793 658711149 224028850 499435554 783612754 454391217 354196557 347918211 200209413 954806238 357519893 995300483 960803291 289191578 493212849 416459891 505428018 292077357 740795466 41303682 9424771 26636188 736072196 270870739 25533019 81802614 644591364 430838869 976500280 590741425 221407040 434756418 226029059 917196280 578555704 166926386 483846729 701402464 213238129 199799655 633890363 568472947 726593134 684160636 677938902 185978743 140312075 988569464 59233226 890790726 915481399 78644427 158196995 936723604 621656092 496540199 671274027 801045429 971021463 718569053 303048141 183048362 841008655 369943969 247644886 412648170 837239617 448693663 2406083 811611159 537516868 897939543 28803238 281012445 463422393 237997301 907492410 323205389 800001566 533373257 855152443 516345684 186380336 299271537 163607703 752489093 502295822 75682870 641560480 199304610 688350280 646770450 891058317 293144327 694237520 116381284 930366554 460262695 445251491 637523906 375428032 329541503 64128562 971708264 931793476 520848411 358138428 651224081 418382181 819193080 400053694 17939247 621912087 852728207 521076235 778853077 903381278 992501098 496314728 404150671 621213614 324640023 80171539 387695876 934655210 259147419 994925269 447047500 735723969 337165030 39941746 288118936 523155268 645122266 104971008 668417313 919639180 244062853 295684416 765586138 740213599 154438304 776470714 125391672 636178116 953140910 266930304 759937524 460032925 476073082 555808379 85411611 923566910 876804857 632758673 50635326 73412048 799509873 940765557 575250452 216450936 965944625 640801510 162015210 453844315 275133876 570450218 835423761 84974792 874036442 214679869 219887136 419289688 896947120 509358563 133567366 238154690 515882149 486019174 246700982 351211296 55583502 333211844 672645449 762895737 697440809 150456792 546157273 686815272 463866109 526094769 444912881 588431684 497124306 362561041 99205639 778666092 736772411 45934495 350372022 806473273 533509538 942566700 961600508 876861232 243015534 875242082 381101160 589004314 45941432 300750984 408724411 883599194 496467623 609756102 958292668 37462957 977396312 607469423 828055637 123878951 720590499 547127994 805843799 885906413 893920854 154112810 931581741 522762044 688569849 700571933 337269059 709112976 810604643 897706390 119989614 333382717 129992258 185795123 105728987 250302268 88401990 491404740 848457300 273301775 572378388 988562633 779665765 658947052 348423671 838979351 111381885 869816744 745871323 396924875 824049415 556257345 54693085 805860188 562197999 114774701 177667460 412755503 987475431 337611400 349541213 825204426 68210085 84249277 384831590 958184842 372557862 719618257 376940235 539845660 945461285 990627818 459768278 450090581 989893118 353981809 586203070 947699203 446031344 1751717 37795685 698770023 617377268 262158208 935110777 893496980 483028204 961206676 101390110 483525154 802076687 730316344 101724410 495950520 560150931 140276805 319121893 456469298 466337454 115735931 802034964 342904820 566339718 153075310 227947962 14900721 612718180 528114108 407260721 79403188 659009282 620623603 941571232 356654785 768239606 357987992 368596538 502683163 480812227 239706964 550751942 309189960 216680348 867435787 561497258 333021847 821292006 668865040 904636178 762176773 187682243 915047972 346578878 529447292 91367402 724396381 880537258 757852870 391866958 654465654 171923950 51954459 857213428 828346038 548403299 505814376 693006091 150542207 12405245 235380489 47013 611755781 497370801 539985002 955569137 572097686 826810870 162932830 99939229 779444069 923936756 810231175 242907122 287759639 977435662 869331730 838604881 586105820 931726531 25394215 4487057 321870557 987370199 76271270 194387882 69675012 533132601 284067463 277260211 999490906 281797864 337148070 87888215 915919010 208769134 269871144 587633477 12830367 850348082 687102525 952511367 602690708 74229844 334414916 573884493 261674417 300847291 967274313 882836885 388080033 927209528 977489192 910720819 46000057 985637101 683939537 995943218 183242597 82517848 811800068 796223643 293062465 289384092 647867757 902490700 935362097 408171330 821606193 705479886 347623317 449790900 260340987 69815477 973649645 609664898 184043206 664928682 816391007 911671651 547105628 265927166 370694551 837007572 183757262 777020691 411574282 971359744 916728970 565166541 23525789 556354162 461164475 972225613 803361346 38673795 269653111 373812675 911528976 847976987 971313630 924662354 867876782 988149174 931120405 471107219 13269587 569098730 511333802 841294028 222678872 229194280 206911033 899617012 19086921 759477301 998200877 310375955 390487034 233905660 250692131 671601534 844211264 168687859 971896601 326204266 627811074 709510726 125567741 88434532 881099774 353758485 669073645 170478835 646234802 569902785 262385932 956160564 937748984 147590925 426851441 620568243 327306732 640344838 861932866 276306808 617593014 437745282 337602521 97420656 972739708 409844578 425072153 836450917 988606858 106809261 990353997 290563514 654102163 899531131 455652577 727634320 86065283 875138883 609263655 22401585 672493173 271140818 345588728 848488432 28294221 626849696 109920090 940948263 532750811 918601062 207151376 626593749 67601603 359641989 73947035 23926847 581501719 417622705 20925122 338412280 997270352 271833262 284946919 439624481 839876134 795632742 710941776 970452366 658676804 390256991 419303953 251018781 768971344 858992492 412887634 344935213 582064620 423072650 935025681 787353518 375308116 969514310 634384357 444231439 584415989 452620401
