5322
267082900 332469789 553369255 89228585 521852000 378354356 790249029 103009399 17893942 307470934 718508027 520757109 883596817 771276952 165456479 654335819 448336777 70887408 951052194 394894771 895101005 590023294 916168830 205427285 987034269 961963599 631386487 102748188 23256644 198820784 559272193 770403163 609243136 319602828 422785692 283942817 643016080 732931166 257237614 806403994 830024406 331639795 350248703 155211310 575493301 272689281 20691198 181245270 191244794 979127794 129210454 921241736 725268492 23250105 473044580 997918033 236568968 408584352 54430073 500415885 89949623 701130890 195024970 20259646 937598963 672112861 244885325 612029233 102081976 222540019 113217651 45241077 767642876 12212112 845400656 648229290 679392761 420670612 217645903 750146832 398235418 567977548 53964189 141306545 675973993 435975234 455497330 827522556 189282333 14464375 668082391 283937941 921485281 515680252 608847061 448864696 814300798 856140340 131467277 425033751 151693751 136115428 650661194 380195974 195531771 46125775 415121605 177856094 754439742 642653549 782471119 442765103 485440678 184279817 873549174 354495310 439279376 773859096 90407691 46364912 172482853 496048877 655901818 230200454 877339271 783596946 999541268 580408837 427240114 127384526 929656110 419113549 43921329 357940917 948339725 898374789 294485506 935201626 609499823 864138046 243246727 644442059 508414635 118753821 562274244 893074852 573666979 219170994 294416798 67388634 190161115 897795644 368920025 556505596 697350996 930369929 596044833 207265989 335768265 344288119 480360431 462318933 652715016 37162655 430980935 847728731 424306975 589527698 542733374 458047695 176044983 243751947 453851295 970463222 356021252 146177412 230607494 380384932 341513777 261256228 130191713 13250120 736033088 262008440 286777129 937941741 583409465 488764165 415756376 417924161 216606737 858274745 430881656 298527875 761221851 90132796 811747895 763368029 583905723 352026606 18412630 625711170 699705599 974727326 663611132 905259647 801971285 632411963 262623415 370867069 550801906 389029273 193461167 778951437 183336622 916767002 802876321 216162354 158490242 652472017 867656107 697776943 958755834 886480412 770018264 30947849 94522120 708199803 170202785 749368511 335737570 554261146 126648342 1426428 165918163 545526865 937744309 230355683 592935914 664390408 612379996 105440615 783502807 92592083 310507744 403629557 662499281 854482842 801371805 234587515 582425157 393848327 685308711 979303402 571639817 471535328 654010281 644514604 627659883 287257249 411304400 285768723 457113067 108423914 732312989 170120231 53967033 377272586 323097751 242623214 758329282 401831517 606302565 183257491 965001202 549228043 903513323 703054490 760944082 356394958 207559815 952756654 750319244 134653187 697401643 38575348 494955936 861689703 536312549 95713895 57849143 471566854 775676387 517077062 441210957 674885118 990059111 86951048 39291065 513824741 924875403 32148939 701037847 757994125 233315554 999400865 55622097 263450698 208513552 739754771 574356470 877150747 915550973 725115108 154948516 105962156 689458932 862415512 634293815 73420866 835168484 482305588 612536431 104233144 532776189 903223974 579957927 679238823 984711300 602639998 708880108 736542458 477401280 26687352 828023521 393886086 562228209 29237056 247467925 267480547 904334002 885245097 5573355 831399289 636747268 542542113 762176169 787085756 356306981 847352461 130716928 312764393 202163874 611931217 980895930 429639551 652763585 248659187 201384852 599058273 441852258 428315577 302297646 147928427 866054503 603608035 962623893 960673842 680573209 66409240 901811127 566962369 758705156 170372503 280401756 59196690 320172483 34774327 644988075 491477833 109553736 681239005 152575388 961952057 698688123 816383989 169786637 427952276 160786066 469479528 452994545 241032316 626353573 289812248 300055951 717280091 53741834 593444651 362201038 140314919 425567405 140843529 722656109 58905855 573901128 677705214 176730439 63791189 867109603 643857417 229041435 973094080 17228334 770522642 603733500 496707721 249874823 983128159 123064941 599959645 82973118 629158321 222778249 226583497 963764110 535674340 44536716 296202203 353232614 416032076 50963687 957214193 979791025 128795942 478471911 28911177 218247544 877698047 448437056 275608926 856876545 35154807 526434807 884096441 59734191 376027622 179368814 35629611 196865616 921976379 108214288 223898803 578441440 554722882 435639987 570954426 424930449 64612771 678810060 857531291 228202432 895628314 60402742 815202511 655878597 71046240 973040888 4508367 333571283 871756967 637048199 614043522 583894192 651634000 292170743 473078298 344586862 250489464 933254341 773718401 223091011 605543077 236553101 761443250 703377584 82639329 723342447 66609346 642221798 691194909 531906614 316118814 438635660 133774995 174692324 559022193 501568042 771122151 690435971 894639107 214109639 142638423 354442563 825959106 305284909 929261350 528197040 417264720 906852113 38933967 836443413 447859036 626861187 338255041 559534379 460563827 983472362 468022130 904565525 627505072 854404838 818672096 625739896 136280138 25813812 793899183 855208741 933573164 324456676 11300631 797053386 61619711 317146826 386354882 433177777 546797159 126216784 857786742 659679590 647416392 885213860 771953422 179850814 74897416 983610582 582659722 123829852 180116589 878690903 566013885 108719912 999115035 9627842 764348970 709192094 369329096 277008564 925364225 651637773 904066688 685973698 116759329 366004405 167330094 891401856 556757394 549683428 825125891 643432611 980740328 443407445 172475555 275133962 680504151 628122799 295892439 774011473 127018505 982778057 912217304 403628507 147962160 168845129 227376280 342812837 935353757 75529069 654788447 795453390 10409799 214677986 359203316 138893340 571701072 559275347 750680253 287185141 354792422 753889459 474643259 218771096 619008027 839420119 232485052 242183629 904389378 240266371 683485677 121106776 525955145 877390137 457042791 32939946 636773527 960054042 670804074 600385561 888107720 56823519 945583240 172849408 362038459 542374934 485366598 343072972 249208758 20743070 329018200 951731573 875115724 308080038 791544366 983077437 11700429 486444840 237513098 524715917 164187185 10960298 245628977 357767923 653327026 986504287 18306940 614731202 240387181 704824636 684599504 269774503 950640364 394416853 94206869 935129896 617433426 711270122 902801226 131948379 52524747 304656071 938043466 516344279 866203862 331867245 894416870 291724060 247136061 355641815 207776307 202244762 917580954 600765593 66457382 568819185 756711821 917562698 205158244 658092550 753607568 367277013 324990995 94095939 677638129 538783252 127026873 541398500 96479073 500576582 315227159 932640029 982590874 558154975 934341293 487915679 649777700 333357891 445611866 559451019 656446496 634439926 437783871 822037761 546389060 391849017 669787956 936439171 420438890 414746255 286611138 202362708 470770943 340063112 239299099 393354880 969105235 683542797 371714968 163393476 391480619 613246687 243750837 544998166 450133252 248181175 688356567 882463172 546315466 371611238 911223755 950906741 935833307 881269724 66804420 818974418 585708410 911318460 214693206 21403122 784774071 384326360 747952216 753362029 406074739 832949520 679489813 585618844 968334992 884709463 861050974 769315341 642918641 123555306 112834810 424798762 882494191 604674731 437385653 355069878 955390582 364216569 719256632 9637830 437849545 512595011 624686236 548169139 270812934 33082481 461492866 202935837 358072701 766869244 116253854 218666830 35216739 163084426 496053638 65685407 785670372 425266499 566793629 304646737 455688138 75739288 493360255 974516641 338620864 332301722 488462698 314879674 903888937 41846038 348801895 975503609 100846386 89527474 670273137 85815939 384500892 543856841 420149949 686701758 192188481 550423925 598076308 759976055 856912705 237664092 987812277 172788491 993593220 485697373 176587452 608823801 228529741 578827376 297324859 445110916 534971952 142019774 790680017 253739211 908445503 264357702 731533356 365911659 391729741 696248393 274182690 635448973 321776526 561269976 16406437 488457154 705536974 481558079 321331746 5178292 654964577 872298402 896076684 112247440 873114584 339835148 380062849 193901694 730994534 136787210 936307141 776482720 19417700 551827912 900998226 508959273 383084621 627939485 72439379 986574958 311706577 200149379 374501286 584690670 229462484 61912800 680982579 768420344 828777727 355652039 673935467 416711641 393909161 927890985 603607996 366998264 967501741 586699151 881702168 942374997 121469574 657576565 995961400 685458237 126216929 463199656 267507268 593522317 234217326 701479723 69017465 395099871 422257656 641638348 952859358 833742100 379702170 887260638 325861389 167803538 19796675 404639286 688727163 118041657 764213936 7773871 572537032 508193686 817399451 647145648 336004033 482678733 618984793 932919941 269689735 426934267 429769198 577037276 236147635 910566357 172105716 349489063 219519828 167315263 33131913 354502902 330423510 114413262 655473570 815773813 863381902 638991503 8258060 100900218 456966658 180967559 496384124 233463002 734074743 300963229 598393934 230526357 370985507 287753804 420827208 964411176 722485562 194283607 336645052 31409384 764338279 607500554 399377069 180583568 262495119 456653137 830212917 469725891 53469918 765298278 120219620 704930713 914022162 246525599 842030916 901889202 330565843 798456534 252936325 494288170 755545147 379680330 209783711 448098258 712479804 326586048 708416642 159717455 688421728 942311551 573892501 638927550 3073587 392276020 233257906 732745744 181906840 564407266 542723993 68934649 260147691 779261100 510360008 167415986 614051018 771066507 950013531 527295438 420677176 257027637 135705008 549765453 277715264 832531605 30094939 826784194 369705700 944831764 871367712 919809333 438116111 275863940 817652687 681950739 106102645 583150716 387572874 575562594 458990788 294237350 12101315 451119793 159737018 794273485 411598445 237669935 53733109 615544646 738076451 837525120 923847003 952949094 133933598 988181420 850935551 536513862 810346277 581142365 557961144 515398335 690579575 330412042 290368540 208873684 127630714 519049993 585924877 71107065 934274223 253844531 135488312 564092157 231071554 201517408 801423801 543117488 513463703 326199055 723275627 522457776 182820984 314483052 909196366 501587423 246006205 123188663 784497234 31178572 80250085 271325070 317525109 422890246 233368824 233709136 826451172 800227091 970366871 770691457 526782175 106710836 836940196 211707485 796529403 1103236 443883309 999169954 259411792 550171412 227444572 542935712 724098819 726036017 262887878 991146364 961099431 728069328 442283762 387275291 808599591 500047466 144192165 159215432 826163876 865896604 854539102 95076300 340926403 454138633 812798666 330582246 214376359 186899068 432251954 431513729 768358303 238582492 765313257 785341624 276083959 642857954 843897872 834688933 947125210 750466193 443115981 661816937 130150679 427060720 777665879 557301883 627280621 884984849 740177496 441545133 760959565 468443894 129705547 33876814 648156093 41427398 17161964 578610881 863407423 839810999 279205345 775059964 405123559 244299447 999103408 939229226 372852651 528302948 890417204 787624592 281531074 411456276 156507295 989736432 485225650 515924656 320575334 823087348 541757924 614069975 175718077 606957804 646478517 167671253 50672313 324633371 23240542 939325171 620100594 25237122 291238085 358742518 96728870 200995419 90390849 108566630 567094458 979235066 847451396 471198525 285267050 685190909 163806542 307223990 365357702 660281805 605641107 404186361 939098037 583063306 793239402 328761354 473142860 795491940 85765541 868252354 71203735 979848566 67906430 606158036 523665872 116818528 484498542 543407645 885887689 557086497 631010923 568980811 350974379 896813783 523326724 499609858 730277703 64493901 898560902 774356996 713790676 661681122 641189687 396030252 962395524 809024665 754408429 805646748 845299557 350049124 942104463 409490942 856093414 336842538 786751966 458873360 991464896 871260720 468057036 932989503 526313243 609116391 280485806 367218023 153677959 420890946 968842532 463361287 688821900 266463311 738642859 922887514 561904603 229897997 343520311 136020024 594826312 811386818 905809649 25788696 445674685 984107819 433701434 113678276 849029794 559397959 352049507 875447620 538682668 832769625 777195977 225225528 370090180 593076156 336649573 128854199 844191111 181490262 362244604 155728198 632188665 849235058 892493746 181281157 397222163 478565117 829776059 193876804 714786041 330770111 683005205 160314353 115127054 85579441 537719349 70219237 70291803 939370777 342753329 587988241 294783831 501084716 339319527 262091221 386337500 627150336 720808086 581487979 89513216 79442794 75663304 238572315 53862863 328292932 334710361 549838386 197526603 301874683 993475326 955559050 122273037 178678395 269295365 425634526 790440693 758452559 20413426 947436903 103389666 556068786 329082876 47749991 175167679 985141344 83652924 441438076 416719893 733643251 571526588 840575501 44882696 966505394 938463470 269412328 322389067 250776980 485450567 300539423 341430604 594147744 32236475 894454790 639211314 345543929 814699298 266732083 599499301 198584103 368360219 626673609 247846646 749250690 474513308 848488403 875573900 351768761 405364298 828933281 751412183 69613817 474086075 655790046 487789850 581130300 380240262 170577176 924154257 235676057 244112124 78689782 743971187 752483814 507029974 411887037 624329417 421026348 598471442 893624241 575711220 533514799 255262252 142990884 96837043 914652718 86572818 825025503 370260805 416843435 464380350 700776393 260510146 655469868 545880959 962576992 579151791 79809603 53447291 629760569 905128138 173388689 419329066 541106852 38008449 653584376 26036462 292712666 303905650 364321617 702063303 886173436 400652018 239388263 377279645 821860283 823561280 985599379 688747844 51450539 888833734 20854675 557583458 530084643 73031269 32797015 404736544 41488266 335053539 159819805 769842775 208231808 388751546 969893371 503473837 877392692 959616540 517990904 909825944 593268702 403897705 347059809 766600141 11814732 693506626 153677289 863161933 278529199 422413773 462839837 263415391 510969042 241277614 687813748 69925915 365471823 918688040 980266723 875325891 712451994 871722131 253286490 529912841 301358495 732302437 45151264 309630990 671540873 642627725 432499216 905475402 639458365 72972507 345497247 873321097 871343253 734306620 844875611 136000075 21429379 529737347 661690166 700494013 510277271 381993583 675387357 912139019 25718255 294918925 396929905 112466433 245977038 311971859 869634428 13907375 995166039 581150123 880799216 75040904 969508004 190421203 881322302 796072869 445067457 959480147 780894656 76033390 283803793 758044502 219637911 341225593 654311845 503711378 530714049 599864579 888755560 973888305 273748496 847844644 52672482 113339950 95724989 60486684 727306538 677979571 603779740 563923098 119651076 56828833 664804077 191835135 127385398 244001571 673582604 512814028 851883374 277936339 359947484 139294283 499037070 379285843 633697671 481762088 92147918 819092337 905214067 394250007 501296763 989896299 333176979 490199728 126185026 606751315 489989702 859021326 385958392 253794423 882933020 915438627 236301399 999817132 940672485 617542789 562526549 151471076 622430444 295615469 581953008 494708481 392855899 323597046 789066288 177835590 810223082 381689206 666929408 786628976 779601840 733955599 607730290 419270444 298240953 366649063 697505546 327159934 323142636 389302182 502708464 817074370 116277380 44278109 454707989 51392150 126099342 953442622 228121769 975588527 670309292 176947461 623515433 414352640 577686705 264830011 137312281 890039028 232731882 318089367 732900984 13243933 397378538 500777270 891683517 879046407 771836754 814628184 762546508 888754822 600931711 663759059 340240577 534822535 342623174 103764070 60267782 161278858 590084768 81750322 589850460 38658343 480948596 419586527 244602110 95717426 958865101 64590625 125486638 335045785 380742430 845377174 796738433 162495966 593572427 291465732 432363130 786674283 457093825 524613298 674320056 520687980 670893807 713325816 266702279 425370798 376489004 317140283 41741010 863271619 930546449 610934603 855424614 788078529 237856995 813965230 477622679 621086690 455325467 91968292 528738104 510776281 12855398 329110124 210138561 797775421 975283307 56470446 488541775 361227023 173407669 54543153 151645974 454661606 795836204 442416238 695997682 295193624 420483643 646492139 675837629 728889102 312440743 128898051 916255599 248660415 870231325 313735434 266529249 546825508 444495605 109888633 125315236 831092990 537822043 576908687 137764770 230830230 921138946 665348675 611117785 665750199 914087270 171169677 881034755 325603910 761207821 778254107 358705172 784769567 972116072 108760051 643250972 526223583 994874471 911686793 599027737 918039408 557380259 51303303 473643843 648145715 286802165 343523152 59000478 663955168 398230755 505053274 547306893 368243937 86234394 713313548 985783404 208020632 558057838 381671949 2392077 437127335 197149674 544270097 635232738 340384530 259979497 915031392 975795130 976769899 264647586 904692692 85014978 531353599 469421099 178435724 869031131 249580030 714623395 4483148 363057090 209796288 524779459 775370431 466167903 949627042 568660802 390365031 482559843 15562617 941765005 412003920 98748539 749083639 34175395 940415530 242730698 59121357 84850333 292252233 881857087 66974938 828195549 264962253 958839720 53890166 577846759 410378261 276388308 187473418 871711762 345998600 965617287 358613420 611700135 840279633 507702525 499020051 719541031 384280426 334961680 704000999 894349223 215437216 200057544 144815361 127547780 829500109 370714496 498504611 581352310 480605116 790082316 774200354 328442799 434754687 297573238 343034033 923713084 438297636 775518658 194244009 196554839 215097606 26032272 560271900 802275295 48509204 78729888 919967941 894005275 535407147 737156987 90939971 277372288 647601363 665126699 580832848 56392229 895331938 906964740 374547474 977833516 185726468 650477193 586059527 471017118 496720745 813098969 916724774 152934392 866250026 537048331 82394475 201824024 432479880 304329772 380681717 865723738 840299133 504353203 416168309 915046744 56641328 725975349 152813363 605290689 41153286 482317539 457864075 281569381 371379549 610423124 353170526 811913387 783081862 53744559 283756368 452410311 410871 675514327 700485867 177815983 879807163 991181619 122869839 513437760 793628714 234094336 874437915 300958599 286824783 191751235 314069841 378458576 519911461 782000789 175389459 7569650 666417350 291056052 643972471 665771613 126164046 620739521 131544281 847717022 23546867 700498843 899048822 436174459 561240930 410271699 991858564 503323620 531884137 788108182 905471972 662505579 222752017 627986713 167741065 651743093 331536578 446819768 710797587 631067750 665718058 311933504 383723454 211504997 503635387 479879074 801816307 160763532 390591839 755404876 303658696 77047726 302851433 910262414 399297162 245826923 948347811 458592358 73078839 764940296 412898986 742110425 998165936 138623052 591816580 19407245 32496082 511196593 235616093 562465520 205868893 497593613 102003549 665204126 139103546 685347795 587889058 637479196 300895396 274426656 345535747 643240687 925419010 180917250 906850210 843292417 890208094 851144223 316829471 867846013 255171908 146722441 803990215 546838796 887303211 346011267 971372746 86745428 815822074 966519731 947798288 882810467 302130294 458252728 465199360 655662216 390771682 503092189 785651916 141656413 252542133 625971824 836649110 756564383 557896486 313412503 628484049 162225968 303253053 460628470 826531875 520815258 573182412 370137730 523222947 766895396 294146167 246963891 842772335 454164347 242373767 202018607 489005375 444724787 301057055 829742263 261345788 480393290 123422282 209500260 839355592 280057050 419067802 910268992 626686089 530901725 917694766 525410440 84604751 462828215 540122953 213946642 951515483 480157037 827500876 743319583 858026437 996103424 640674035 468081195 482159444 188228104 387717208 338432968 382542524 676297282 189096433 205514931 582320063 519264021 793314073 669234448 368274332 245987286 632735425 61892621 694184223 809366933 425098620 100089588 889438682 593940965 38814574 829792038 192457355 394326788 447724339 175830092 905686684 454131838 280525500 116790685 688079510 410034576 476639513 540680475 195269707 162783674 84760352 858741777 117048760 925154550 333847032 559759947 808699943 199194976 99010329 525660986 943168174 451602080 720456421 752191133 161054252 284632932 465188841 25099107 298192045 771427806 435195474 985483715 879595396 56494856 257228855 121600729 637227507 89951228 901913546 641520956 750836838 817831169 447154871 831808900 823845323 288382761 88448226 979081335 71600505 387014104 963267898 899249594 355493891 456468300 194676172 122094747 577777039 657813762 15321229 710599086 911132514 551035137 219200852 633452410 675369832 656332700 840044823 172128123 733272028 797135386 294874376 934751168 115716054 781093898 728147048 387603372 804402859 717610080 967081721 183865355 229054806 72841367 77067985 301102467 838751390 834912985 387946741 466408998 147257927 87249275 302841183 194500773 418538952 619577970 933997416 129053865 89459876 624855425 173293137 874229297 668316515 674329596 44475312 819054130 585002208 327387788 129858879 907677720 89686548 920402911 18829988 403883703 497308746 383356030 657009010 513279692 770014172 868005175 290231111 756615084 599280532 954022222 638642261 757180193 441587017 351969820 401874632 421663029 999554374 539325176 701909494 267899725 820263401 148074147 983291236 804277975 122149106 172452412 874000646 849070120 341277330 702506959 187699042 730538274 805177009 172966956 111211130 123353182 196399987 862735018 103099532 704918142 622914654 771339296 346550985 735859292 225897657 113977093 880597242 521896910 61173411 806842260 614561743 591835233 816633119 967004659 885576830 371418272 84156222 432866813 923861723 420120365 965821609 358680006 864146422 725480447 295768574 185855504 890920139 856301252 738733353 276330580 916493476 630425644 462640200 860902762 528257104 774258096 563875972 843231533 660099471 472422369 665962671 469224600 9335354 47404740 260632439 98731780 846264334 760466503 331397776 238003069 354990724 84223151 839668240 767205611 514490494 933001227 727280382 836498981 986684111 361406458 745875752 226994804 626246740 484191279 470420222 785167869 753592969 974850489 413904040 2758841 237052384 946365334 504212272 892804264 205956916 677837806 773201616 634050161 66444745 725857166 583224366 416305874 381888736 922795029 172965544 481533038 46328340 69284727 2203063 587944933 791043091 27300765 370954774 869397731 386836865 326960229 810666362 994838585 69873361 557804123 360763966 292117427 263929026 602178470 737712116 639965706 486297557 80961493 327519963 569060379 84987435 378004902 836324472 618003684 214093028 328912728 455295900 857958897 829656464 646934098 923768474 960952866 702430159 993223094 197206940 958577778 146433319 218589587 203667881 831755802 857177127 984555936 341756855 165935044 666411383 397238294 957760260 748539317 519696675 284696386 152860244 446713941 960479439 400828310 40099174 250032335 84271756 346042961 837674074 447735049 118227128 823521774 738364567 414651036 862747658 710559012 515355133 710986524 119868010 394671594 307535286 206783960 401027612 236766202 51435582 520099074 523073937 651984015 641063285 630276879 351615765 83971656 458398645 745845050 479638139 61471247 226421001 688561961 530907977 764773576 766995189 77701458 37296238 250387618 212432035 30645057 689475606 436888669 226216387 901036479 302696511 545231686 105704581 246862905 312069238 474318296 407826631 261265225 419479135 264554889 235990502 826450417 23436572 577870406 94723133 413774275 985474989 236190693 103740837 759908912 599111273 697084340 390570204 840200967 414430687 537939442 599399055 761303755 222759328 198190915 611488312 273829777 465620813 527968927 325669080 129780815 820041246 570506690 709164839 80583775 501860866 935483716 762451159 501002130 350506323 150620926 145467629 272930574 563563746 526386016 570578726 183050246 609822582 873973930 290060995 235633852 566827637 885838594 36179726 352546578 761753253 611017168 34824969 665484407 327489884 989584560 593014036 214246400 739448655 803252347 971734230 383906222 819783414 161968084 933362500 20847918 942441067 701468896 512340515 226521636 926140349 242851992 40173397 810908508 707296739 326376503 215589613 932039899 165067005 702418746 485416211 615240002 705841626 50146746 898343411 952908447 419114349 194614625 990712035 737975086 775937507 66089596 579459396 323308040 882031768 35777113 578229915 424126694 204886609 921935546 290017173 196900272 316263119 454677372 214199470 796902258 67427257 932708393 11028112 892052312 85654142 333858059 781501434 535195325 152226774 96691883 775594701 415802570 515710705 321293112 411923057 925509029 773209823 244628688 346098906 924781614 50415863 658722051 425123488 910039831 475357095 68633159 282086234 664528267 832733520 810567935 253569421 751984690 81481922 614509141 169579104 922085655 441134502 366424168 368247141 587626533 795637386 273413840 525168538 438244407 850436306 393841661 377198823 366387094 12496821 825277641 548840561 443091444 693047650 147917635 411566633 316105176 369868814 826813852 834967825 158861559 847812284 155256174 970829494 920950716 534188996 18791959 669601033 937438147 516832877 243410001 302820228 917015934 568357736 340541767 137933141 403962183 955057557 34178874 966835633 691819730 898708136 289428919 884916481 21932393 422719347 265889105 523992130 954609929 27697079 944072957 840617830 743129076 987452595 919778411 544804329 417691949 149885724 605210404 577071456 542359131 69897543 587193126 817664147 155759601 445863577 693173539 171141646 228347405 902786324 245917734 472479821 617554798 737578582 498389987 709984996 768976962 550371671 796499976 7943765 328672229 416887639 617782557 464834973 635507091 511227715 942866813 999870138 659662244 474291868 385988896 876138585 445657943 759627817 981435668 993432772 269347779 765289076 713278998 139353438 544091783 202797307 769134846 73266846 257203303 19161327 254819298 122789448 838914638 3195530 466103792 836787341 886848711 40247667 288125957 869877577 577199950 145161751 385636345 483761868 561888041 127070821 657869900 675066366 57113581 96621339 607646707 440889939 872608108 229548947 437802594 359666513 812334218 531775648 394742160 693367562 696065060 100612556 829948543 372844044 751277674 32531200 452100961 264116334 667843475 93242551 907234147 851767313 204926697 953327502 117390948 933309345 519829175 302841191 116907397 618875273 26365484 893193074 695422223 645071799 480410036 570633729 998096059 816183810 879725817 18196458 961217399 19295293 629722468 623480284 948230419 17002558 434993113 788879995 794720699 506010600 782799368 665141097 547176400 769801717 215960760 813647609 777167689 428759614 497078601 279097848 509544834 35555272 691013028 306623751 265639403 369314333 885357633 648537228 670413682 2229846 683711077 591497624 440163239 94518935 627451595 771969911 416478541 710294290 446709407 164808025 161506373 327689583 473556064 447961464 642379165 31598407 109658465 112207724 681766925 152420398 700990800 807890737 989468439 366423304 284267202 857457823 757488327 972246260 430254135 415385870 379642309 308015595 338129598 704963257 962948499 463792100 703759257 871488728 366704822 907110818 372720305 631014887 775737797 479620048 658579628 949509505 964749651 126504417 527539570 342243847 706511832 789489585 661496451 697345784 751576174 308219342 570826563 799625296 875478079 790698122 289942401 392334962 652207289 373944778 116697212 668888428 537013527 733014422 392812468 810623377 807721990 455725850 104587745 791986435 995589127 699124444 982671665 421857873 99167122 131947344 189872619 36447096 568357234 449007521 951738501 351130441 186996411 432206775 633105482 677799822 252759820 256056520 339272830 225791607 202578227 75738931 247352473 991106762 651629962 601011016 480101066 892147524 232087570 701662418 358862059 700480806 379578910 133231532 273570178 434785018 975212246 541361742 288646681 857496754 441548126 464311311 604583607 968436851 695811166 691555858 941425013 693871813 723157487 472539237 924767207 970612625 308950983 395558708 843380702 175507404 167565321 811386139 328626996 293591853 775957817 650806554 878270142 919845738 202682059 162692663 546217504 441264896 823906080 380516172 170317250 723903980 615455429 85706296 282704318 738743759 85855799 744286812 317718811 815870765 341427661 940467403 305175398 72103206 35784882 421809698 552844378 518298175 717336008 966411436 231381971 89148954 572898727 964893989 214179914 727728712 894693831 824692333 519632839 675946258 395611492 474531680 198340646 176465045 256227531 301519369 644745102 568774057 795385505 63201528 198433930 405294651 346318207 480738492 95248467 234924497 970048252 483066940 148809052 249020018 849941532 61105492 191607067 599831315 502834726 884759115 750183651 876928985 561482745 330715796 477688082 965041551 715660578 115793119 382534070 963063035 362842972 428962331 717194337 473001943 787269019 940814979 824185915 406067099 446357894 19237586 768556321 315229809 242017863 643079671 663294888 759853200 517740606 504722359 109003490 334413080 260437925 92944856 407338945 633386132 377998378 69045360 261557943 183954723 550168515 100998217 865248328 310793768 468708561 529634490 585801186 353748120 867245710 270893735 985101817 776018197 256195909 5785200 225814056 641340786 486341603 384391307 863555177 114551035 755421024 718455704 417982717 707663955 434769623 219081395 289471933 377547179 535109405 904919988 876458146 543255263 40257587 470681865 20206642 799401206 578951425 23748392 673501767 344899109 714508822 511515728 195726338 66321956 384822189 822540768 665893326 380246709 284435614 420287139 283540011 852134823 12557603 871790530 738760871 250520502 100388604 868294008 969882581 966040687 44527904 220069570 976941242 661400981 905025103 34932673 993175526 773916986 203602319 309599032 761707305 923276589 959006541 155651369 480681944 517524618 762617682 356960633 936751727 837460813 574830386 291685535 891344014 621691853 923256449 847499999 775676271 368292071 908685687 799450655 796597102 540218294 23327363 629484250 633208116 106040664 522017913 647290822 797752588 920892392 456930355 894349928 905989568 528991701 789882056 50163036 955851537 699095329 34285088 362880814 15676562 388542882 729248094 699745413 301648711 810221576 638198156 885334215 638116358 175637282 551175547 147749098 912714337 69830827 520051568 809904897 504548249 52706761 609856175 373390006 963658238 763956449 17403128 964340095 200319247 537572767 840445672 695652471 108132240 428464506 226845814 590629145 89555217 435362133 347178579 61530908 327874299 566932386 371110270 380516188 840649643 853517880 311134351 941645880 623921556 855951059 458186591 633815428 382878920 244822171 369729958 617090354 527010083 527316760 140938852 796307447 8619875 174027212 285401734 395979397 283362723 722943019 282740381 783574491 169160266 334935485 387473833 947613309 329309330 997413423 891541029 169367436 357323106 399539407 418850454 620273682 738072567 982951296 306199556 328407495 971161257 482466795 673275991 145165236 660681235 212859846 767834653 878728357 125500486 545872973 796403265 588053045 332619360 109196199 130717186 443416012 238998064 290975846 588158158 325458489 465178868 692917168 989209163 119261268 6894374 760331430 717697759 459623119 449969374 724664066 848358676 42834143 983486709 135244490 717414100 506300251 655217510 506175225 324087682 841027550 601859184 252831396 199154116 275800236 682505923 561543973 365899662 341298630 148651749 112744833 960040065 912449184 621336721 678014982 594014907 184768217 946629315 575503357 525579483 348485468 138240127 913556195 973717285 861881649 338545184 217588206 644732896 880842117 977690987 723257000 641873102 926301866 79037555 360381253 905248860 622033575 544888878 952615082 312446985 255114640 261428984 269849591 633735492 683585612 887243255 845958276 50745216 332276905 235825409 282146938 597132918 831930 20190489 584873312 9538712 207392598 677734531 250718354 126274131 876410407 654367836 211640888 960100226 64984546 34087040 716790302 711939691 60210509 942081391 285514444 488335659 3684778 964455761 829956596 338654551 898291697 46473532 305195693 376645523 925533747 180230095 153401124 352624900 166577474 190757807 10904988 941195366 22960959 293612026 375655748 973573334 457648254 423531643 962895034 54850131 53723134 276163905 41312078 61443199 167481263 625473623 360808561 866271061 697007571 644997317 266059096 771862657 72719852 308480776 151806515 690020281 64812220 466674907 320986922 767397483 932473515 50817909 214938681 691958014 318368292 489013856 663122710 333220977 373445676 440319515 309599357 788303860 573924880 147729440 110835352 316848607 153124312 952169644 817804110 968286989 431168008 162055213 439981478 852775033 298755475 197910906 715715709 842540254 811462589 824417390 143024050 202786458 207273276 193680870 77745194 736855883 909750939 870239349 492282499 485325138 469118046 417074344 796229795 699259362 878503155 878351996 477742923 614908220 87856658 328263351 499200571 489824254 266890783 554274899 635001879 348669080 785868582 528592584 426497414 283071807 141812799 368383458 249768008 477518942 979550854 507264690 889920506 341596775 30339528 30800731 632342785 599037402 395558431 131736389 767638411 525052389 885273166 288379714 312677615 732765062 477197704 766461248 845052504 877159933 649650214 641150467 498592168 767272878 180760584 820548277 561703224 557819619 295840451 547162676 683287760 765672279 112845289 721073594 216135468 525928037 187799961 868037254 393009150 235121234 320136866 1303158 519455421 76392444 735383091 99295442 301036492 123623203 746769033 631832982 969548329 94205682 422776818 207459219 932054944 382054164 590818440 821987108 92363932 235028317 602340911 190315354 945855244 452296220 805877756 933239692 526167883 128585907 42757170 805686715 161048469 234837986 421921596 970490124 114547493 626310830 133490252 262891239 12585905 813050283 536879522 337501357 552797682 303259373 873819156 350924130 28389720 944511276 627740178 373279875 753825368 869823668 953607569 324094237 194738426 314666499 924560130 142651889 233676994 448608462 331028458 347518049 791374467 733104728 702015218 87792285 787660531 469524508 396353815 313777851 301519377 882716368 676523813 604969158 616741084 905068869 685759590 828514111 940703848 170027043 243010260 702783251 597567742 951816898 905295877 917540895 191231563 751962284 365679919 954516870 467389061 718247367 502141026 609205683 926904614 246423820 12745643 504105397 259584275 201719848 92851760 576555888 224009197 457959708 220649352 403140682 419972082 241670106 162888019 669454028 37994511 831708889 221088097 723395399 194873722 710298692 891137355 443275909 156603349 796912928 769175902 82630991 485187556 767403756 149728168 845155284 488903297 709841501 803286606 221918809 984228944 16041478 90568879 532142029 988058802 782192491 144264118 827295824 415430379 66153063 607263617 95349684 758640106 744180398 652736881 544138339 716896681 187740325 53197951 862487817 872064304 533564038 773109190 562674040 826785449 120733939 137885832 125458572 885632699 773330760 320462245 137348078 444143149 151289338 926385037 912965998 932419266 819255669 11992126 437008565 501101593 351702957 484164710 686328065 502517200 370964743 458160351 627132922 565368174 241270654 796085464 944290378 596304904 21838568 79506183 414956761 459057429 200935502 289053380 452532309 98601674 515748444 237631061 942047466 621525473 865962022 726625393 404889101 40927365 451423942 169126952 982450803 550803083 536715852 655294991 634951310 728358419 727536337 749354820 847710543 714561834 168570104 506883373 766985613 353513901 628008360 2392067 766814606 394756039 315874613 930517170 677506783 792808611 946195999 977680553 948724246 872464454 200812436 921618418 549949250 679971704 847171351 928618864 269753097 944088696 625610696 547313657 673771368 626276109 906047298 801654722 947976853 104189492 684764220 264570960 348592665 468676586 944082987 875199417 249489308 101413485 107864205 641882144 811348778 962371091 280281173 490161660 646228729 527726681 909770818 505976767 318442990 840313298 164525989 941373967 321158966 868969347 44567109 361867909 462751712 513767616 880671081 290491919 643289305 602081128 496439172 697963379 262029191 270284234 716707934 564266915 438866833 84714239 705633992 712329576 387293032 165821491 302216189 424988054 522671422 22523927 843728998 101714081 283395149 131128861 634002584 497913637 677223264 121246207 785124350 991317056 98662484 492734836 430246750 529883418 715067758 14804732 690653745 129568278 604169893 91264652 888657439 259706033 892005862 881359984 453369283 68420258 938035218 643739443 129255374 386443060 161749879 448087132 985279464 396099298 588529663 86966081 736742217 272233247 875744585 21164069 600504805 846015266 615269623 974996916 253006568 326782602 467929265 56475499 832155522 808971808 764194555 273487711 477538200 720135871 731016918 527994212 54069254 106281879 189017451 696016206 884482216 840304907 133489233 505839198 934857177 611292918 412276579 896642595 344570649 972912248 102991670 334855200 218833167 433742752 802930325 94308546 32961442 730235548 616416014 683558266 317316864 879007545 995143266 160958766 441157956 810935785 582643292 948769892 864239970 563954745 581999229 756519588 954890323 654529210 636181644 84567325 342264529 125715392 843094279 491574811 563223067 603513559 999053496 446102340 568959361 188464436 965318659 257235498 337804980 297827659 761233333 892358835 369304205 13893632 439972332 457580741 350975370 958768745 615792468 13362546 955112989 824146767 157689758 128666566 451219956 879769489 667036294 159065823 282831226 323434569 801323620 271256657 648955740 357849143 523791817 558698480 759525314 763265027 970492602 665800636 219527395 529510864 675209554 727600425 69143308 281315660 562250997 371882214 261177033 701564849 477617127 723433454 910133203 611697051 921117238 310686198 579760561 228525774 78450846 879593083 427013576 674897196 42087282 655101597 28995908 613788299 609785501 331590175 346180220 165046186 388710831 398030738 849126245 114998461 826290674 815578639 872854829 94723996 514784881 568138920 163268944 45205 779668908 18552884 556975812 75832628 642724041 236583425 310312005 551809975 350182538 116207932 190064598 901797778 221436270 379327118 285912374 643788072 641943478 785684671 793599522 639192342 939212077 779047762 331101338 528120168 895690423 416342086 533233336 604165371 822412171 381197404 886740316 899342461 288092067 783375435 386475401 246107768 73005204 687439324 388956410 522175901 467511606 146762564 882660406 447390009 641186150 272116185 286713096 64512744 183099839 737084981 347309842 863909233 606273314 602370049 741996747 135210190 448310083 642745842 771637049 578699997 661537769 416670569 718023385 659477967 337515989 20402398 663796927 323614881 987871313 760943030 836642789 800396650 329719739 924345601 698117553 404072071 308513436 281426017 149433077 717559987 348800055 25668598 775638336 186015084 959734461 813395139 377481875 374525705 648594240 437782473 401067738 847658066 712216477 630007059 775336100 906647603 252968269 247433571 15866947 386199676 426129875 530805436 608402095 841197299 55792736 874367842 432293256 775251760 677552512 728171219 142505019 37361679 493159856 410793074 380250902 990615084 200026502 189524381 663021394 32673216 635431354 698397721 701200049 7887788 969514336 424322957 974758605 565151427 419412437 763471112 308702630 302702164 904477706 476937326 367466115 477849852 611134882 538494470 215924880 444553662 301527825 506450489 497550179 75951926 593660054 959161648 406419808 939159784 551831414 312696657 439231963 459368881 529221891 902376422 187672146 110491883 806366457 522765488 632047712 100482886 360152176 101093475 518327619 820467647 966198303 957733495 431234199 31149949 22157921 481376840 95926356 679291461 923044871 140407388 919851932 178793762 849912056 824705162 651224363 332542086 752533172 123939008 417475497 863883865 519332625 904612039 608811703 8160913 454131149 858399239 206226447 747970337 409499205 474296362 688168151 490719759 304698364 261504527 734677828 899684523 48058057 837371872 979083842 445331286 49007010 173557235 711760496 670510708 157692279 543810118 294557787 140875687 105120372 958384095 158504339 35159361 787380956 419872624 61922917 950598755 364797076 140544092 353588219 693528808 100147714 482927039 342358235 641278913 745703110 856132274 300260693 999462038 566261873 833660706 685233092 43676279 332679755 946105115 687848221 232324923 904880047 105003762 395292190 353866216 689478878 687751976 292014062 460117834 114696631 28711652 56021341 743370270 898594062 781033614 516096242 669353934 942510919 630412189 712370675 274529629 360094181 532187895 649404506 839437138 639281511 587958791 984849132 859464380 586596759 206227341 866133015 774036101 2116719 478167615 116660686 315415716 915817323 342277121 675286483 94802942 596480583 132887994 868734352 613376932 945201737 874171965 131777417 253814337 838670905 804756598 329449799 680550575 80087298 106127769 624940469 48140046 132501519 183190369 879409970 4877916 101105916 603178190 418485801 466468004 129328432 835404816 263808230 209674831 664584622 377473794 445198141 837095803 438095904 797369049 253095583 846528229 734815616 912497697 662843883 77342572 47999191 543400197 421163617 553894475 765796161 62657172 99064059 627706550 177031308 819558726 761812656 306343474 802442672 269515080 244728949 735429176 238791283 366637126 633407079 66949713 327211472 54014004 335889775 935184874 526722991 266168788 957153070 894012869 836852009 125528910 707855876 370049040 424623285 700296684 908281702 290006028 710216660 735826354 825319695 195102180 110872624 24264122 93296678 207768491 431459279 162276328 308826255 725772282 876140417 396224317 102743397 482750647 735273008 540845221 618841357 850905714 172030300 108299420 594011266 888908907 283786320 48135239 614867561 829662977 692734437 914258370 460815102 497985572 946824415 283239096 37161786 573031598 779551921 660536199 189393964 857876360 301952387 206505342 75946933 785251594 102135939 699606061 21814896 650298505 532628352 968612933 82797526 742784547 367764012 757308983 438477902 807353024 580408594 794318694 957261937 958024193 288525823 273310354 490894280 45628007 614300860 79341136 681918625 56701435 160107853 71457355 215062261 292647789 660811985 113972134 135224684 343107784 221425733 675433302 139800789 659066454 782602005 305889345 801454981 939323967 30713947 478246578 290296448 749105900 662853920 701359234 754663240 122850772 957915393 181589206 417381089 425168524 681389223 163363331 127954260 327563393 434760236 170159039 16992589 915656998 856199854 475522617 298970247 345723927 584134474 346785069 88943897 361682684 821733638 729046857 917088143 868706640 305014196 860722374 43704905 971158275 337163821 971914941 372614295 28868851 990976927 505880574 644725062 301679955 72282130 927594864 948627196 505679127 999571504 935029909 703807895 610364856 608826257 892501001 803267494 989764558 512263985 736288529 673699464 541270458 522188269 790542318 209491945 470606596 93688112 850951464 161608272 16517733 228687317 134114583 342539821 363615227 699629853 216869678 211529649 741241489 378528107 973437404 207895751 729015346 836404981 402495164 674888815 599982449 759179707 335025646 665507165 60587803 651786049 119603514 86595770 549092647 203426857 906650556 646923785 154942039 554076554 643565479 828746636 576313683 826011406 780868055 470929491 848790540 178011468 521218440 260613685 351983570 530787153 795965118 422816693 881709730 818387112 869386096 144200402 697456698 953121575 176410204 564597236 148800609 576152394 716132840 334691095 931567167 964245946 231324832 167523417 171329932 685969503 875906613 301858521 763524834 342107481 624407123 355657842 718047506 867889223 893154054 768186011 449725464 500374321 960212774 675806466 6566903 116244735 786546823 124084865 468137063 664934851 112242010 641051847 819871617 598748575 124486045 214928216 671908947 471565471 356628253 20599103 906909427 927189688 686615480 114660079 494214202 535430174 649079960 301522947 173093352 875404646 113011302 620919692 989249745 107641319 545530180 708853396 804334323 953402147 970925840 416198158 197499830 417008118 845808235 64477938 7672478 196095303 975114847 781787978 687786237 871970670 43672360 350299835 153998977 282767901 623195406 802267035 224763474 186154787 119886625 51129755 140715095 458882244 117955928 142030590 932552890 564861940 168656239 469347700 434130707 850780817 636938232 249729369 787469003 645543297 816446754 498393341 348361299 32114999 806656464 112183120 702200766 340225039 557093325 954991242 78499509 260184593 526573203 335436623 139642550 206085191 218669975 780365699 778844908 182389329 167435017 107879824 455643771 567211572 204437626 456626922 871920829 587179145 308578444 109305300 585272517 721947366 67643751 894824933 301627670 994009723 732969485 43815212 338504926 491014371 173473965 919001182 328554052 33950195 240539909 390584924 336796102 386045100 367646534 714176489 523225729 839541558 840317813 90282056 100259599 965865137 157333914 90211137 616444506 526099136 549080792 83047521 293309230 230307365 343175474 710250654 573471090 39504261 836891097 373553083 350557972 385633581 876628814 885902797 209087432 330294560 282679817 883394764 277697255 355605141 883272523 665750032 631462673 482473152 688227146 360041858 877762477 961606435 245705700 539980590 104346101 465495608 388347257 367380929 72769641 538311540 459512646 892212308 880302562 642338380 822889914 684805419 778579625 248876824 283975465 533009731 754469685 58532161 538775759 869057506 95122795 713186564 632469490 899216952 720715658 761836160 242203988 281667125 246288027 48962986 866199810 58711972 64103239 35620526 712286504 471005925 584071742 933574705 994887588 615951684 481708783 569945896 385317055 381115112 558665894 20057884 693046490 439713751 319100785 210605766 704756784 970905826 406633194 46470879 678591060 255874442 740576982 718366381 341180820 650174043 852013431 158738250 804334987 778814641 130389641 46983107 773074663 902845606 436047799 234034752 662711020 859882040 93323389 395283472 698900823 158150250 805152349 753216995 411712470 651163348 861389725 408092140 926395694 25760032 659623452 291343465 473661317 548028135 339331468 472125596 193856017 4222797 319900523 902172688 527536353 645796836 488972889 768033663 986098166 948619446 913372157 19329516 459886222 858943638 940582044 643291045 374045300 960108228 746157800 69384640 649476217 971326621 597689080 351139495 946041502 26477454 797791373 511148993 342040720 628818483 849406738 958877726 389369725 794148737 456861027 565025786 914847238 972107645 16220551 64313896 694612486 312094949 762473227 854302246 219071156 98308124 450044196 957032906 352232004 639339920 292991911 754718547 737245053 579097959 254869459 338177579 362349786 364268623 242032797 513194600 285881960 996759533 432045548 314407115 696943181 175282851 513027129 482337927 308347082 156586046 20904574 443301087 796534067 593181998 183216401 750752317 462576660 966408238 251260899 85814029 910871910 400701385 786942572 121411466 291443319 224597029 740024964 36696697 791030095 908670677 672438061 565035939 78728258 314249271 852715674 11611467 883785026 359450881 596058524 993347531 661869061 678953365 942847393 540570590 650327283 252283056 324679745 126839948 333119074 113476805 466541142 888027329 358993449 197458866 411562498 109923405 375134767 330469447 573281052 35699323 156917073 689541450 445405643 733015784 976815424 491750833 159795010 907325698 808929900 237214097 39138771 517412850 665686753 635158399 920261635 655792549 134789044 99095804 749154662 136211317 716941300 976171713 123490250 895917592 326696830 644791923 87598226 876916633 421517820 192837895 368653697 205840923 685106005 202835805 601463608 205663639 693648092 153225152 246164806 896335274 323679203 136123772 829996762 582058325 192594712 633312575 222650420 457311223 408136150 722558328 679260321 462348652 957845027 641874298 722954079 917494475 410733205 963592128 346784033 19734550 370085497 582438385 279990243 481546951 98157159 718842693 619444965 302214603 903696079 813791797 563934330 729545915 796603600 428565473 730973275 818845683 214659434 578292711 16426105 791429946 101499516 927670865 796961346 250827735 716881800 570085151 977766882 297171455 231073481 884335364 486671394 721310233 3265729 394114946 857895004 446784322 870022625 479141489 60834545 346409647 550272575 255368028 755209578 739172861 639313824 96784412 100683191 645248723 574843344 202590481 293540017 205956719 581528477 205991749 331674769 837247399 418800360 530236649 24246365 605046768 79573217 34976386 21967496 389200807 393131190 163962188 640988941 877084963 465208281 620400122 964366624 625799131 443363672 592918612 645152527 546376409 767501380 10831477 269346646 369329356 326863884 898014315 419846495 720213369 251709770 129675839 787486483 662869595 723819993 121524120 303795433 545429740 385840724 722236068 760791665 727500593 12926053 605521990 352411297 336790842 272409042 904969305 135841465 221645349 923066543 381179880 149134752 47075680 475179867 893916517 355586592 679375694 172556413 275136239 110250030 343479586 876469413 72445533 947178267 890662818 973772833 992571367 245023963 231967322 46216931 430707013 616717167 875127107 582473802 78171800 290920257 595504529 652556960 83770101 479263549 205493098 338788756 161958078 415168936 290528343 680752179 78231427 556984939 278145908 980069751 275888926 47632194 363977733 760301944 144638631 790453198 423384071 846509759 417742651 44880909 145074399 334265629 459956296 484762623 181817610 71210601 956721156 594739613 225773057 154068767 125012193 425470981 326253581 773142820 221056848 56982942 892687213 430515020 243338391 735270844 968761226 829649640 48690493 102759619 525240661 118246733 997124342 917605298 471209297 593373710 64936713 624745523 703162733 226491976 542441199 745127391 970286166 549855954 111750146 246877738 985850008 592469037 217567954 388854531 985215673 565063887 739406058 438100643 992094909 909613524 232284960 491745843 642375837 665452012 746797027 703691775 355640118 921817362 546137450 719417363 279105190 26747148 406432170 277546154 358307481 449601837 105225679 284533620 719717358 576052066 61353407 65087313 290746652 871174522 558546080 855218373 302881310 121214286 830280150 811604043 806332284 113838626 329379471 16112461 879634627 192925347 355696225 841683842 260708979 462152198 175570183 436493590 951916474 894797702 549825523 86790722 633996307 977567117 664690111 248346875 379683361 72952323 258483749 962574516 988192624 242671902 809095233 919720878 698579862 598710359 668526537 155336213 111891695 82263666 157302942 399533340 303121283 114553415 413115303 751454599 741619528 931052303 945964309 760796373 114167593 946777745 740716602 358867290 354698586 793546007 214901540 229936795 531437512 440656066 329647351 901509431 616333312 640533406 518357939 179525697 241118925 201183031 228073238 2706188 649911171 961374793 459839076 557545509 889387696 992333431 398577838 135556138 392775961 712605392 359227672 738915434 108626154 787406337 419250301 768285837 110439878 394679901 710269038 158881595 297996526 887260975 111644990 972883183 159807200 845477860 205252413 209457445 961049874 959038932 241923733 161993598 447421706 898699486 26338944 265437738 435559121 426178769 359978532 701213294 867750272 868643646 810701568 404383099 407040509 39062038 569452236 818313504 757970875 867486349 806945999 846894564 903021761 831369946 361020532 854244101 351391015 343595218 927552921 792611356 208164659 396869018 269591107 659799619 65848757 438023213 780739981 499900785 620085258 543544981 330167665 685907868 831480835 221601235
