1860
328732123 434903128 625481408 732698782 147428647 344440601 864162584 734885538 61583179 660280342 57787589 658953471 763449193 509608182 564255300 449694184 224791145 854663857 621250913 100390359 876983612 677838154 198026276 522221299 613305985 524293943 665556411 462072464 840848494 745489503 659088174 46269661 585216257 601404278 432266426 385751765 978910715 550652286 968177538 971018213 959139612 562607112 778207158 376778354 370713302 52284032 780282976 952896 552630834 849045898 704997629 224578670 263275736 848693275 374183986 703393307 409733447 37042153 991533124 648668486 169275339 588311176 11911355 432018534 702019223 235776613 772967897 316589425 619969422 378969220 143493267 983973572 113159308 564860206 491524402 881514554 212372396 127339823 642854297 690291745 938700285 237801952 879286970 637636478 687953739 621089472 37403897 608868302 126955420 363394658 955252389 595514044 253142958 468458888 691382470 269204553 961264394 81810494 846318940 86874271 826643249 974358593 791267387 813198040 593994171 798822501 130045997 891453584 654964019 762120383 77270521 904950111 268778780 761026558 705603286 681618753 469372543 48679027 217004216 955662546 217679358 855087364 198081228 293277611 676164017 387473009 151642417 705682309 934787847 233076111 269217840 239031064 951289633 71325096 86511571 317519106 661297423 148819612 396696107 60599323 816138658 39442874 58321238 175635095 333967255 422515819 568520368 921295490 136279577 578734969 615486876 101434851 452398466 329297434 269284493 233311517 546550824 87479499 104097275 686413910 40400935 507073803 531187925 384638377 698071356 30812566 821907268 700022939 272533078 230435528 664036643 223030674 859108150 643517107 914454030 744420815 367704072 707447469 56613817 726741111 821081968 493056053 581214182 164271364 238522149 220967516 737803160 314787172 165202586 666879071 433946104 874811229 590110446 276821889 616117783 739642666 581402144 523153246 299721246 613953941 173134226 316794485 281801563 409571470 675108067 620982715 815738446 278428272 346885248 769009747 480562803 365149411 484196824 254584663 212391249 114943726 689346713 614073278 30488139 37701958 773826719 652578289 995618764 573763298 590990432 835464643 857102993 978769742 771734023 296503381 53607815 667976575 856372163 399135641 318787663 120790049 727315662 828624552 426714700 69682327 632172818 469070235 817945948 174801938 866072011 661263286 135062991 408731840 390225473 506390803 412879155 662643614 969491842 885958509 282002368 302312168 886650000 525444567 716568256 317044357 427966556 385908191 88468431 362508194 370186143 854006359 971266106 679388281 369537662 139749534 224379604 426209963 307256552 928566395 595311679 486170323 827422351 567014193 385655495 6175292 159004986 680038149 98656123 121737023 573904900 219458995 324558728 458138615 330277331 882417938 813193616 49121474 480561197 855880003 216953774 518948706 641853950 746976034 824533052 373506875 11362028 922247824 260330835 882718683 80642529 558540998 507101024 745129017 384122288 301696810 316984597 273858700 537456397 93485392 82700920 784516364 158115629 622460613 518238962 108414879 416559738 717218221 250210815 725758216 451520947 346257536 469362507 842716434 560676797 268040399 273713904 429434495 106568430 580704802 323399688 287758768 750195395 956596909 592531788 907593281 707824103 198192070 996639467 410254721 350837428 424461886 460401146 789232627 829901567 583208446 234554544 721998329 357389685 998103529 948247294 570490470 871531585 596784198 958297491 844570517 17170331 694677629 304771797 730142099 712994502 726948125 798574246 11533190 38217474 993292154 1416859 225640074 577984943 110773398 590533770 101875993 33673060 60528324 487941974 951194832 598916882 524228833 314509848 556447536 193779497 314828572 577250031 573918116 986436483 810535234 528660833 783311839 700456813 37282295 178552070 922806378 5197124 702233024 448286209 896527498 724094536 460159737 110586980 818934860 713175762 466376346 289043463 477959652 106036906 705785663 401619592 754675110 724483105 926377862 809609038 945327393 958900650 558413937 203606449 876132769 940511088 586007829 409395803 44637219 912286716 126983036 749023519 993000373 467071541 535639196 502899487 158437032 807213672 602010037 949910909 649389073 634461053 651942697 355673551 834712666 739052107 616952403 968139835 931935998 306939534 952246023 166123282 207853359 91105495 50135948 944432800 180368275 707584526 935508466 385901536 551008543 46899001 556922574 428405483 929787697 559895118 297381871 119228532 431046565 555319937 663537107 797538880 516014544 942668327 56869646 584499164 957412194 987188811 51955739 393858168 799123146 833369975 880657514 54377276 58422797 939460578 364717927 989002719 467456457 50765349 544827462 68782294 521077396 717655304 201816636 212250303 944466645 184253612 533912874 512534679 371996945 756090565 848832989 996143578 401755177 926888731 846538372 992050318 971198626 219175008 558629757 298111270 98767728 520019377 958913012 655550057 981790657 913031718 45330218 324389933 905680131 991742346 19411424 605587467 312903747 676709724 721966891 383444601 569134673 169105489 932966889 895115880 45517328 453243556 737412252 889957806 656484639 961614947 900387840 56025927 142730709 256192807 935076998 922501295 621331340 105535769 378359478 282679776 890100766 541917971 945040395 186026847 54047100 706690502 60818167 788828113 487552619 317753977 2474205 85478522 267002566 98989544 745486997 532203180 487231755 152803161 189444425 252153087 404960180 207902649 636952426 757923935 415604394 371718575 911963415 265523845 405081679 998029873 186002292 452964838 26276108 270489894 709274543 166246949 116218225 158009561 142619934 139788644 270953222 361075463 246606317 929716927 559862069 175356409 762803864 135805419 787487214 868650400 466411574 143924865 492105129 610251651 347306606 46769147 344000128 457452478 256762096 950885931 508501423 646668353 533571719 190717305 413950119 111136465 151279255 654546574 770939867 465107102 537167902 227453252 866592012 509782019 554447419 484870708 919442049 741736083 318252302 521482187 653840224 555810434 249184147 714853910 81030629 188451491 84722020 247421816 443349437 210304444 853120788 608210311 87790379 690892709 564269248 196496057 435578883 31656120 759316944 103714291 704596917 516813703 828047148 421633300 33908882 651975281 365997105 79719544 958521433 743661602 101321289 709662567 492773627 806071480 202601224 606589879 985510469 23321687 59338153 444229188 603787190 130342266 514793156 452627745 473459492 945594555 579802928 968856472 495607776 345033070 525599244 859394533 834700716 965108519 530858866 20380917 513373690 473185327 244667904 368265859 884036222 722756579 812427829 290925186 527340926 952550804 934586566 290355606 829963305 626073323 871095320 295203853 65118640 342349479 292419220 266116071 120545360 112016403 914985558 981163752 910575815 285373970 583260671 358181610 635791003 693095611 766952220 511490343 461123210 977120843 899349959 555402141 631752457 302246009 226070744 421588289 452297534 818405304 270231923 283087293 162052374 26328375 467293522 805742160 971590127 58087400 534446306 970335271 256217125 668570368 271468143 616350152 857616045 656347582 893576678 450707324 788432522 630809826 444184768 702707529 860281177 29245206 823422738 852135962 81033116 201830190 838698152 605740812 178493837 915944360 128138107 472497127 229488195 981422830 782331115 924917007 663263126 122192419 876910538 91902871 581056686 547048599 593938412 402523062 808844763 588323068 51762005 117977489 572049767 135562913 544544370 670751998 957012499 923776018 682729365 735285542 330981735 630552492 10219930 486458549 662652564 796173604 69239262 140903096 12383541 37346227 461378490 792011563 80880158 129441863 512274477 499133980 30262977 110938684 934681726 849699957 915998002 365773694 809130656 288164433 447456416 381791899 682697028 902944941 971205089 352509589 911766034 461840544 151902388 905508734 320852672 375660073 170136363 787028724 483050459 53192075 5898119 278213401 221435375 587365471 943209878 605982433 826126018 813597799 516576864 949379911 100877830 322280380 18976941 38008928 453318520 110247176 475849276 638585194 129802157 34642681 107115596 621175218 982050350 762398935 452767784 445083601 533426179 967624246 892619862 249831981 316107831 340754685 454828154 772185159 147144153 651618468 557696974 496617968 330590581 541661960 751854543 849598743 705865704 44426123 761294837 93723486 632905898 417988058 953729758 666963882 887810617 71307173 564621480 473823614 319984548 437288425 315795232 7313366 786432356 438017871 44758462 331278861 891145621 406904160 912173026 393547838 108214697 53899547 888306030 846227662 581787078 544295215 942120493 244437143 150991617 605321503 126859794 323360360 491579542 648147875 620392407 556157663 776861950 614808086 925586429 52692989 895516905 83981062 801979556 865599115 68513120 424683171 512573857 967013732 15805558 773592936 225234167 999432511 366306726 234611339 940209940 828230898 981603896 314545790 209031084 286892330 256346768 789494958 872180788 745972971 112280936 261534037 499642774 776603104 5115644 136844271 641831036 71219014 234627592 548114055 756660835 185608164 413506739 150727919 856513266 667892318 442471082 403470819 166277010 107680096 533945359 365785923 67834521 807563366 590454838 298165379 670591563 277714078 420861197 724951731 784163912 537292875 671217337 54699089 326994370 749154236 796138364 302174902 893762098 217058512 31798941 643323223 79976786 676520296 14372735 303597526 693680268 230285625 266037911 944519874 15815469 847618804 296735031 283836013 52342894 943693730 308662741 217210944 421379049 149375607 549799297 846423722 421705435 274282762 832884147 591372940 578321624 219991596 124736603 223055451 321496891 195983245 339182539 830701742 520405528 1737117 229066878 892491089 40338474 980027116 167633046 522360557 458454921 611122066 822026157 694944483 850727403 863815811 874964919 283298094 891738753 758873486 42603653 370803388 98328530 102443554 576413896 672487252 549787100 810242323 258272359 482693485 457551387 977009767 757644731 414999304 276278847 17123229 293266220 700849888 529427764 978836498 982152891 820801273 676628338 131899199 80585428 244345905 685555272 263921016 190674132 399106910 992251897 309493048 44957264 22273397 655945946 544350374 105351243 13093176 48002668 701266415 981618478 639589798 940787579 519159976 395015972 6316951 277154905 463120736 841789168 855814083 660465036 557375256 20633596 620765122 338757263 483956428 224287670 442696872 947863115 671206819 664762169 106175969 193800083 360945056 652830298 408681140 124256249 615782646 609792597 631442338 315554627 772883474 600094270 21735473 936325547 588042954 285839780 463358947 449792350 921644017 460601904 620982332 403402070 4134746 783528516 571359419 962769127 571804364 562497336 879554601 70501003 63876974 156225216 997268189 835979194 408382754 53647861 229915413 142960855 404457360 164301756 501541479 31158717 42633218 743037793 808617614 423062228 174032945 184313115 385767220 225525193 588121441 399496816 206352331 252336087 372612725 902464483 405128538 625665214 752747860 725083116 769717069 824611049 881435385 155163527 552329140 253162521 380054401 645417259 404955140 985620027 742622509 330855470 143636379 771380648 367497586 304542037 609665882 249607738 529587597 754655882 446974655 395040263 902457483 336913981 640219060 976229567 177832803 548661233 820320925 614446314 460766812 489386839 688930220 327744042 727831014 872176064 345017397 280381478 352682014 18563155 639168025 960485541 13056283 772270102 464083802 5841313 252697389 876590386 241914074 167924910 955154510 852301443 601727247 918667804 921956602 429274076 104959161 727651342 706320213 63671557 384071665 755026949 228538967 696577540 902358545 447854568 223134864 307448631 687527897 904729292 916757141 940435571 479038553 159871969 19558988 424573248 260254104 346687620 551475602 508994413 999923722 115037855 654146795 795861437 661198337 1122196 759405789 325436713 281059949 256105937 742428120 523448487 210399021 644416328 54874315 776291487 720841660 470205146 112872339 788323528 735918050 459595726 262558992 32612018 872637858 102957979 295338383 714951005 376773767 431624989 504729879 989981228 902071589 268318387 248450931 19963947 777100763 999623010 141255243 369341236 177264031 950872711 605265117 33452100 920340063 323788291 29537701 546726433 381832577 319956435 351677870 845371881 714692191 913655073 702112213 348192176 179694520 893260289 612157958 594689615 620678902 572576773 511705124 427566063 917555873 585953959 297827027 782771801 818607181 481535597 229060768 48888499 224350614 788583298 689368645 733997490 122139118 601099974 735269326 387094853 190330960 362595707 142601642 621777025 26393358 806351706 94550381 433436367 946874107 600049955 686624870 704996531 289810442 588648119 442740479 490557080 752895982 114128946 741507437 740969507 739045891 515403978 806957423 425769864 547427208 435550850 416917299 417411658 564576417 947843411 204662004 593828848 141810679 212758752 530420972 819581586 637037586 382421455 921739188 453379692 869050513 411778574 624570830 209685427 740523263 486883688 40577269 133197284 807212132 604830273 709382847 674668999 398672797 782644809 612229612 629768471 43130950 838321952 771262704 432657479 680749781 94404169 818547891 133881559 38587992 986203021 868128853 209099680 993917137 684833313 182873270 303381308 412666814 113968635 315572511 34592757 416995737 610530211 191584553 507179244 167202603 477572056 95915283 229874728 72220008 273200660 258510797 226506665 420152786 595112271 887979642 172021387 664690633 956465610 214292986 235677355 950028255 336772948 445115574 23288845 409304536 64869945 598304929 528148260 854387676 793838920 822122330 164533804 507365712 636772074 942279752 977267912 609404140 714279431 486475140 958173668 781416976 134156281 57852305 519933754 351615438 28106941 44629944 693275036 265801660 865514610 326817271 661221307 113992765 558269268 700423247 443128493 373971084 597369037 576692833 158428396 17874781 962234939 694556505 152448454 25859729 352739872 291016949 835429170 325495780 7310977 164628335 664888518 901734415 171096560 952075271 688145269 104241185 794576907 778802664 929167279 164939773 408033853 875484551 339146573 288064184 556912790 455980672 837066973 258936118 470489376 683309582 96550359 577783554 630258723 531911990 396122978 565488523 441542698 438110545 772652751 95236816 225465509 459714899 406590722 344217549 573962115 794475087 931962778 562806017 53983818 360550709 635393246 33472424 31964415 56415265 749177818 428885519 747596904 64131937 156844082 933707756 601397247 306087137 111900515 422244732 145590268 648463437 89519075 276298952 513230965 163308498 781930747 818911633 308267856 85554707 268969649 112151712 252059702 669168361 491702932 43784614 467472789 844600392 754193047 470162108 91776899 79361322 887575126 974055453 582162334 142997919 19109009 93860276 7440291 513682128 257668892 950237305 573170430 488127967 407334690 2668840 339240537 384285314 351004632 604996786 14697444 548962444 410124564 359908363 521098538 457394953 161832969 543534629 497229406 312605991 964405660 559507146 76263622 80619530 304284315 850059160 139262502 61058587 91504123 276896797 542673128 426334113 657003124 356609833 183778520 236386417 859072806 94567864 774295712 807824946 957466421 933766710 112269058 402758399 552802644 45786017 647102006 200801572 509670769 765268899 842485902 878521924 184391832 415851733 114915792 487472061 987030977 862004191 895881392 761110423 327408701 628102983 653803759 551671210 268133770 702343885 857069052 20841552 672007586 394386378 829249856 835795506 786859942 950971315 404544061 153427356 46013201 812327465 90284135 729873568 16787440 719580804 170110948 315885220 225291253 142042421 405739708 45817683 71386044 508808067 131839521 268518316 301483898 905244842 274532968 551275888 77676958 643954768 562022048 886395409 495851406 421771722 341920003 590068794 252073532 888171051 477945095 348298633 96931243 564158127 255801190 78881209 271513992 39769189 543419253 260267501 476556429 946397974 77386782 548864317 515103090 976944481 705789681 962957750 298374589 545931844 756876969 145175858 162394464 461764942 76659741 198395285 41714598 354156994 619042986 841583567 996030363 406333868 70074204 321425957 193156477 307410459 523025298 176355792 802981362 173286095 765066305 698302655 595879756 793556838 405532141 812035059 301132892 248981952 687833254 753216115 516998202 725662610 769202606 339675188 332676041 915719895 517777973 149138535 940363495 915704584 845552668 526537382 929337331 493284719 860946314 298125819 442977661 382239814 724474512 612595705 328634699 722663857 223232349 156854927 874135495 940764909 917616937 572899582 749515029 397247392 3956376 855875429 122478569 533519477 1881497 804247801 896259301 310891536 962486540 600664509 576447394 387164414 955300842 572783953 591470402 421343444 799973005 487772752 409197422 221211161 714492666 848155458 614585792 385898671 193271069 121031764 624879180 261262795 250788915 809034340 771363546 213906935 920911949 930920142 628652401 441808695 954116956 113978182 12112063 807485383 76847595 874814761 919125307 456514458 201631375 115763654 54845314 473333405 181770719 935720722 352853976 96361452 232559988 707822880 667653969 960732260 14734566 780968880 523243267 542942133 616356127 931577475 448211738 733930165 940747834 199395693 482090352 123927354 30874253 679606046 890317001 102191280 371956943 715416988 687479729 160230624 764000588 634919737 949584153 130951840 453275825 695884860 221680271 566211349 159473296 946342195 358197964 743312001 545990890 692122929 767166200 370232266 599797262 889221005 480992219 425095820 617629786 703324067 605098077 633922091 268246946 612081636 131368079 303232483 47604832 694561556 264596822 508925903 940048384 791500422 824302096 619412960 22503585 894387009 850432634 122578136 488589943 39195468 964941987 897360003 922935437 152342670 729086061 227549042 988377948 750374746 313602684 511439872 549808747 389699247 233606196 271682772 298285819 267451588 699787437 684448452 563259538 553287293 326059341 755490565 381897617
