9349
607968334 977828995 19270355 867407750 999448282 445178918 223255474 112735287 680651787 793838566 755614768 39808512 563446312 822225303 336568977 253044650 406176794 20752197 86933403 416598271 396338259 874595368 972405115 742713621 899402606 685327465 741135708 833292659 614476280 196142431 228993872 214078164 954875289 582204323 465800688 464401043 613888922 927399615 930047814 786253300 35620160 561917195 459582552 849887320 628691819 923436598 742249077 346311900 103730528 910407786 279220215 52005212 561590955 280517808 962494813 525101959 285806137 119920307 682074438 775945631 399554554 408191980 452127616 911622324 579544895 683892463 749417523 667291838 966683579 972536561 504434990 291458317 148456248 323205728 274557606 41448370 661110877 13848902 59393113 869127519 788445386 43514092 568535737 194014789 380960323 513824065 660091100 592578190 218861487 326167073 227486947 297539871 48154498 790054342 132542822 333908628 322615519 543444947 957406732 541772845 589702085 152115021 696194935 247505476 203606531 215763533 781000379 166912640 569294308 643111962 249398380 19438924 157668376 320821121 145186438 121224578 989500769 914765615 306171001 948905515 610714387 651391422 876732999 666386191 286598978 321713947 798841015 340314031 354007821 87799585 993114033 68934854 924490686 207968089 468130167 682386526 500884244 243099741 590597426 716408471 219514893 449805944 377252483 401846712 246376843 364107488 245990904 511924885 221969376 245116698 690814964 496432015 421700347 440255033 177702726 677427925 959183430 802620595 477333441 160092812 226077235 91909682 417326161 945326052 6830077 923458729 431402895 550759957 192811817 134079231 116136755 811408159 642902993 922989627 676018061 662564136 613977539 670061513 191627757 930580490 553952362 395777793 800178778 421970439 85938960 42537189 31699292 519563043 138557098 409894032 941518387 334204612 561881464 404275355 407586839 863946914 319409941 254179135 540364116 665679581 838216445 448306060 326626417 698644072 938786959 163292951 141550692 667672100 629495052 842513769 687977687 690129184 908884399 239938320 652611598 759543870 756867327 881645951 124247582 268411003 769536976 476408289 62087534 283002060 871738195 703896122 233819965 537844754 285644347 886211334 498400242 329238146 789373831 473168446 439883202 316965951 6132271 974145416 432761540 972364314 824350372 368957963 494871159 870615301 932249029 10609687 897687486 237764187 447282014 107251965 575449784 890021209 841210988 761118708 515714157 763725453 305145324 846286514 999592161 68997273 984258523 575341762 623227857 245535687 888641182 461744250 645086155 817817138 571127245 94019790 137839875 470972162 651734815 65245535 72174241 977929872 816516771 633110125 437572480 934847770 730659601 49952006 499138842 543509336 27017072 5153030 257627436 186757574 37802851 893817899 918479314 436081520 770976714 974149747 384218361 137082383 432248608 306252844 541627202 760612878 621266483 847918214 141790577 742706153 674102320 547143635 209118097 31537038 218350759 216528710 872444608 202291399 516690160 158534068 545817610 781607285 781353522 248374718 56150129 905650251 869528813 271870496 687235191 589193059 671265604 729289202 432963156 890021689 232388848 604473351 297281419 215692415 803674931 655804711 393637653 608905150 10225890 616246663 353835249 941742804 343880413 338499901 900870347 672707380 363772045 582505053 563462940 432076972 689735261 903596394 162664375 300857704 284104042 447926530 861246923 958170769 157301693 201372961 98218934 492573918 968498260 838879130 350269586 665774504 616255498 942583825 554840012 183467970 160984046 81717169 561390682 505307346 861610018 501405904 576984454 253788489 72080177 358634214 289136586 336969088 307769403 541364527 387988191 588991967 226358838 862660898 701189597 834394007 494954011 406502028 110801099 745349127 784694312 395736711 735406542 534767795 753903010 860768593 614481627 979912026 213830059 855374901 247373711 141056329 149805731 713927689 535524149 791446099 196344599 80512915 23659408 254283803 918083629 930460423 42368806 590493989 756413382 787821099 385427134 696148703 825343918 502960542 444316242 146050331 347533394 785546414 534155511 849797784 893648045 123128741 603456468 378497109 477501250 323101020 921867870 199399694 926701771 74839077 757087486 355352036 340298837 619283234 352367434 57852841 597356655 877245751 120416431 818396313 124348529 994106189 445465557 794777827 236949711 567929455 822324237 557961339 713661023 599767862 193880161 812256830 438572255 214289176 368002689 199433854 182367736 271178539 251189718 378751330 873043982 600597518 96384738 462057285 931562641 272397755 140905659 267177473 90043776 767463218 848561164 649452006 95752379 679131238 612564544 517584369 626145972 545813152 316217444 448340020 724078644 346946154 748477451 258156704 833424427 294144628 248270329 111525196 713897071 827295852 553859198 307219049 462281460 854475850 640658147 642760554 315153030 534203609 614463567 544023209 810445791 277374254 287496362 676897718 386616998 455058609 876524925 974664282 254086563 628266708 200966663 413799824 531021044 696017010 384085944 545630434 276255476 302103773 258402437 748464729 292442763 157783035 128262721 685517969 748357831 597979820 390007298 287032185 605519065 354207668 519851463 999505236 339638313 696379310 528208048 277080833 778162623 740478313 596185982 634420458 158896764 424369827 204953697 693172314 120262835 341709748 679184154 243803750 727458821 929540667 233027462 543561031 678626332 66398943 454018080 224914941 360974347 31306709 71172405 539646897 443146050 782273181 429070125 356916942 689101473 912423691 572723099 144956250 660539231 536948645 568492386 369488 61774191 596740316 507124982 412290125 120158759 952079933 338924978 55590460 17002485 537992702 676014709 218757976 419806398 266285181 90000783 270317855 102466888 682612494 400302328 241707597 825493196 940600740 1709208 946010500 213091065 552381984 697611309 363601083 192196462 263340699 287087180 816183597 180236374 397394057 493422821 575904244 645220078 673253860 89024135 942793691 637873221 777448486 233730064 532377417 643413971 287134547 792261979 137411242 264915439 604627921 211483788 106256301 188026778 837846259 948843833 26322736 217702706 572672732 809909056 461003257 830814221 566982866 5280535 506272721 372480578 427855946 222481907 864517558 110237871 479936072 419488623 32169785 637070800 342806930 514719627 897204410 534595086 807388749 634282736 260842553 240494650 747690727 145612104 527019118 436222425 27657079 123150353 961580922 848520836 581884819 832129853 414663379 37450141 514597043 739598594 467506822 587018809 288106693 688402670 807484705 873008130 974858949 38670101 320265282 847708953 144923103 602230002 323412112 211246497 872118554 826132167 174679408 765926117 131564183 201400827 892429151 546135040 954526208 39414082 948663490 740185663 431731245 342281473 562539613 631779602 555506842 431217211 560069353 758376492 412175961 555176977 185844319 739632788 155826883 116850326 117449823 27190002 579510195 70064691 654135008 288037185 853522484 257655148 934998265 272801512 135075651 809697706 91673409 732949239 888098596 18304760 541820919 253016677 568777223 951819188 826929143 67228311 650594802 215494911 545192482 143094680 34606045 705926227 57091037 172767463 158273013 216813496 598285853 970702410 972539520 252338723 495270506 579025341 543868932 69315872 936873732 202169150 978517371 576962138 435886400 451318699 513304713 861195612 423138234 352706870 225892820 610476654 738225796 662971849 528865592 422684227 643752805 152376087 77368612 44701183 82174915 285082635 789316321 284845821 162497669 521622443 471322436 237586337 269931047 552139404 517209622 16251240 688835836 63218834 606618846 60500367 390008157 448448677 113636774 95089500 359670068 839003070 623245072 807448829 693203223 841615390 643433962 949122075 844404716 878426340 674522565 46717638 488057010 479419242 283387079 607760247 175254000 320071760 461231771 607160240 681277291 697534011 756833759 394864197 168772945 955587127 293203997 16491725 261247038 209823379 788840868 290725080 321336182 520403916 82102667 654478761 929319386 343196674 95825352 928525124 242049716 682704454 556857929 153337408 421901856 836046695 510186693 564976564 257210814 317556591 192333010 901317955 12261663 439523807 255415554 584379404 506432530 205296162 798296038 259957953 607263368 953378640 21884292 799350723 282838638 392005328 689137285 96359706 766166240 606255542 80897791 559124981 340428577 281486738 962410155 917846397 910312596 706902440 881346634 11352279 169511804 100658916 475517580 212984585 204869177 398908371 26734966 124079294 26405374 355331263 471643154 964950415 525805502 170708596 571203081 896856142 74741562 882538608 543715871 897629435 110751465 917947608 535019398 855738259 192135269 25286874 551426441 387956096 907399166 883499866 728567460 456483790 962185522 41442669 684106715 601711192 246006432 697032396 40097241 494580766 694351059 733213083 676574617 931507863 25790518 39909346 798013438 146186468 427598352 306264406 146267983 483472531 211404578 313029180 692840216 19622006 723122465 785280392 655933821 93896451 577285673 688079623 858599624 148442031 134172542 421821313 584488923 407006092 726837274 774130562 541323081 405303710 846171961 507286581 837089151 916464808 390259586 405842758 843742174 337952092 327482638 568210413 556976780 494242190 189902945 880708762 570859017 504537486 809585086 526593441 861253457 536972846 644186411 414302961 125757124 587914819 377559229 9512204 266843079 502833902 902704922 618362034 930392727 334916993 295136987 55617395 806815165 301182857 421022665 196757632 968183447 88253659 955075243 383252540 360404247 661887341 381252229 406572866 436118488 385105743 532934147 547642809 158824320 213095632 734363887 754020005 850680413 693624721 671672662 489233089 503502466 724364229 911570483 446117366 895917922 614532894 61485828 647262281 940747800 793123533 559398888 851113122 290715433 921885451 49107621 855190058 391875927 342949770 99320854 682362494 133474387 8270075 525129524 845971395 875883276 742526066 234681802 882797386 566672766 190978572 75472648 380648121 599296730 414284491 873243396 422812224 467646985 454369225 746234647 880104957 885710598 361491073 818258405 429586190 343138466 979559881 308983137 212320845 707111023 666145327 969294369 937526010 743759078 284197074 745515041 447021279 401846446 192435128 609542771 256925834 983801364 578979446 231269133 785485909 748178044 511651494 896216347 581471502 572042534 352626258 206185823 979703185 66086411 203897312 623627828 724127277 890223248 917112262 582363733 743798898 207960924 267590640 559306294 54184001 674498792 904949996 440452615 446231063 838980435 570342809 193170867 185525591 210481022 212219749 527124166 116093390 535020554 12568520 654164133 281921362 509472887 15733892 767000469 992075562 391043285 645535409 639337769 628000402 763067027 208380653 676458121 368860733 656061695 891562477 212841312 720216238 443956384 668545937 977673733 434051877 517419871 797193975 843158435 383445820 933567253 952037409 57011094 536666491 29748851 903593909 718509662 148432864 36094434 123285183 784946389 739531507 635117791 797500775 238277752 973632495 442877913 914213923 238440452 251082046 46129367 314930259 572611518 556366237 20003826 639676067 720501957 65244668 776091696 659580412 464728095 48780302 956189968 159158999 66281925 256738934 531875400 985416073 368231829 667327395 587146284 729501894 841174450 535929961 27034711 395281245 487021310 183828472 930516284 191056267 418492736 893700159 756298187 388360282 422551806 247488907 155927706 219831382 46356013 969270672 543200908 998062130 551978785 956219627 156773863 326953692 874520022 3701570 606277020 259453918 439152516 956200225 117273948 545072443 79210678 11512300 306512820 746466506 25306034 942910486 201651178 145463608 882415206 736787535 496173660 576775033 820144161 937304033 407422833 685550349 376033915 188013502 50236377 256707467 733930427 251447832 709025824 110835457 707551292 505802976 331166457 745917745 3488819 906532832 339978588 169217285 690794327 389185523 759372023 923410226 883988549 2749263 386743185 980463847 431288646 316510287 799926304 219605614 951895577 497127721 114085699 387599339 66347537 992681161 942110592 354627624 568839965 344509195 3787667 541115360 619493744 150495707 644006432 872610804 884820137 7490345 854969097 75016128 920418999 378382575 581737704 864885913 216442128 314140396 852447156 197500115 554763430 989878214 94785349 884344720 795222635 125044865 195632224 896623211 515807655 874308080 394344277 889755775 844344683 673035338 785767672 839255741 558632656 185160816 359672476 295810833 140331941 54349512 938990373 942030511 497048132 831818307 696146813 558248721 281735406 454744961 861499762 562274548 393267491 490208670 633758983 140169586 280344792 96625531 760323089 320648490 325918155 229164416 331974090 197326013 703207211 8042004 344667618 64475882 630913780 166098271 189497648 498516835 584127200 115724616 193098400 961431776 153183272 448833331 645909025 143115916 487189444 34366900 501251005 507345068 620572381 763536321 509876342 401127684 287732009 846220247 941634561 480076777 938488098 374211323 585500017 783202967 847710551 401118324 697099864 841310570 303405329 635259817 998451821 768551792 110666569 184847523 190784704 494844487 399296322 190942706 36264955 534336971 181323481 312995730 147253521 315244719 796230676 781167284 225027587 435910838 363871964 889426391 351108589 867210656 766090901 709811332 26652396 877682742 158833371 913258865 654188018 768801266 69758148 733933897 68497569 320501246 835025274 443450944 384602223 99682045 933435856 124444119 252167966 668991453 233750512 948227692 545442624 207101304 326497197 410630371 558969596 992828925 853531568 741374293 505457602 361786049 994343849 530425961 479171682 973765703 837314934 490200077 391770626 148388703 168756012 288594527 798400356 347664983 432411752 176780358 711644148 402444928 968868704 837602536 795817823 833377012 149114700 93539725 904447044 355616097 527189058 842558470 633077591 851483714 25629998 507263403 717544041 423791390 846349590 967342299 210669788 299919402 99121254 993160789 420615013 433470160 160878827 723090560 992279219 914438031 190294298 39149827 564282454 76249338 897285055 583771637 375514124 151208956 582075146 438071082 499307802 259755243 892916256 790258279 435492093 56351085 588481792 915569781 533537792 737812938 249618050 691053954 969346485 245489004 213477732 927914003 473792793 235012450 937038446 598805063 795965324 295964591 351029582 807330573 35255008 808976501 142915059 220113951 75159313 619971771 239050086 322585744 735928453 865791692 416384180 578371172 220537073 314042141 104885568 574829400 851122787 698444680 58764514 38141024 291827581 793679143 333255729 559083028 24055857 306187242 412748839 205723961 707797293 391020611 356376804 651900059 42419519 529431929 206863773 560120608 686460232 496810781 675672905 592673181 468882346 618797505 910201637 999229571 309812477 51817314 312780636 534824273 491764497 813491304 34667489 181762299 305459456 163055591 520553959 197948263 530599243 794830170 406110789 274537635 392253234 161203746 357518968 670853973 366516672 890174830 715771257 903072294 156173348 652185562 744355348 367295074 242805852 961468962 758184541 381075119 760373554 511231404 902648243 189516403 879436483 71366795 806547843 206977973 320338398 448356481 857645478 272925260 131892066 143713669 57019902 64760058 781173286 565969766 744843554 269018984 317438037 92335644 174444284 310093201 287284681 934018306 173622879 887769276 848709815 497908569 921038787 192830264 887150873 141252208 486850834 944639022 362976427 241335057 69749117 242607751 378547608 923689115 221332439 464945506 580762806 598008477 4986012 432148548 299800369 654158316 576720180 268599878 124597862 459971952 960999891 392738709 307173390 186318354 401328575 814346704 28027933 832394345 53956184 532380059 777011007 632723306 354923387 389683326 419722310 660592126 445719589 300798075 898086130 461866080 97949607 447274210 26827091 665547637 166409468 69537898 858485354 425896912 196179690 193786262 113367702 858646113 674663363 443956786 822148297 271670776 963914438 836439147 787542057 96623043 379188386 981305833 63487099 293752946 128879608 580073247 993547237 504494288 196555619 370334745 126080931 610657732 899710677 92594509 834772532 218037307 370371665 998653250 422342980 574437268 225631687 40401460 777398058 494271140 994432796 634357006 856724591 106502530 590405083 98973262 291791124 430102989 306265103 829344452 370508554 382839896 20875851 444604016 659281266 532783941 653761597 173204261 661692552 679366732 363604387 287216141 832620750 278319017 690041820 280176076 81899218 812896506 162285966 716474663 572078710 863794435 845133915 215128283 517632107 725604248 237184357 458859593 506990083 37865683 66900622 955269494 152109940 322199368 24510632 173026138 846659313 602028998 333246391 317470037 551669267 546250196 889814433 945868493 384008209 110304906 873051025 299474807 877154947 57995387 664030236 923152394 283756591 198265679 810401032 176557326 769101282 364298065 13122407 638217013 308676257 877519384 983866743 599670782 697869501 509979012 877926906 523247457 559401516 408501125 29757641 793916671 571721863 61282643 59077010 438122798 320563200 82928814 708133138 564301806 193438701 568764545 706128338 626911429 338018347 147288069 235329967 117575097 258888937 654876202 897792636 32363592 686651583 167383610 418984627 874497009 80091517 592228145 212476233 233850571 886806795 255460950 280760585 138581114 265374545 489760560 489429352 446381580 848196902 816295862 700848337 292508771 846572187 470683170 346671646 904255911 502421329 83003485 248350695 54515986 452232792 419776867 69265005 769498986 285516738 995416512 223715869 448319299 707722820 447035262 340650489 349243545 782088908 111111981 616512498 960668132 687253005 443958587 970003511 798881676 67777295 92888419 846276259 20289851 395904339 117399424 602145135 405785879 681599637 603267401 422088104 854386799 469104858 150550101 16333741 216593978 723121488 81023484 634486782 536782665 999790632 724515565 467223872 898292894 679300961 507818689 432211699 364208233 873631816 458272167 663226626 584826138 875685469 274828706 647726727 719848427 54995610 415867876 39571521 675989855 760672740 749566299 558528791 922230060 248542727 194699529 580481829 160917152 469600108 905121392 380692733 675365625 24055009 612905493 95978960 764735591 769311623 401799968 452556256 339262633 11342004 717324673 280493729 267212561 521771357 736328188 382788836 512452022 791514693 648789977 595994209 916598156 614536982 861249148 940919331 925130570 251146803 734154112 159259355 339960511 68165441 507072441 138788993 276633834 379153343 695110789 70972786 60167560 816396125 857892939 577094294 97712576 816398546 833614156 780616654 929382126 997450994 849812086 804320371 942288761 115353612 103303241 618909293 964886319 437818361 551287166 554846221 382117545 3636764 111100748 692366925 624510010 562200687 481261640 78545231 412741713 48647711 499750128 709471673 240413880 133079115 866171855 311749913 807028560 771398909 379756751 977962836 987770712 193503229 46132267 618632456 398608099 36667839 605419238 106630801 506626101 198994710 792702182 360355743 947985670 768701374 27963408 739169967 912271404 985895799 784195539 348424889 574366770 84584690 491270480 313847847 231664628 48572332 855239494 156652060 763560904 402528257 518662295 575444497 928193697 676291482 662298448 333310210 314629979 497734397 96758610 614626305 580806219 677232449 21536834 835668681 214158789 979292468 999103302 47741950 646283747 261605699 588974437 262034738 362384480 58651114 762205996 988471131 986183921 853682504 160616431 451830851 707337685 402172762 818100273 879342264 654557047 379143228 488994776 15289743 297616948 211322647 898953451 590361180 498729715 626258432 903773186 374373207 377678129 182464771 997721751 508537038 642065315 495903678 151314932 513882663 241201472 981529332 722333238 212798157 955802004 72513642 879388809 507164656 600001133 268887337 836411397 250445073 912880633 762335626 524041540 99380574 834780429 926352745 761094124 718044063 505468007 122118976 774958561 306132185 656872076 884641492 623888925 328161315 73149595 558073227 615696928 683267101 617793810 891849576 144497279 692063648 709997096 686606114 70233789 624053158 7531677 825596893 441686187 570842824 419202330 632514836 810409045 606116294 1760692 656426463 765976423 953161727 721937903 632628552 847853283 700677043 907913598 290296826 63355049 268150643 633469026 608201119 980310702 501907578 581365317 71847224 31981071 120728430 705281899 887733502 686075691 300061808 78875582 649041312 668009291 648586701 353330477 812088570 450762897 597438120 710142239 972009151 483441269 815530137 29502086 304465010 281739753 395480463 340563918 780787697 674787374 346318064 628516416 286972219 383351072 305446753 597691144 722845468 924895547 442659742 699611074 242365343 639276756 746254516 956514496 298250029 46090039 907851929 766282062 700290769 275052250 56991386 922308685 642611159 173408896 825406743 188376582 463563060 815039672 426744419 688266751 869302263 531756447 666994594 740557736 749377641 264666668 148752235 160882062 304535970 607219053 243352987 978195592 781296779 180037526 890662863 361649898 882122015 914066682 249082912 131027193 825405627 76892504 266555164 914507432 573955160 963853208 144297707 584552289 493563740 753354000 678333916 819001788 148965897 543242989 432640965 112930491 733862825 763786726 995568870 393735381 2836188 118773986 495211085 357878684 937912908 350744793 392173701 613327071 537440674 414710517 347649757 759483065 623725153 725524389 335237850 65623421 513652515 779368955 46184118 151056166 98518267 177967966 534079216 324368375 588768657 41257003 66157747 703785475 77469702 677084919 949182638 360096443 812193618 157463686 849156905 607311654 602751143 29723301 714981532 899781045 850856696 927524671 585784963 886074921 478693255 35038638 915894913 562892712 136296407 161567400 790669098 514886246 555946101 905925090 963883115 480841065 89028311 163130425 692788470 783071418 478611413 181167461 691772518 935128038 464106140 760696594 684561439 700985940 131656097 835482464 732340127 709210386 460400638 665647326 631330369 769020633 292663701 196924125 65872999 448755501 378379605 18932756 837531575 862715726 549066535 12398374 421516256 73996759 843504904 167195998 190847230 753888973 952839936 583748687 577890002 419448263 442110700 389051628 319998327 369828240 82421592 372099477 39897237 124754538 593935901 78260152 266028842 285863318 646892888 904004478 212323950 82122519 217811323 256294646 499558821 65641503 337836853 337310562 661106021 358763136 944617259 194802746 559044663 810771472 313840484 441509585 496933553 929636847 650807936 719365019 608081501 583275775 712588785 496145792 66290704 478521857 271954168 284677198 292614787 355685419 963311588 824826947 237070778 572617184 806869474 621288939 956419671 712078866 249639654 398864885 925300630 949237264 745062718 499049774 991490950 279117964 188620939 157923684 115168843 717049054 3448587 871138422 766113559 221772034 326327449 863209483 793104167 311050238 935670240 634633616 123132661 316289158 408117534 63887878 353602265 844788142 231386295 393148502 506110223 863616827 279436501 648910386 382715122 597229207 132588074 470292326 61347735 615865666 18348999 114590830 414499149 308650379 271544995 572467949 835503645 698423992 923227380 162103047 191293983 131485286 285921494 969244572 49485445 41389995 164734039 616835735 714977839 932499439 982171786 370334449 803489331 383487482 52120581 904057201 182056137 602537614 170623142 98142308 256016753 682447916 95426449 687426818 22707177 429394552 342880120 778613221 137334214 892703349 654330789 61731181 468506258 490901721 917572895 124568955 969620676 406728881 829490416 998231519 612963085 430335003 917302584 32748126 587844564 616836628 268281149 330927336 776511540 566434453 419491273 826114042 396932092 831793320 971493308 52223255 483606878 703860364 426384321 866001125 664378882 316018910 607806405 447699947 890892726 877669623 496945386 798584918 420459433 902025063 466442644 456554986 638381136 341425262 965030537 514959960 526297275 337832514 803637050 394538135 696854095 320774489 906092449 704591439 803931418 828966197 537945199 546454160 391636158 37421769 64022069 672671339 225834317 80346629 492022311 117052703 295910070 510761750 363817474 402030468 296907391 147871513 566992713 322666187 137443766 597578656 514519474 643191616 920721545 718602175 886850744 690031190 809591742 715503820 117883986 744377205 695004391 498334965 725787308 929057843 688176057 661062696 71390138 574388920 191759109 772790268 946733922 794798494 486519962 412890133 446689645 272633160 557074362 173182574 121656672 219462742 928072188 943809391 146357298 101090065 106090819 278531703 428040318 832956429 733365868 407587623 11364733 169582721 16965685 893494430 55973935 742542784 30983273 438943318 876569160 142218129 277654391 779860612 682824891 767080406 786421408 402392809 300742362 939659078 814869353 850474514 228156070 332223439 74687321 661857419 453035593 209883205 947119392 889758981 209049356 655983579 91775111 142253872 969592944 45167339 190399412 348938397 271097187 740142305 782776401 90608980 885090083 277945378 589309707 972955361 230665488 359840589 827768211 20458562 588013770 54987561 382652302 90482958 724323556 304147007 584646409 476175192 730100421 110832962 935179802 276492392 275060447 968612105 625293191 265186143 381264482 214697002 471187854 705436680 727894446 954289176 391363016 341281322 333641027 858608341 571214256 77381860 232823780 983442644 217735940 402858694 930305685 791564164 654276262 846511444 222620749 482019202 769272456 887061430 466639267 705613450 303320052 355833051 304927441 519331040 809420784 661701539 538707956 865774637 312051283 677874661 293950208 756119429 600902735 634924225 377351183 624342984 422582829 229070781 645169469 24122323 754753581 803139914 736869428 803849773 439570185 311306462 634131650 689518604 279179828 291495441 768598359 327656962 723345914 764939842 736838852 611899836 541518701 521684705 122305223 734495719 189548584 632408364 463204836 45243779 181560058 673164156 538771252 717280092 96723443 936827664 267856312 531272576 44762903 988196130 466999014 203665715 624886262 571254096 312095968 149025375 204860210 399715911 563502809 20806607 630234748 739093641 475563825 463267878 862469065 677184585 289761164 646341351 289302181 769242019 732139415 209289644 420681453 956541219 504557479 377609484 390358610 576489586 246254955 975425986 383695141 848788739 855054113 162966778 675927466 720678400 520739414 375455571 753447910 907747934 696643125 435564448 109971464 860640445 850963683 744087569 540332118 457383465 12735922 292268569 267995055 266150315 215313344 676568378 366109781 742067208 414425477 785530380 262977622 962820141 665339136 496411389 867296506 778088616 208823490 737703857 748097073 381213572 144422131 228829374 957224084 439869933 460592236 359821060 398725528 517558688 127089001 600448135 250711517 136405015 545900893 399706578 451295390 317806257 369715524 400277617 254195278 742562673 923571239 21564884 847825308 457228289 565684985 732668043 2433258 398334711 557656469 584517809 128471007 809537422 926700289 204280368 874411103 809464491 709342443 886662164 525186068 122658865 956771956 973641022 487941441 385940999 113654800 604894346 419073029 788127759 863397790 277251509 814161867 89000435 322743758 221530310 592588332 441832680 746289433 405144837 462705562 365581477 920539871 61598810 401322578 669205777 822450432 109932758 532874143 684712551 648426957 83137453 126440596 19848939 755924297 33758907 65263417 948740804 441599110 7959638 832203312 982497699 264221726 69841751 416280876 478246439 924518710 877644262 590198566 503319794 254535528 47016221 187245760 436194032 80764062 281590296 242677038 782732835 216135831 856279158 795494672 105342493 236828974 798511685 263541360 434947154 348843697 983233046 123942257 284293149 62358452 811837126 886586781 907423464 829580418 329229816 105121448 79711952 224903234 501576672 982193984 354477311 784384096 699081046 137043058 504462054 744791281 681635700 414912857 341641515 374975423 314064674 117353485 532105941 183075832 498014820 634392088 627576010 122405990 191260149 551469385 39772956 940624173 743214492 442590746 339260217 709891398 983601506 9962082 656687894 440403366 26115047 258465988 471149359 712108679 598360111 302641978 359349751 162238875 200322387 255449374 389743562 765271827 145207554 134803737 795212416 307453029 249257215 792564518 301478878 361009929 687637413 224409484 555816580 828949188 949809164 57249451 70762502 889658296 680645112 625875594 268446136 839747511 759483175 250213118 34313311 547819355 654953038 515053405 661909727 288813093 754091571 164375282 839540554 721731873 714083355 642230916 854153653 276478657 367257274 935144066 145288644 658304071 613242686 226085902 730592223 842037844 478575836 412494465 88636838 986562130 23686398 820258148 574163155 774928281 305143144 227078818 743965919 999195449 116177890 790239574 262839582 524823991 752787078 716089136 66913002 667501096 355834448 336929187 817355951 632496877 533552422 453295663 787831910 537448408 848647221 344739623 32554920 455791286 811086491 400392329 246799027 933977559 478586201 542485868 698502631 281808034 51021413 156460425 976023976 149228890 229781400 469295014 455140725 877385941 116440137 389056130 432254739 398515635 76489598 146814501 398486027 163406788 747937547 799133735 293236329 842633735 610263057 42472569 636477450 924004632 294754187 86463215 250165685 152984579 311241081 734517138 908743799 49828886 194394318 937598466 882990479 522855902 956784799 759046232 555986606 166954834 887574960 580323793 29856700 362402635 994183121 475434569 784901472 241121876 938012428 514440332 931858645 768181191 582529150 937328977 168353379 770154948 411084700 769673567 728531362 264227726 668321225 364737123 168341623 278337979 654333652 678471955 635375013 642907403 987549631 986787204 89414345 981709683 805116060 474625571 549192934 201567166 489853352 889872259 532312998 719880649 579085712 38545966 423082556 124653670 27600243 138808311 846414352 979548019 249606149 864517405 650614283 27490298 326520913 813192513 923121204 384506138 166514652 239535340 985944925 121955549 873598093 108123338 516239512 256226073 591500787 427735221 179446272 359602264 733266888 113060611 288489739 489602863 3752349 471149949 893692996 130632 753496938 172350223 408422454 488375287 938212494 91330942 165815835 891977204 628630812 717000236 29512466 113881465 520050407 162628904 664981447 790542786 639109656 655502965 149199789 634677950 304972707 580344449 624995823 865606885 804400099 266627311 368396027 921779446 307841893 82532105 852009805 529795269 703342547 840195449 693985245 153494319 159098219 563862222 761524838 293021871 315429938 463936242 751098311 536310358 606819428 901760318 339021556 539227404 988472152 279774511 140546486 151722636 802743714 867021762 488870844 681911740 201637123 682133398 180198675 586627244 845439025 268512311 951790818 65405133 408497786 78752921 425329997 853037857 536001125 824830251 378168188 226361318 856318250 994683371 406849719 97569029 751164014 361661562 368173495 529722847 630413861 168368691 964594617 164410424 223618033 67171153 36669143 197290237 218116360 521903155 543462969 812165164 863526992 291670678 269078044 139718276 519233040 176978567 735455895 124108992 731619809 767672863 233302125 755262462 36509807 423651793 351731388 849280862 937391827 978702694 898390497 812641641 350766313 809330976 594584119 217827274 651290106 246053495 240526366 432712899 341938392 544447068 345911994 556660067 289162223 856823037 70354376 701171924 837938503 919045129 119988441 32954639 332533168 666296342 155601854 272092797 355522030 374516892 347880643 799361127 157964046 383847012 422201531 800180231 238737503 285128555 486605519 474129366 4404277 648218942 777039746 539137238 221969288 591340758 808549868 190495196 189932290 507636605 600606468 757585414 424002615 410147216 826145658 167478458 744601270 699414662 143870626 370898658 57142619 327977743 33398794 318491111 264600483 5171350 900394740 516679806 922890606 651756181 78037204 884523810 127313089 791899068 244171200 230583865 180292325 678774650 422797003 429627875 209702029 78635470 462371449 41632600 513751151 393908153 300120445 750726302 641537851 215334194 349533455 603032137 301834620 331504122 590282059 794741400 547997185 482681707 803305157 431671196 525980678 537853862 253875328 505193848 931333849 661140822 199295690 649438278 231169115 425320199 528461001 699576377 132139098 896435624 331831860 695713915 15873124 457919280 597306549 213526809 728232381 963043398 242785594 320472636 444267475 406418717 453262853 736037688 280894880 936654512 819740383 345718640 59359391 219502181 885663579 899487977 571706924 283347889 184810757 606005191 147305242 136094053 864030652 436080004 146675924 441986150 421009480 766173114 490016522 137616454 997260564 735053091 589245022 19259806 879372440 543716097 49964674 996095701 890804600 345057402 742166884 183040695 50607505 350320737 385122464 864074024 707790161 488263354 250490770 957596407 678771657 866038005 139838194 762594923 583125137 161781800 26939339 148080317 168834555 308878554 954372823 469417630 250056403 285634676 339635127 780525915 895418542 749315306 266279513 672953926 597494976 612817935 704197820 193710351 519747872 867055101 704322017 429580880 743417411 335066263 373630084 539263858 664187204 250544728 123721414 789620714 28165128 666540382 59398780 495875304 336282036 980062843 754172273 180333215 363028820 537544661 345940912 526582968 937902877 385033733 913086543 142142545 547632854 585995969 634238478 961795399 899503833 996251979 400840069 663399405 633656117 195274213 739692129 848581503 831958685 705188277 256461223 974790611 33194129 867804368 168416369 575144076 180004602 476342666 744401832 16740087 739351327 176952761 140372044 506167620 263182216 709077533 571894031 597448286 215715696 229045781 43027984 651791776 890692802 719479038 533759367 705682192 789375865 999070509 393710961 154219178 723562283 302645259 583887528 594571402 214750794 318952253 804264349 460340468 662507548 441309751 11029939 677816947 921063973 172473957 663875515 721896559 861188857 266985151 188379676 84512832 230135199 604437254 560312022 897105466 369570763 637298754 689295248 219152250 230011199 972280316 940119675 83482164 944841919 439974479 730137704 182736032 81558479 762147961 691034924 459375869 976483415 996983937 380752540 227152932 560583868 337147046 215393537 177224861 393747083 384032307 358766428 743433497 503725990 937776658 164256106 953212250 404640623 518753237 214935678 525835717 156288248 107771491 621328223 528612702 144982911 927898001 336901913 770851559 633432248 724582556 278427275 418770777 388951551 855446492 49356355 805319013 590694824 475449608 405694865 624136839 163903378 327820603 465333125 443011260 647459730 332558235 955658062 128373616 618070621 840223466 387416965 401327676 167370216 61816444 870323269 975467340 727669690 379541582 813831128 648301228 300785625 384386437 691747589 336920542 507770538 445910014 297455660 534489280 147327204 872648269 563704378 465662757 242025313 854899340 397308050 179642249 22751011 32811479 40235089 322028104 275350534 187328598 143730382 635395874 695409974 299994093 968149759 13039899 696930472 725327427 222891432 444608900 869791665 350842922 947447908 90995614 596398100 36974948 74152092 261638782 191917964 375166677 267841375 847108432 768099971 49536521 219623648 187409841 932347104 964719590 542696389 774121893 880781928 569673711 902310109 777671159 107350597 218674219 481685066 125084066 137426953 305904953 652339650 129032853 778751202 885925736 48415035 94829444 435120096 20144727 357619745 302465617 284909329 678593090 229001092 67268388 947982627 359629237 694521608 67124189 124485153 119290740 805555085 873660864 782767773 566717555 794038138 177209701 484388263 44043289 802675136 18255371 446295955 420108746 368939440 809309804 306425222 853584047 407196025 90898904 43502312 634422025 268609383 338606626 140093369 930470804 319909919 385498441 925561350 654613792 128953991 58078407 136713962 89023540 570496831 398982981 2867221 927133382 326831952 226808686 947281993 101017335 625572806 624464070 636484001 131428448 819477694 308227160 269392425 146630379 853489742 341909 542203443 941260312 692375261 566715366 321797576 229697207 872150734 157362898 672024740 742707953 849965794 90384499 227981249 328149861 196509850 947423804 35916467 186159555 600824112 528612250 743949406 9718445 402146747 938944405 668454585 208781589 584555775 14826301 178059506 111005788 260775460 259986429 805130382 846219121 239510384 168125292 397694922 232751579 815322350 591762606 590245428 297376395 606269458 330277973 261717061 119088962 584942548 867988097 758495314 55735233 30174896 599240566 64989499 381377858 439930931 922227184 812082639 361586762 671155988 840817413 646412537 392630529 464276500 998501871 846210962 884741932 830901201 846767714 619323285 279764692 80771921 304557406 869668757 712482066 20645404 374385137 657249235 241902327 461916414 546007203 366911490 242043357 290716290 188393594 781543213 387532186 569574479 518949618 521788429 242785564 875900971 323982403 693274742 152930746 295243880 523393608 308463433 438329307 128026609 606225695 288763341 16599713 359568414 587267494 297697094 222882102 934270842 233074499 137649918 71546252 642250255 894456311 760388151 215857510 106294971 743186352 106046607 104902571 371506200 940315318 968440771 139048153 259093520 575173799 54987976 711864293 870625868 873158014 172152326 438248536 909931448 677792856 287624803 515902424 724195572 326782616 155100553 977162702 619508839 936736044 887523354 8723766 473679670 90688392 891779375 175130396 254961771 72623808 546135075 720963594 552035030 844805235 718078329 836297236 41808905 71444253 293205777 668002725 105078096 517752381 174876718 251101502 240243685 830661408 235111227 584507496 727218733 652924187 889728110 843222513 776443129 764867871 802958533 314906526 641722747 824885320 323467864 673396518 845421125 700566102 583111797 666941542 249165586 173451675 669420650 654357937 974019227 601903670 364238067 785934076 338535516 294192770 465676465 83299112 940869166 530207854 620142041 133682459 741856904 959019918 671702588 940528136 497989974 211828032 91744779 93918864 771084684 50439270 274591357 515787214 523580452 714749619 607633574 594466681 191542666 628619605 282526135 180854093 954364686 604561475 389391262 689095401 54104723 488151292 352451919 194563157 684004783 673122210 585691820 201652414 779637386 372580066 134604142 305527838 97403714 973994857 610440941 711581718 719087987 743548515 476636918 762342636 506465973 734673235 370973361 191400278 657556980 173609789 11889719 618087607 361911171 819532441 799192696 203642885 648474033 10245108 956873511 669202961 42020432 740797586 705724665 496120433 183169300 432611735 402879029 442750577 615394130 212633177 597952458 816701677 72899646 276679423 307831163 625364840 276789761 913160357 217613421 86709311 483929793 35255667 178109019 261585656 895060431 286814250 580868475 447925812 207174445 959394741 936920309 664393760 109269273 655559457 936680792 259997077 587391482 629306685 596220487 935165289 675087506 806134161 486912572 325412560 996434409 651406747 894398361 395787664 577759095 248516224 404957587 32690902 104655603 140057023 48026976 916543810 623435955 312330965 525155621 41286897 679968155 559005323 32679983 75564082 939916306 171655987 45687306 827803671 399894680 800518872 919626818 602176941 975029917 601284754 763941848 534561146 528219238 732176926 361244289 506103140 629644703 696236153 855620016 134202847 725599640 817979696 19428462 522243210 501708367 975335752 407390566 950715232 483376348 612189306 358100855 596746575 281947233 659650314 509580396 690069582 939135080 164065938 920442726 791901659 875730437 26421163 968386938 650529784 638680784 361106595 979460228 548314580 674408572 124304798 970972916 777586434 418659624 425146259 678112677 98402133 14383300 514229443 265418206 586483106 148352718 114811245 450145801 488818581 487827732 795441445 560159326 644429714 24701053 672887768 118883003 907874841 325684198 907009084 535201382 770290243 534683810 31860120 610454542 907084277 24512052 309703074 776876921 366435372 900775663 991947842 728134990 197266503 715996985 754511383 15719804 667019184 447704506 627951336 445279895 831379066 337570192 952170524 48668168 107617289 118275181 505282447 666794775 403200866 810670598 857289586 988343210 181560173 604206836 189299430 629481381 882187572 519326747 122918170 226625457 801080230 458245345 663575594 439228329 758584610 641819608 658116982 573692339 250390112 657541075 615370482 78633779 454548482 281907499 57670714 443938879 915527872 465932240 994352199 968683393 829791568 240718996 43346212 486130223 791655850 888322784 428607157 831451706 664415500 106289785 586723647 730444568 48678479 38241909 263921872 111453204 520272443 191746934 292079120 432646347 251304210 725221860 150540914 223481147 495650709 371210042 822658681 215334119 527012923 428712740 514142129 25416156 204406857 121604867 220515442 10577455 315565241 81497450 979409931 324194922 35128644 756204367 257585164 211182333 766158117 535503195 955793780 640235969 396129236 241498547 290834766 422084235 236277369 762732859 671797518 462614759 631155135 184897719 465516129 962344772 579607779 593041845 107299534 6888001 414738924 808778248 107772724 895559436 551468517 103350950 450989683 727882980 611289930 181415834 828287653 113855369 604310804 355437976 260547561 235149139 138448958 297492478 911325657 370975313 679697342 774039512 747198235 268098300 439772036 925964431 510522535 482681817 240499846 825277966 936725977 23800918 557379619 541382489 825742296 831012470 501336645 213628321 223133314 558223870 788937292 865817751 257849515 920604229 667618955 756943634 579175082 193521247 780887998 884133049 774512859 225970604 267204291 1520289 66528629 798666315 686739359 859446458 432147556 472769600 638369849 18997630 874457225 241620889 765090224 716701912 127844709 844559281 503006811 224550317 964826345 580869809 740778264 821209079 408023464 920375697 353521825 162770796 39045044 54250498 804737980 649635569 183999291 480959492 861896853 84795930 290646341 287806821 225097672 910943302 750105344 664813928 763575941 240061123 27830797 253046793 170716022 581556077 267094846 389263299 668393268 417156523 170780568 555926615 173111827 513463398 520146952 320663165 237506632 623547711 875876169 478638000 815566186 941646086 975976650 547487205 840606886 413284048 523348376 526080917 733964193 814813315 202136487 437168218 517796206 811728488 140643848 923298887 764869411 700748271 187182405 696067872 610921860 297473154 264329019 2786530 903673751 829844821 243391103 383073050 947892576 812601015 358207242 671622074 718247175 72606557 353825273 558841217 299062659 638806136 100687183 211469819 866582468 174442913 787672065 931743448 415966505 303758524 956336152 136914029 471014754 265897813 238012616 598795704 826217233 572410966 459762951 561537813 372081364 475896402 185258865 664119651 640499665 645572639 391190828 253141908 122091618 555495761 181109290 28554693 500143457 672548902 310663857 814160335 105391325 556948567 16477469 801053778 882083504 466571081 460176881 339829161 742052766 709750352 301405572 94664652 921195914 635643784 668105801 815599157 921074470 324118690 739938785 906811584 24184990 188450572 380533825 926616996 756971985 936418881 41007300 777785187 219496623 833716990 905676755 646224441 932769880 140313815 452952856 768246044 610715544 270010800 154247617 797235564 665877128 974604197 781190625 993989705 357764840 547556344 993251247 16804225 332943266 520846328 196968739 942688728 439980929 770842039 461739460 897712162 906265000 891838881 152899160 587817838 169880009 19271993 758234418 646090469 858890329 404928801 347200240 558680175 562170335 209598365 417143420 756152595 731744565 387643277 544079208 655364258 991095383 921310118 510397459 309047471 815761612 766402416 393975046 308178063 873062482 687567499 221427604 236494035 853920503 95701024 150958635 717949876 11494813 575110998 496948895 457667353 798612773 68439026 743580460 176739728 938799995 330032754 456284351 339035251 950979713 441731170 571355756 209121943 724743063 476317726 329530020 651474961 218906883 261677383 641122439 927576346 555160742 266329468 727718440 668916297 933782110 227411159 43886019 83637592 999872246 660600836 34124758 760651876 7723268 143761082 206649056 460239840 917958476 817164927 841962455 676074867 733028433 709110694 740217016 780239181 978285621 534522006 147074205 420936821 774357694 116336102 123464596 117731412 517529942 144626840 361652533 91921939 610448537 841799806 972261485 633674749 741662202 666354279 433614541 465215788 333816226 408176372 946461111 828007457 862856364 857155013 60666755 452771566 95572255 751536674 708568325 568876504 809906330 701601884 470040160 551703419 321524316 353146724 538327244 898259563 302086114 187834178 240900929 651121518 724705246 275681206 601689647 159397930 75458391 866490456 588817627 506629835 255522053 914770625 669959514 602851456 940981161 712180599 817025777 953562210 928761485 782498098 233842031 144675328 675714831 831616909 758807507 701695759 112034943 42305361 870925879 591485564 914069638 218977787 6981378 893927988 155909625 456017733 415983517 710975728 399541060 131232600 479738996 336462371 973759167 478272934 176362947 738592400 119411672 119564453 342180899 434845703 422463066 593187593 487022455 542411066 912001821 893230450 193676689 499139338 196032963 609630570 552698533 592093701 61544666 731408290 43220849 333581504 237496019 638641753 19958284 19588771 370589536 440201217 176921000 614535369 994106008 913497126 417962329 439062523 410837427 252906527 447695705 164135808 865318195 662558514 423040319 197202244 702400986 246216657 484746808 197353409 427562532 637776505 115229588 462010876 314838674 248700730 233829861 816452660 177001477 125632521 405889340 143589374 579769452 315499553 318498305 869650587 576824904 546999712 490019165 631857893 376447110 494435603 24850460 116890594 390251779 268700535 841257092 425679954 716975678 768285617 3404256 206465987 214229340 761231893 482974581 155669226 978141807 445687113 268393007 335943133 490656060 890734443 774248268 973965428 862144277 670758899 99093755 2050645 865526313 303378573 237350847 443478216 407798497 889182104 487180749 42844781 59224403 417496738 169946412 511782267 378205415 167514025 997086829 873955511 835147988 547419996 89461180 188605461 673537508 541974322 350969138 127412691 568373792 424200312 902427330 406731998 466431614 112088761 979057472 279448493 973400262 98586574 158800754 137316324 16761296 461895814 451556114 876207222 322192343 167260952 301864049 288094902 246514481 576769551 89351985 768390224 770917723 708263060 564917987 956299754 53513394 296294051 966683900 813038078 364763834 419873020 12065105 611187834 856848087 41839358 547441906 230892319 874135739 241594493 265681783 406327293 835097110 891312606 209428253 48608234 803602647 91253500 471772611 494710347 647345376 432399083 980919533 179982434 601741602 301468680 92450103 381718898 46317656 556520822 640349652 72946082 676402780 91417681 882339553 408516660 158630507 275216776 415276324 537162219 84820720 666301954 590603799 494651525 791225505 797104529 318919864 793563952 323320156 408703634 738457234 526282126 254483135 444439413 588960830 406884360 571128579 755122452 170436777 170170627 49659932 118172130 813227977 890907648 32131119 454163073 987093003 489419382 476588310 976688152 783325447 375127326 423020362 230283991 736174260 626426690 679535671 482601051 244351063 386630924 54315861 645628129 836951976 972823720 163752897 196400598 173725775 617905561 822522088 342482301 619282301 544102582 856157752 246101199 202669014 935161542 302068293 130241136 834855197 438823658 557121207 541415956 505455243 661520205 756332425 440964417 180659013 805890873 351486524 659369450 235890608 106006320 311869994 212444391 63511252 54663034 432702881 645306245 903503338 843588012 514702091 564076303 786153378 554894798 11507485 500179434 13864937 645995847 387265989 262239225 876074455 447594696 684116095 449210491 666313451 667952534 578907602 359596869 485059109 670870686 547324183 673597381 321657967 202169870 753560611 886182216 188945022 312794509 130212738 60341279 624417738 692237791 268374377 381759847 242957798 506835172 565899017 83730689 539864350 640284814 102994735 927479444 456643973 521802885 568470834 345080699 689671511 413248649 498849465 133196647 82713521 425108780 559972730 986620644 566936241 925008014 478176059 929720057 506058245 244436156 709788227 625286985 582003989 102667368 919895233 500734995 75880574 798346800 306633533 340133498 265984481 66603239 518918626 547609400 158950387 616282594 429790006 721846412 961736171 263738361 883288696 513683422 402493771 767305829 378516265 113041381 30897318 917916876 63144619 93888928 99603571 250162693 619607235 705215062 403309127 720638905 676548725 944493526 708305299 719198341 708096259 417217700 687563975 548954486 473706528 94108987 426823918 106990150 192583389 552191736 652642589 294287222 854017964 152575168 856841184 873585642 167453026 748639513 527798731 226281210 207932778 952681226 686440389 132347637 422769304 455748811 340021634 504168364 326186272 387314853 88190666 644839861 982859641 109519520 941612010 891718623 985859219 143714846 13678398 908064428 256042162 689799592 534258694 149024886 352123371 595255715 333960007 748134704 641889044 682950851 444747837 472632525 416748933 536571535 529103095 491936693 158176577 402986047 808312529 479734262 679355760 600592853 932987671 176806476 407670637 992920580 388309445 744350686 887722676 695686873 258703483 11143426 294641169 671464090 673464109 157155867 940132905 850532776 603977646 858306288 212551746 747571559 653356441 834646159 504164469 743941554 453331041 895539964 603435010 25314934 677540822 654447088 991004462 621323860 788855967 971195482 722812994 850642594 427994389 651758518 87478302 879855803 230112414 210686476 602433686 914601969 44866859 241832261 146574985 856304186 723293001 790360976 558792052 618900569 458771475 673559818 299769791 703969743 385977056 522360079 523988344 137121374 361668446 703307175 247198171 925260042 977768073 602871324 520629908 175827097 638996765 748742566 657404195 693408901 234144472 926298563 353014510 72948955 642603133 403149547 867944598 522791384 517642127 32482543 9754027 481272992 790798313 474361506 219135176 257459302 164110407 417287964 999652559 685102830 333677304 941580768 398187749 879783520 845211172 826817250 81629795 783558969 593641924 784045724 942030271 453263883 516598600 931600542 529346006 477212940 966458268 453300580 943539276 324933237 668779635 214532145 779736581 320661944 339740549 356548671 296271751 151426292 83605054 45952234 800426021 486783476 266523292 699435056 599602613 950290154 616741139 127356033 225208516 842460049 487228103 222367900 833369400 484070401 712929101 374767379 504318248 634254391 561687181 775312377 812040315 650075665 438541347 2612779 629645044 934919748 617699286 377377325 916854866 51302122 4271354 588622425 580493140 332119150 695602071 479763481 197937715 314974792 64919129 510161191 514476963 948086069 427853047 195815206 714055154 935492650 345481368 987786562 257925575 161909096 104395809 589192461 502862155 650715563 880034076 632071472 637089687 881372707 250271527 33678239 66152231 637549177 904666824 839344392 995888221 852990113 264465413 383041996 868119965 170859269 284770396 942184454 875801979 831655200 834945536 791671016 238523059 35552483 376279365 89871289 581022473 813672995 33965435 14219120 378467221 954624597 123040150 190623342 400309756 345035123 972947021 77773891 182048124 132487028 202586740 960139459 130633086 269576994 845226019 216795588 251183505 656787172 40134967 5237556 205856299 995347830 359398294 328000120 324699090 931686031 697283425 645427438 896466140 486483702 535960649 906582038 787180384 411073756 968359275 503614066 853549558 382992934 229157012 956971857 922035923 107538763 127908369 613515740 55065323 122427779 279441273 14530070 363446312 593877550 681349103 36533149 202261862 434659692 930458616 482105321 640546114 622544324 634967400 748284446 850218777 290309433 910889989 239208666 940588348 848974329 811960132 890480266 648549973 763186925 523694270 79935630 151112872 234163301 53078912 119096933 448039101 118739499 607876942 924899021 215394604 758785386 32390303 464800100 432560650 263944181 490142392 997186950 257144881 208409604 811302950 443353549 556368429 574567977 670894637 68304854 126545277 468902115 349360521 292369553 203655955 647302316 787408333 957815617 393076009 86514015 463197547 966623148 939764849 93656961 199123931 221291105 626985463 865785960 621029328 732088098 353281583 225281317 6033298 624747355 887139632 793795250 423543753 216204999 673468768 890862354 210474182 346029745 895341614 813005164 198991941 602253333 713177164 747054560 55313959 410413548 872659107 881548198 312125696 670858573 229746467 536301234 796752934 446062931 308455101 133707845 774881119 712157796 664818821 112146273 431615296 104186288 607394692 693864808 203419972 127593954 976947494 975765817 239473100 659331852 346991154 134255492 609335738 832047661 84682525 331575821 559908049 349770396 625099744 771776383 279668585 444598671 784260580 394370730 36808130 795416067 206414689 787745094 191231865 160324354 238996653 337575440 964566430 917918638 780955740 707619316 260042691 274575685 45301014 959284362 665862683 915664767 353707729 829141871 750318858 386924081 4617206 276568828 818818016 127500321 178070730 161067222 542570062 167567226 384912923 922142876 163018728 288164498 242353226 136385774 767129924 174052525 786855220 845523802 705061357 450222251 926926537 797866613 181981352 636531850 25448374 208676410 414650262 618118516 943537449 654059858 647476844 411757029 741708443 840096824 806994308 466525963 448099358 101228484 507142325 287810919 691734593 304215680 520445483 925578749 288897198 119579967 867333383 398860324 769245945 699695940 798473887 534917470 317527634 378737978 118650301 487428522 316001107 131166402 934587460 319649235 59146223 902597425 512494150 894325579 873804144 537262129 464889556 581600385 231711225 745230408 996716746 276047545 577914468 453143777 925385023 356148461 564374045 897195456 66620081 981599599 544740331 366022033 174805783 952557363 191360201 182886899 450066546 240525686 95263608 9569529 576604023 983802741 883700798 344414483 899130377 903150291 636079117 980999385 148486817 898613595 86275470 909974222 975697302 734074520 889545178 82120513 748995065 571552568 236722328 540899058 26872651 512783762 809434129 74743368 709981260 802382253 784903143 865389488 835012869 735356326 406266854 938717473 528919972 283681302 815989044 437929637 96924768 845764821 230709923 782259013 226025845 307513067 869004934 92128533 923446207 204874715 268098907 776741235 892869585 119611303 994075992 555760943 46477449 694093804 945108992 336655733 458713908 118421423 268792184 386388924 241890175 24183722 15874849 128275053 737043882 6371533 774321124 481978319 249669849 982056996 560574234 9417265 660910894 486170274 176490005 763406440 705034301 461395673 809332209 982654008 634570489 89216918 112864057 467252070 784754045 285647226 564338813 485710446 897068651 959711631 136775300 606842083 71672442 701483086 293405787 533559631 475564739 350165786 589713975 874778941 410154606 465145428 302019269 687617191 329192650 459339306 814253589 481673882 459765574 356065521 393610493 519737163 754539077 865671665 902308836 416628429 989726555 110505436 74162808 300135581 885096803 724809030 661201925 264221036 82637374 786064893 391925344 544727170 633794622 579584505 515397171 346081742 97691321 625329916 469224117 740757123 143141115 965763309 25786702 668519840 60072235 514662398 10418240 283958940 579516290 600510203 177082658 286665903 728918452 857617771 268627007 456284648 47746308 875626289 620782391 86176254 250521244 62916469 220044721 651340795 756321176 390398139 957999874 354583546 990447571 470985970 748115460 676949743 675129067 632482192 805671392 947101022 150340676 254521568 115560572 528009171 60312324 722351341 948179197 278927127 614976114 78628324 687422313 721562840 421075874 531755717 541665027 362317277 781770863 771999064 231040068 585121953 434378310 368683749 109028216 633880100 184232541 205554279 906073848 679942208 317510259 151396074 122555075 69584167 89388873 265197078 438198173 509912204 779651103 789896855 483936657 453199180 791426043 552750148 71805440 598981675 360814961 712793107 377635625 438289772 491845885 101909139 846060812 215091131 644479303 891488229 318521575 563284833 945718332 514794010 3969812 741546764 214509985 728864706 733815806 465639011 61249762 867273407 282446873 944601287 320410622 796028119 307207360 460508846 299077743 572070633 624674029 600470751 803660524 15359811 33806600 539786150 440329901 371823126 395053767 639603399 581078834 618665684 508401974 762555504 953045069 921490526 670194829 349438607 664318143 546227572 93574188 133114560 674012465 359703379 932008177 751788538 695220414 921384811 457290022 245599383 146625405 398689426 909914929 292226483 94965480 579444050 995500208 149835993 473567707 546068384 637941232 854482702 704886657 758008087 394157824 139230157 260414514 620553738 421485021 347174585 816269189 148516372 928013444 148602220 159038692 36509592 90824933 630657914 336966609 283796700 662452520 270246937 572156453 585122668 953411070 405319188 170045680 739623630 873270952 871195420 314252758 892067645 879907329 159256858 837220094 546664491 897371679 281492816 801463589 968123482 353426531 707252448 423434410 919488542 377712177 360670928 927833684 137047610 600412606 411167531 640000858 917068264 323769138 816248220 36585174 494682705 162285268 325997823 921240300 262349894 253604989 19011910 663055571 548981443 352342570 429129007 884863551 837831527 642866669 820883981 251959459 489874912 342550915 49979122 77440086 509368463 977437277 134174347 480283038 648759977 464598719 190330515 731761632 315733926 202423060 802571335 981993464 615547545 508443587 37095620 539268778 197257476 998785739 920385046 424984583 332947687 730399918 703059997 438371125 465644800 441417602 74900092 367273792 469585283 491224261 302477088 688642418 589441970 570370849 538671058 108142410 147450706 625021503 173403735 148602403 227938420 230525705 335778492 49471365 387411737 774363136 741253009 948623651 398362568 843929683 289515927 564450936 118173884 105313727 535038279 670572937 87789090 77931290 34627399 719766771 346213999 321572226 651195325 942987205 334468720 424952423 25673580 111287506 654802380 931000861 529961101 483859953 256715941 777716931 446037558 323717294 32214723 85752626 25095209 190797142 398810150 883950284 957812299 442289196 238371968 916714896 900912507 722711073 615985014 953358077 558747439 517774641 648776867 560066165 637694595 194245462 620489682 928963031 866206401 331381654 929600880 921756021 187942074 261525216 253910400 317606462 576577311 389025877 19011045 583440263 768745626 323370439 213743919 898971417 374446243 334066522 434784638 1352622 192564930 883592414 251539203 602359317 234943604 445079137 802505923 886130014 268472958 687466006 738620112 437191703 414946225 680227832 919118155 249362531 918745399 655916725 875405712 358502028 7050880 82946519 86060326 937288595 678717516 953297286 458278280 722529139 56786298 475211264 809555476 934291870 40696645 257525683 866864746 558913891 174344284 411355702 629645443 377055354 689052054 189352900 474466118 132097898 734655448 750649442 616460739 501236188 287204461 283921502 244763041 223998829 464847082 763863422 303478553 461115979 555672691 569796709 741300320 230340698 964714369 278699226 786249530 781937330 570742766 399307988 265993076 336376195 55873359 210873835 393031491 641265856 287116792 107800604 146471334 810680674 498695210 373122251 537742925 961409475 813681070 844521053 859157797 925771693 744776674 668509356 421316780 912951660 688173404 197999385 220519839 994358045 424014950 624335575 628961279 29000004 547852313 636299274 454816830 352513349 456537415 871632624 612808960 946376207 185470887 323537000 968227527 696061170 662830275 980009504 596504319 425306765 288774895 36775399 65440061 698925581 6655012 53075479 779148551 187942221 85071891 907620570 171018480 167085539 348253793 54858060 738334479 499791941 521447985 549182610 287886910 309545259 607859039 637313702 134795595 520012055 765737208 748941003 386960617 963609213 735296670 409209552 594443374 241932433 815538410 375849915 355384592 556581500 972355893 8814333 284094038 543451877 658158987 17115165 410733557 968752834 927946947 591995950 827527717 393317332 250294759 919808649 49102172 789866746 635527561 187878742 868517374 64657989 238187582 526937768 596303812 615473100 523792569 912574447 226474821 373044507 136072673 383136132 634694856 283622658 438898455 460223584 566531162 776077212 741582121 898851952 337636514 391518481 8185153 416599668 82216180 211223146 647944211 542382171 604152905 554136264 299347947 227961486 78801150 578691317 366512471 570249713 859935501 183719205 521713709 562433983 245450874 409617415 19936938 191889483 11238891 665644641 190421456 609033704 909464578 872651241 317521224 498408817 664923321 363489859 590276319 137859017 448796049 217419172 66517796 54040287 144906437 785106645 177366228 4667363 108205879 533133741 55960967 848439007 208421526 26736592 409276471 962124394 819673626 713346819 957601547 294946216 315964393 297487064 742385620 596889217 621496602 476181076 61227675 2631114 361889367 666838329 400391290 960578294 180955812 577846564 85705610 871701216 487980720 456843060 434141259 107942878 572841607 624238402 554289351 673822359 671319382 860550914 145704833 266106776 705429422 454300073 15511659 312239964 904548182 572475122 478049655 867470802 301093672 121397956 827651187 815695169 535114005 920375501 15392604 652290293 728083984 927989080 355284246 898304156 549109087 515774581 803092379 394653697 642375615 180729384 252366461 565873683 381664604 430237631 12295712 450949406 429246526 978903848 347309973 696122904 585778947 2550967 39976902 427272759 16035914 888998965 115874095 938341620 864214880 502640793 455493785 882495526 92920384 214212836 432855239 638413559 696243960 420380382 213527263 204146852 890440532 295269348 277819037 912792001 295181418 683201268 722597171 739512502 374866852 162511480 258573306 736064764 771434369 606368777 681039230 233209640 994888254 833216060 870690959 414296338 720542558 79611623 123840326 550274262 601650273 583571869 489381425 324800468 579958439 793141713 148130492 289451013 802168528 734125904 415612361 557052134 391224361 642811075 613206555 843151494 61244403 434598366 867332284 913763364 281271304 950303578 200653080 124651582 159520389 697278778 287543192 601690034 159120399 845524426 690170499 62672498 225412074 825224949 178448972 862529011 145969967 874101644 649528600 563702322 854190340 192785044 735187615 31455553 541487362 704731072 24845335 543188671 568127757 841001814 601338303 251269590 323966815 842340032 746567185 200976664 638209428 504566017 187110444 610951444 268304402 362092120 511461057 342105364 980183455 485024707 371519879 868830427 841581574 315354495 638649147 480261565 794421096 993683163 545470076 684986720 280105567 104876365 674932664 40918023 467041034 586392069 471370596 123773931 78596534 202956496 401199700 789267040 951232011 6113161 567365602 299628946 176192496 688787204 681063310 598634778 786461630 659640770 925223269 503744848 176525695 776479573 536583237 550789780 2637721 579071355 279474645 699028845 724951225 328346195 287920585 761562619 27537101 391765809 916152535 61352922 901040972 708117258 725706082 200674471 452993057 751334677 492521255 772863239 159519080 960706959 681793955 341047224 131367105 579314518 869580819 66330251 252474055 987226463 504484439 467910646 584070246 885700795 111975932 755263466 760164664 22683681 596732649 468103629 401882862 977991154 746001771 873439918 502750123 339338674 122601038 683682659 690093396 697247796 263980780 676731125 390134063 568244754 576042711 361997885 478730519 850191197 688082536 124336744 487867481 136609400 49654315 841209733 85331536 536578735 504003266 701609292 515412413 570579049 614857161 745236251 618598108 575394233 822687266 334390225 74192767 421901411 842388975 198967545 75578125 308632038 704684479 724082771 804624074 562842878 842411244 68718430 181156100 661381166 17547165 317843728 540535005 226709478 88252298 27719583 639381716 754850738 851264118 780036752 208064454 197706551 304801636 366894636 829638166 623466007 219468169 726205992 960475305 503918223 488868705 491585804 611480398 446774054 167790424 376771532 615802116 603262032 297163967 153385802 708973467 845218777 302607509 888026225 313084349 873135050 964990286 165396025 507681422 605166830 889875688 260409096 340663548 638435103 340505359 990124495 841715093 51195035 585743046 684389969 748754980 989306744 861058268 473384760 915122924 213625058 16940533 713914049 51200994 479848837 227409909 749482242 235419789 1090784 370191317 600770494 25408764 130923365 254537453 670501922 113764550 730363816 67869267 717343611 791541107 733136689 787823359 535045746 787621857 440747710 9821828 134291488 552808503 639586485 531042949 653160769 424762910 983303847 797735180 296714229 359537621 211600165 360793844 773673089 593121599 39331571 743181829 983097539 131798888 305095441 38909339 807790826 766540814 604910222 708812738 269993571 31669122 529439215 381117940 778357022 282332612 55295083 461677667 732046978 315111020 175847260 127010748 5731974 370775803 884682859 128228659 566366796 164129379 40617737 88013725 467444966 45838006 930993554 469052032 976169879 890333985 784146463 717613467 843344874 886923354 629492024 907403523 507017146 637312121 873901352 738639580 20463268 841099248 437567696 901400127 647200298 480859331 646243969 460224275 133199805 866175893 502015807 793352098 939975922 962524922 246859487 59212227 191549679 475335543 110488685 450115275 913486618 964034952 831473414 540087405 410496244 216564424 525199103 625082516 420590899 53144910 1704337 347249324 997589365 23858118 541363395 468202248 924461351 295509556 863569470 871265130 316031369 943538233 81822246 66883577 744986003 454755108 960822905 143683083 627718947 227013628 321335118 833152167 844770481 996545823 546622040 664469252 446120992 294857090 752430884 894013515 506402463 593566606 545655538 505415159 646489255 100781868 260994043 431683674 502233298 485824861 380072916 855647656 618241683 867468594 877278959 490063034 871322187 607071625 331949781 272389284 634122613 576723464 424171422 170329055 84222605 789250622 270066431 634760703 724044982 261645821 741205345 592950579 835814936 603637919 33293824 727028206 568667830 112741103 665671970 328928836 554780942 620505426 664955560 535754638 793924042 724327686 629569478 760172290 780932422 33115547 586448658 955806351 819020404 851659677 588050219 851001400 703385447 514273722 893601505 534087633 766495539 686665116 857660349 48897445 39954595 480475902 810301955 425329470 327192316 49264840 243389887 406669583 442625955 161159336 912361576 317440271 646825904 569114411 571112101 517404936 252027615 933944066 387520489 404124350 329769222 840158586 194263400 483092544 103032308 609053495 54943466 619040125 747602898 318794407 284827727 269394455 695026279 818220919 793342781 519532059 854335660 861191240 237182605 521341947 280272133 33051246 606097140 348181846 446233001 186609504 466994548 438644208 333389824 854566274 219728511 933032902 145112169 335234980 150078118 533835770 904105231 421123657 910230438 679815394 426208697 864853947 606046856 627654840 390268473 48262686 395310536 336569000 651212241 53083084 558087606 956550582 632287545 863629240 17621855 222415274 786537486 321621547 30516210 515685989 7185537 353809679 796199659 233945378 902306099 535111582 999842812 761009367 798232955 119940854 940800997 481279977 24458727 895022284 155803583 344564129 728582727 551328191 261099877 307792508 929146318 103803817 317438933 646059964 864076917 580635557 175349120 25887842 350396022 657270459 505033756 393207535 153336523 943918608 307163986 322671621 465013505 995329042 409890692 933359547 682839368 842346456 813774154 135381664 233140357 612277360 871344016 113136195 206245371 984850782 769863085 854062538 554223600 798020952 64740629 700519055 743781489 476310541 805199681 466516350 559903058 624530338 469063909 493738584 975913714 18992564 18932624 564746891 670104078 810572236 494967216 787524342 143727163 582293569 749528958 720897289 601984715 677593940 135479150 30897950 281766557 583936217 724060953 480255853 639158208 77055962 335421625 945880295 215107217 950048779 872097390 628413383 640966765 23708806 523105678 31479320 984667427 337018727 80979509 497050448 329313432 484453308 838359002 113535736 493129143 386636094 186750451 261069042 611339419 659304386 919300804 227059994 341081425 83728443 664528454 634696192 42669837 945525835 736332908 746861284 736287753 205503536 221994804 515829014 159009574 124250231 710758892 675133313 796655938 431365876 117532747 148753767 25113592 263317656 465292055 573365899 821217338 258502008 433345523 686486864 393905886 882387389 80726509 878727149 16807590 230482854 941888338 586502052 897045614 100111444 544198825 915799840 294906593 480063513 446812917 879868133 453605263 185658543 570355824 128634121 803112429 647936119 439751155 882221606 970294761 339534089 296283599 589210100 979809600 729898269 433498002 101688209 358375623 328230269 848558726 23959577 561487313 4013924 219399661 224057805 53972197 517288036 830091282 23790430 308796965 380805587 928115162 734932430 203086967 399876094 811053536 758538098 758263487 473913769 887390838 39047997 888180571 26899121 93250856 251002723 592514847 973087520 282945835 815212528 813005164 365380425 247986565 100192017 987773731 735058211 258679850 619688279 319913005 338188776 380665015 469055134 451532244 177183602 168639964 45766788 344962551 415029548 193090798 397610617 263109859 2828652 1293595 980289198 737178229 855791878 851268577 715287908 494448944 864897546 659019445 140514330 690706860 938049954 606765403 292391355 885668535 901424474 516419935 591479317 547144370 756583917 764852178 700960580 970804528 509736834 988948851 208318563 767701189 553882350 375293916 8590347 376508124 955638062 545605765 632961723 380954098 137727665 723684359 950851171 572666774 317659547 763371488 858871879 761212830 712262157 363215029 873541720 264542642 982637898 215430610 269001733 360599315 877280945 947005959 259362181 383941740 705848540 121617321 965985366 181154298 958752630 328102637 637591994 767177037 771826828 824038175 454769458 309078147 758031123 260001170 602012734 97280059 744191931 746506968 307239984 856385819 13988045 888592372 303894935 937694548 590198987 646556150 903623319 829443586 949913601 114834144 487796062 442455282 98255293 491721877 1324713 570401212 588620908 721280274 850406757 469865301 474982301 586725065 482912443 733843052 802867444 917935984 860688354 276368210 55723108 571432213 258674911 963478100 582815001 647317228 392861199 300131466 773362892 562485171 356446838 849052092 773263974 425380003 942494349 199813480 86040563 76724895 792456401 621459069 175408071 346005547 197390456 894008143 955863103 104360451 980784839 86688116 256193931 332771445 399584262 906642633 5736204 664010380 472357473 853712171 724614332 11132355 699965543 160195099 595239472 242392181 422325907 67927178 213448093 610257452 183030897 267877034 694354042 236631901 28376529 73448166 505914683 314419009 360792655 979328675 698580725 941267076 587003111 627877740 18690535 476872311 11123540 914619576 388272038 769491607 76358665 326143772 718454323 142980513 221732765 811327873 124869230 530606742 767349647 197051018 835291604 479329730 683281247 85072307 293331457 938638087 695385064 443248842 183388405 828933122 933479087 687423581 189746652 653026976 754852022 556767794 44787396 373012929 701225741 401486405 950033807 180003117 34460354 310375057 977295630 281854758 693584978 587968866 913143710 497191955 419407704 451469070 792462467 601369292 416063632 906678012 740949871 253182517 966037458 275459897 233303240 961703585 509231210 477478925 595087418 662020201 67955413 767707543 592529207 331601753 670920853 14503701 126014964 858489875 123226228 374779711 702315090 933064467 676056282 979995865 490137995 242975720 380908280 615219529 283953334 942754679 146587418 936255271 85657645 180642193 835545881 616286841 985268659 936532721 851414605 778787086 381080460 531369395 273637972 146845845 886676106 588330855 241032108 445937586 367604771 285922472 804992411 653101718 427322651 669873879 535795859 225637532 29733089 542263940 840390544 907708642 280880456 699208082 436958711 910481584 39082481 643319808 61794336 384177059 273765038 781294501 66928237 626819265 234221042 210047358 255980658 919326680 46304600 278164753 791339857 747181592 208719644 872540965 640122742 522342062 464866831 864887165 200161416 842130842 994539576 271262465 320043863 126499459 473123370 619345992 625503254 75230560 776292225 572360533 985222907 831345815 885577949 721069376 310310463 863381130 93855929 830515642 28216215 300670098 609185945 925841456 892010249 855061892 46102850 866620654 210718120 795853070 717575546 966030037 819873986 227703709 84268603 432723492 743267390 174567348 694244348 659957785 391305933 512721558 145874247 6757661 310617592 409276580 973821937 181370680 370457210 930885366 884920225 992270653 193111995 100470509 893861053 667689747 991501439 243597579 702315993 307920237 630131677 140983141 99085857 432619396 419608104 340236210 393317362 439993351 364352266 452638679 109023514 728644470 625436661 717181616 169825280 816250206 369086839 683818340 76290988 189769413 673467363 176513987 819741212 53971785 721430138 874913466 803053565 729236704 367131275 591966656 1269564 393061083 628712080 861784306 360067209 786768638 944846021 305320797 322763391 32811380 875609520 298500282 69862121 278652610 515022311 496061082 160055270 888334889 476084635 308408274 30441006 519018851 416313747 890920776 245735055 872568802 639646723 377379 831526258 408981295 721561786 627060716 164775858 402292803 425483196 901667234 732951309 173549863 499287379 988569777 871490348 294504341 305972261 192287132 953777734 74922275 48057177 890534221 751958590 818509842 858748328 86761110 677628159 862340007 930530492 657783236 856304375 601168493 827180726 48370339 636782487 936791013 882505640 954165053 832684517 402389363 56977649 888352831 763077939 979782152 960555170 364405461 843796491 585899438 453424899 579640913 144787024 290537675 298020399 378869362 732426942 653979025 245554720 264589402 93176841 139898977 797780521 556062866 331422166 778274187 754128901 433232952 996497580 744741152 840783832 139058600 439935791 330618119 217337974 723084251 477704976 373382490 89825175 656043413 484910720 816888895 897813485 349169264 357965453 589707889 284584914 309822950 996799530 420580318 962977353 395045049 559671675 457797875 520345022 787487533 447886710 236726071 92195381 264958705 173447351 339771349 587839730 845842683 938359786 629250523 184255131 177161244 660233643 17664911 916012712 947531041 425772897 530037593 949387457 622216159 524035704 427661861 21155515 493784849 809979178 717706822 732507577 563384564 189325735 243035342 426177564 437113406 694460034 718464583 719615684 268933636 797807137 512584293 843853493 304552354 899336102 128776592 810803910 403591005 209772786 812580298 681435765 549860326 705329681 492343775 78871018 796265472 492103787 132164769 236664485 571417750 825056266 869349084 338698847 295724805 780023695 217030775 930181690 679224368 293294765 986098694 94660126 204302755 959224903 43769481 800115725 723395265 662657362 442724377 734592246 606679695 191751812 885041892 780020818 581611019 356998560 420938465 466339630 163068663 255622855 911120154 543096370 202476948 790820501 845189024 11105022 461883481 445964362 441135160 123377407 328347526 61431262 982908235 437880321 968238511 50895741 334840271 476064538 127962060 785902339 621986918 727688148 72403401 281315195 191800690 79444817 804674686 33625129 842957307 735691889 398158105 733174987 493579266 249565515 511060115 222446729 999076470 614579012 298937610 904763145 320001648 748235693 740665827 451552959 974041840 550582656 876193871 93777739 944517192 357495462 584473261 985926163 289930055 137189281 128124201 400460072 439214415 920656311 375335061 849912309 18220986 377166827 548575537 988119632 558146958 733764655 770728814 408696175 216300679 940454160 42063526 322359450 752091066 402877832 1537521 529748494 606132 705030820 852048167 415359806 643478728 698187727 957697236 637381423 773441150 813446341 674470684 164474711 188298761 119828718 661020492 241309708 6333606 484547742 21014164 507643130 684290050 63284394 944821563 84201445 864244950 532573856 683539510 265390977 422218215 380995429 719310106 985458893 327030846 515026069 729715554 611234116 163094794 324233234 176564987 794801307 933170894 756550915 259836444 366779362 256879470 214131394 286686230 564771256 318035592 942999486 824367479 838244647 349355383 346862117 230910860 904380845 597614171 654453652 806185611 565881685 681366426 992037059 676011683 584029907 575940135 590742245 722139405 531771940 640360965 787576443 393979464 281752318 356224730 947289793 129089338 250458809 694406059 215915293 635564997 411758484 889860134 815326072 705477681 775635568 453708290 87986090 639327731 560371220 576163262 520512597 61137814 357766867 612872982 950867828 353450397 252420656 890764002 989083596 76671734 234286209 787492070 293311467 246284089 474587269 700023 292754492 361806690 891914963 999097333 128289346 126820446 624289034 679199526 285914974 861942119 387235154 77767794 743505041 355854495 718538095 571748385 3800832 152302886 238436161 335068599 525084378 645074180 482524941 938142948 858260138 712005546 299750701 447231395 67828378 189779929 415069555 332848494 757651126 825511071 437770874 244511576 365023064 328155464 245132631 366249593 417461266 240806190 83094143 13873389 888725950 43098516 799992934 408339635 356622580 128365471 789798393 140412785 322366407 91503775 360906309 134093669 353677295 688834598 970813819 176677038 281885232 716482786 413402453 400166021 640842999 109108053 409486424 359497534 65654051 656850369 7980481 538199490 355333594 843617742 938245982 58878089 427749423 83943906 235657771 767248296 465905964 207295794 69434537 973030193 88200473 88698235 932942345 996473756 95982198 780474591 902794141 179929214 835327022 971355501 218473043 800249470 399882187 521932818 156260079 383263802 152664789 294022446 142552522 166302638 432706504 949657899 814227401 130602327 827756498 235800579 417436271 918545331 114710459 559462434 298811562 264841886 461541803 100718290 338428222 492647955 849600972 252483559 405038810 64025429 842311137 821678860 506096701 503783691 704697879 981381646 946407253 421385547 530985027 27476061 223895499 533856386 931645303 806195988 410991028 246306899 267177292 754939269 581884738 209266601 834476985 919756609 212161300 742352689 469011940 297411031 358210694 632319379 551841451 196951925 186397190 958485825 110117481 102422216 437650307 982316951 544065929 767838087 15329965 787559963 256673833 936159561 381764780 999277004 227490686 74643017 136186626 482116830 793268344 533696727 710584534 215244185 766857589 8638577 941773391 149090281 787208993 219691701 304494799 711371707 271945177 186891765 395748014 948511831 779291067 510052364 489538489 125726291 286799547 250838171 533058996 936879457 795267342 77877428 80438890 714797671 804290687 854627400 29119740 324236614 791757170 235023955 829810141 957840759 538229053 237477480 311839978 182151863 132909870 791393519 421837037 668053847 590486495 501637090 463780515 128260049 569545684 928810794 250574910 806339880 465164043 606691428 916576772 143127112 26179766 639976881 64753816 71017732 193188877 112043849 62763633 355296012 109890327 475797050 559706752 753396853 920468287 390434437 448459703 999782245 180221066 709814935 739942262 488406047 606053062 88274018 353602036 350141291 702329310 965824765 36027686 399741245 444442333 577256249 688468896 994537825 715486136 387709456 352952545 896058420 17342736 199691478 137686522 886311977 409032738 896520551 284959773 971352872 335227336 978828743 98209051 860775865 736172848 443223957 343918263 520207629 895131292 864613157 690966259 673999145 839172523 553820115 691277533 350773053 556097217 271070489 399441260 178604957 586614070 706841105 646447497 333882423 6540559 321604895 244703474 717168247 346038344 411343088 458014336 289473256 713718854 717581444 450491788 601097351 203673200 781879208 895547603 156997766 879060590 682174370 960095565 262357256 705016375 725051685 947982527 36324736 616534624 556385176 589024535 212574959 609821437 100133150 155926474 523495659 684509427 146256200 403569151 54437241 943430384 8942274 628977420 868455466 488056699 545126041 890803350 286904016 589856614 806682644 105685959 607469276 313339788 45597028 551205052 910115267 342288494 997517101 631193733 720403562 245610236 339374426 373744046 471276448 636545683 754923880 937823326 644171546 62412003 494767888 463782035 57157659 17316136 716236435 496067099 372896910 63706398 159661205 907342493 213887762 54366165 164334536 222132288 630554026 733048355 173701204 603516255 526471474 722926055 328683658 115214335 191587253 67878462 663929208 685768583 51791342 593413561 292320650 972170930 208325806 70639974 245134613 461832501 250749958 610868665 62374963 561625426 802411558 989839335 654381963 914290737 873954286 161622424 434458042 729665165 482697572 388256568 26712661 928976151 732334357 510319220 762690227 320710505 539274785 333194758 904056762 942556190 929258222 426898282 228879311 595918168 847678996 125602109 537533128 246431687 39570178 926545985 361460141 368232335 425281523 217627728 374762959 833585424 129616526 517285668 549838377 3249081 745950867 784355350 617331379 691629595 204156754 469385078 160030329 340062201 101707944 971242883 154315094 823476204 499578230 992727244 129767978 559129206 541568942 530368919 993213735 73774454 588741621 869590449 471465315 978748621 128213845 640884737 237588463 874728891 510103998 223890853 759228986 440412794 30469026 582149000 759889998 618699629 315098960 179983976 203689034 847743603 752006234 985852222 886112676 154950318 865313098 105941255 72859143 842689140 265369757 633250786 593490270 962621714 250831443 975987119 118339223 712729479 31191841 765420611 191419051 281886904 226026577 536378987 200107374 100593525 754114033 405407270 40100435 305223319 387297733 903156435 643027235 345195664 596205680 771012402 670371375 646113879 955376126 425843980 796437684 52288816 7186424 193213675 703775312 367959290 31877553 959285502 184269449 874454522 602709599 218909303 458207995 877000997 865219845 274566505 694523766 808310181 930318736 190321844 488883600 489287182 201392950 906907427 768792717 553484750 676855479 934278646 83338457 573589276 926938773 442186542 887951954 923781485 402341486 215441576 977623137 371669654 631036236 168112743 145188017 113750244 858198104 21145518 96835354 710331970 44544977 821426616 671879278 1038168 73532572 421557143 371478200 615901262 475282391 598037858 449347220 614574624 131952883 516051021 436779518 837597379 166768705 253045252 440437715 401866490 249990618 372377982 191810197 216058695 708220299 859915477 404364906 390323008 899427249 867392748 515235131 423453560 148821175 731321166 423423375 218837196 459752794 84313653 267819290 398791733 699784167 631596339 960430374 209685579 145025298 477962532 246998134 444170884 209091372 754804355 922893971 377162234 795596236 93808513 21582856 18022044 40854872 872743154 887791725 745214699 167335305 563734286 418554474 934005352 309403788 100418555 603799350 70060293 862918274 551917278 390279833 90312056 777190581 406921709 945798996 28770608 927105359 268869358 985183354 550478429 74534232 711079473 706049691 82608602 382488271 693627290 24986307 864084924 602413793 318838917 10926390 184118224 501462595 814783759 197740983 826534507 724737944 639423869 941202216 927984406 732414801 311282561 187536512 33290878 411325673 523794429 126926047 29729184 908993410 294067450 155921280 312231077 500236365 467225773 837311135 699178181 244903065 145460484 400552626 226021873 804546330 161663561 873555850 617418119 688378748 685962502 563416506 846295795 829504494 381899925 777699582 139210327 412291739 148612319 759395810 752397840 829828421 149761747 894751934 909507492 824168935 381529581 609290363 937714944 659495380 157258930 264728820 507026643 675311339 85874143 325593170 650870080 726142203 441882718 497333270 696588526 488945004 823761382 925699398 431653823 564430588 726146433 60595275 906064991 401397962 720411325 19721967 775173404 164682813 448364740 781798309 959004498 399971476 977403346 950599065 27812933 382323041 659961411 533774062 758667805 868748925 176494752 990052497 311305133 245699691 819755802 384364777 295752666 795747216 880433877 231982097 906045188 81011466 127800145 913275952 840122959 555162096 877722490 813726836 439213176 699140771 70367632 938913071 230504762 749580171 5595252 173315474 578365486 2020279 282170361 519899796 855086018 268786470 466656082 134106284 14972472 122572240 925882038 583157625 327608856 574493782 861623350 716395948 88534808 834294961 290691144 602500905 520556264 675580124 133148989 86069071 820234680 194149914 896443134 414922817 872602545 879441210 557411357 76511843 876225033 771307668 496313070 46535948 199834656 856264517 382379007 609451543 992081521 678596031 836890233 518364308 954576638 120368724 613752378 764900366 251298574 979022566 57251714 244484787 686650709 138814014 35013801 107038 864011293 722575605 564107998 344413771 432334006 256265150 230178265 676315190 619892025 168561285 468063681 523202153 674491674 833715174 922835902 452850010 521680894 293717230 109387907 883123807 812389278 3887225 888911406 329867328 921062596 454723584 660136415 299948604 75679529 746899063 676943750 302270439 603654940 324323965 233248905 694897481 847069900 949886620 62443407 741636864 209523888 888460174 986131911 801506892 987721670 766223546 753157771 974641625 902597849 45722390 271743554 621786135 944555910 29433063 708460093 761750900 223504009 267255135 486168327 225780684 295545152 108449719 831494655 513158962 131388984 957706972 598872415 773529079 775625077 975206857 119568772 413825962 726926600 877360103 548737791 474845341 760084655 759139351 449243006 328153887 480993710 15709497 258211806 383772227 465196587 957968697 477338350 505006562 406444007 782358144 605392590 115594990 335438343 378519324 817890238 775535471 568773740 151607821 770237420 519292977 529860828 364137858 284735402 567964625 179691802 919660285 639993927 303994570 286497799 428714358 191602809 972609204 9771 723030410 412095809 273307858 450619490 505323164 954246937 979072111 942843642 112591023 353507409 436251889 373428068 708169221 310998835 647875925 968364762 62328432 414106304 964467416 19228312 311123059 614919595 145163169 840056517 299122777 841225199 648952946 612056024 111135794 129276793 26524239 129637591 281019129 197961999 904029013 186099600 576700855 882162049 598153068 148586559 457520644 782059870 620468980 877283149 455429079 159479853 484601828 932667192 409369570 61022738 970408365 580270743 212782637 821668506 835012866 184652075 168367724 658703812 314287063 900928467 316008976 612784269 281919353 164763016 193081038 188658785 140786172 666689754 90336525 326767267 892074787 773642806 183465339 796614848 973608532 854801195 364581567 131362079 754241705 357046499 943519038 539829461 187235592 601569018 622606109 554332722 754224108 453852096 750743701 502957838 653889189 16150159 618555434 35872 316625188 922288905 954328405 3985654 375526837 165548737 134133847 904773700 676638044 645648183 184412512 69544235 648996337 122646449 737612652 601882585 380137020 23280896 30843751 86954782 303921924 240008220 144808735 434882615 451422335 863197337 274064951 968086447 919548402 325865474 46058088 97473104 12132988 746691672 794961495 395320907 282782697 888733561 284651029 912428374 589647050 238726597 139788809 33654449 577244361 194711286 551557081 113840765 72037097 586128328 348156117 661392357 507478959 389608489 981710756 635612075 491662723 763203962 811999801 232127136 604896452 785048628 883954485 592196473 644853397 959845834 111980813 509655487 839682166 977891944 359988563 455734929 858609493 724392759 709348590 823696262 47685262 157688895 756730725 217120301 339675162 773552343 441621981 9791618 414666476 681930576 177773673 493256753 721835615 428375065 352684038 907177726 943644127 523398257 749026555 382117640 636704299 472410357 721744383 872813331 591447860 279524864 2442178 310355204 435051141 327338368 658128246 243457394 372583035 555787900 525898348 226406698 854121431 251571998 762181505 697082885 714344638 535595851 698721999 734608039 576224555 232674399 81245871 124229315 377256537 630667185 919909774 225232147 862732993 904749866 411780201 814557579 930573998 845818541 910572004 858713992 152591241 601623817 680677486 527942847 809874195 654351463 717360737 846478618 276872662 331561353 749676095 240836315 958918647 681657339 513443787 156462702 72159501 312076695 385861626 844703704 534582779 310924805 368246859 695641334 952615418 521409143 726026490 379250088 640108101 837811852 31027028 978206730 150773396 875689580 755762774 395392467 432881696 307465714 901613317 786114550 7338561 974733777 123406029 401240554 84967588 76561196 401226550 415377566 74748386 73465266 605156305 824538969 425950873 985422461 254156026 762856034 867557073 677872443 997745564 34876102 440570864 628360462 809798072 740625685 751552132 885090486 927024554 854434222 299454763 290230264 719266161 224036127 55831008 753417472 440475442 360763704 845577952 674741542 113560995 489936506 886919938 567235561 806418803 465432492 954577994 343954730 427547439 586895823 145129115 897121754 162913971 736193690 90727516 624005733 529677851 200391225 747374141 834132897 888705145 975289743 424843970 225798036 876232156 53939743 442025257 580569079 930258438 552226756 504983230 620618230 595581559 72617145 372944797 414940646 234931041 986333664 116235962 906736414 528077053 355377295 73200498 898894018 522557119 884059391 976853323 25162159 21826505 597319720 919156628 921047224 554372128 454969020 680421386 738688268 181380834 75133333 222165128 944687338 126626464 935390107 397331889 496386330 122365584 392119552 271778674 198277258 883884261 917899761 210468325 419897474 513298883 472979276 510280324 65951792 39303712 326021503 768416894 513237332 786828361 491637915 604297481 435579396 200727286 519669393 88569045 46967215 570065015 877829741 461271542 825272459 209549142 133001357 877059754 584933598 990823291 662938817 487578759 165734787 507155613 970946457 19880527 798104558 615308439 147464490 558747425 726005835 821936925 73915283 841009914 715764715 355223014 608277761 139796804 250581923 967162262 532205387 936529226 18805833 865841566 363825616 90458484 47936381 597910119 898526222 389113741 484109335 505863740 314839059 12256376 975041016 258821091 772909905 111137269 367526423 71422803 252547377 479008794 882697820 521721015 928861142 180187517 335635388 689840505 742405718 662910074 792223765
