4466
327020354 28228409 399603002 827129149 78809161 784101706 630073900 583124391 582547358 482377482 913042311 361304486 986472849 926327355 621053987 857981081 171347391 597194006 254967919 20717007 334918844 701769685 326759962 826047678 646381848 451749924 899247415 502871103 376863427 645110718 43968959 933914459 960189940 746991703 656364296 277320840 535569189 809508474 515763414 777540657 466612622 737163248 724366308 624664326 762080770 466611687 548805883 209836474 684439177 164684775 82667244 748207297 410620973 780537894 586229148 752389209 631538407 388082848 537613319 255336566 47749443 704085835 995257644 353524585 468561654 776305650 512684947 928948890 444186998 282325826 247583295 81533562 378938082 450848984 862810346 707563813 710124552 900144165 990264946 680495766 123001144 276821486 364676736 533015833 96616742 989285399 426068687 404670884 526330860 830891339 544558040 723849867 164652600 740680352 749481139 410525187 790877801 869901252 926035459 135394020 952228445 428065562 146917853 164104755 415635546 417992336 125226700 53189054 250159269 413531921 925858017 419275233 340987901 265099558 639415358 514049942 26095900 135971781 266307133 919077023 125988016 853449695 68757051 270867200 704747863 95855417 923385141 88908793 922480911 961266220 343220255 836023557 782571788 966516491 806755386 893124573 563514617 50318658 905247745 956137831 799179006 194603289 123404775 772073096 518001014 658846495 725116086 922461649 804956475 299702471 91773067 422999520 321145378 489301495 283348490 978958560 40381697 20457141 604447282 323149177 934117319 678172311 234954856 153288322 165547650 162663006 824388255 677974692 966920899 161406922 640555392 799270260 623051624 103913627 112816774 549166238 651945023 414973982 801169 694823961 785026588 379741535 958356171 935239841 104867205 598533605 209500281 77262282 680585329 997540383 595000294 807585987 82489640 607363459 582978163 418475865 610189437 459932620 855592896 797692504 136466444 8955735 770881990 689052254 195890518 288219571 45732410 414291926 394935207 538869167 168483751 33578668 909672050 775350376 426724731 310257818 289813879 486274238 483064741 418224785 704024643 942826709 165441775 166091253 391995253 358651063 918143156 940654386 612511777 988381266 687521733 282930446 460698172 100868875 138230128 66456812 458249752 686863799 662164559 126281511 847776830 75208428 19724041 434737977 45990327 179276304 622167227 679069702 530992498 525397583 858920830 704290841 100276835 270219438 616430516 469518452 797770222 987964994 134517925 396548505 667678685 964340930 341301861 816040232 86394236 457946521 796967761 161605177 150951799 201087093 808541483 188737911 912404894 617531902 245503720 993581711 117208741 443260091 953068772 989205779 132064550 775299463 903693403 251831616 804979551 67760685 399296124 75910918 511830285 837156183 126777866 596681007 381618280 605514784 63909546 373786258 261635772 542302416 892464071 487651761 368418267 440793921 785558276 915343235 935610392 502846347 628814791 223880039 301448678 299389158 379241054 441390889 330818985 233147674 621487645 731524195 68211323 603276709 316155756 716110687 373413754 543546847 604899151 218201489 162821693 424125782 328381269 401159168 338549709 402149262 335680818 229882415 476875129 784317252 974000413 165031568 797810741 163926243 926961445 533416728 72434022 26060791 623155199 267797330 668265337 991132539 41013142 629852832 279407928 956568450 757655079 964574942 333720374 103958493 976352714 755377212 189777753 400356508 388132280 534285451 745949781 971645983 245610174 632331112 664830238 356299601 912620612 264977626 596057715 49745982 248041746 78608961 694209582 600457644 418017964 517592399 114688178 307648690 652213633 235976448 654025790 455111629 472343718 329456496 447419932 738528203 342936524 353429570 541422653 45955292 664875015 392905887 523521038 594757777 139592689 494585722 759969686 714855293 950035958 559650707 384915678 48276240 505565715 188107063 643221358 776489993 988221878 249958127 182244359 611378951 635940132 491698374 367652792 904961110 75171311 555751333 673845597 584158510 694609405 686275803 124796605 980285723 558269084 687645704 804658088 734003682 300907152 131260967 584739194 280627014 465924979 743314885 540007424 828685838 233735420 859346357 12834743 874557626 698449775 335522190 921962897 316604454 449609908 697881962 524771406 810975206 632222231 721210388 25651603 120502825 40552001 978431211 87270775 760410736 562510405 390069975 351506080 721811885 994370380 355860533 696148408 881581244 588126950 848102462 692859153 717522548 112219560 913198090 38574710 703257048 825010862 167034330 323155249 213767144 872943580 896486682 132649013 790795404 168953052 889090648 95210442 196894215 197082158 789197361 931358720 614311836 284584780 296128408 727045627 310109835 659635103 366302014 14832201 58358769 252306204 21889644 805084025 165630154 574043380 987491441 258705360 469682460 553719975 206992393 973638518 542266286 476073964 384758228 340972314 536769272 129794803 261749880 732850761 646755785 466985097 351549458 748775288 535522511 400227571 690304021 915558393 413860196 644854739 999195809 915089810 56444909 788959138 599439237 616499662 949273616 298627435 213872771 171801209 241871492 772888127 684124934 694962582 575283804 503897892 540149985 705667314 848769133 590508339 490641852 871149130 210312362 789210884 437183396 975411078 144804934 969481183 210406810 249247430 86867880 721968507 38638085 445587724 30529286 299186087 100535869 979116546 915841867 831521692 492845572 704493081 455908011 324608741 388028160 993091128 823113264 332209432 810049461 152719669 495612220 64972594 215869997 147989496 384070633 171249292 97671930 763871132 850272868 401546806 13569566 849999174 588069913 446603696 689757418 154841079 250571585 95288335 66742424 154661657 863537470 447829444 368775629 515483506 158588509 43967243 979119509 790434628 236824633 369204452 611283448 787039933 441795874 624361564 245379964 415747952 195489491 311187119 99401959 43190865 839944055 864856167 278378303 321856682 226789175 24691843 110611378 401286533 842563830 900033453 789113857 785128124 994240089 710305678 709117825 93618174 98214177 640307837 449517922 99812635 368205285 503613177 675031187 23816094 426286471 219338095 584765572 829147673 312776280 233391788 336582275 724556813 758135933 590498168 640576623 111300825 966723973 29895046 306198749 725268341 1336464 544481017 756407601 2972343 960167382 120799154 69311767 594920425 292118526 331728606 603903116 156070255 479137186 206324346 118488302 843890866 804786057 331254882 604881116 857982480 357298673 599701333 290067184 241577546 502182792 287287540 211366124 482994885 313500648 810145223 159606005 823908968 174349206 819382155 640778773 49589626 975005954 782114368 937661603 644942440 825935463 6321965 503753205 761699668 9924510 124010602 782082730 750126404 323814276 814495761 318755211 122101120 258627045 53687532 342838455 99524368 952839223 399436877 943280869 945896538 206336474 484076692 949469396 805320393 591699369 234585959 122886382 695049943 74237193 295289717 513626494 870056586 151413340 897043220 403714935 26273727 290987551 292332346 502658009 411659673 923160092 183433218 253040023 130386829 132637591 703461059 281968793 816260131 632830814 190543693 863390838 882792306 531195838 865288668 884221710 24983236 245553447 479500901 517649188 606687750 568788421 637159482 292042830 604652479 558733693 994915643 746857096 180563024 6867686 812263064 269482666 882041785 409454532 536720270 636714994 141599662 762221475 304909691 455633866 300061654 160394262 506622362 456339598 528388316 876748508 178208962 966329055 20713987 605168121 143733262 780615533 332024429 770919201 46885751 317334039 315266439 961200441 693523766 662135696 368003191 44411329 790617076 623172207 990417390 492912852 192066685 344133419 952229688 246933478 180547275 53852264 341072574 977914247 480915392 823078951 233476693 851136104 40219444 770492102 93544074 411714074 352442924 879471516 652389421 369277323 107504615 957479049 545622400 882163838 278608820 990601971 341798920 751460470 877149010 232952869 346850259 158571589 515159403 392986759 611649000 392626613 806510050 247036319 755696820 534945671 489489377 681684239 486097191 898047755 495093368 769304736 855877647 144002213 872587076 531240984 661400860 565740638 607410719 388144895 543887853 756379746 436520372 325276181 140420258 703774632 254456867 9268302 323804513 897331831 668723693 126594769 11370368 436652041 993802337 971228465 538860015 475355638 505043698 196149951 685363162 670769715 165569981 862873192 351457656 136462653 383238096 105917462 973590642 520252677 732499384 477054389 127403951 884527390 604062763 250066066 393438210 858805668 730229765 413038549 860181385 665850676 784774336 487037633 754772373 793711547 611692405 730402713 810123794 508517841 47988334 388924062 456565895 508680808 568410067 772197131 423062424 265917316 692048469 440680887 29549154 470438958 316425521 310984312 688418076 639345020 581436521 178567722 254995498 145296672 819825390 735598093 555113010 362841776 629816803 233323614 621858051 121564178 348984524 152577205 836420922 874820098 232852601 749388355 245054760 522284092 3829871 819819063 951717507 818273453 270446676 855322418 624626128 225907723 938704473 73992529 740726162 797576007 716662141 542909616 957568517 75893642 146615329 126665961 805901494 810321663 122353800 317286952 97043587 712551589 923579977 634850861 155860395 500084691 983217483 138440509 962382226 709582657 743675902 483693827 433872721 681892662 330470670 151504572 788436721 494121114 494454518 533957357 658550324 918393578 915197071 935841099 690229381 304736821 595848790 787120007 251661323 728741579 810114507 605568215 614230630 388179345 988288515 355571147 724110504 114404507 622207902 947741628 687456611 552165491 328149358 569962813 999417990 571905976 275722682 981077467 420404110 194111344 196951700 936586747 730663522 596179296 125449185 983675400 475629724 370363186 934642511 527432992 510215497 929888347 256383206 293411262 337128638 980481088 211910757 616539492 595470700 798357145 879794082 756321692 509203200 329717234 682485124 694765048 254978206 820003332 324901924 174374089 739142860 530132936 966698960 168313829 165196661 426760779 929442334 597972447 702769898 614682568 737199108 676858327 329038788 274449610 157507207 144283213 594397004 451107336 12862597 504457787 400441777 416687830 599208161 952591018 687239715 722294833 736333300 364383369 765060045 49679426 272570310 435499302 874471788 219693307 211680922 850845647 459889036 851399010 54416769 841337769 279715145 200715027 396618502 565806834 216423238 302477862 911263383 375907678 780454707 750271084 633886523 420740622 13126824 352765260 529249019 71256302 359631806 983910925 753780809 5476248 913927893 485474362 35972477 89716901 31364483 306338704 102260214 936581564 763220033 160722504 219919619 133972144 966994150 327147456 927602546 166468285 562872559 597869445 887445659 939688510 436352223 152291602 784063444 902292852 132300970 764119576 208418419 72949613 40239757 526589494 565990614 692059911 965838225 607777741 342983820 448453158 179001945 602407886 505893295 338401991 730977806 390809627 823670262 514975859 860148858 871763376 763923846 972450722 106023287 382261493 542600512 498507802 397234299 129955109 92039697 21323821 280805168 278183154 317601312 608421794 523884994 801938649 21310284 380267464 648337874 480292781 601296311 493505588 96651596 698516618 95753846 256007707 783573630 183556274 120035101 876557072 20820063 139811030 793769044 315636355 61307435 643324481 717747980 999834271 820088801 588785162 662436472 318625267 868898482 269125417 142293978 633807843 325921533 796001101 306026410 397908333 311456790 288434648 738888704 555742603 854452692 915268816 8910621 50539925 357144329 122675205 856524169 143295796 138037809 578121140 960541691 278193459 217341084 233092758 620093208 515406969 607142310 387826593 34340440 5467478 395009739 34366904 238521329 667478537 53769961 581716231 890147670 293055683 157231461 236818115 725425092 415869663 855369055 334558776 951206800 266950307 995483129 931225462 861097164 84095763 715878017 814722218 224889255 980597634 663457192 844547209 256583880 419344660 442490999 915939361 182486699 570665656 174639771 14423563 135845964 433842084 460524438 267183042 156371386 430683012 528690572 992981583 103011962 911243892 642551538 484088047 839994919 573233807 908602202 896451784 454309874 307265456 213711655 666266145 891259091 158857298 787848575 101927400 6904294 482612313 719531841 688312412 871057942 478400500 423321324 12910895 242289037 939076774 876989448 787994875 931158065 624354959 870658311 650651891 845719151 328724372 507654166 583556344 898003726 840050098 164988296 473390895 9166177 491604607 69004332 251393686 4809056 159267283 336570757 591919541 517459129 543510408 305692369 948437776 274754912 678758824 422655400 337743695 372835493 247238071 110130619 550834116 248193807 248202702 109177913 745305071 501876840 763127755 421501291 288205767 78834351 389566870 726288603 377668659 323181179 797593796 292454195 820263546 958803619 510158964 618801039 491862469 448454508 981552748 432363712 136160708 126367586 993576183 38769715 456734272 365682010 114048587 739059450 110388721 492774074 963070261 842272723 48302328 464788669 977490276 945365822 566493510 47444506 313724489 330080941 405258259 146901374 31448930 333257731 123754255 291440771 91925988 657381982 896130528 399019760 317861592 462850006 153343179 802360417 692343728 402462566 404958796 964646935 547915808 842594440 96550870 6275745 503452424 126414886 700437385 570845024 529753628 80829669 207094172 15307654 415254300 581114320 280964168 913752030 791120371 409549804 641242072 129328380 931303914 143577497 692267318 467768279 394397790 798715168 778628377 798224757 851784766 728445053 557600407 64567098 377176177 527745699 647477097 350633260 522014517 282435769 493751190 473461250 297022569 180748628 684008411 63527944 107918719 203139513 177991728 7506507 853257548 285183683 166577566 497892308 935111880 913690036 144847141 302786772 281774758 475025924 198048086 59039463 852747636 24923076 519925573 912236857 273064472 337774422 658817333 499851961 293821537 559515578 207487840 942342139 318967110 83769964 770165453 325479157 824788446 533477324 284503588 29026283 970148351 888455627 382465739 364888745 824221765 435251763 663990842 596352662 471712573 786209081 153630381 878348422 257256936 68321779 868592483 433457773 207743571 264381153 186586003 958936701 931845263 735651941 260491949 153546837 762445619 103024517 733308801 364802382 517603197 429353808 518084587 479680496 852502482 866041924 220396326 113925388 13508140 409726440 280104147 208933620 991677123 536997443 91985971 574213001 698891131 505829775 450169432 480206241 135441603 489993537 534629158 493740413 612951876 991867185 720577190 918033432 696102739 185264450 177097659 583495354 933815131 205556038 103796068 918190461 856415155 745881741 385960372 242748886 365813001 238231692 274648646 771820858 374806748 429452478 533355682 946032736 405417028 154377767 916243246 472787238 270946426 503604108 901732732 104983547 29591488 298601346 56302676 927647151 455741503 217850479 692093823 440149220 441491889 978943529 640701272 607129095 504330997 288459742 116538141 644697770 587608212 809637015 308474412 226684388 154453454 158444560 698539133 561767142 921505047 848452207 808540330 199310528 711770584 340460363 440794006 76001520 772186383 224272098 291977950 124687808 221221174 803266096 739224533 943527578 290975023 220601022 88480992 981514887 757256411 758726658 843292296 267319155 7685359 228904836 946572472 8255917 159685492 695931780 568515898 291284446 239331744 163496209 578922255 70625044 885171734 85312299 974160283 129210463 310497758 290770802 454401247 56230951 802282080 763825101 432012576 334579150 45374027 840705203 221285164 397548579 957351551 968411568 209259958 719823112 149559147 319671072 803268089 227226720 968430826 54078370 948137138 645054932 275425356 734750269 618262257 501792333 25284163 262383968 736583803 598190661 729691643 339024904 559257548 735993688 458125976 286775081 737492744 78764353 319718504 956296018 186401583 510113330 404420788 672791832 484088861 839618166 360672964 693227596 643777755 472391772 657150988 1103533 202779544 709412143 960179032 920462646 949235688 791898092 724380636 623468822 706298536 747086082 312553312 316640723 450236792 979201481 294842633 760332582 867332799 656874789 485910598 110773539 998315551 31059300 610131168 669090168 467375990 658621049 568082064 900599889 806072532 974969856 181286467 249112344 492848151 306503817 664874613 111513281 759978233 546584985 406525362 550766047 344659879 572878108 415136440 368697860 852599153 120269542 516407366 653418319 572672268 152624465 457863229 816482645 780229691 720291827 332741279 923126908 677418812 411974067 75912257 967382979 310654359 12401617 907723896 323356042 948766890 683757951 187361436 350122792 966665878 307736089 119599648 590720316 287315996 792285109 575407500 689635784 14082378 559082721 489510308 472924782 528539618 537112660 691768623 157544538 867495439 515851399 256284957 903723431 318204333 456789477 273623173 842886637 635002906 304277646 912663789 395024006 767596135 423904553 876156098 351832410 637696796 836667193 935201420 855229872 930341865 211249740 707786969 460761867 443348819 125782753 734299991 597444007 850325491 411984027 455704309 576321225 222099384 324083781 639385666 608632055 702566686 667325382 629442363 369873106 26968539 113290922 849741588 649716637 90408350 461479160 953955596 925268385 41306799 445522193 227479251 804839033 71385120 118927863 165296588 561323002 658388528 175380735 855881795 901794064 977178839 963424263 75882144 22966579 198134586 781086654 25080581 194075199 740857626 79886626 806648297 919560521 998834819 860662510 318998473 422430495 847126697 320516885 906746634 204917053 185771140 439026960 815645719 921783633 304921944 601010688 96014974 575590949 506078532 334572822 717447560 118462588 932091926 251082230 633263768 126895758 711177425 908605439 133896090 225176545 817443681 161990598 406932237 631347251 850316350 578100956 69120064 115972390 443091036 626359712 495571451 381421144 380103050 904301049 410737422 618131200 592356985 182653975 48635766 605615549 505199033 257388223 920642884 147868988 560470930 761627188 594428155 446135318 750959514 227802407 36111954 946405162 34471106 787914948 203250843 414461559 374226285 849738550 618274126 37504765 668202736 499987837 63332074 204449533 33494185 754489657 907728050 517085413 332596489 715119373 790660790 676286988 854567020 950449525 14497311 50266638 101381870 669386303 581351761 768414020 731064321 631059825 469071013 107244033 986234253 703788591 423800499 51626594 994019158 356224865 331545238 20688081 716179958 676902277 749294850 977468083 166900588 120177605 376000705 149574098 263259524 19701402 809929456 564644855 10771094 934100319 431561188 16171217 616612915 187901359 857501473 952371014 718315829 179454629 218153759 914886337 525003464 55420289 202477795 406728337 833736070 167440054 55120757 347783930 470071428 32380030 857522978 912147817 786776749 528207564 712269463 248018439 206061109 932226226 542252265 215491786 728485684 974137394 510886142 9837043 537293339 265651537 214117511 501364743 391662120 54870735 883594536 177041625 401654674 585276310 790267164 621561284 649516132 44416396 954101541 895930758 428380064 108598292 477905492 141596209 212362603 671060849 214433669 702987970 718072330 2040234 321895512 550921194 938709311 246380617 925054220 326275376 493739239 556576035 116868024 134871574 567471619 137705508 21335972 617129056 558492151 472628933 52108425 764779143 202523274 626711239 704216454 9266691 261123539 304998194 664879260 914096642 682195325 704428854 906952788 155756197 846594004 290759197 153422614 238130797 188152458 682256778 779762888 576687455 66881590 543113378 758900824 956459741 730490884 892963156 399778660 747001676 914856496 121124606 498456951 361054780 527559147 689108515 571971883 386828684 18615619 723185189 797832081 312542347 490474179 316326958 555733889 987526563 406599416 130167254 630031338 103031092 217376363 150670961 688619875 734720138 642230340 789538325 182447548 167204136 611252200 402166983 545125120 913674150 345962979 257471033 73051699 639236663 847398851 732497977 96406448 988064276 241207594 773709233 555921734 163693812 434708263 440457058 207340507 696251869 617666452 189187816 847315088 627908512 409336649 557832860 235313082 904700827 114908029 597840126 923723551 602723314 124417337 584887966 896236741 199761177 266738376 811996009 976742109 26985613 48433038 657946471 93613763 140328674 972724577 536602919 7047816 794001870 668313323 862805979 681417004 340401597 543250426 376386495 43306740 182407065 897327543 722777634 598737932 131379260 652122715 428937804 195096488 157911153 323458677 522086335 378200117 138499443 679767287 277258453 78912652 287688381 68803094 434225942 491099315 846135711 354592771 920494544 689709113 956846813 204892087 980004331 426189772 839836738 943486706 961008538 570857132 212561461 489764393 513552096 883961408 689515330 24392173 194079945 516469716 951674602 685373469 997581267 561080700 772211435 3348962 727817890 188342732 3820068 333730388 883957463 287278552 918131794 80050740 676096631 163866101 395640516 921340145 325798801 684310453 135107826 732301202 605787660 159063561 958479741 507904543 918707768 617484489 67505809 835481585 989710330 210340459 288504899 143060147 113505407 408846726 964105743 383149725 816887612 551514585 131362384 422114607 707614401 864115711 349791566 52981298 327551330 133222766 519355936 740957208 261868731 88054929 323064794 584648417 375135296 173660987 222088766 122961944 206394089 621601141 192249425 708270530 411879443 456552657 344826548 878335521 518336702 29334076 358199535 406933777 263838518 37399220 623466605 720474231 82229860 946280011 56705034 58778857 837963305 433105027 811327025 873935025 382284741 517401164 748055264 458931407 101881426 9430691 86970502 878415305 444248279 516958421 869193727 76006431 645441636 455859924 570284084 617119200 590077763 149032685 103464233 64451890 285076010 660377530 235246781 856214707 346477419 637578282 814724017 301825209 882468841 764762718 338176779 856781393 625660567 669533096 866555089 897080778 852055771 566422065 373205329 925647135 583664000 34216445 697990017 28298503 303300847 327250285 300415455 294246263 452157958 489486997 497214056 466484547 162239038 967297407 742811692 602714381 562669771 960112069 700255527 486595673 693287211 398187016 798369121 492524934 596376412 458441030 17602692 85472263 856489095 536329587 943457911 736757647 517688093 464271908 744939112 418663839 648976873 962196840 548916611 999614540 609521649 541435737 838788594 183562722 466511960 794465083 717790327 486940524 408722073 8204113 213151841 482405897 889696459 807996894 580103511 99356072 452405078 133486624 247058685 151599171 764443703 790177743 500051528 801063072 139867899 969728576 430865833 447572766 600483442 278634135 709847296 347244406 412601259 414232234 625266890 933494808 250797013 302043062 299481516 111769607 846681097 834922970 425871068 417809058 572878881 229959716 155751855 789840662 825502504 542759089 836141856 450620907 582920433 417261102 858136712 862310572 69537512 485210357 643004616 334835940 365172325 417719506 894304380 541929610 496876371 405015051 40051991 49145563 212265113 293609313 772983193 262444367 957467747 991990313 435666718 723472523 827141046 153357410 833115630 782843820 301696523 424346120 612181306 47599944 366044581 685161546 359145574 416328674 496898180 221666265 610830581 989802044 551030656 267541596 644911287 742215383 154181445 717451157 348206553 218040079 405782207 374251107 249444194 659435312 503942983 410339759 745090128 464206760 75492515 526843862 559557887 742011144 111481918 253076596 831227497 96446363 520570446 440668518 811285059 100637094 259697242 166410796 312379475 890046146 928650078 601970065 345185523 586234442 918889610 614792923 808876355 879356919 495976927 363923667 989294147 205812858 695111331 585192400 721994971 737529618 726678165 712936693 153630088 900645515 871472458 829841389 206756708 356468047 603552598 688659721 393188409 940695782 54551150 233336340 708475261 415155695 865522104 803647535 720833131 883150188 824490515 949201861 56360834 822194859 691167564 53004334 697367686 327682469 762608496 500879859 453547311 480698027 98425541 333159029 540573035 912271260 168343167 179649786 780123352 541339660 229967823 217147899 515884096 221631400 257146510 69707543 247072057 442501841 877094724 843137127 7811310 988063616 545823728 840614155 508655079 763451828 764307897 698662731 682054279 802784829 82161812 64696163 323467114 288229572 940436227 165811629 678142983 426057264 968039449 603141913 23263084 200236385 718070573 324080922 167867177 716288177 202058846 683195739 429958271 886210563 459123737 661940499 856832214 145328174 129709733 453693209 127883286 814145092 151799829 470503756 666799105 243816983 820352652 389247328 634010620 847756997 251771502 242225348 515009952 978940305 800209656 546343777 491024693 113468396 306776230 554929083 562910653 52602571 832148710 346837357 47142320 561845912 113288155 514023291 528839617 837107550 202267269 447702731 220979163 640892514 159423165 560716714 341629976 510777519 66980529 373077438 239183975 759620452 511441778 467099061 878138743 104955571 173268168 866591602 968893409 840200081 959248748 888689040 962772809 20739477 654611080 216007239 787425190 828144900 347610929 703723843 543691918 873181121 293356182 689083590 880495152 799341295 429001006 255377140 941332247 256637437 844105686 895174470 959057861 695766239 639771721 182158794 529616901 364232265 965514440 69755585 669587460 313619303 738153164 794288371 961320380 102656474 640400467 822342354 427406377 227604700 192767258 249837773 601243798 105330028 790160195 526229540 577273399 922202736 528524029 695481735 520308120 229493572 623731355 379949333 794325324 600267417 704811427 57701321 366562027 504112975 334474209 430064659 472758269 895632049 416883654 996180576 555541 85350913 656634268 566938915 792463369 225892667 677555733 128294859 55822630 892869519 840875681 509227264 241725508 61554990 831532699 904762441 635476702 420574412 504204451 626063057 543171646 438445022 382455285 32930179 81517703 631205342 770954027 441460727 460957993 573776081 272597638 177188929 676142619 567869423 122560901 356393369 221901230 752710749 318296685 773355982 549107505 140063984 373669387 774425979 609351367 39693887 667571065 910112696 874567976 556017822 891363255 28939360 296468489 863290919 301026578 336003355 803300611 420016873 47571643 499322217 918781830 988925175 137931915 14971133 21399174 211136756 116371682 310212379 297582105 24240660 253892212 965405162 258489026 477913048 822789280 315334398 994237101 907613113 694704841 389647293 332975935 669142919 331012455 320297121 726884057 6897828 504042985 198862585 321003271 798874707 225354201 734416359 384357411 414244097 944890562 292702919 45235071 609853961 245952760 594551016 161511969 4680331 800480624 42545734 819660870 601164086 261354217 171186280 927432806 699798599 884003586 706234349 789023300 722860236 601647577 407088009 838731996 101209237 196490944 260708014 407897055 181165743 70749554 846023993 625555798 822126486 149167458 324767032 521820381 280219254 159043566 852902576 25581376 291033150 103146061 216077214 567957215 415370070 515279852 522335058 491736770 909963105 397153867 256206024 982782722 82063103 697257921 394020399 920921412 257215339 339221304 974835101 426434615 208236467 782643737 925305605 273559949 941639818 26129992 68272531 722111982 118806523 674607425 360400040 635946548 267135384 844749972 992551996 165552242 387256342 458049126 404783487 304070833 903025428 112575420 383461353 957819881 287932949 594815635 810947080 990233560 423850914 647631295 248279203 991278139 433469803 215764064 338283813 731469206 482439448 323653216 532596699 461013788 649292646 338171485 664170130 361596395 483023239 934822659 590370032 611300918 423744489 388019370 141075652 175128055 260462693 504742691 791120700 423824015 760264572 680131892 435627159 51317962 421227915 73074237 97406163 129767285 712571765 784378408 878232257 693652788 282106466 881412897 649568814 599612775 536212771 889409804 432730116 458537097 353970311 653211589 354637183 33552024 984311331 172707961 831266287 791797445 201562844 349436946 2669488 254196315 284026011 173235165 222666506 152617088 168992500 825809759 238034692 701045953 144330388 160365316 469098846 185823096 968029416 8843320 755715194 671080381 208368275 610740487 305057105 684509120 562331236 242601934 656502238 655878531 817658885 55120981 629659676 896140732 849554965 644477862 68890427 825328063 31874531 338312368 615552296 272844706 18163016 800498487 599467833 321395514 976921020 361321405 604315351 198518337 986440162 492571861 967270456 14217735 963837854 500834623 572982671 299497553 462177824 15358399 840398274 75402325 255750360 986719395 531358136 49136210 963571341 472336305 936691219 513650150 219206830 450264046 176687327 727531995 850543799 925082744 601261708 345840993 18185519 999889321 526318636 88482707 548667825 592197874 144379324 337173398 415171254 202270684 457432157 996854446 779538316 845760393 240061620 336774930 36669873 226976242 190250242 314414817 25195455 653278036 519604900 306151236 946947659 334862008 692781208 776903941 984322339 821448856 101653291 767776497 384020165 601355950 105795649 46667254 327354476 401135694 692109855 165712994 200377507 898546973 737316996 976679728 998390066 840372617 742716760 862289744 956639874 350280777 789060403 916778285 352273559 187618565 281922054 356377079 753616406 157860852 564108512 303352574 218413010 475333568 544882049 962224841 548620362 299490726 293692203 287245745 395723938 808958687 150097414 26639866 497049097 299546363 3210556 935477290 927188145 632011478 184292559 807393745 940403848 406280002 296403104 69448938 392044897 471389883 765635357 249729277 981175388 149364622 549538702 765959155 441090959 66906147 761742510 439010941 208950552 658062300 309595202 408207560 51132975 283933564 257916929 218619764 785471438 370148181 368763220 685989832 491513264 211479386 594434456 146176210 761136210 285523580 948262874 713963232 748820576 803439783 991388751 484332967 477878546 768512302 521406432 874834301 891483049 154009428 435336013 934121569 384050351 60788421 649465145 525602318 894845716 689578732 347944148 713891688 820671450 507112551 701846407 590124976 818521535 297402225 857525273 430414258 370899425 830027421 24496137 601594570 992249229 799544830 152344984 204440525 213819403 985202783 64410403 679918044 39981910 945583147 737297727 721522447 553276508 208199699 378184469 514467550 696023491 941823342 61082862 228978758 889957509 767683356 422694595 740638918 658927582 792469171 391318115 848788278 624608269 13810167 937005048 411332561 932709571 688716365 586617697 132128482 628751664 353570747 2751690 561406729 676388553 831305969 260782297 403838396 273774430 431298889 106061534 166456082 124408580 708047424 805382218 631628927 364606359 157035186 626699664 641451610 607236911 277406772 419472018 749509178 156600841 454146888 626716775 72841954 559612678 302803834 847858553 217106772 482992076 804909490 643298408 408630189 977763588 679644256 217477341 209339329 526959474 499281345 351026921 799444461 468373007 340634812 125133683 486658417 908726220 886982240 901219607 997931020 633559278 882595365 170518276 612803763 874809802 422429437 518465803 469257032 534635455 938958539 144512512 231349433 980092715 527196207 268193222 240826418 810952880 668891303 577990665 343789982 569611703 237647202 669639482 989306122 664700168 267707827 958631217 857634872 626744380 472283072 470335941 612379976 35535038 939387492 104839546 369433002 453126798 838271952 455925100 896742908 6076517 647506270 640934583 767767217 143018753 670807271 971471893 282389077 708697631 412390262 412303218 480722213 70306900 304908632 627328648 739599927 978452621 380786965 482565595 714403143 737870619 943156360 513993172 156422289 659974113 452742160 299578417 604979719 703672953 488203318 421017886 18184388 649745570 38366618 27667802 700477009 452586299 24882377 126216552 417146959 482411166 45112264 648643205 166948426 25364027 736536727 68185571 668318023 816566274 707032339 338820271 574433077 542937935 396299604 496161357 382270567 897386176 903711599 52450876 721787655 749537287 366973437 817276539 970475095 610485993 699708004 32787419 566483458 385445987 548431542 117099981 202360476 104719048 681886163 738434447 109242141 117683794 933113280 100115047 834732489 132541400 795334157 983395778 716785204 998619009 704592445 219223210 608143061 453712922 542447937 335390337 514971696 622101926 550905573 478395272 255077379 600542196 344028674 526090915 595621526 160098863 739654302 888635783 754669552 537481969 512432532 945469540 886056828 85661785 53373224 192980644 222477399 782122520 262741407 523467945 423234763 560375668 756921343 643472492 589614350 932657703 360059345 122299039 893267756 772576939 231172938 256941024 723800531 785596362 188996124 778407093 928647919 892624493 26752521 560061716 278359697 136017898 142289188 578300553 913425660 940398047 394956290 568331956 51299463 797252864 938598053 307491141 837337461 468877074 749734735 342232620 244868208 749727155 591277845 633587414 507836622 484479187 88233375 280834810 894927851 604542515 337850980 733117960 740134132 301389813 339051281 212451183 762113081 782004246 87471155 122122878 547650070 52535844 640858568 507457731 271845704 977651194 527597430 477421797 933742804 238923849 112702529 953829187 643214897 928112823 75103098 235826180 792370094 41143692 529056854 191316657 782361121 395811937 352907176 439894188 685291369 856632069 717328624 458619804 513799316 415644212 738044776 919042529 558353608 825878291 658795635 24556962 53100474 178674023 484767663 909556174 329146089 746904720 288692410 730497204 721999227 640073985 91742377 756939180 358275256 678926167 187562346 65094561 745872999 977818243 726638540 279896297 888526258 393036147 47683322 66306811 162830239 506076795 909306265 156078593 79750300 86940639 904092073 842684579 181212405 195982897 280574782 28721531 741018773 693645493 491219662 92500459 20346532 868303446 620347882 221120559 464554984 728429447 8280244 914793864 534322419 658508849 968165388 324304075 328186624 483441205 86845697 207606076 418588117 952456952 769152104 154579351 108821693 959823485 532236551 26113484 748870113 335326042 14807279 568767227 748646117 891022072 108580762 459681185 839667833 178912003 241131981 838202868 553297978 960830292 726546906 994041616 444187875 580446952 361405703 929068853 883546471 368309152 350273700 402331680 944074969 783547057 497937987 86829228 901475885 375350757 186692997 496190926 236904147 273608490 778279748 522324484 970905402 657654850 443279246 595124395 877048922 863244527 494512923 888842681 50764288 495776417 539945757 91127922 150951923 622922600 805856336 52932773 880973309 20870213 680456538 463885095 567760460 576599879 419205277 997312222 71297387 56874521 615600957 80919564 646346877 588192566 527942909 531891854 812394581 627821196 164084211 645599628 666083249 248559562 699550668 496083798 12655981 24411063 240129380 78496096 16625240 408303192 30496538 732346274 781032463 55222174 302123129 961002742 537319251 469108822 116543705 8621575 658222363 519699625 171133490 163873549 159979955 970641293 224445372 540275989 519385330 468548450 958746835 756620923 585049986 23508223 387564324 243124224 596631983 418203454 247154928 875666375 476783642 483630941 248784396 468010259 44697737 233857071 438682968 599493 243939526 607770797 416262739 360988212 682558192 651658472 227400122 863539089 166390128 608013082 43443055 865493695 201264500 454688875 869627239 279095377 964876002 946831215 965674562 902057905 278272331 983860669 631566716 822578703 828242673 145831182 867083366 722198900 138928277 776750223 75704841 826290224 729954440 853885839 881271503 852641387 707597568 238807449 880609307 150020979 511066757 594137711 733911578 572885190 655051820 371821244 331627854 206238512 85754996 580239852 773495853 347011180 897075277 666517262 774990381 691244065 626366244 369036149 642667990 766918777 131676901 958183778 822090774 897412456 930483952 657012352 642543081 199583852 659343017 590982215 690331395 218765592 975060355 892501475 554586568 166038347 596123996 428386563 523735405 940174838 959457639 4464955 909841959 909203516 442237146 62156469 280954807 755939421 345638506 150704355 198766910 706057088 644674948 102426131 542931193 370553219 634251208 117761284 450322033 636122383 411956719 88044428 768916527 539421107 943113901 259944685 598357724 314051600 140757786 393572086 190058751 453082708 18562547 119994397 77635696 477483020 484627905 720614167 33260780 212829598 481039146 635990967 482587714 149783450 654359747 420576834 812579216 634170392 465752623 751091874 288890204 906374182 906455919 785609814 397391533 856332551 880344595 744547949 782250850 671586417 445964875 334725258 55010481 201332152 68809608 106834677 61745761 819709683 479759669 889343865 326378320 733116532 291540318 356574596 325289893 750139149 860790036 288155627 678616855 753991925 571958488 280798459 13422610 26497747 653468983 458868346 472091590 750659064 719391426 50457380 40226426 751188953 435768741 513597133 25702844 482520082 406409013 788582531 338150715 940227668 557661567 503782910 491024361 566025685 126167923 333137554 875212497 829214927 531123078 238891715 552095785 840914830 702932161 844534597 953049409 400891762 505923681 764544319 450872776 359822317 394920120 511051644 856981343 176311749 493162537 137523708 44749437 457361621 447350464 654858179 706287172 874569819 483847776 579789838 484746659 574252042 305102240 767052309 95714665 109080783 146468888 921301867 825530339 629339876 290555229 40569481 729541009 37494920 361692178 375362483 77146647 778556994 196787687 949562915 533392416 506329975 267474389 993702808 690149224 255977363 485876922 276620957 609880761 497300839 515057247 966370557 645211716 491358431 42147474 868499278 265168986 383528766 382654549 548038501 695094675 62011617 362408027 47833061 445994160 974908776 272690713 969532983 854173249 652608239 844037383 197682979 96351477 85999801 987984220 623763979 468229124 92473759 756251017 15541536 881971749 969956216 752879764 365824962 86605118 22140213 683067882 508565300 935427714 63570929 373552423 63443165 258368497 150939494 583513526 102659611 427110110 828568548 90939856 463129019 526201143 52623118 545743857 218461823 540962019 452439517 962390758 620125028 786290804 830379758 920992447 189174755 892109429 389884739 184212055 350933467 262397120 845108365 611894030 161041425 853311406 277310871 554638865 927029694 364442871 664490544 43821315 159561181 104669725 53817436 742702516 598619684 927410151 34111184 176206865 427438505 102667053 360892748 430229431 558372365 907164294 591658494 422155762 844986187 805722046 61690689 351497034 162190804 540608207 257694224 325033544 893089054 323865423 412163836 605441701 29961455 352886630 413178801 419716914 991730536 327251657 812885824 44710027 147125247 254564658 624737840 474936975 771756629 593920450 941879296 934529964 747129411 781701916 704226692 247664193 561114514 871735592 236147721 249621960 14303811 901525015 703136150 811820265 97597964 131534189 516632273 868190629 653126130 230302696 155758347 698930287 758439744 222816219 164479633 446015645 835504770 910362783 480184443 15788736 636139038 14437675 469464154 461308533 394338131 254123713 580886566 530553819 371968849 88597784 6511418 501521204 945455600 978219612 570882989 133266329 101020515 578773621 123492814 510382299 583924743 116469828 311798068 796369455 374572629 204160015 676340230 989439602 540089862 811356598 288588620 676017688 63613077 284675671 106639983 712245417 520986155 424187415 873294333 181096949 604252957 610327617 932179099 635229641 634113094 904773206 581120467 390692766 190926119 170569994 387837589 496251565 102919057 194764697 937757466 345531395 123764161 761320488 11580 623127408 28369268 689155020 894050256 741732131 171977215 320930920 290591234 182552106 275230128 166450310 82737177 91024328 380417830 742948831 415524894 678756033 601055540 761373717 654026630 179163658 824862101 585932989 41215838 45154698 122077551 943082480 794085145 14301983 485145647 752970137 502749519 682299813 402092019 952435604 891991567 481431154 405145696 162464888 983025502 553563070 561972868 426587572 769269750 529406083 208613816 251415807 159943740 752910493 993322886 257700869 556575370 229176140 650698316 287636968 900562088 83333590 798069566 939342876 302386621 976378190 850850684 223025991 166868661 308199501 515687423 673463488 759131871 193032864 881804605 774149962 473029758 113038477 715420494 251166081 152531091 843949653 879695657 825916775 65643007 600641628 467849838 315676514 248348668 145607507 376499190 876205064 515738829 821166061 664844070 25078749 136748903 200989818 190265153 707772064 47955535 825604376 261246992 197560610 116124864 11667872 931155570 291465163 232083769 665723424 925922094 779831019 320720945 282007916 263343885 560541714 595646957 935642471 542594506 388599360 521204678 150517359 646772064 458303122 368028865 865006950 465745341 18593516 856215157 229207004 900637064 368269797 349130754 513885165 622087230 878583215 825071443 84855797 932114639 583230066 498942184 77767948 167391962 611179215 854535352 899744120 461745367 799263123 293385748 330496369 196034189 361538866 174717222 875458199 470196744 471779144 155986281 203782698 497146729 69329950 343152192 469863938 437634623 644882429 452655846 897877221 520210737 701402586 377076814 957520544 873094555 689701215 478399484 126750587 137918882 425852595 412278475 202591894 532593271 739136938 367717746 655950459 835790490 276267037 359037990 399340639 993256016 144925818 775760855 13846101 494146111 647529240 776535951 950768737 837211675 534462118 850968640 671145725 433870015 837052196 489928251 713327586 794744372 845522615 513659751 826663877 704850509 500257489 547964208 789191857 769345398 367414328 573231992 883675326 406778751 366932332 418902377 850481664 538975636 344377053 597775121 227742237 987949463 235330260 625713291 55633103 617228786 703893163 286007691 794376010 758225313 554543750 118795817 218046444 304520228 883565384 823893472 642406802 6559295 601372568 37254433 841009078 870146459 451851071 607615945 155825949 440341519 305266001 851351903 222541064 534252373 510364310 396522290 397142549 515497011 293879249 425585539 850517030 338061492 532060691 386550773 613381999 888607513 936875129 508736151 728407898 133570680 208306326 247493007 374359972 522542807 996069433 532203652 251084281 123555924 395876020 377827950 391954284 327761369 975943913 833133080 32118895 708518103 672376293 386507456 24723576 24349652 963606275 590701244 499036106 50442082 473365910 444356615 33834716 613564910 774276502 561719339 434334320 771790358 755735475 49895877 953289489 948819531 182174076 321530572 414369398 494964945 934120082 156922678 65701997 162287476 760788010 787463221 319328095 593971808 291807514 999207622 110631303 810107961 954944683 764359897 221857553 956297405 292103058 986972588 846350853 825986775 728740761 401946374 573007168 218129795 87429476 473658391 561542284 866870998 675343123 725218603 160817098 272093609 828724811 300454391 801958632 610756083 607847368 19992648 940781594 253340680 398348086 205694083 361890615 219928123 736402556 942494652 202683682 718496565 68448041 204162792 494219738 641047985 775393820 102261757 684817423 226233735 407574746 816745129 74623320 207427781 577939517 499352990 847276872 784739963
