7615
976691473 934112435 496653876 467922558 567070846 48098030 629629067 534335281 635407246 290422596 174619312 108032697 232946685 819536474 678594995 439597069 300692112 69176810 200557753 453785634 566360699 235071391 701844010 869994700 388814980 103031488 138569944 515396904 21879744 660941566 439322024 896842794 821032953 514213594 161374233 431847733 148637842 863786582 590851780 748504322 726811107 125333810 650685363 444983668 64810449 156478901 524201260 706700476 89102738 953677855 627918690 901105769 4104991 446272209 259226292 24806529 503438343 305863032 704999217 657743075 25811664 824685712 570247209 380176156 164969185 198601103 605759918 724485089 990832641 682144557 178183366 995284446 716721201 647092688 117740335 317381128 896058224 592715660 991366585 811327522 270301883 26418662 105942834 489297069 15139985 503869379 44857597 463572199 916332270 21642549 482441748 962137386 27892076 993691015 47977048 59574027 608088865 897531536 776989996 912123312 769645398 912457948 818483009 489844724 874339901 280389806 795932042 827757948 332107392 521634281 981684814 316457679 758623730 372906200 909727975 472137236 189427929 797543857 183890557 360287327 994400648 504458950 23146744 745403493 481358265 780807125 589913215 122738011 982421427 38484411 174819287 851780934 243794519 131860938 19145958 770126204 337416308 491035708 483303607 501396493 22498817 243439639 629106342 636860102 622190547 273630179 465405647 915529848 100289040 432448301 144962429 542882104 864380144 749791831 743579524 631928435 140725057 676814234 58627846 173863425 85005548 884548681 188078574 952601128 352528271 841733018 785003804 506623343 753564630 534670076 285403973 609466743 299403948 234992139 535848008 501350932 179713548 388920138 819041039 225803890 388053296 449279135 90159305 405079550 288860536 782108312 683295924 432276659 497609885 628862054 810824859 634650201 618474753 303258845 687981706 123319356 194905002 976608591 1827679 561119344 932116710 737832931 466488468 683984916 190439125 545914613 514799765 137758478 709853884 156582288 224490067 918340408 35316907 556960865 999977397 969440541 835095659 58564362 624300672 952628536 212304433 627536611 223282023 139064340 673088251 155273562 977252132 128123460 902548268 958471153 896289115 843859125 542850210 581297932 468392366 596543123 552325066 163050423 460195372 418205762 543052603 160554336 385005466 550358734 976437004 408742722 742247768 637369066 499913362 356665575 773637696 338614167 835899168 670990878 103234915 847927178 960495048 171249224 261720539 299304151 213934881 934774121 527350466 445512197 38002778 207096453 160052157 296738824 294509864 691254504 26678655 317284472 241332690 583984832 621002481 174667204 489294683 858185554 937350838 361852587 982832249 712703768 84582850 106610458 60609580 951934553 248531087 388987657 556113709 715052555 184224918 513381244 768882691 219260228 337972232 510745395 600073870 744381927 836581760 662408366 724727886 202538420 522613241 445723659 265475098 93381490 976134572 81151884 75509228 736209768 807524288 140990540 421421519 504129043 496178666 306853668 68193291 69567797 182672920 75319473 986284730 897989505 367156233 113256345 326109933 102775573 749955880 850187065 13128795 397582010 66093687 42869643 25891361 921036113 546999701 295901366 238346543 789006281 696924416 550737957 999530775 884067975 960612890 747141978 206055629 664148157 245691678 500793687 966526320 44142172 386938593 12265519 486787617 217720013 156426989 226018709 913038883 307744818 190199380 815110995 748457883 214756292 785530454 914399692 207218192 503709792 830948153 92978571 73194432 480362200 409050614 453028445 626552912 112873811 378961737 747334503 731821477 460685682 97448976 585600714 322622313 938246053 525357309 446029983 253737091 74432735 984561559 272298321 481739530 946426856 673085316 284800449 632350380 793111498 374609634 340445195 987229329 599232871 558749045 723122568 222838373 449552145 942793323 105291949 543893696 718975267 808896716 234021866 321035341 600686214 658125461 612425270 176088804 391896462 668398527 994772690 903846593 867418701 816463106 603347526 233548631 594536065 136084367 827402794 213701165 883405647 821394162 978984072 747600492 661296151 89115166 137942961 150508203 407808253 620658736 916077487 86515172 381222832 427705239 169574738 448281499 575967062 15540876 353411 323888748 483001164 295856976 273071723 41591686 647380767 820869580 229098874 786460178 462065470 530491977 671813430 155659070 865422147 30189662 317590691 548250388 407937996 169710437 319208781 782049333 280306314 382439142 595880036 326782715 750878855 813880671 194551890 924436306 724030701 692773157 762568107 459704439 127803585 586707526 300449856 294572570 207167530 111361729 20013941 365644496 956006280 589317901 175203644 597483494 53524308 680593264 836215752 806273107 442414151 195545365 317341815 226834044 654493058 485806542 227274998 800643558 658708692 966643545 816904452 441423578 825506143 248962380 281491695 911576042 429306416 495405297 806438190 125840976 627581531 214685818 780066113 852131699 347482438 244989151 4449646 621311945 174459326 480566954 479746431 963442074 784140115 384078395 408038783 849248541 177565977 526281377 858788423 934911942 782952821 713142571 969558018 328491416 821508410 175660954 786869856 375830741 827992351 612328374 786704709 557581813 959210529 281259343 738308616 686656121 874902393 661263255 449192762 847209559 559431860 140133496 934159921 826742752 749055738 231790378 962094923 743732276 632091907 565409302 856458764 590835665 789640827 519232550 878173481 720620030 126031678 558457407 914253415 63122720 896812682 856483044 422309178 385641456 464761882 108067684 976665861 533488595 26215903 453141654 719611625 918679289 759748183 707604245 569206116 752536042 503379573 654505462 94855478 837792988 151814581 387288829 601060418 170711006 813038711 65615228 128653792 240643512 717525018 612657974 885446973 32043442 352056674 374552564 973440956 283866386 642745084 280414384 52233122 968810404 842344651 341575854 167538598 482160461 509326896 450876179 966090601 221895910 443096768 277116356 473384515 182248616 479599247 420846761 103439218 527517148 7361164 23157950 308449641 391058026 279211555 723706761 360641631 837122329 418695608 563101288 773597190 396958389 779547987 423348890 945936243 322576452 550506632 460114798 67866895 732737270 236545661 687656188 549209141 831160413 695526360 252379312 37909905 305315822 289792440 975984139 456096481 560601572 126139574 433493636 876134552 231858397 968854052 953646489 582741451 169735082 231563863 744078742 695260808 401497107 732001382 696718704 698726506 693792894 453572267 428837082 293939647 756148691 972187769 692890011 30502242 574753875 661813024 989734539 625201463 14125597 378965440 76650205 35350630 784895309 204310012 247677408 54440366 808190623 690097007 477878751 429836368 759002104 415746036 874534152 607288479 170763838 487803341 953490736 960276129 132946490 467840011 376636255 450049245 343856183 614042208 540302680 544009956 380140197 313768063 218176927 77810624 240634701 263550063 851430277 201408487 773256342 808993271 526394213 250166249 308415435 425744112 448467856 406026428 67480484 512993838 220224715 408519899 601121332 647787315 40793091 380981402 537549977 898056474 132781508 769471191 982708079 422761984 848656569 328835251 636359418 931305752 211067510 984510218 73200935 40196251 74321480 588879049 45505668 100860720 912198006 908567428 205332177 218556028 792339541 134211313 548560843 617055398 467130357 173418334 79932797 438120517 988290529 336347824 160882928 199325561 647678761 401923273 49374213 640601657 346023181 654324348 955002377 205718992 540078155 133537497 483427458 763501156 442172659 235620475 382149700 351370741 362465866 629284016 852094886 218387942 926488209 256799703 257830176 937306873 662494006 985853646 100140355 798653941 759162327 841730563 79018352 354878932 886061385 448866754 650279597 280905812 772410695 117850167 349342 975926550 248951205 183199166 742301641 90331420 80125643 320985727 208843828 644528455 4156711 313845990 736077230 955260423 828875111 834860357 200081034 115567192 400279196 88764115 964351 422281926 102355973 694819416 328249164 995682738 186763973 318193021 229810541 38968653 272082310 122596782 834563352 965046916 816286266 427033303 949930371 587290921 498078848 162983017 709444591 142139601 337411406 484359204 118028784 197421443 931955903 851654430 457480581 876222162 863439526 647726675 455319830 404121183 723048012 714592697 201070274 998586940 72329586 481889657 246424814 996109836 34495509 758615479 998622485 337048173 113927126 923752787 243134101 307729783 548399944 434639222 425483206 829230950 789644450 485228824 981128192 28548325 134746122 741148566 617445081 533296923 567625575 932983096 814875201 414955907 272980386 975359799 630900489 702251800 185296645 671487183 384460983 937530057 24693528 346149715 148210447 595895263 278388559 701256963 871503672 905731642 814964057 541072447 310224966 398529700 223287043 486436941 875361977 467460146 574021195 638316891 688449818 636541337 42255626 236400142 609461476 601441831 305494937 796326439 960203223 445336659 188641515 245021852 496326435 622891821 394013964 114981946 886031512 316426081 140790367 610123050 330966268 390881196 406723048 628597037 948747552 244613561 102024966 608271387 162023614 158794512 897095033 932903078 603827999 22144262 81124541 639406116 420923328 509990689 803422750 639721048 559706299 55713233 8055444 242077985 473958560 954725818 948523752 731234740 654077363 162299270 33927265 728312421 936878926 595530846 38336175 282861158 358107143 86063645 419991201 85925682 430401871 218946442 950787665 172344105 867501924 206054964 806502250 57594070 85291741 954807782 325933015 3562646 830725388 173034199 898695935 827399552 570467032 929265163 499011929 846288046 27065385 935567669 492281798 227119768 450832550 94770326 58934367 245929881 763823395 56058822 851687888 690895896 760563682 286076548 635538876 412145843 93192663 563407672 444590166 122916365 874470864 205465574 644994208 801479264 475768591 693769717 880255773 52444542 662942641 496163882 683503977 43183129 60812749 480970143 541341066 553974772 374200689 550327156 510266356 58334878 521097925 492360975 491544327 604884813 73487927 851169334 564431850 321367143 823904590 901996450 499771511 365736161 952199039 165051704 801165584 334433502 846947468 246411790 632443284 725001803 959230219 758045396 462633512 740962233 543688635 218000792 690321894 258389123 133889816 259592340 603027716 948198873 945041835 383075121 754562293 247573968 674216983 861256948 918969377 186602379 714533291 443608479 146622235 672684541 330651903 475428492 673393312 667829714 712980003 453415087 839326705 711255476 407409342 364886539 90508843 874994725 94095117 23960419 537691574 644316477 983410759 126781579 13477115 918340999 554495610 634028477 909076105 739244684 292147422 411863676 602235270 603911562 530318596 529414864 980100284 617315309 450851555 126548264 333082175 564979624 949276277 426699553 675894504 181331736 659373880 832623945 583709355 880269773 382704294 193676345 536370110 841957635 517594072 584303887 546774129 97269857 862428532 644236727 21199271 373318524 52980843 701643424 260596422 691957947 123765610 646566012 368703533 163633687 182918238 615530447 92099789 487274523 384111741 819114124 826681423 475396566 966645802 166235632 36088863 118448637 345600934 48929181 577407139 693262073 895375654 987682133 136217209 120546124 932893420 503709707 108192017 742573212 833332524 402985678 639906935 921889444 739891733 146542417 998232927 618733097 946638573 519626110 961288496 926117896 887672128 255962788 165035098 765806938 153101993 619784398 948866544 866374657 65740650 678775385 962352697 893542931 602853871 820097877 345192216 141652602 939935553 598665096 635788542 371551896 279813168 926720583 784519049 393321942 489174709 96168367 369396665 156383591 896958094 950664875 508454570 269062784 807431567 162656057 583797046 48942917 489573046 630248800 654419776 853713573 223373803 271277398 810472667 734216684 100394756 655661363 9019994 917462988 388982215 901762536 800512321 12819035 462792337 699596555 655221372 389767594 395725410 712826881 977925176 35308518 812969555 552798281 381100246 807588524 333716725 898167311 202480021 736824274 323787373 945221309 93099574 228624102 828678523 519037988 597076471 900955314 772033859 286979415 521847620 956860132 449743946 226965426 172642007 943594704 125895141 454853185 964490927 214287925 397608616 908590666 112146964 477080645 250427867 822191977 712892723 397864091 244097951 700851543 249227387 748928347 738925027 133159826 786568089 16148123 780260512 538518382 690182673 716779367 290573913 855321221 928799865 628882129 797696585 659010890 228961177 723313678 803982847 261474115 624032675 872174834 526087974 357156534 499290113 202811459 6900116 396158045 330821575 920805503 785347934 683084700 595785534 453373243 754463065 281907982 101356328 418807686 752396483 24627339 243053505 796751249 888712196 683232935 959079000 921371571 75396023 387780996 213372071 569685530 809907915 383977087 400080837 424076198 135866293 64407112 862486419 738561502 986711763 819308508 661586270 356123869 27273271 280550348 442702034 598650479 497965832 862622240 635759550 753949039 937468457 655582166 650844864 178169639 267534176 229921890 1248195 816078310 428419811 138090561 605855803 489721732 791475083 495248029 51961092 862927244 56586192 143653123 585918352 5728629 913684409 122324998 311495323 370213555 303690336 789884501 819425889 60507039 375546491 303113262 431577816 994689591 924097875 528413811 895736863 652166814 110227390 801780857 307732601 230020401 280445821 767272686 234644765 262851139 80996616 234709717 581549354 975914867 127438470 945270551 908204208 559586079 751482658 873959511 493637685 736416768 461297363 350299519 742758858 626112063 16335694 517701277 863315727 672135361 822457070 443700701 870971651 785580472 880569390 665545590 190627980 545077621 201406803 709651705 354173570 142912470 357933682 912229185 635755140 229277000 693831760 811601786 177008069 120940390 412296512 596066383 382216330 182077950 42365034 601224354 72775979 712042073 659152395 909943513 338657022 164470965 560200569 477850436 353734956 373130510 662199534 984141096 986282778 999645896 233863127 698313568 768269523 432042841 724860306 605636363 487264649 639823799 901143195 526589684 231067750 380458674 538264571 900088345 378412509 478370618 197593965 699117959 743002967 306735772 59885139 680980525 996598907 18344497 519820260 144280850 765220793 196005505 943415079 465705847 984168230 232846482 67941704 395420143 752393220 898455098 162313120 962525437 151222687 490665270 679754156 218871367 44044280 894881087 833988492 20411291 696954832 452962116 170323754 941824031 992713589 791249361 587443248 683784728 384221496 828006491 286257536 476025598 584444784 137354740 584186527 518059038 536230806 313353419 142975454 960782376 672339794 533957357 259774440 338388415 158940658 530567271 55935035 374065902 68132088 117338778 973882812 842713964 197818769 566763581 500254110 429127066 131763053 913051265 191529117 254181461 388982813 143165015 582534415 281553328 343825301 57098838 995905938 877832058 289198291 357453839 940867699 115026588 176999875 249610189 421035482 470608601 874257134 713758325 340130644 730581669 7947336 814838041 174801272 249249677 587099474 478076951 197340179 863757115 892340841 421637735 229806718 166000869 385290914 518213679 901417997 122328255 723313667 278861544 33515288 11841371 835260991 326820741 254212840 532274655 821487160 282549749 449792505 988459816 523913313 944339031 437696102 530031830 492849505 263117046 977166242 682035055 838448047 862012436 769609172 197632181 608458683 420011587 838163262 699536465 661522469 846553604 745770294 866031837 49733784 249694138 676965575 183918059 385807668 508778791 311826269 753552845 70604470 780908088 249012187 48537165 59613400 880370600 843551504 924887023 177900097 22518111 126776755 278616536 436556012 831423785 14714593 994054597 239499300 689239190 12668756 228988534 181836259 437690808 543183649 108332034 663399850 416849961 354325021 235424593 431929184 76442341 229004390 341121888 761361650 865673113 844086800 912498035 639322881 847592395 195661080 897854351 509163368 555729330 497960744 678653397 623917146 873003617 419180472 163697264 660025324 903549424 903109436 19337634 368883496 961953801 241602173 911623012 220965928 275808967 853240413 633335220 332170123 726072712 689910771 675489135 984702161 753118929 569903128 642738255 659833234 719006209 475156445 54878333 326430230 988854687 992269929 938121562 263022595 135101826 183811197 804964109 575708152 32134711 432802478 561852060 655751498 78493071 832911534 398263678 886896689 743219237 806529239 422918070 133771491 372760259 973060743 103981551 66531843 773265556 890689864 570914764 692367724 645539704 10112299 332032405 471288425 322644844 972517485 642135411 726164080 522178438 42465054 964436654 541740884 343370172 936244615 328998255 103916207 333907718 996956884 640973951 732008040 978651550 469189512 564215115 285052399 116741583 183608933 988937660 212795467 909665422 350903181 523373606 332029149 265146639 301618165 619990682 516370307 902918050 310087535 265591247 406093885 973453818 645750420 849099990 17140011 819941575 674216568 475039717 747470478 320595875 727304252 583796259 28737209 914548164 370148046 472436290 803322137 670221836 559281774 588066556 982052887 32744602 990213386 582381471 117666526 612493408 104885067 908451054 656831438 318950031 700984609 74301741 689714572 322987130 887810726 315600841 227434574 190266939 655532484 818748997 753744933 65450406 359125407 104814484 451027056 840312533 94584113 475266580 261614961 187764766 480674625 593320545 639798469 695301943 359417215 418662366 458718169 17589253 203944162 839690111 733463972 419122956 525342139 13696715 779660347 780348693 625848406 932495742 105262097 484072288 771301551 681552511 322042555 756601943 165821733 884287502 971867244 159056827 142018031 116156567 716886475 662968017 523282356 564996335 713199161 980097002 260967688 112076143 55193081 631662141 118886604 201459550 699254242 967030945 772324448 519443002 689425371 750144641 6127741 590282357 614718133 847644591 844972706 463386755 938650100 290654271 953369833 451294079 373310931 830742517 514762152 808494490 960358453 161645610 836049325 696199691 416772008 512660402 951799735 327189539 722841373 871744792 445726578 22167863 935357800 793976163 514106007 689948366 332031317 961490799 252180621 244874850 323544197 119680147 662287435 791076734 643356949 786689696 842959705 984077868 586018400 721916668 468433323 698428572 856902580 160391737 371641777 101827557 366169207 404232154 803222645 782782283 831444449 132593295 505711329 294978980 229303601 723590826 59744260 353671826 408875654 743379008 409069367 314975920 922517879 33566207 660252212 745535866 408580393 304479227 768603325 968162127 460021525 998023544 575824896 795912635 766690131 131298283 115200654 914686709 168935863 542742277 301837370 573014255 279266269 484163496 743207018 912736263 787443998 845938178 564294129 689238716 604456028 283177192 359215172 186616202 766453818 20892657 314540323 962626198 832051272 439807770 529303180 664984540 903366245 72915651 998554119 348739689 549381211 855450353 590891348 538851818 861332392 806018278 950419302 757392531 177718504 4842038 807873280 815057303 726796107 330535117 466688248 152130096 780352055 106211071 94867943 656412987 65048319 922767035 667810818 177597036 327429936 583013849 116431972 117943241 439408899 895085684 827084213 52580352 888474848 807147639 36584565 363501781 651506798 8275489 860484698 984417241 528483266 356581233 45865075 496887922 600207387 488509 741497836 820020138 301409412 257196750 540449536 383242101 615569693 709830984 165639676 736506063 68289798 335529089 270558491 468012303 148547813 872112522 312876548 200727124 249411624 845555532 624055451 989836184 208185150 335446192 305850456 374073234 477302811 129698172 750003541 583337250 907852239 884337031 303673802 975231961 633306856 120717021 68474780 397959580 453011032 83500085 122189276 294013123 938010928 619238931 905875649 624400647 191110202 67171313 177524817 964655131 718846899 738241584 762862917 490206855 433444530 562306655 887843644 418180242 35539526 860820178 375291045 915436928 346820176 803851912 622270793 168301283 903800445 20135331 220985538 90468722 782531508 950921858 439584762 761275072 253389985 159789056 336595218 607752256 432151082 644369687 762110768 523523467 880061169 387160421 765176675 422588314 507213490 784381514 209339117 606839213 13051405 40568934 465822159 806426099 397356150 935327125 496933723 987612404 3484844 600684892 985668375 60788287 577452316 854225427 490630462 24288232 444024382 433763575 959868294 702158705 429596514 951254481 14294923 930906517 333592930 83733723 221614380 267198536 946171657 105014758 503296943 841767006 955953847 415166159 179692244 349681840 176256726 962859480 586069201 2001273 225956691 438114032 474047755 822425478 324881018 460780959 189061785 554272265 464282022 670282958 89388176 7691860 739880947 930003651 127224629 380805120 196021012 276385269 460795318 424377652 690373815 283125929 32358477 129005347 787691026 599811542 43003967 670403912 868496605 319277063 401131276 905931134 727455923 513043654 511263758 867679617 923002331 398228084 162012717 514775957 139702143 935433272 14243000 792615515 506901370 598315653 779239605 825623679 912610700 671723931 771151687 996768220 642838249 988803628 738540648 74740215 539568942 978679734 357706145 677056141 124571663 932368613 538932752 415835122 549847398 3746149 251325954 208188943 342319346 384941659 480470912 350206297 38315874 738171623 39715151 363067307 335539372 962194985 125210537 289952343 128641458 738897631 979688982 224225209 467456515 763021997 591588995 634539949 807236450 583942150 70823424 885825577 315711768 247622298 408222748 814547446 949076081 841645554 630788658 569979245 772619051 322728680 156567971 477300567 741076117 969849531 620970724 591577885 878421142 290414185 496346916 665691153 408655188 416171749 372952002 907849304 430226692 228427600 991268585 919119761 293138050 21942268 558281765 196558880 554556360 159235967 682771526 736344469 789978005 468546415 449809395 939323624 81126343 397668941 800993295 24110674 718213968 972719970 817259423 922076506 467404259 891366425 851013979 454266341 445563069 769114448 128225444 409493804 81970956 233849715 550317475 694792287 695154696 193311084 430620855 914014138 499646525 545143619 508766414 607464705 896875808 656537173 95577203 510625599 378327168 648429870 641454468 800900201 881503951 299742706 72758596 448148509 922472600 219922257 208745383 550595380 349697857 938305395 327021875 344126006 709984144 525039841 998835204 983084094 58449925 427097014 387160171 797436338 525056978 640956718 762655873 651347139 828742484 811171594 977810164 828385472 65486352 146950201 286303105 252585044 80824035 633428500 910123296 503859035 908974980 548290406 958570532 709152428 345585299 999785438 161071166 696295451 105501778 731963921 728683429 177433006 721011319 89130189 619964002 893953483 349744932 761538636 863088200 479563277 406076055 447885120 284559899 534675462 208813061 968393516 977032045 821413052 378882855 878258490 356947172 370453672 735132177 340246444 152919448 110060785 936125367 464707955 951825582 72250349 775564713 547209322 914015979 451065497 777505883 634113050 73480405 300853635 735715177 215408141 774802859 849420981 936700095 294542576 612525788 172833145 890240386 635394564 15014825 66342020 136737617 67190856 535620378 35474229 426884438 298016344 68554678 726264761 184291253 672641996 276102411 363552982 647265976 891399130 864586035 731419534 439682049 948658244 229443655 693062080 556024697 67898650 453308859 172457432 234149654 372456710 268238371 264433039 351725145 121830261 630853202 722586065 531362171 894312445 154214774 356259190 66473176 764243415 224590108 316260674 339709229 165970109 163438171 963950778 258544509 170435973 672524745 897568767 950607374 250469273 856563032 93903956 183361271 340699319 650925133 175320952 604908416 828797258 183709702 171236752 172354578 51028113 756298488 659364490 621221067 93415214 45181950 421905583 377867431 591149814 273187770 929236660 78726050 274418589 998355658 182660957 208451561 308936328 138825227 552887252 298875568 446388806 536864073 240414728 927992240 53648100 9636093 482785883 29242656 816224327 661323630 809268216 719982378 754837760 731967430 5862780 355705672 776772812 499408949 318132352 736477603 790173598 947978540 60015409 394271608 311184491 998549339 89636751 546358576 578780183 849532935 435636977 714440717 500683173 704566730 662782523 972871354 547999489 276471778 755748183 743064762 842334129 119550796 561840218 426990612 744928615 125425677 316742776 208977530 732737378 359318609 156965744 207137130 351009419 281679788 888364420 782232539 472831590 91771879 765035905 504414057 567960946 489113580 957361922 545164544 170380986 57664450 3516439 796472020 780461466 107597649 755464978 747285666 129066401 13846399 80222964 738025975 427146116 364407660 689390754 845144473 573010451 649738036 604799017 562500601 842840599 65896012 588533338 626721515 275350228 222355961 445921063 926325165 187959678 766236784 938796056 209481255 908954008 259698889 83287721 220214839 712258077 52809923 627199624 805051534 216592793 48713135 919589267 864900655 409741500 415372102 646917423 938865086 421127289 979637643 261199155 384902073 33615575 3672238 741575882 935714078 22633223 581146116 89682137 335584891 179619965 514798872 818085784 139836913 783761197 815603016 178367399 142997041 188992767 108791619 474503199 191793196 380398946 977283006 111695367 373498603 113981721 246297473 237810021 45408204 538338436 891662234 544908102 188960965 26480343 187744131 642533032 998049202 887604536 374434811 378711298 632277350 708379683 831512779 196378418 661364778 321038616 947834349 872322787 700665053 289947478 636176600 597248557 551427710 365715824 512107461 853168109 159628533 548164718 608228437 565922603 685859309 922136260 128950094 881953429 562768918 271343088 131095015 251022813 703596737 410388372 927708408 140572661 270267575 156321628 240670284 205914114 886364675 577462186 358948344 937706697 603950322 650440784 520352619 680937794 201993420 99560085 978380553 614930820 503895199 119565685 346980104 392110717 5173466 774266736 244249692 542677785 755060 259460669 243166555 182943119 133490605 732014254 408578819 475808191 773320870 654642200 582749565 813493194 871694354 638071066 162885940 356736827 753981644 129435467 694004413 320179514 407387743 945943076 244860608 30984505 416466894 713171536 211880835 638877088 84981625 769727846 431324056 789402078 752979433 841418928 409330706 471115104 311601531 954438752 787963014 401987314 676633092 346560768 926279801 496544848 444001283 109178699 141582600 801542814 757795830 698297436 442106688 230061676 281576661 607244473 829975825 969990225 821545892 90472662 877742657 298181224 829128551 582941292 231823333 456065067 504818779 553516912 615304198 33139403 446079561 779403516 847647750 7942685 513079018 101076256 460452130 132090217 184291634 570581989 531046691 172674518 375504467 506386315 945997743 944638954 770154253 142725466 581882268 811407208 930961627 916046422 375921687 811201841 992020313 132409373 813785303 158168520 410987656 381113148 35752896 129365471 310811943 271246575 940398951 311571572 778031747 292166091 582768585 419339550 759440071 996968553 750211032 191375442 93346707 895614840 543054587 823152858 983604002 491761928 113450533 851587610 465924414 890571211 86996623 682911552 55886969 485228788 62015410 667340503 731987174 406360868 188935018 640304361 430371209 279768646 978460209 827034603 909678971 757842283 307302703 123855632 413164844 747339383 891737336 128293815 355333916 427888418 947522651 82370064 205249897 546651367 82711032 300638216 547673876 422586972 980754167 293588275 645597538 139883125 476662176 937992464 105803369 268554886 87644343 863142770 799222782 685007055 501935428 535255619 413474788 602318224 509490568 418094898 516084410 585223112 213890151 270924449 459801272 573462471 808545923 312312906 438945611 538489486 627191219 636099096 644968266 589249698 496378899 10453803 331073502 575858147 101063381 987013784 325873865 855520919 349538375 619087858 483881435 751916230 547923365 252931330 587399339 265426466 970559923 832569141 708249051 474680781 880900935 431827997 27524519 783276423 886000673 116446036 248091070 96036915 186690625 724748984 921682005 505678549 669219292 245357301 16578328 652270005 355365336 666125321 264750957 404237604 114585267 889847682 871483344 372716506 548611359 898340359 225920978 754375764 786096250 10072874 199506125 265094148 829553786 785851728 223985521 517671355 467864601 549857127 478781482 465960646 128218255 616928811 794500674 287125857 710686972 489307739 841019411 714350209 294618349 695977839 310737329 967849823 868437441 772876836 92250572 357240456 994106547 773750212 109704681 571554781 543840741 445541202 34141759 918551739 736696393 297908203 657407799 560397093 510441763 817946140 860598767 520896684 77624388 243248831 533979413 410152731 172721431 557458194 404394674 319766591 310388561 891900920 932901751 117397885 689683168 139022602 477347208 362183278 827370352 947373701 2761241 245578653 438737237 786354036 999016814 961300151 903476601 580811356 34480534 993956471 402143918 120720010 623283617 156544574 482187813 991765487 250946053 669343074 37870066 997035480 927121538 575179934 114599777 10638037 991191147 173060644 297471860 895661504 927872760 604117657 268258424 181504828 921301746 181763898 766941284 635610633 355306753 517863682 180014051 688497675 384945583 348493033 71183640 131805668 887019940 484900679 517900795 413297992 906508483 446253716 944518666 728807637 603674898 353236191 797022756 228561587 277567834 85459956 697774108 152987222 906473880 727873391 379321417 139994804 803157888 578620199 111156959 210909092 907623709 787503438 89991661 60611908 954163624 523403091 959621297 488591566 512286577 217173319 682299617 25981348 684421039 231048399 628387254 435269602 980345297 193166120 463905171 985077935 562436480 412017367 109307219 139495575 816027986 760902004 746090760 793419429 265380645 341183179 768704088 234494016 931264454 461672142 699968975 468406894 944644502 845096533 795478039 776295018 574648174 367511360 794426577 648890326 844660673 421611143 565450408 494627450 23087052 126153468 794243042 481377153 697333454 241521981 642954918 832516854 84896925 135066432 552489783 517616263 386760714 514726391 614512051 543815429 585269836 1498364 700221252 330727473 576390588 108517997 60700033 815614615 29639132 672720618 157656552 392607963 164563517 930935316 853268251 646049087 627193998 313768538 109102033 444369915 333601257 970750079 280507257 950103717 730535664 527729185 981553961 436854134 315140406 964945209 964272431 854762938 928724747 966806403 144530809 441247918 761180017 715340231 236074712 612671052 700322095 105714045 50719648 56583630 63302154 566006017 338733490 700870311 239446020 877934637 500564117 829887654 912280420 330636624 593569648 595562949 964530580 630798009 748251854 984867243 393108700 204798160 788988294 194831832 490468544 403073610 410253897 547721719 447447646 767866750 887557501 387756867 119056669 956898918 761929329 185148448 740690084 285242625 460970433 270807811 34842057 364789209 508818018 176589599 871483324 290074013 13551103 27391615 938054613 643578588 144469555 105906859 257424581 644073549 53838174 412227466 475611238 925116556 720618363 454255404 176827333 611975230 757360768 11369054 724867615 708763305 846144742 912933606 325967940 547823330 677467644 324949184 887988178 349869286 540520723 354742290 423699633 995861542 447143871 330942809 901244811 736490855 772010932 502070965 276179754 318614636 686893391 134114199 63645708 225618516 391239036 430943394 392088331 600233797 199379018 973520541 721099490 474114873 918649659 89112654 667040386 787913472 739998618 682639637 582719950 149487961 375057663 88119739 695522910 259125525 300569039 380688055 182012164 719429673 146580509 479896334 723351178 513593867 206005332 99893783 416893303 306256584 908150287 830386824 340446273 411335871 921942390 962677686 203022238 559932859 70402487 249493535 800975213 610239085 324974692 666034513 650171003 490742722 948817757 715207666 614664731 724226890 297657842 411702393 491874821 886891002 814887185 850516827 834894997 846124222 392359915 640861036 470505481 377979940 69983740 370961482 401593786 522424673 351236111 313016466 291612306 534494442 342964302 579147612 803021332 485410706 690604756 365682891 268759049 295083999 578787282 367954185 569969915 228218650 682836488 221776358 581178912 727168999 698483365 662817190 488873715 97618586 837427018 295883487 465187855 66226643 166787815 894932335 142914836 613983069 639818863 815352432 348270668 764818062 807939085 102351518 712061856 875990451 976972473 178150568 184409835 903037315 528188485 681270581 671541139 712921112 189658684 46426453 772626026 948129893 220009982 952532688 877028550 706461345 415197842 87495370 707048804 677954493 100244704 508493986 590246230 995031104 791633001 387256419 911359581 778605414 768503708 213694106 676156629 882680770 851263224 8219221 642374272 599165610 179086108 784788654 175815431 205786168 280491930 599991695 367521111 274885741 931406261 211466511 233649240 654864146 924921260 394614405 3060021 819783185 106659455 328691743 982754992 245462282 530313857 138387925 221648258 586705773 942800389 582444758 222957045 214391019 562934703 629328373 285284430 363345715 111990644 990286738 77994314 821268654 941612214 14565831 479197114 741435395 152496394 273222054 813376101 716518862 668225572 255554532 501042446 982164539 784133826 561086449 77359852 718026779 270475350 78919880 8814955 591810362 418718150 833119973 34915287 819143679 918249740 63387677 967775988 786513620 344033711 178206084 899798708 566917718 995066551 514447093 858368057 413001213 807850102 784307240 17346749 10162668 160612687 700979262 120752459 861605447 834036311 193025788 435635802 829840982 684011468 331248717 100650788 628210889 642236083 918325280 152905191 827752898 306393830 596370894 868604811 702516893 859436582 457187005 467554141 934377693 999493818 375042603 793280314 151387820 586318232 542952373 533941290 128454606 801597570 151238875 507520564 460631937 290662468 226388998 513646970 613159879 548651862 388560790 364262486 584726748 567351440 213996028 718560752 157079601 606490481 777747205 775972605 500598310 82244198 332565391 714551767 536321830 314373489 757867903 553350225 481703357 300756641 572623214 679609840 702743099 587519166 818011639 197297921 969152741 17493094 125084524 83427383 452769715 644635356 458618240 669210486 420156294 333898518 337128134 374615346 817689010 196364069 35290528 957186519 906699608 725397053 995016832 125686859 127286982 324882014 385999219 90254505 382140610 716778468 196013063 704975185 825243679 984222778 287365191 974839073 893726490 473150561 114517249 166793874 138454214 864999744 371022388 415251627 602508555 889735477 934620902 830643970 270270451 207047550 279924327 246270122 471734577 296604949 325465866 738578937 928463360 208250701 665627341 511293231 792532493 786732021 868121779 727549781 90506732 672577847 545590664 380048058 61064075 557738960 539020370 581698147 527019681 478755702 1170512 410776615 239527305 690130241 857041136 232386936 893668118 242093255 499444356 33474884 125933964 238499895 533451493 504390937 136682807 397417567 142173872 388707307 164383924 171713133 306932833 289589785 254083167 198768087 327389178 313908057 153238460 26349964 898514140 374137908 405796248 999527720 606750095 449991193 166395765 913737839 848491347 675592000 764805451 105627117 430505799 166249110 324864651 830775189 4508363 576037051 384440904 235136554 639032119 957006663 783289746 151998060 457173776 81552208 515190540 717923814 82274846 952318698 428590135 474843946 367802951 508174213 47873464 751030064 799681219 305872145 269713004 300923392 783551043 85572849 527444074 776196581 589752879 871770083 430679593 108219757 811189175 973656169 394483278 218769602 465311133 871259619 992959379 91332302 563693698 110793817 946023518 186313196 192270492 676736752 582348460 768733020 72130617 315972335 538695586 177758686 37335167 804294682 107152099 372236250 456306080 551639570 996590104 225032199 713893119 213352523 28589180 295557769 356412672 310620646 956063964 224269646 97962196 258061110 851491238 912334036 158986605 56406536 715563709 944212649 307667048 294216185 206569245 121794768 164959422 782050386 909661571 457937908 933603026 823267974 842514081 335043867 278059923 166617956 103386621 98711875 491732044 544441456 157009979 169297849 87759082 133382925 577925003 873455272 3532243 628120795 957807578 201079323 523793621 217891416 300181004 567926231 127436208 566627016 593696297 708534249 512389093 727467605 205144696 488710332 115535358 183077179 918125297 265641636 353723215 379670617 780249006 697240609 246872879 762105542 426736728 539549060 794723674 234108223 508197466 156188491 576042670 919310607 457892010 619757297 697060891 682867079 685624924 76813670 239565755 597859145 415992051 286768858 78344992 517117562 806554801 34242273 14341480 861295761 879915372 365347769 285583482 760374589 596606181 4152688 656716173 183773488 823910712 10139735 444181941 181828476 914561413 477019443 417991844 819664816 178963985 335704773 804389973 787021748 550258741 298371887 982246124 8476013 194016685 252284052 928427219 678322055 452347179 515841339 884339848 597510831 249375890 615686628 382869345 813225895 464828364 555181851 882878954 852328221 506525679 587396397 578110902 638545511 37575827 620055736 153597655 452317875 351812589 237832463 526831228 122730582 657816214 692334864 252703215 539629050 460469967 677003718 582682332 704399418 819269089 82262010 368448341 50241904 737785241 288050394 525028598 54180489 480001423 637796622 154238675 409238502 98286504 790228473 556056404 638398969 746827626 457231734 376881621 556149430 419496154 562699340 667473622 825791599 414245477 841546104 810795406 279698138 891679234 707318645 777036223 618226776 345331529 87424312 466174410 928456793 290150904 378585046 451514965 114120222 363285213 593694044 654119525 854063104 133062281 400317094 333233460 488360746 984234228 71119021 304591295 881477881 552522836 901662399 467331987 874463828 409853854 301387851 243365498 171351105 971815903 945853226 633315290 327483815 729357458 342573611 274325182 816082040 222526557 986628735 593853903 355183376 584679688 747751713 512376977 718766851 895625468 318683035 643839850 110752280 827785858 343568326 857016730 907770109 44752506 833512413 832072269 826383150 440890339 24187927 462032588 960643562 150894535 564907387 417756039 928023282 445587463 176005983 319492682 132780751 634804933 591277143 249837077 149857903 165209907 837269318 988761551 94612660 639652355 792203520 945184907 441892065 403615513 228277900 830693343 380506996 556032952 797239811 931925726 71182189 76117737 203783762 791578026 840495345 432961676 995064191 437154715 75071650 20062432 325441039 853065256 74051317 270442420 85359459 77746221 733211542 789226669 358631310 673313193 228566757 284534800 970545996 78248967 300689396 658412765 209405151 637557288 157038090 357646127 43540437 860103815 607664019 64514283 298344497 323633744 603847112 504299640 807760154 94843607 319039340 774794643 202510138 94801862 233604842 175466476 237455497 963232393 77555604 894007685 729041969 928145426 162309658 617944758 104533932 907000319 16655495 327826222 76612598 88265058 206617527 24780732 719159587 566148290 106713405 535067622 918359948 617299009 554062394 943488319 293225462 556720737 198845882 927023953 560328814 633321455 836816585 27694925 144491128 926548341 809906000 106559560 501515275 93761959 270276453 569219195 480536101 803747579 839258731 668945509 972968671 86665369 57056276 355198667 868113228 996860635 573318936 15404906 586631170 459912274 594113673 60288016 435107178 235849678 336468664 758381407 680883906 189816470 485394190 930800862 997904728 11274877 68225960 145811427 824392770 904734212 639213755 811833884 533631536 262057256 605892399 785926782 151367812 682499507 862214288 567695704 495553408 64040164 956036808 554290726 462294300 752617839 995180665 861297447 211036990 757082409 713717879 804532900 503682417 416114389 412587624 597739086 204874428 32499411 566183973 694790650 835193688 53439848 845682177 229504230 886601420 943759259 57124281 537507238 207927763 424881233 36716971 141574047 168950489 390931986 730693355 79091710 386989539 553738442 758072604 14044149 597856995 510698937 920648512 125604780 961242328 243644341 184288585 76510198 34669071 788918044 845270981 987951939 931678726 298703296 649719216 624950824 324434176 747469374 209408097 5542987 184499060 731824265 172440987 214152195 256680078 892118020 816753190 389252895 569499097 688621116 324656968 314978211 574612733 312975679 728236737 912479342 150102191 609448516 655503437 872449949 837269149 557997357 794373326 764130289 903904371 731188069 633070583 281161384 29487954 43065098 48019471 647044539 224375672 861394898 649960314 768537141 199982748 319714606 502087392 268761639 621010069 321257713 294233090 698485276 533505188 788777740 108334072 449006802 301646399 857419604 40149834 561430782 493644588 583575672 270419045 416160774 795063163 225832126 41901454 173231522 232007669 789843069 666269729 319150431 566167464 674808912 552571367 60876014 419344285 425548938 882082684 979139461 37659755 795280929 427574390 226223466 233218474 294611293 864547157 639761206 408399822 867018671 369868121 298429662 25432441 145377999 737374306 31662850 345026495 238485273 364510398 949683129 233334854 690394345 635527187 806848548 511525249 134284726 443731422 173700575 300378204 59245557 773117967 439116263 473314423 875438812 531728558 17249506 542831407 217868268 507660868 936796366 74294684 168929091 94667741 410538655 76989134 681233059 364402879 629832177 218789599 128984795 709363172 749354355 197061298 307638176 225366531 820375868 604551583 229402414 415858621 349959317 760116655 103078943 926350707 555251190 547002677 694234381 455520952 273644902 289814355 682990461 292670084 998282942 485928188 919811819 819966378 595776842 570297234 707778560 163312358 806058696 728176357 250122279 658610349 798912937 5111332 413439882 251659031 746407175 799559755 518745481 657804326 354425259 259289484 927061162 215478348 271840484 371475016 103597752 168705078 245234223 983294486 20301741 870758514 180337625 386970753 281414992 289212041 780956453 732948637 194644822 861873884 204305550 414734976 391747861 505173511 557773233 711938215 604640940 789014047 780305677 250240317 35015713 527353479 636149646 3415267 70477650 256547955 947683689 907367611 253764012 477931980 601053650 864433669 195719461 61666675 452555719 531502149 435184749 952011663 408150708 738268328 422455634 860050380 948296098 749611812 993009346 632303617 743294623 352418190 642071604 704225927 840092769 856214843 259571449 538861938 508114739 108626019 295156393 967746068 638498818 520006896 854252246 270283429 367006688 427026006 307770635 956952327 837265920 199561472 963999854 171611785 607190684 525862984 745702463 716270031 102261884 47144974 977120765 332418934 768624238 487326666 99177171 438753353 415978209 772944006 829935823 823494986 335557299 842495286 486110847 85235335 222890511 451099221 669610091 73151484 793910894 944628000 86261824 590363965 827675530 246171868 762572358 817918610 994947157 219604403 399912847 57437875 61246162 581602219 49184759 587305977 211761168 108693189 435766042 436683436 349229489 742557554 639943737 574169016 824320900 467319366 712793653 24000922 149357695 976664277 719959667 410954651 440812757 771443887 585857266 239563326 990991252 541929177 279437459 590051711 192051654 906432071 606331396 594144416 5572760 370765719 334066442 995466634 1636145 351050705 198357648 709155923 969042469 287005558 52236831 808952648 57131149 780973115 287321439 331209650 258283025 113642855 436963220 611018054 275700863 826540237 673419318 355918550 388678667 487162211 702795717 284923646 112661631 601144603 720710869 918648390 230963889 754507936 936621606 880847577 24792791 595249405 311157399 600639281 804326036 829016305 439476054 634041878 128480678 902705085 178947260 993079551 117985354 201787556 459417725 734525590 542247167 933675308 478776981 324026202 325863968 852191088 268571723 401102293 556725470 51662862 939853477 974230737 63228506 497199731 185079341 886607119 338795060 18019531 512412140 755189311 144861165 358991829 473899504 580232390 622444388 976672974 510337538 959239262 297753094 69259153 166066316 645265441 778435382 819539480 63152966 813968415 207947958 761741501 711503581 856315960 445996104 671334307 845803810 231882482 168892521 133037571 204227330 144796462 298113254 817676060 602806262 126329798 732848640 846712667 295303496 102832092 45812527 587955273 44358885 146333571 346567723 57410180 944072408 299433220 304996533 808326464 73901850 812606541 632676126 307625560 865749368 660758862 863969112 694520708 433680858 872793836 23043343 249510633 739795678 835809753 99936044 792612644 177466523 499779715 168283853 463698010 994844569 421518702 986269993 753124305 644072375 946711173 992714251 211707186 327819935 689449227 771727223 124136830 284560280 823158824 767297356 964744485 805976890 361296111 247784606 14378938 678021988 842639045 962870345 420100967 874320961 491319820 592303441 199317936 657836717 11158829 317895270 715462468 674992710 366761607 251400365 658580449 489588826 619577541 928601258 146702229 964009500 653911172 201627314 936267554 493104200 573489944 462647054 933153375 334375038 543441584 557934595 668374572 233520659 571796178 650341172 474410799 62812897 345641250 200881103 504277363 761954349 986135265 801583181 57242170 391000829 452412480 582073656 99111849 183010303 95266528 359049180 352539540 455915317 383105254 495526663 842969268 127412853 617403948 940598225 665128547 961283717 1404343 557801989 292992444 560814420 537219062 506577115 663325803 368757528 626545245 59836257 582878384 239416223 167885705 726117411 848653430 202302575 510971634 154535389 466244179 208499798 98941866 878667303 133763584 380591446 826137726 333428270 188620904 516028440 260389435 768847083 324350790 227015737 70840267 35933211 280324109 137595999 558653162 993503269 686909891 596412028 342725679 316776572 900138966 490411405 560009900 309875790 240900113 134164369 566410320 54202517 28907775 899296295 846473062 72066058 67741671 66060270 941741303 850205388 118638909 846650296 132851251 78337361 220539179 894454177 642346003 709367194 945600982 477092438 600446285 878909123 287795930 335344648 544916607 349734287 181307282 881360540 606485460 159977329 527379403 195577688 242117945 747141181 267703999 220589877 969257119 501756635 694367801 116045065 884825587 494647779 502389361 331504782 383552633 574182642 559754306 864545094 908559199 260672525 535273733 681846555 237513600 117337160 989682125 941190254 5976131 499305138 689212097 30063625 637093296 88307303 399377673 327061775 238180240 845258882 490918571 192989518 551761949 831544967 861372931 559340703 261974354 411059377 257110611 77471454 288238609 601696763 743016941 683271086 543649253 596198628 820013647 690528929 554166554 235408919 778111850 186940030 988975826 623886509 164082680 185313496 775344464 388143916 586074200 163429573 58946972 263454608 453292689 745260 207983004 326081584 10631487 836458930 315286301 367905215 407836950 233782299 575961360 305066264 797254598 439656907 16982635 600645574 942611331 586937605 49072927 575160292 106112119 56021151 480364513 596223173 517309469 417689037 224246347 267551783 327961635 293586185 141415629 397107949 968309342 563472924 865747078 63742991 330170777 268440 100864596 84452496 610177644 953054371 155598421 492116414 929310055 25361180 605575243 552030231 45219269 675172462 939212855 981413717 80339101 353310790 242776961 263690062 190988239 650323981 622811801 712493599 78010610 188515795 251589852 720623331 868032601 142959308 982604945 960349995 517932149 434672133 810180469 533797212 890083080 749959800 393442145 799996227 125248798 508999183 459052627 557871903 719121325 431944634 600560499 704558907 40492853 172158431 158566930 873089437 311014103 562587595 130391174 589690472 809474261 548524536 260896391 333364586 686289050 780797733 596972499 510968066 951225453 598685419 262718800 460990025 978341602 996633804 508655141 905780359 174753727 870606758 425523642 210672838 996769044 90678244 252061325 241323632 852820307 507444272 686453945 621603925 64930325 532852934 61220110 156547381 254865980 166704980 827679125 323156600 243468571 660109146 962110819 785048394 694974027 63732237 884955511 611253903 576704752 484368444 950181666 187443378 858535421 759226593 205175188 800174844 614553746 522591048 592441438 774535266 526492585 156852360 204725273 94592718 798547810 949168420 137299594 563290466 860839409 427822130 508097603 858654647 390237986 59946312 150360003 929541813 660675223 988081264 673086670 826630791 630375790 585083898 227030895 671384532 397379818 401714905 711514399 299003371 52475701 625064095 353207878 239804640 962424011 416055846 578533085 792200707 342771281 201319397 161521544 594794398 512401353 519463632 12919290 757646948 525821220 307722600 490472019 780683470 623975922 470545145 44065888 724407467 862864541 549797330 374630799 482746821 764343221 437510831 481184153 400337401 820008398 873617568 410570672 52386103 229446303 837243153 586002335 464978606 378428163 149818818 935963547 794601096 943603884 974311560 467212377 375732598 632812913 602086584 724436439 677683598 886581817 752852761 225301843 983364895 360203110 78753400 625051585 850209851 555917567 379708070 400464229 945209025 366164778 473272555 535299022 183689876 924582696 762349595 656491734 219718202 748622736 346012187 183417583 924242705 284412837 418182157 758417238 459770315 509824437 79834366 317089678 982237781 955847988 308272070 604427478 857007172 920698964 765028737 69097657 460716277 314102653 424865057 172803215 186682093 25100682 703368311 311488426 840727964 347787749 160553779 116068972 576722233 380725239 107500992 655880200 211668904 295433286 749067923 150701669 201398565 849543088 849852939 875098741 480069779 478751382 916219192 433139631 784055422 572456804 899670517 584676720 18140748 477042672 153261237 794579472 539504686 471466112 702722608 233052371 950512732 486831419 685409894 965040433 749797067 230919504 692473520 665740496 475754956 353865895 979233254 686755951 647699000 171363549 193498233 47035934 647132166 45462135 559374529 161619361 736363803 457474569 133484106 764856580 37490244 893835335 800631346 835306621 828899949 691910898 620502052 465984737 347850072 17509721 248250869 300423083 413306053 556370991 179021765 866180447 416051616 988519141 594814802 492094830 304468851 153831505 571260534 582692613 536545446 767783280 558919594 827378923 245456994 764832421 923694487 86680914 743629464 572751427 37794198 824041774 141378807 204559717 770906584 155225296 600118256 82758301 810228905 775568470 289402791 982030474 812840465 105011484 287718888 412259198 681978609 702099988 166174814 799658685 125118853 261112099 11591262 284342729 444638724 926575395 34200968 432252647 638171389 825912955 621481850 74077834 823998802 59498710 227261347 667805143 170231879 624557510 557536610 866483370 201761596 447736615 119850721 100219375 963094100 880642257 455510777 704144639 536992901 297083014 579689676 480143130 170171674 497173839 565229409 914541746 809332481 876870920 73362915 341465917 938344071 676990186 458983921 636951493 924975586 332426948 997469794 186360125 487495266 328038854 205744480 392016566 543005295 585604275 735728570 609739259 809588382 254140285 819443863 723493389 619134069 574512060 216804207 989717088 985093472 538481472 482492718 647424390 926202551 744431467 26643535 255722265 868140801 610508532 379277640 447640730 320460567 138219559 351996751 257752286 456495504 901758683 31925830 995469074 217352835 81846155 22317747 382548481 426375935 458446047 776332015 712927507 351571291 783462353 85136268 30457836 549423579 216033615 255153197 466586264 389140206 218046622 796399163 76480805 559193347 301948244 452684795 110146686 506469127 586482699 253895185 563894869 603332851 122416511 677087160 499425224 527832668 351087990 917285681 325359388 52956164 238160665 451007837 244485493 744320941 651944735 755525217 600405455 767362523 747954942 965039444 883350598 585900993 785239609 124403535 497604949 384856017 763315227 704615596 100244098 292944108 537396678 988217663 53593022 402846177 78138233 798330503 738179270 515009888 335198490 210276033 784321128 434095979 315893434 581917871 484840117 880536432 945670042 342436166 698211885 454396792 759350791 701107810 727883967 414946739 873597457 814468175 740773363 373490332 626158350 824700189 586993573 176686131 649815368 13071923 203985147 62882195 795679367 421773483 611204533 914753934 70465260 567304568 401768182 896197744 435789405 830558143 465485960 18199946 86459366 670002585 867313073 278075328 265976633 340190061 273075000 211700934 249814241 809448669 987492196 713137865 638828863 506613419 400089501 565128622 196166220 141548247 205685770 588736462 649274522 367033687 852849220 28766222 753584016 867569132 92673216 957129703 655136629 418658206 419927300 645625220 55524444 340688055 399931470 181209891 683715108 837879595 785227116 214751018 622706714 265797528 448999463 956348055 619909378 183334533 472881871 456524168 279889704 205120241 738577353 675016861 173202104 766623464 440633156 519680347 298162564 309729467 784247704 669288534 848145037 814420041 669150113 906910437 630733977 934590500 725854854 294094960 396977200 323795326 455449960 905552289 798279126 213280603 723188621 797950211 313317116 932175748 392320672 252737660 64992277 906571718 738460469 584305156 185677666 266033813 253438062 900679848 331387461 597614012 358688567 672576138 76785318 968472647 821234931 429227956 522871845 229692185 714004142 396105241 329668145 824092104 943554923 434223315 957631934 594406416 883614241 229566841 2264677 322359816 180139877 468284107 36913565 144032937 386709059 194728672 58323432 90996097 150285132 452922449 950782363 836637146 10980615 197010382 920635935 776096770 516372788 693312215 445086389 497559657 597157198 33124316 551293899 181681956 790987815 223951206 424241851 792109786 375538181 462651859 895447490 855582973 542214357 499553811 154554588 457273828 935802669 311702110 208156831 257332813 530410670 966639964 794311463 929794228 773251690 970035073 57550703 396827510 92957143 928913671 666542205 115212735 114714353 466399153 527119613 532869118 411804402 415484572 358788477 355996650 860614484 436402564 719312262 992447947 17722133 603401097 640777871 307300200 420501425 434109816 97151771 762302248 665313080 155217503 576536623 590430613 971703772 379623504 690592885 188881376 823258595 490884821 270039901 842400274 560112388 204422339 331047210 873461154 568923356 970011330 386813634 755367690 514966645 708810452 783144951 405580216 724783212 186510717 569135604 40515475 93474938 444318914 207844053 801364347 947427657 536116179 351133098 521058091 640679439 641391756 278468720 658627883 191614682 282651443 378361353 983865272 877533769 659723247 563134333 539077660 265422316 855989024 290757070 401687635 485103449 207337427 810189817 112806293 764694918 693898897 904907515 628152409 142528920 941270534 382187815 564531679 910336060 309834594 604569089 840782385 640403644 199798369 52634317 558415803 957428971 754203551 379613414 576527355 742337442 39078482 704488646 652778270 879974741 966917537 19668573 714886072 793766979 776160743 834043770 675591557 681562120 734609587 146349764 286090448 497641963 729295425 397806910 831918885 651120377 640407089 869718236 515412576 206730754 147736336 176436909 120628034 221218964 311862948 732876340 250475443 582612478 196837347 519164404 347218787 633395614 101228372 935777946 963265912 270109606 68764486 231037039 317525350 11175823 357124680 52104725 530221084 150161140 587362579 118149584 271031064 723441928 486889294 259018249 348927602 461174312 536881072 547853965 501925686 828293862 705284610 133427955 303843722 24571201 662766634 393045825 558224688 573842429 724405312 623427470 419196978 845085836 770686295 69631783 330687896 158783308 222697390 612209553 249420039 898493032 916000636 693354536 850180471 313649964 547916268 724937965 80667514 882804985 539186350 485571731 353386754 273954133 182291448 652602405 472512063 145296485 359487828 326033463 272415826 216274644 386695265 215014896 74586656 140232129 371318909 532912744 399530662 358057 261650995 676936533 882675552 385077960 502667328 385016464 199844119 8763593 203445894 299912540 614102170 55861180 278863810 533289991 807368341 737100551 859603520 53133570 457355766 58277475 165096487 104451628 636650447 829240343 358990696 97977078 454296623 404888623 45520096 843079206 562097374 265068048 59659572 372790118 447014790 179507240 156326365 346405161 74575354 253362702 100367269 77519795 745555428 541708288 964024324 312913821 304529396 688842849 246887814 646749383 149217323 468901793 388571304 461600113 995716645 33594274 335677317 350420409 402588670 635764319 490939819 278842549 943170611 53255581 987163188 783630221 194357720 189741512 544463223 367870768 644903651 16252942 89046480 622225937 827417117 378040568 372565699 642291992 743390081 321259553 986845769 192352631 421103622 355411240 654974748 641519070 865330039 726428237 962939977 651180932 670519466 430159197 558519132 188462382 670869047 598390229 74302314 498742169 285256094 701874930 391427929 913665286 272637372 598557795 417919914 414432086 281574349 186885327 552670492 169211376 683684146 624505463 867121632 457594420 602524694 234261141 628295466 696760670 245837662 664087095 382238260 364768933 699996121 217550194 97039329 821808775 497844130 822950165 353222877 1334155 296123002 909893058 327143753 988547126 389356024 161704173 807119950 33669009 67092383 930064364 380081895 213237745 305777610 232458850 538497693 88995026 242812470 490545804 471326243 82794336 91246559 59869522 478985308 758040461 203940195 632266071 600537642 591555391 809428513 636650459 460897213 723963898 253913744 104106368 635508130 943730236 357844006 744711174 27974282 863376692 414605208 627808191 555484178 703702857 485371236 631197999 884348002 42089247 237907114 715668886 423747357 596128415 616280207 541289582 768453423 65147290 210022896 904412799 592758794 822645726 861768483 162271363 498679974 806932696 347869837 253795169 477863640 614750592 104289699 416771817 526457843 939287766 515560041 840130650 60521934 582438728 390660317 92078282 545056955 888564624 644804883 936855709 494663666 368495445 701178455 93429331 350584510 806722531 283554001 200009946 354133981 884196741 554546246 301885842 97440975 773565742 731487602 787420610 461968726 238267756 364056646 20582826 950898075 107475436 189490378 64847109 506290949 913219970 839929868 732168455 796165606 108151368 875753177 848729928 669976642 712297199 668931440 486317807 815621703 856580333 661993435 146778038 462729970 571061187 651261255 634329244 54583159 438050210 216823661 549550422 867650214 547548512 326511317 268112027 214212490 984274879 690073912 926038371 505036932 37053180 84519730 325897950 465692318 40349960 639156383 612636565 136546502 222420313 832501963 267988727 914695691 727499586 227011470 947627735 352523951 959446823 414918895 120253304 443866669 458955686 79054313 152502796 604127673 401632787 556209745 366810832 20026381 147486818 929353498 41002480 616197408 719366392 694993286 840554379 234720826 562260751 353212401 389295933 777459624 413980952 230342157 334906406 839953396 931117351 252539953 986674935 832308015 848896844 119123568 379768545 868623267 882039310 550193557 506946069 130087312 224747232 313670190 694150471 330385014 535030647 138232008 903925890 486087913 535841592 494470543 150343336 278865342 717125987 57578200 746132062 731806853 321110640 126887504 323207512 28934394 777856330 860082656 844419009 984069179 970484397 324114108 566727157 731335195 746952145 801105186 216854888 867081602 879581347 432844419 29086423 146560819 222888303 512628994 179241583 263938341 860970157 574405621 456514415 575986662 611847623 831792762 516839004 701606911 509148969 995382083 742052232 627615452 996026930 672964463 101160369 948198133 514691537 150542513 305789394 725969744 345877808 317672699 932742293 327590607 858352196 530016768 454611580 708270038 759230078 490701050 118252826 266389933 293266366 695406559 549577861 848812138 578505191 206945431 677117865 641947303 4848896 111076737 766500876 262233518 103880660 986955538 753487596 731234293 264587662 773593713 933904161 83554577 582959335 313998991 296044320 48177754 612959402 388657412 878231037 397737243 403128532 943488032 397866727 831559433 958502655 957106359 586115517 693311568 787870404 644213214 138244435 821122547 391651406 406120248 982592729 135681147 492624997 367689167 151947364 221046633 102780841 174250057 973875430 457214784 380762553 515041907 186164279 940412729 124364794 698488771 511320813 648632253 529140118 550683361 962697838 497010704 569116764 842190863 452163926 642849787 621007925 741659369 151776940 925038860 685400916 691693874 922981808 648038360 812450443 983066799 665212222 384903606 910598504 825165389 209668138 567820878 566203813 159865057 731481802 374165874 287261915 663139751 480297474 685792594 290906504 465298687 797965120 800655684 99184029 296820118 496140480 601388871 83395609 234738765 450919784 155980872 339904979 856493367 937545972 833445740 319058669 222518334 728884551 3461157 727621584 394281661 463044010 733596697 724889934 282555300 838686992 659730210 383949088 871080809 524822202 160435346 431596118 566041445 441304794 19586579 233839181 478978447 620392180 840008347 2557131 863144122 402149011 309911637 216498830 471818532 433487020 537773568 549156134 815288644 95299750 145251401 325721677 965942010 900216146 78752750 58208395 506157622 298778440 16059201 714873280 321215835 334772199 907223336 239352636 616443725 925969709 587790333 887909100 986551321 720314708 659125131 518371907 936904549 420360628 750908689 747809548 176783085 204066301 542835992 770964971 715946371 381927820 86899402 312707092 318699933 952187331 149061532 543373380 836487485 169411814 449036216 674600735 523528630 695674448 459805553 988264751 139057458 541257037 516617148 776176173 794298505 930226317 751889192 534366636 3797489 292107559 564764240 674758033 10606718 168198130 735180561 309399764 338176498 610149070 494170045 563795017 82988169 130827689 624815489 465820400 244899237 700869336 556071446 207869634 544419719 595376414 857181488 992119666 541955552 862442232 695009938 248395399 335352615 177898122 491049845 899679972 7089488 911393353 127262944 102164562 304595476 717512654 2801767 501022295 814290437 675774752 875757943 632644732 851747378 639201711 898731669 277843143 506210533 943083509 466587728 188559290 987772995 262915317 332657625 648279088 917800816 920754988 819602478 263359640 110873345 313801715 174887096 202793395 975685983 9573946 693501242 850824662 774017921 884475395 505150098 469002621 990049483 412819612 124437411 174216754 760710916 43638817 233713532 165227523 265868428 922070024 158265819 587187510 144331741 369504322 455582610 59571741 6876114 119551161 246095757 703475974 709153090 284415076 63939429 375229041 492513629 704438006 39014861 38378680 398608149 379623659 788686329 718062511 898642415 827122219 38707277 327541631 922053469 610639574 911525200 384257809 907280948 275745188 146767000 618983288 554660912 747940167 757640027 445721711 607558429 399223604 137757507 632832461 958611954 227110478 946600021 44150877 939720737 711347402 929821274 988040856 828112623 898148361 409560320 880818812 220898158 814950757 266033336 809644568 206837057 291971436 400014484 581118583 822742885 509222089 111505703 750052720 745154387 282398187 814059296 701458187 651527090 595946408 936586971 627479884 311911959 851533207 833528742 530190473 423089459 296402208 43030787 608418655 39765698 778940818 272224186 396848946 782453626 753794585 536849302 540636542 441874949 205792998 613652854 649326724 630007676 716530488 208676116 125268032 987382208 787055369 587535944 264366147 730990897 466671608 790822746 574550568 764004072 939950295 172116812 52068808 55320498 174986644 668993660 60207829 904685573 835996694 623810187 781200757 447364233 618410756 561700073 629323592 491953136 597061717 279832906 209384269 718267133 815819117 737323317 158765130 560313474 989542118 295903545 52004680 346219507 177287253 742479118 280614991 527683147 865559595 71721627 619903448 554858629 230879731 907510877 442445964 512073044 787420149 228424896 432686064 163477214 266208070 59965186 292491971 410068855 198385282 372253993 62080573 31307652 247061499 109855661 807182216 186926858 24579489 155115732 631127122 980225316 950693963 68187618 353288310 302207550 273746504 4212084 379225157 550177058 197433148 600358180 121931365 815574975 540719619 518402545 483701870 904494338 504519585 781401750 642243346 708817779 362168584 48088608 871474150 937147655 292023714 771181785 121397899 136271534 253187195 769625964 491132851 733708178 354174498 34840804 22757652 708717556 49814767 650734007 214772846 469353578 134804690 838320551 822398792 522914301 670636524 215807433 608308430 27229466 438431286 633662847 476347376 623193701 632291584 320250658 455926884 700508543 405951937 956310705 160203630 884873292 962653157 108751132 656548556 776557836 331929585 806265980 889980946 630222416 237691394 217273605 657670696 413952320 900225081 576492362 801418522 710533072 360030097 725437255 156582395 504341795 781635530 501467251 984368122 514726626 589100728 641046798 61632965 319530736 181604933 408221584 798792544 453118772 533295803 426788555 253170245 398576372 321879044 171253313 844158890 80208399 978142541 215169325 717150751 966220883 186493017 514315099 801097461 347462588 129289315 384186249 759713963 536234697 917322777 27156011 54721082 812383405 825612230 180848505 902202941 316945965 213297998 300779091 581745678 75853935 800978318 695063522 92272144 240751511 440043370 793056879 48918909 321158392 545339327 498994222 336196105 160103109 843860376 125997329 132793800 704348287 765853172 856623050 841224281 618402111 28571360 270715042 709802792 39648656 675480676 238021290 178623103 948076516 910370500 584113850 633943689 926458648 447605998 12979898 402483057 753346243 836447966 790437609 772691639 768040784 499493693 371464869 798693385 999845494 380079025 807655237 473146830 877358551 603842257 704398522 755803520 270364183 325502088 802712067 386913799 398043367 224700881 452544198 239229007 227599777 851733329 406706076 577048318 617582134 755167204 244709457 856375202 7242542 560349866 538029018 170692087 990950409 676463635 467008 876798444 126828246 919135321 987305313 855913760 363265192 643005781 422414728 887527982 759964295 43253357 279973267 994980588 794104901 553232402 440394655 656482689 426427758 804947606 145480519 311677918 611228586 725681140 44906590 705264322 952291165 966680690 58183276 44496945 649842681 109347322 39761054 858843 939209073 28550383 697510935 559554683 693776216 170690753 817061124 239268524 166877765 987713512 209250735 42982207 504992859 143066512 467020571 939068248 303181781 738400542 753542671 821396807 157265381 141503417 966097219 233447683 413222480 391202641 348971418 189857752 730089929 154074943 550938473 842889288 503670769 146624856 299183820 121943244 881917936 686082467 508649068 493681499 543242792 54109224 193329943 807554760 953301175 236982714 554499036 647088719 127847896 158274959 155605403 909046784 274325283 169238455 468477780 198920033 130424567 435135789 937188771 10841986 628638927 883503903 577990460 173794320 487264532 902066915 990276633 622453253 606384244 112534746 665403726 422011506 136001291 655874790 689450014 898863644 293753148 64395334 30109227 889680392 855739778 149083932 735927869 56918235 571823809 899915716 321229393 481160757 764640255 173271221 262472901 271286112 559016789 998975649 55289669 423885729 649604231 68554050 118822094 299669614 827998048 733590169 215564498 462955831 61254749 819714816 477075373 581724435 54150723 508424051 257625957 288480173 387286227 167354479 795833409 392693591 639503299 639566772 280072530 265986335 637203669 268655482 661711664 84236127 341329164 887741318 348706679 203750089 864781648 335943572 765205145 588468713 522990664 463833542 332262902 659664634 989318400 445680463 513486294 287916775 766477430 137768288 263560625 933886462 630342081 843241667 210984822 62866162 94696036 301236158 599840052 904379224 661421254 520713307 482384176 342585508 253754525 116629188 967528251 302338361 549104878 547341607 120867042 13583056 873537423 333358148 428246694 472057 492820217 170385291 418977376 86890951 854920506 169525751 460928308 574221464 486300686 542213457 423255477 357913440 690858697 5421375 563767119 121366244 297660187 828692161 409713081 398681244 588862298 589987061 587426936 182093743 453763604 946496561 850288332 21176812 100439360 976824879 342655867 410661485 467898034 622273657 525632986 991055278 492121270 178352890 241606560 991900919 707243950 439002118 51345734 604202715 93213576 826616892 185122339 540147542 344436068 66222237 484023709 786455764 2852666 48454308 373758973 37303853 724343232 411611110 467645367 698642943 360824717 196020037 163455736 806115397 223749620 25166088 219354245 35383054 269883661 394060578 442557163 160299246 742344006 570332171 67307630 382973407 327482634 816339818 498456589 54904766 676767525 690866276 730831726 908298584 444201722 982687624 82624848 862462244 149535491 520223543 224806379 334724750 53416865 106730206 409117753 564193973 69683107 542031766 773604304 5168920 442437321 977743130 777633783 970699804 655531987 433926992 685728207 794277905 108412571 171614396 267451557 629642219 26529452 850193717 716442129 865296662 792494240 145198009 532240125 317374854 969773132 605267485 360957334 799446068 55400325 152485153 901169359 185868317 703625818 915910706 550437584 413612011 772976171 494030133 390936475 679553688 663085244 600625054 837733183 380489140 454113057 636930434 52170431 106616877 512292304 862021035 406773913 362737698 215149504 811713489 666876618 691202801 868735092 877231464 529980283 542894128 285373047 451535775 409645400 233991023 384514296 384941069 38608656 130601026 918360096 483422983 218137987 986166210 116843988 360344371 124067576 966506878 937811654 40311960 360897630 670828645 547963717 34901062 635387197 386200211 868651084 811766276 867189446 888369526 300401251 794200687 627338489 617417951 694356647 825581350 423065268 870125196 14576679 612351447 41151850 680987071 39015692 459966309 237435656 451408444 900729277 286064062 48228504 850472271 113562296 357163361 664839736 973462533 154499275 549009776 682471484 64975551 939615713 112016153 31445935 227088135 480704467 267131775 986162193 536095113 476204992 203312106 223559939 948739101 336351207 99476288 531495973 923187778 614529292 410942799 841909548 514262773 931925059 702182111 12135640 682001878 650281052 816283562 941452546 688515167 91221077 709425621 140797055 257484546 498407281 624404238 227944044 715307697 174596961 651370012 48767406 149954040 297603979 857502779 825359272 435429152 733879435 839038572 558049106 91819148 451988412 358835751 791402842 957552665 303241524 163067700 801647731 613384334 527974831 550690747 72538295 464271358 443364684 684208416 986493718 417686138 436816282 546797054 184505292 50788972 871744792 983900280 612681185 982387826 64074657 373889514 344128315 252967911 678921665 945836592 267792785 187443109 877934684 983669675 572885070 954370090 826671110 859503569 980057355 528803783 823438625 852391144 958595145 794859767 17537203 591640096 801096038 993128326 856122472 877495920 335495846 240388675 61717078 891654178 364446161 230062627 487847452 362002809 614327156 642307590 545552828 54755577 507392289 112084436 91300243 429744698 136872986 173303275 738438540 638683295 777821648 430585489 235358388 514164961 717347379 892431028 741018439 483871898 664496000 891897193 745393146 113096018 946191139 972021666 152562078 68357359 713332040 814460502 857754085 627319603 231536163 183911433 171094216 705358421 290874941 274945644 143939559 598669188 866809915 497781854 614173559 345772077 788034339 501852242 495026338 65753718 827994792 841368137 90202484 641864731 426817371 825338498 901505873 701001159 773210231 76685190 470369733 493966018 565789993 450426055 105866328 931992412 917615080 832657699 581067464 264417732 966421902 41705862 59557998 580575045 589301566 785365200 665825209 138348282 765460868 322549398 434049395 787451550 964846032 436898051 349365757 511938800 880845811 306815402 995304887 115673984 720734381 107864602 45031011 829743987 97447699 463055682 362152869 144574783 575056641 572131736 871279172 865832490 175928515 822735569 760772865 459376900 959630062 104670418 334010548 382472069 869855265 734567656 619324887 744728110 411576155 387913621 673719686 96296940 206413953 187839898 257487804 648403425 975755358 260187493 160281361 578031381 105220865 835630588 534776882 111951300 867802550 257922176 5046683 602174523 380382444 805886653 271418564 950667752 376031871 881175784 409188295 643980244 838815599 783141342 638671875 747540493 302320601 713346064 18453606 671934514 902540982 859656071 960239023 43123349 674580030 152653801 909958770 904103008 511646222 184547522 857638027 820005811 761389865 347025026 832674071 950870220 191628923 381342559 10666388 328924083 456299617 314219718 331600227 885790285 270213491 300391518 955570728 298334156 624409166 962517044 891241807 985949737 29082742 347184124 851610415 380008791 353681613 815237769 589717242 179410217 268361788 22647817 881394322 13094675 891653691 289307610 294735801 578031403 344811047 717503090 536588832 44031932 859483243 992212847 463750366 477233219 652703840 509117558 109067796 546619468 668579104 346290662 315197513 146937660 802521334 319712963 518418570 940180713 456683581 15701434 504496178 955017868 70136470 600288934 436253834 463910490 296540494 681897178 391706284 596647190 439427783 844908718 752795527 637789980 379517343 404133460 481858579 389323952 143708994 816103010 501030841 244613296 903281921 395356204 193099211 827047887 595631837 566651734 175362451 191123815 416398044 771725194 938779738 989420464 921443525 980548647 17744603 87288087 554473210 878464317 111582836 344382221 965695299 784682780
