7754
48240706 487788470 997011063 879765402 171069554 810608260 177275458 94055733 440012120 446296652 427475252 990981188 966813709 350544753 478438941 20792692 871698785 209870352 268438894 925640787 252050966 789688276 975802387 760534823 513768804 376302346 58178321 49582081 381234557 49343985 359176198 910591569 251759822 133066146 614470652 888317566 270066592 751059563 893341430 186458738 652327308 383984961 993639152 569406929 564743806 866165060 799718957 610765561 222236930 953569018 684544258 96046268 285852548 832835189 353701247 190014661 351934487 253421096 851094212 431712301 60648543 927783921 459927498 907665034 683650617 799258262 765400555 945678822 391630300 734275941 218781228 345395558 673797739 828082559 467432263 186575777 519529286 696579177 564434556 998759199 700135974 676131302 214074915 788298128 63937801 222648856 113931068 9175964 794078628 93671325 815198974 635560202 535155295 320613301 499993468 996573652 53368041 648445986 67270085 557437792 669683393 24303560 874934592 70144855 204234030 340289558 581369967 733392328 384362851 760640530 192598226 1685381 54440540 601805288 642104866 882933440 362532000 150084820 846296927 81036996 282173521 988043828 382678810 53558842 195384220 429252242 539795787 52738812 108035370 943883155 876135085 425603085 379544577 648495829 3351879 670173684 70298708 939363465 774188774 393749155 67480679 184788498 315819687 302583161 56412293 795207057 58377638 695056873 220650333 813301167 839433146 607470938 550315357 290296787 233244169 230901396 838750707 186777481 65973361 91874937 734602689 134882165 71860477 527460080 233544598 668778712 867696346 886934779 920001005 795875146 569224878 241290774 888469971 356721982 293949875 325004908 997607453 227781797 841848183 478560300 18987469 9619939 467338922 254415342 847363590 443610376 851654292 380690879 379320501 313898063 381629340 228069691 323714961 666449454 416721193 131012206 758624530 848622872 105995974 579874446 220974735 481113136 297087136 714222068 480996230 699250312 476874097 395866777 59892136 401536950 135306421 131249244 368494309 611864824 166587542 564430838 881578501 997370678 299597796 875001819 143363556 997284181 750318726 367497685 287065194 659654144 786263604 393760162 200539350 74625946 531061072 546035549 748433656 115069278 483943391 392099348 481192441 173404804 444860636 524355433 286975336 795832746 323098521 593855250 704230911 58792468 84204891 441055294 765498086 378135763 710202764 699388951 460044336 740437524 753943009 704661225 494267203 83325746 889712217 766021098 320040374 637323119 50039474 352103418 348975328 589593592 852786072 247323341 38612236 132757337 263375904 872348416 956208324 143673524 952609508 217616075 349262255 286356222 367982290 371810766 855067968 874440715 368683067 722650811 750604346 232177506 842691740 248270492 758331801 934698757 803620930 654481539 175001397 105385137 524131141 464429851 384100898 696703975 610505213 624873980 186577591 728109924 82942099 521903730 726951558 217630524 624962526 718859957 596144973 689300227 215215427 624903303 201827045 383567581 608565485 130658509 323072314 271652996 192367701 644868805 15595331 408846895 985428463 735235127 716267634 765331462 45174727 218463659 805151952 765759725 285166312 214254736 227162663 397774178 718177618 624103811 799305206 802717003 903255229 4809246 53753691 180434240 631271726 369531086 849121339 380713051 477098581 836107233 880534896 774049283 733967502 25155440 993333738 956759609 633457713 440695674 873539474 606737339 208620249 436943041 916054962 537565838 855567244 722308623 225876600 508270194 610552049 346956970 994503383 678947259 419469322 999574824 684613837 289639697 904111753 260946992 522587105 207350879 699060934 17238672 635671487 530348392 303316699 899504955 258813307 782983978 221656432 225239237 774322538 612268801 992630371 219376947 352980748 786335640 739040828 514748785 430211930 632821436 368145477 865265440 404732728 346536601 151866343 425069664 901129768 830197802 737192474 646621059 420157232 552491475 29275072 876295958 635928731 100532295 746933406 123412211 152850023 588251892 302558934 468253219 696578338 577268694 904540174 43957810 688691844 328287927 237602893 709239788 536476699 511514189 531509310 731338651 583805275 520960889 618434438 163108006 900867423 36695021 912843831 447457316 821539637 52831483 220148860 449773894 419692048 76050654 586428454 520473570 516813121 799064768 372823446 846877060 649749215 217867885 770725353 600099110 176500619 731721294 205715463 960022117 269159650 527304236 313036704 601703412 970351253 960979921 248854697 967560741 917316025 429672463 129214707 546308339 87799447 424724771 119159711 736782688 426356900 587090018 136269437 648090991 223352597 515009855 579711501 544924942 386821232 238730893 17527574 910142884 476078409 260680269 218694928 366589363 208131690 650035265 885689949 617882013 961558000 761293643 293809156 281417726 514723100 116712912 174451476 91637501 809689344 237587964 507635221 807838540 487011024 32610516 356514632 406448460 146486765 319701196 462007859 305399147 476656734 306552531 224716732 635026918 741791553 427760817 290627608 778739296 212280882 160376028 721987432 492313434 201942483 113621010 689108301 402475350 561588583 829647040 335458673 73678674 368447974 692381839 960808035 850381126 914185151 13251517 466022303 650866336 862460262 529936358 343962555 855511473 693245304 733834773 747118136 925393432 722653769 617697174 937571743 774548708 569443914 942646768 439945947 462732602 435478655 990951124 668084732 250047788 893932669 591014147 718943749 442420391 439022624 689675405 733468979 582903529 770966447 160818796 368706627 358649751 16996595 519417514 933001186 780507408 168469444 923782742 77486842 481776013 599947618 836550802 638871251 79823195 253130977 28738360 32299478 31586344 791445982 227193498 674701837 777056681 131463510 620939300 579251213 302553669 470688302 273142681 5971821 629204300 435521801 848793193 181541579 940319657 583357988 603719451 608149162 309533158 989346798 944637358 654529310 625577998 220751877 628576365 55080287 20403586 213345827 965215189 864322128 415289391 827567181 694099968 807166698 734249274 744600378 730991091 717890135 246527408 113912355 586208122 597286801 602783580 531470271 592191692 528092785 434486015 959013005 609739637 422792505 97660371 635716096 692848621 248817063 565508837 298336048 591438700 248474001 637712296 527361830 376046638 744588887 493140557 189810358 607600936 466989093 911578553 155871300 628802975 504749694 92578491 801624600 218958409 880520815 468329436 752111711 269745934 154141125 254987588 203890395 488018594 643859153 789184845 972430500 64789065 192345487 5339718 773170924 478671670 890274781 426674546 570493808 884498627 484604830 176513112 883499959 428875891 621911992 516728541 448596000 85472337 287953726 162084616 208320410 618186073 727555908 142592722 864194437 484847166 306263911 368185859 613861251 484566769 399121806 599031319 257834871 953557688 848081639 795108656 524237012 820154187 1697592 85119815 755634700 459528515 682309157 262829867 507946873 510742145 341852871 641987277 536838185 534789326 893940457 34234516 421399987 310749432 218765942 175284438 404917333 874147588 369387272 660136060 855110316 331365810 852608913 386894902 841233616 824421329 226515094 848419001 955952638 460978931 605820967 368893246 368057138 417633647 791341974 957047866 255178869 932246714 228461664 842395570 297841586 178732924 31108265 149987603 801545449 418292182 759905690 646227129 434845209 67369922 468736490 918415899 398504685 261330113 420482008 394555551 817834198 267823255 111447015 177120480 684253365 572964263 972398460 22440614 326055839 627315409 765408295 168161350 677211533 992523286 689514441 481527872 609371729 252966508 65785254 406301881 613029252 121340333 909506049 296832249 108901745 303448026 604277855 352995153 716271495 733141014 323835217 850167686 381499672 76506324 3472554 673428168 789604846 763079289 343037863 863864762 883843361 939478507 657515769 634496189 845523828 392941233 822012687 302297848 954191177 840395759 230463498 224662001 432222559 396900579 66243877 955540498 758677220 223809719 272676911 188508085 703988903 715088122 830315967 191530907 432808740 946390523 19167967 198429952 649767903 677222129 619809734 574275516 502930218 990294885 106806546 759049806 273788839 756426677 830636585 296810975 868276098 357086500 740222331 70621947 536450865 157246988 504130778 182360172 795443508 972704192 333847357 45743863 458451423 691309844 468101174 209967509 485526956 42036950 71499127 601923913 999427675 44354037 648849905 305765504 678870756 669998662 941704236 823595665 793477768 192859655 703839854 7635279 321036082 671326635 622814093 764720493 589474846 761424477 367281174 284026525 774866920 219409489 136843437 531507242 449922551 486222197 730026968 501206054 636746818 678260502 922003440 830991714 271778324 838259202 514418659 308067657 242991653 248733669 969087524 526686557 330178846 472246939 573984225 417685486 621220519 96257697 155067152 630783727 276743182 68266323 7716906 964280559 456500500 822517943 871170958 510812483 260300445 921157480 724182590 835045835 867050424 324691122 887561236 116977677 100624863 868052047 983610903 88174365 127340973 310155087 900657791 666502097 445785717 480387664 729495793 336852297 303336586 647207987 946695708 494337234 453408056 806338255 879641346 776828094 143803751 583778951 256150289 607046131 792368719 632505509 82800175 305089103 112864805 95105449 809865384 102596959 553087527 885150545 929747162 6229891 873527276 649634901 499827804 74223562 9410690 162012789 802359520 215987902 442516227 235020527 772183676 102576181 341632208 280252412 463904108 911957806 565730764 383142893 678799800 600021735 880789263 434794325 595081273 208623085 293483258 28753098 7957755 298503421 859389081 182684207 666961974 635252543 934815340 198162446 460971033 935693823 830184472 818297753 532581368 403764464 980972045 154218443 221556429 456944155 16548371 705250513 994506855 303336053 952694616 705243939 299832911 342563981 565324273 471492892 963622853 690610011 849700774 655714610 133932502 529108029 167177831 322065288 792662581 734861582 206809193 634237127 362463142 370759734 699359554 857744506 646924129 905576996 802705557 555151148 32119836 196263920 330443414 45381688 232987194 413117569 994487224 404415860 282970707 151826325 236009708 790960168 712744978 618964385 208327290 800909529 492094856 829656565 234612882 239462679 56918231 471665435 179601873 594105410 604726750 455088803 947782850 986011973 858673129 323143126 112749878 598424150 593061912 787185808 613087241 208197828 959169243 476447414 231171620 946620190 784191081 386892069 158051358 833295655 129875310 865451070 104527193 843675607 179427660 76076262 437713593 59073728 754250324 44827357 8931420 55652903 694397921 453820428 356204069 480991394 266905896 511444498 872491420 901483420 847878442 134413521 588610857 439107784 201787566 873119785 265472192 571969198 316069381 116881304 819764162 630742689 538783520 503884447 967973340 126465776 861104910 585298532 66143655 891389389 872823790 441339128 315905272 939051069 107426065 247877408 870374644 615420106 130002328 766565822 726553529 704815835 880378872 72104393 691114373 348012804 290025706 802478512 731729334 631603683 665128840 934864936 420406769 453108952 707287265 651284674 920721212 322811593 301081120 701787701 576309115 167075007 954971416 364314598 641089655 639868783 751395320 128114268 220051623 159857897 749533240 656121382 31475444 815302979 122313799 2143994 445626061 228886975 56954063 477930661 247801725 225366940 298261432 563489434 69733397 431640942 930813269 554313711 71429805 657041491 432670626 868150489 444752466 480674840 267617162 891115012 311429980 528202881 746810362 143351580 609928309 653643758 559119085 930181481 756314077 280873724 990249339 208683909 152680383 915291303 174207925 289602063 133411923 211214103 818270067 17981937 311198297 172357843 578094394 878605722 308210085 708956082 181974339 872768504 609740533 334271548 204325892 444582378 854782452 221573853 902839206 494320306 484633211 94838420 8104162 251257859 312861050 130323191 457485008 640475873 911036051 860343618 469210318 786932767 5156554 481694958 801650462 845882256 527680097 811267570 588096808 231965400 439725865 269850203 220066195 518432225 919901863 955452049 244263972 584786740 752803213 815298308 241802785 154366019 613124642 843318575 968757174 709460937 47154918 358244996 915943401 8330400 592778148 506326592 662604523 724240149 638209978 550657661 430999158 339029880 758087121 488295260 744522005 276360683 256989364 766381082 230057743 112579116 129577143 870925202 779173285 60960535 316858848 661690345 312567275 148090072 741403678 234785715 526597604 570259602 555027566 133469028 872529021 66025898 518284570 965724521 829534546 665844257 966706148 788961840 630896928 850704599 24042286 82249677 12596600 237675573 930167332 74516594 460916966 267568082 296619838 434096368 929619631 954512076 7365553 642409617 636767467 453838106 162985005 766843674 784167164 176108704 241493685 726800440 569823498 154257890 672994169 366689266 4286002 123674775 205751934 672197821 657427897 209996798 495066509 340624169 902591699 270257970 985247215 300374557 206136139 529876609 862335367 685470310 386475872 938150524 785098345 155713347 475079677 189500324 183519796 434704967 844895743 237858595 182341039 849755281 927414235 617810459 915855041 515763406 435386629 900627843 117353229 217575412 849094581 915319032 601586286 484558745 889183908 586971381 198760257 388232678 627528054 697923627 249230112 893714176 789668251 793514307 990093714 499223015 799350145 49898312 617861880 278177566 787821922 30375302 963339858 621355305 730047721 301862629 463643241 684818156 508163640 683165043 189398517 337788022 951921809 985519970 633238315 285181476 770365679 289234644 581248324 378749252 745842888 564199779 774260202 283001594 552534108 890731178 219885597 380668682 404115975 270917457 703520155 450410302 253853615 679294578 144830390 152840675 81976593 783098014 320485239 92149898 257553589 139188778 488665721 323119372 434907362 74807252 254515700 824224411 493272052 910305079 857469184 83214318 945394578 943417843 642004354 271160626 362115423 249131484 61420333 751523156 951433001 114192976 783506633 671268304 798620593 493299785 829985975 726528169 601146070 185728936 184736604 759973879 56138891 90618086 709366915 539970602 532903911 509597338 26916622 962913775 716837990 419516440 541621948 414125010 439794512 137030034 938347516 621302796 562150401 357541234 923217523 263089788 22513211 740479351 782726744 924998766 911137623 473355523 827218873 372306791 539904586 482237857 933019683 575733252 885027778 43599581 5356000 617528496 247770551 202521435 208808232 423147185 39408784 510575774 255827699 818924149 104303105 452702277 165581007 543038381 109928291 794946556 687669051 994372037 821347879 976978274 708899565 615657680 746821466 44659393 690998215 363983170 174145089 78490575 629316214 61357697 74525677 275850975 304717379 792930601 603234368 109533155 7668734 46314690 699848784 148386590 739029391 656090010 951055550 204249070 795012978 613770626 116334804 697402036 114062389 766727956 16007519 750850644 25927999 655266566 302559057 211521681 404174909 343450599 945788728 894550642 447059134 352715869 888921912 769562896 409161862 493101311 677671212 570972765 888502353 958954545 348102343 445874009 539713153 50700149 818905291 757943216 297772776 340589252 18387213 108557321 590406003 364566312 408137928 824743399 319080056 393040040 91877810 303990765 888825958 308673335 37744036 845642765 647447452 905292959 184635391 121940591 802686277 864771512 849827042 501887028 411787841 89755143 60747194 508230582 157452232 118546982 14893231 348089332 734673271 160448375 909950662 500729942 487318027 576495917 351230311 219257593 793961174 551034030 307944268 564205571 163689880 838116795 596185618 731113348 867285048 12529120 253119115 361743794 913123165 698105588 96436890 177145533 735087465 946532130 938837564 710232515 389304469 951566304 366333783 708134329 171528355 186505542 818807620 586394245 409338047 291541590 928945796 638797804 95315141 242667855 97888195 848618744 77284744 823203025 952724387 159656572 956031210 615618272 64214181 789248419 742888124 13361439 380813441 184634448 18488041 694324445 796703787 582195711 293548552 920028550 792788986 347307276 670558417 138393164 305867996 963851939 158925251 744971968 867248198 130850838 442393060 667102202 125131332 485426066 382288212 992126526 297208410 514160079 320933685 925811377 819593067 98497722 909579226 418369729 518650010 944621904 819382842 306868045 504142836 466385090 541906499 152290265 363070574 569188741 320546278 956453775 447183419 859954688 230706304 114424648 40702891 234662095 859833577 569041775 364599785 592981606 933045332 691521808 514865326 875330403 230688244 759719053 137641667 148198529 794810318 227793206 74879695 500125797 725341778 344016682 100744962 832113378 903085375 740100238 129331082 88014553 35634831 198570374 95608686 974574096 545305268 376244988 802886230 662880598 531161983 778813212 428139959 919708685 53059622 719143811 782792664 862525298 1166813 872146025 405039959 350363806 907804539 417657342 112078703 761195198 181610668 985454423 971912156 35131100 818348260 597729341 688808531 309115291 859784350 168069860 182126345 24596630 973363411 126103920 923240266 158888979 273637653 250536268 667820374 195152924 447486440 818241186 100961180 748808264 502428672 984554992 108158595 927778472 594595901 102534114 478127974 136307541 159279455 184107551 20125944 520962002 675834338 564421604 578485701 420980637 381315706 504305707 480808183 473427025 117347939 524938944 751153377 596614884 530505665 31732060 677371132 596888894 965648360 338227393 563756870 767608532 900979257 678362147 845723085 980530755 241118914 513849950 727295566 46111729 562248932 4436824 48944433 83082227 856538310 513418516 303337512 576118694 911767175 440133902 521023455 248629828 123009631 98070233 788993626 634835170 279973158 868079956 722438074 881481115 461373176 162215985 2553589 740134896 620999487 533069915 490149310 701602200 601203337 354428565 382194009 601431404 165468017 925645652 643495443 957788017 48351767 122023384 463484530 648516146 26305438 91559367 296393820 593633665 523021992 861389102 3189502 666508917 66109084 958025374 246989643 539143882 928234652 911352531 647619434 319309247 35199481 475802618 294321230 56345946 435925396 837149480 612809747 874154191 801918435 558205399 391311120 640499078 43343621 367433628 210370487 863359814 456121827 701862704 5629831 783927121 507096723 236051247 152317048 910337233 611557110 522570847 824249343 349645078 814131837 399406446 675003845 123092629 956536720 121995666 650281852 252100385 200380819 118001558 396351928 373689808 570577245 818744840 873068021 229647342 915603530 407959916 989692365 35669623 975475909 433840930 367335030 411340057 124640810 94540934 437215839 215256917 215940874 269570530 870762213 296415861 708139545 934653341 377014511 129458347 662961878 748950472 481267583 850134658 247095428 573707061 838054224 654668582 14269431 862760080 33812137 286661809 894213180 970705063 614627646 833739823 342338616 106373607 591976732 46746408 316279193 526687568 831214086 802041563 666149391 511676604 849958421 424834764 702428940 706486588 991757748 772207884 619197490 542936206 45114412 7992434 89261054 877688930 968526449 972841195 560353439 47028653 519365433 528528043 229936672 94856476 417160174 934718507 344033595 784174656 309028871 614265039 603199505 368830208 789047418 235880033 41641921 142054239 623630503 163195633 202765224 305734330 342397927 910059924 284956228 786806947 677781005 786140898 749155931 672545639 664912905 485038692 787908263 135396249 820479594 166646245 947063004 253313826 631414025 467930262 369372489 194359149 605303168 833656916 357666487 991033587 976007489 405221559 225006608 672810691 276692973 567769153 861697157 94912176 263547817 674743342 46302884 895889560 311220627 833695134 27613419 335409156 704796036 78492869 694569165 542953263 665463578 575240104 527079088 519110304 414898108 512500621 709989853 322002485 111666101 142340626 862080908 252822100 559858446 458154239 704875440 945786859 993920287 275474182 45505636 988950581 810964905 439079366 249707998 332301874 412661810 550954854 107866051 822232969 412770811 63248270 807062659 999285850 219830840 820297052 81900894 850146517 470831885 315590710 524700437 837069073 949737858 395247766 683603041 439319557 438721320 107006022 34191502 649755291 157878910 485003144 629868870 778214782 693669126 773395036 468612075 194157565 703041858 48628632 780485929 869413527 966570914 779966067 607723942 786410217 104268114 817200767 465514543 9870390 902555028 979541430 927591643 417161645 529289147 476188751 911403877 433212135 563731711 901343006 409364667 323332974 59648815 476359779 493153649 908973879 729896083 155409584 828970971 683642419 928304121 820902704 278608755 601486569 522399986 100020553 197728720 646033527 499866970 717550365 519845034 473051198 285521754 754245978 46292391 635406943 364534037 114602657 942252950 808796077 942211566 317789920 793789488 489006759 933071339 745184324 432681862 762749488 563775349 376622427 805676768 771582391 970825337 268817348 651748750 350737868 893491727 207603119 938738653 999494584 730578684 839806951 194231357 672484359 198968917 294980358 744858662 425415503 224878248 256290442 602108359 210716846 441908418 174924613 461405418 275912601 244832042 794086367 565521071 764875051 870664526 509213722 728345560 812608877 719272718 178076540 489238304 554105138 504851301 646736296 433125644 14264208 483985171 161776512 836740627 327038758 745056804 286445332 607033059 388695664 717708267 309845542 7508382 35392399 233450276 553056286 464678647 690571099 596784703 877199892 172772299 607757237 891681773 356754484 798334470 61709171 402668965 234890169 473154343 60761502 293474063 832492158 777916276 921887704 843200368 344787953 582744187 98579256 798535376 605390055 155643888 883908616 317101821 530979145 902588129 513893861 718295196 48971896 199391504 225005603 965333769 280709095 598963458 299232570 939425389 335571692 373522417 591752783 178743180 930643583 690611536 665928139 530385041 483998092 71248115 128265959 297107290 323566002 703211915 153769602 210715655 799911382 937144182 424077839 410481363 517379764 987508923 622193925 637308175 32894401 821173102 288151770 548407085 344072553 776296065 926708163 142414438 693970414 620515119 718658491 98456258 301830802 278631154 179232540 604472796 368933757 920240356 216400287 970285987 988633342 976869103 473429013 43093999 584188664 396143909 610583549 122738547 587224730 936021324 331487534 212743588 216765710 479206576 109212486 912955555 539403254 669563714 94924936 965842632 922510814 849684746 684477960 615940771 302514369 86600602 783061990 897315862 901143709 241706184 217835633 620137335 26990228 329642799 614218547 26567763 631278629 442159926 600622318 51271939 14995498 238559515 374188024 260249551 302321666 666775673 886839745 347262173 289230416 549632106 598669792 212015481 225531189 214904748 296547849 510264549 940443172 13903416 141035196 861434578 334610782 141179968 205566380 895898574 872988216 832718633 869923793 482760981 707707567 690369900 774337720 789959808 152611106 78559797 950613472 80939550 2064899 741685665 635717358 831257387 951116140 751022853 363654216 94402149 798572827 858635577 827177824 373289879 71475805 48286517 828492491 812556153 976083735 578211256 18230688 617332459 527151354 853929182 613750584 948686727 727252642 864028561 556943350 583756415 120685515 223254807 158251733 447835782 383415861 194578428 777125631 957875050 503098660 148767567 442000202 511477743 361532898 757954136 342610473 524254788 89838058 891618570 440785108 158444180 580888877 870723541 26579695 88373827 760480245 583721384 43882246 607311767 855103419 398857164 125957074 477691292 22118259 495598694 60623843 657238535 914583586 599606387 283560278 278390879 999386762 995894764 338175448 985497961 602063306 192374440 205719799 402766712 401857650 296600932 645546140 640789671 430964214 877653480 437026104 992436906 738009339 4926842 246899475 972210117 562995871 882251536 164377531 765838988 717562667 846775895 187999550 849156158 439913067 80042607 595846977 95597513 396211202 795615722 834753488 582659390 173270013 325660360 388990041 468306438 537087447 644980101 858662028 299011958 629891974 797010110 14426736 363907635 772181332 257638169 650324412 474479110 736021792 227290651 908958741 365101153 30400273 770213447 205849222 817073661 647288098 313865332 688891783 722200846 419992078 64395615 700751352 580599233 656331121 88868875 98970840 988813620 840994939 197720184 501271746 76349278 204887554 781264913 259388753 526553231 6290926 423948742 403448007 270917849 648049704 673546692 901235824 94313733 710194117 170646425 250909389 337906074 600716394 267128167 714627012 900721406 196124775 110650198 961667410 544588066 607919559 174290194 928802730 815333534 220881556 895934959 787852649 894911754 724334471 189552670 276142454 692618312 164536423 823053747 100273595 687200801 614401855 7034856 938528948 152944861 317894656 475049566 912322101 126091364 886678345 226205024 536460318 570995108 296853383 289355875 194247609 325639361 228357778 749335605 69330572 585058259 164876984 543699783 760288064 910791099 976619747 770963648 756582618 321465282 821703018 450112731 134449794 963836197 96736411 319437303 855398298 750586020 73623690 35061051 970460334 323711657 105588030 82134476 688499326 634089521 436464740 51209091 348447094 335887288 254125545 437246575 742483476 625607522 468993133 388786130 973405547 108984283 715386817 703610198 117919056 858372415 555716202 780135039 807929559 985892759 379514571 588139398 533456294 579404772 981986496 625102277 714285539 590352104 957068618 228955347 957987404 56982187 25152277 916279560 232412876 759479317 530663810 243385330 122370020 896983570 211256033 376544400 688266946 131572559 500711561 526274771 218994704 706779644 250192947 707927544 190781953 177005888 259490570 225948644 20965556 753304927 573926361 512631378 168530394 276142336 120792850 429429862 635140325 920197210 280828225 356995825 928719149 957638584 624197945 898121386 469245968 581957682 132931318 265355512 315378529 336675028 216786209 464823315 448428326 408447487 90460569 377432026 851794827 256158505 989627559 631742808 157209764 95192083 327429526 272467841 810816671 193540054 419224994 311275009 492618457 721253903 461451226 659380492 510004914 601206541 242557887 661279053 565424993 712972110 905448448 199231128 220482493 439651454 901060929 104126305 660377515 107062787 71926074 424881423 753170930 280632316 746637360 234154051 201112800 323378697 929857541 489444348 281249631 276774627 883105285 722543426 467126831 242897784 419643064 584429 833615749 439941270 645979506 997764659 118038821 132595760 480447392 416803754 265738738 934125574 101842147 81396709 70387725 723032193 142238004 304185251 409342815 376806697 262541158 144481020 785096257 222268070 438157758 877685697 83811424 50861487 279342165 321673594 546757241 217620472 409932735 666142031 423434765 173329227 763334961 235602669 995974443 590298320 984744043 756044621 176457899 307061242 305119924 924163949 288354526 934573821 92797996 746970716 426492967 980303520 631501209 196258995 662732644 443955647 748376413 476347850 662615942 483396725 747919533 50468119 545221078 283012083 689962976 93037506 726540440 60874710 422146928 828684479 950965017 950403682 333140915 152030099 120687528 556693907 413823680 774514868 345363273 458210540 408891395 462532649 582661629 633595408 5194905 423747562 193035614 172113254 475583747 290882357 196265021 126934433 982685970 576324448 927439371 712320762 852587344 530531793 416802379 757113466 557838671 193396609 126301235 827596393 815620618 437212115 525525331 239969110 56566925 354520530 851723553 287422336 469600242 504046817 291997353 165650058 815252930 148383499 379934413 340479723 963853617 936757021 444683137 319218266 626239856 570538592 245282880 564921818 465125925 723681837 158700673 329465332 386800849 468779769 617347156 585314699 71989425 192408158 568663524 139808514 3265892 988358348 35375206 526885865 374748292 552874501 101664356 598685751 690375880 836997714 365927578 150735335 744223444 554814288 892770725 9677018 445883953 528028674 411313876 313806210 143743899 886886018 750425749 777753880 218393065 50354267 315924273 993360412 103211830 859056378 836266609 650767670 448666575 768927924 987171864 649079466 859741975 221226219 21067598 843138829 198556123 301325102 305355870 467438711 175424184 481396809 966213645 556799964 122978464 201489668 502318329 437468265 747172544 233625302 312603413 327064625 252086433 921720559 470652917 132480078 211462556 682490072 740100422 655781261 660291872 732368634 770805210 200687960 728762943 67695422 635928913 33108910 849340582 174348933 807034388 724753306 273476657 957704922 351791167 440849042 452446925 724967689 279002078 118862318 576536315 362020887 669252437 158841356 958714280 326330789 796052933 949849095 259994959 700044200 973251687 534915329 482278854 922206146 339373815 186746431 387270992 998270667 531877129 610573125 919129213 435394594 64718881 828182209 863229588 101964399 644015021 370820730 123102004 851689518 484319803 798964547 769954235 52024571 453972636 520387818 223276656 428550187 119602954 586307949 83617181 755188205 444226489 540853737 119812265 17429206 836289958 66197629 102942585 132374880 279557012 271846991 625684208 92678229 396599047 219595374 771519760 362239751 655221416 896210408 221234332 593107520 18340436 40470246 216007155 984775544 737745099 154042055 198889808 531245466 174808704 959403671 270447944 214918676 45369844 287726714 490836639 65948533 926035571 434212309 912993990 43480613 132413931 11787599 222888040 202090783 795587919 376242958 602968924 767958595 749686997 655897700 338708224 903070332 367928182 715308334 311628430 301867894 831735727 112866729 283951404 358370122 709688142 51913090 114074762 18224248 781462278 6986488 494391955 864843393 506643790 384716679 474779985 888159255 101130535 467593731 560336191 993380357 5644417 789905204 613212959 3473472 949619870 373608310 877969609 213059704 263371045 315306761 878763400 633091056 408726697 380596667 660218434 779930016 394026693 223489220 179186719 633269432 293098748 274305358 47682777 655196323 826769804 758482674 408452039 46848668 665371786 230203376 805465848 337429875 368468874 653162943 9035342 173429899 50330120 348700505 563367502 750236992 320020495 322961649 148842674 589316125 90087243 484110688 986610455 169486863 322970900 129755288 77809486 193786594 161790897 533072308 431122013 688752958 54897197 627487318 123894291 546173605 722170292 426350819 446758371 884786740 643275574 627445951 68345816 660567527 650667064 843983623 626493041 550879575 901784848 98921610 980691530 297837823 293171468 944245621 852552902 935250379 268715587 964440671 547409718 971816613 300703230 48068219 590321238 744965162 926058880 438238949 900802767 325105061 152713041 415654928 612869451 861476967 269956292 814596537 295026891 275273163 169540104 806831751 468658726 271052863 431575049 220349411 825236160 159535879 383871940 769740335 632676239 729849507 408091533 543037808 246503429 514629733 30043359 643379805 572918363 878694532 840746375 530770277 554221139 200500128 913844646 944333132 184822602 261161079 248584884 936942140 52765637 783270880 219760700 228829256 15531699 866837283 924596131 416642563 356008911 981527842 398846828 650599641 871096823 958642850 148377246 692544670 61329588 353480502 722556377 687071333 919940462 902107050 689455963 774389391 446751240 115596445 148825560 315883972 154859976 868758517 248678186 81516309 555122246 58994604 236455455 817161416 986975417 911578954 552153745 225979923 894372781 593996702 346626506 863683598 174734930 971008509 300694177 517555480 597253634 691078583 835823883 254784638 689618966 119415713 319487763 334868519 6441687 578516840 411364447 354253697 263381782 681206754 261153370 260309975 425956737 958755823 123169558 94291364 524093296 797019702 596391344 64656445 385905318 490670294 19506786 670818703 620131349 240894485 440818609 903483588 19550223 389976205 6774710 71067040 133593657 817518359 368508031 797683407 155826170 375777159 715097970 99103170 486193240 484603604 195372285 505034635 737308681 250377694 252005934 898600785 770963199 171844317 587890788 118383836 910707283 610705818 691216429 589133266 367522148 63496149 7855054 459697187 595523827 716092941 399074465 856173460 266063679 286150973 344738701 934203034 803785753 153495806 205269357 615990186 565305063 102103560 407764725 848753618 997487813 927194144 836297411 531444395 912866765 373644819 500137012 259342786 591571120 202938883 767793980 60637071 43687344 696294344 545079655 192910376 834032200 790105133 193925466 767383050 629102333 782406162 64993638 715473280 290576501 702277505 820123659 749780231 448733611 732909632 998352668 117398255 99091321 58815505 543993620 490813053 364012148 811159517 645645250 735826527 60398603 610414384 743365232 979787739 894242337 315939750 27081840 207825257 269351209 232098633 459954792 97010303 309183212 781774617 4976430 785398665 259651102 153032334 456476885 786059084 763213369 306909529 615716169 552499918 361869961 251875722 360713106 160694707 399312087 671617691 274252257 163332338 133865328 553379791 80009835 270685168 152125809 743870891 45832935 835686494 58868530 822857463 679514346 876982010 615820276 730381788 88585045 697482586 209588371 192699149 848353854 173002935 105077146 438038274 990511113 858053720 985616456 984354173 899969333 826527276 243343316 63172861 309857236 593196386 843993236 552518021 816768501 593464210 930339582 115070009 289960186 818165030 696808727 790481910 210803032 773857939 682818303 398192560 6929282 132180718 6772693 869674583 578944295 243833855 202196115 720374448 652611693 830488971 963813018 699885975 53308893 14869717 979303487 399958883 158629497 459333427 295603857 658028380 452098246 759811889 192934662 655665045 59922239 216871326 669931149 359715735 833438209 548567694 67481463 76136596 331389614 402811581 174093840 43765197 880946441 511279837 44912664 108781355 776594032 837965871 701771299 404140782 900507711 113879175 32955209 399974799 53780260 16315007 49431529 685109001 236254160 985408977 313546527 26233166 980794224 27954516 39947557 930416991 66963715 820840379 406183930 613932718 549633868 472277957 191934288 85970686 52116632 551663619 5052286 189149826 231085500 310190254 963862785 374760462 272631153 814024912 41666363 949378156 492229611 600011283 273769531 857219631 466459600 730981775 614327439 382486134 839528537 372914084 703215152 495040153 650607761 43462636 593562487 573952089 463716133 491655078 501839240 748448624 38501650 120141288 984725470 651145946 449120037 654384302 820931283 603912120 268175361 459919968 10284758 31653659 398547422 984914985 870074269 703889448 330374579 854136035 469780692 237297862 12324157 538219877 9139597 833088769 347325190 306735174 60532372 154644819 598119400 452896913 896000649 554069159 39227453 12712646 64730686 988340797 310177952 185033495 844013645 276423772 477153134 138675515 118592130 720346798 429927994 523418963 457322256 478339521 313506581 825091301 428101957 721377899 192960178 439867424 336548015 889080616 198021628 767421640 526173978 583265742 292688356 694941237 64165721 223681195 884636492 494549943 335249670 645059270 278288730 552679433 141584039 592326134 436639250 691523856 847503298 428884530 155082158 519958535 40185100 258885283 753805920 899836080 897574233 675640843 261113203 145772726 527127019 688426385 539361992 645048758 6038663 297341578 123627500 957334727 332640984 458520893 576965959 634224958 870672395 448042030 631244072 406134638 321509962 643039816 490751051 948708529 226757370 985908346 933805172 50793438 185278391 438163462 640930166 713538274 104847761 479937621 148394455 262848243 365758947 858014433 427467368 319834422 948907376 573390460 706389316 317248001 955652379 413870548 309243634 81441960 40169550 52682518 615553834 777488449 127597094 320368025 777948075 882715257 813826169 306405741 347341637 833741285 744035299 620955268 515388292 684928376 609458508 459186011 591608788 143636402 783057920 541129057 983080139 849146407 871407843 839777363 149170055 191380210 993697407 216834621 798546421 267789716 410790479 494539503 206004367 295698070 213380909 914828903 253701437 47853532 58063955 436699322 160891770 678970061 543750754 469563421 980290316 215997525 792539652 998669830 722997054 336994089 514438945 53807311 483175405 922050585 931610099 998768250 164959078 617487964 876921298 538332884 28850048 595967486 504191112 878284005 546522935 330142087 193597193 944750727 700361920 326627916 23783230 150643649 272269987 761992608 287989328 393149903 301636414 553759453 500801362 81190452 282663458 916476773 980606014 486583368 197478808 902399559 839171113 436959001 393797995 530791742 228257394 986359719 113132051 258448934 765916270 222957255 627514408 569568092 524584885 821821875 522754059 361655715 63932003 405257956 228042717 682833594 658447856 861936377 652088739 688735882 952607268 468245758 886338706 538673056 445302205 842595488 245158550 191080144 76563036 34587692 58252401 846988450 854508160 847677299 659438715 883587031 845515710 553194965 165783898 902068435 466436373 328085718 604848851 318592159 73784078 880231483 608939209 374139615 155167812 404867873 193531062 175715886 440349025 271507678 747627985 61927091 368967397 514427816 678635288 645985406 955414487 79401697 759801363 926263966 752179617 567630232 966534955 974655321 697568603 477717248 890559746 666637565 900871116 3970503 958686650 70143325 547326904 361459256 928393724 175651891 65522637 417341739 663768900 582448998 998069808 401724600 607002925 333992069 720902573 147317113 63079694 217328188 924245438 799125028 492050177 126096064 689938875 664551343 823178604 481743199 584658582 532899059 240937660 473170925 70943861 86039230 132229623 304443490 880199153 115057554 643239816 962718729 453858045 968907647 551699768 853914572 881782300 396451546 755263987 907316493 38506042 346863237 782968997 434656535 28480886 282337958 747369409 47791357 883015835 135653541 270553483 831121003 831970327 245667369 444091279 295067110 559675212 654607030 373014681 178042693 761247295 452274248 511415969 598112334 173043031 237340063 209032360 81213940 651309339 71999709 999023431 227562824 441566517 582496595 231001992 841528325 924002586 607251665 363236134 358275641 21162933 843108663 118222627 623615647 32164781 425642638 471292817 2957977 717008357 975851067 822641268 278346873 3953434 989075591 662931885 532003775 520499679 57664327 493601209 8903075 755673190 893637550 11995653 129982188 515175080 200980167 539923209 655489621 379687238 855337548 504064683 129141771 661080897 270689079 320877121 645486107 675690147 892452742 952592410 208733434 303392975 466359368 384547654 687995448 701454320 333621431 230794823 994235029 363252245 178121617 90617553 958433467 158836793 444031454 507178404 18161757 245040945 563412682 8579195 803240077 263455690 886065011 934639863 862749938 270809384 333740098 721919764 290676355 269660671 541877552 33992436 235298547 886541723 361091136 77587697 837221627 264390129 413926654 705007229 240603286 714514116 476555118 613205216 970127505 425085416 864815334 798067153 250765148 35918236 446148690 231062673 244587774 109688678 821558948 756370013 886085601 284882143 317660651 386290178 787414164 389568210 78651148 63357480 125568485 480750120 887520297 566316031 707117469 28513010 491951853 877292999 19522620 409754428 757476353 644943361 682015737 195009948 155784230 80962450 445220691 400994737 415323453 738622528 837234627 449663528 965814091 629041661 981951802 692297736 14285165 252043316 189906173 911617374 335453470 699889621 432849586 326682653 845206217 187918110 722121750 326233965 95947735 206105157 253076594 976320557 397693088 740159526 588526800 504808493 758252530 579818146 485326474 829792172 545677539 97906705 233256206 961358167 459708633 702995837 522266157 863653728 834789838 350784000 760914152 472127567 213395448 857556343 385137569 552212981 247016319 287777418 380917512 676301317 633837586 838022277 11426083 199129008 817427294 286500612 812595317 531375084 342238493 963108119 266892165 954177882 465237274 462019969 577290373 798945316 246370964 481969201 219758023 926495620 349330714 865654520 933231545 563483439 521997570 170588145 552762299 655892693 105789050 125195702 672106822 633295748 803190522 958496606 166371287 157358790 903618737 220947521 891444134 968838228 852576857 317782791 197164828 327733146 390933881 356219213 621667341 572434658 783274336 807094584 5631839 608165083 255123478 822497894 487417549 725962056 815872560 425048413 295805218 888625390 118894088 471230072 570033551 394470504 553222579 851204876 891901750 649928903 414089067 405724332 936675320 296739466 848046323 179375788 821447405 409924750 470451167 489572007 613798595 180050849 875397688 277767578 537373821 673519580 734273716 829824067 829219693 729602330 386796609 826377115 353260626 287868504 685335721 797851184 880680133 82510427 192091752 689406316 931377229 545572871 357389438 404316929 546404476 297870980 283533536 1881920 813184040 574983498 414852409 906779561 643823287 271810775 770404523 347191024 259373593 50151903 644157514 97730075 373236991 24448306 175363961 835647111 913503714 814734425 510418328 243694469 25231555 895299476 723741419 327467524 752281389 785586736 438571477 362291390 853490024 867860387 234654503 827804023 479501912 188550526 669207919 844535711 320630122 650869826 119791970 213681582 336086057 659763419 362941550 545062878 841728561 688917653 943756937 490748878 710092981 954646667 203930025 808950350 630235983 797303209 796829445 233653532 341461085 533541324 926807002 246210740 593131700 505203676 980931131 918976864 892495695 829066260 587442272 496753044 50841590 206468054 405939290 522891320 146199656 745968779 388984308 302235777 548420913 483470946 532643333 897345110 705958908 298558703 1203005 62086070 283837342 332391403 299914899 769191555 875502996 105429818 517870799 503860055 335203321 724640876 775320558 471154179 589881631 930699990 269267327 884638287 581640717 931933531 614282892 340205430 250875527 858127001 361948886 269022549 427096685 270720599 774729332 270274063 44201822 168109234 312344496 738751188 353440846 547279480 883342157 785969868 665236272 737704855 727031198 595419083 902311271 333906530 279800212 838002092 604208209 636150593 160042244 899510889 898291073 768769058 104939661 777257604 190633903 82357676 236327693 759117562 107663857 823906198 661376322 172186171 819782304 648357075 890762983 969343943 557672097 690901744 64592149 540499759 812211044 958381134 664580515 395201180 698438376 924803669 296534259 45832684 286622732 142464922 184700537 404544142 687849289 84462602 553734717 563042050 604781233 479918343 1030403 819046340 180992955 385635174 659339362 93700415 316258083 409695795 518282807 250705500 254309400 780907347 500013793 51591513 444384254 259163379 657221640 792323450 497119448 501244763 883253854 401304088 639473381 787620619 196641458 662370835 745671931 202235565 346207389 211396228 745690612 974175306 29615577 707447488 588293483 352113825 224859961 395324514 310896783 692691030 830513847 549647795 777769296 681691540 834405914 360839709 665315032 280300767 984981004 350363952 214939455 73713644 511550261 41850172 694354577 87309395 540604662 923566540 206504635 541643432 223275650 300959263 427943472 998935762 853276970 456003160 881773031 589969982 334337780 687066085 903672731 782939605 671863095 187835043 980550954 949345542 287631499 716270324 34750402 867508104 393062502 889124491 625155518 820167404 907202098 148860184 37055387 856288330 823876285 787439235 486227704 922669255 379846076 880360897 243514270 910168315 421559791 855649174 128607511 600286123 366996170 663125519 483755397 849392118 13145898 792144878 734531955 912075571 117153719 710877461 300177889 305499920 765121904 873306380 801905880 745938176 457658378 512591932 539600216 28408455 751671725 462853666 524937202 98800137 4788093 550578440 273856357 466152372 730226903 90418048 312891607 615072700 813641687 762968187 874155629 691883753 647360077 94601091 694646119 635510316 920273129 535151027 869532828 657464188 810052432 441232376 639742778 987206756 777996315 200844354 262810494 297449621 247571733 129321382 119479355 743698746 686052608 232108184 917948855 912596995 704825846 582600319 225857388 398474590 941009375 695569910 438905892 965672190 661097 992130991 632548450 737821704 208556041 888048896 609778397 577277934 50180995 796639580 1807197 364340576 380087485 364488129 81853083 251426134 834410585 864620845 192990213 696365024 77758163 202970929 898108276 946276533 407180261 814998953 705534376 556062207 275481490 343747884 815265851 606286416 204264195 440715933 810979943 77634154 109552795 220578751 17789482 459802961 43551336 981874474 37733891 98000450 556312922 456612801 898679308 906074098 539420903 238537169 477814139 842624697 207512209 113790931 275937213 500236064 142469229 282053779 46960763 45719384 860176217 536961429 991662899 973274530 534996725 86027504 475484894 325687280 771255839 958262910 269703882 534168877 778260001 505179706 225456288 779557997 256786101 88237897 81023754 315295298 342554459 780809404 708056818 911171588 586909952 144567311 390058138 909797639 98775753 255748726 894571471 135518244 258484310 595036726 769567633 137888172 375051677 861462917 848412927 218218631 948431485 331289442 518256830 912507716 562134972 975759613 817481866 833314105 129047153 427400040 509727488 552790952 655718709 502678664 347209121 805267716 911703483 643399200 51858290 882317922 447735894 880661467 384992267 462811875 808846179 852529591 425195745 587279758 624533149 322354979 685211127 630222120 956314884 453153835 176808133 793251969 866004051 979047612 687748950 544170141 134178274 782803491 208629275 680837110 464595893 898121727 518712111 928897328 746329466 76181811 466402721 194036725 807644805 349814624 914099055 595355858 176575875 29193012 390327516 633670287 596314922 798403919 674370332 694825048 101772004 914457092 926721675 26288213 869911864 611462427 997636190 999489427 549759908 352495853 116288957 502366937 189269193 442365465 645994810 284339893 307782637 16795945 787822236 393167879 248505047 887371392 449717901 333295518 914879404 249570491 623365984 1969045 504903037 891112032 583551462 201402405 856386198 640487270 530040264 187106615 920665425 468328842 410236515 651004667 111415567 611707732 297022208 931137452 613608578 443672455 542514064 183870488 398892424 799239483 200017935 919907576 525503885 226948625 14423458 798009886 192129974 232442313 848422830 308076274 731480670 691269531 526609098 730172069 126416317 473095682 590774782 252568930 390820061 907660984 424031114 663178987 23153391 652584287 42875841 793148930 50104646 63086974 710464548 427532410 22184365 197960377 148676170 956419714 241740487 47305844 361757696 404228529 488975853 207639696 908447988 510253360 975312469 939191394 797647517 601112066 517416337 502508875 828837764 273790726 100978960 442859947 514951257 796317059 167435465 99686890 40823790 532095246 957141526 920649720 59167017 54871123 279167190 474250450 680765466 686059291 27509613 109771048 250722845 803204738 856331628 432117650 882874413 742376325 193049210 738218877 929195414 526771702 570917145 263198457 813409945 547669251 274419495 638307956 25757365 437442462 784561345 644694716 497061868 878354357 329514306 822904888 361420786 825697752 262065889 44784124 673640265 877751497 338138251 312613640 300101099 844629736 1183620 451027211 261764748 971909033 995133761 689246141 717312355 911979211 234997398 317798161 769076668 784099601 402804775 495551906 167857541 395150379 175882150 440872928 468432070 976719194 972413589 684677439 14625079 53974395 702210217 729882027 269290307 918013113 527639740 5443614 691608133 608006667 644661004 217590952 424156556 89437233 398891477 966292542 962212056 690017734 830548063 57365267 920856505 444786512 310753127 753829660 135178055 145311993 428705419 930931705 704368243 425889289 352041654 551565305 339341842 319082294 343734521 246919079 393386074 159817340 872925356 971976898 612732426 701778793 681952828 359608531 600472467 474376557 379313139 884207187 338848988 164230997 180818183 178026741 739884139 172254575 312689980 119361823 39407405 473322614 558711949 588989353 199795925 387064592 947596848 221837807 769975435 714956528 676242428 480367455 416913762 977586640 855252851 454857712 577673378 619031206 406907794 478065835 297775719 939463182 781218410 343943679 15131836 295702785 947178021 994876397 562313543 357204929 314414941 317626618 494244241 117971132 645874434 205835439 932607033 433410627 852252852 205111609 256449941 407150747 63028137 259529055 961486406 560702894 416342545 239646596 476695557 748969635 889401922 110126648 581262408 296645720 749205509 730519426 605677080 556556171 662969831 881195193 609611482 645468636 743910252 577293170 865276534 718431754 572862976 213050718 209134329 923694286 666011802 615262177 96408220 938091443 194171092 101634948 673181758 902440573 185623110 134380851 130673226 894483502 604864302 612015611 204622216 825714690 849161079 37483756 675251656 782708501 369269730 829601872 814881480 465968274 754531303 741451631 221209598 44898488 706770722 412882342 713654038 696866438 555562188 104070572 760534798 815886482 121386376 51724352 278121789 696389694 861181135 716403106 644131369 669901562 480454732 364046628 630620406 178392814 283649616 727167444 533629503 423977094 206247509 51512545 981626953 816138324 321612095 38119473 141554858 636269087 695665997 773077760 136397435 288435709 774269694 290255227 149641960 895770131 108030414 28259801 169660295 734158843 31680884 333914603 500423473 510819528 329873544 323209990 734006258 456079903 985817058 682486396 138090420 739557897 758123723 727855286 518579105 616225025 765273837 774272578 300272076 316305339 74082561 386312273 134104980 633275474 818580924 750950008 15382067 231328773 303563401 132387173 732420560 877888800 968287023 196777196 420658050 797087653 206183766 892044969 567573282 660696538 446143517 269934788 744733081 260256840 16185264 270751999 925314711 866257189 73286426 82926719 980141886 76764483 916230818 538437614 488692809 181315545 627645642 27820702 997935364 929732840 32237223 914709211 263887487 879059420 416939640 598423289 639594363 874154404 25469453 369395121 134250220 719361541 471612507 5787882 116775320 423265398 38764662 602809998 660495017 886543237 160832898 717760283 551116568 734329201 372385162 543659258 749910738 203784001 317997274 643887866 492175377 374054658 840069749 127404826 869023562 91064002 889778369 546137503 799349260 752424576 101974665 875159356 765221179 889788300 964693672 599541726 560397784 799075628 568056411 688677233 952525451 394310795 265110581 485157242 487348909 554528081 407709775 263946156 425850792 94472257 37811656 164896082 453783497 789952069 705413590 330652378 77232200 551953661 23025471 964603427 339853469 676179519 768961925 467560927 847926439 633063271 801755442 425212366 571326032 499407297 312324760 262873330 118022701 87309626 615643159 699849341 630710540 399592388 649650909 52753714 191653907 965392189 709979056 592983092 793469634 871038251 333888350 950717871 369328385 435363217 916464336 319009294 12230482 999810940 89178155 688705712 969354692 944002789 58027448 140162776 408938187 75232383 342921022 576554784 794263434 136573136 424786046 773231051 625739524 227014226 139060386 833787479 221741798 774987567 750746411 846882435 837603108 470298509 166363702 512105820 103433899 260003240 917038978 169549658 298733138 319235924 533114533 264059693 459277775 855309372 806757282 975475599 250580069 748810715 428179730 651617971 63308932 425666341 983987451 313369078 339709824 62406674 225290740 399431507 976514872 845979902 134447512 623134040 924346021 562057800 299183728 990342617 402769843 945852950 278105741 903388614 223891695 80614994 774879570 47735476 362421643 977398139 138600728 260154047 40833560 994525249 964544349 582513378 250189744 206698811 641013117 85470299 458397049 934185676 808741131 380032269 887212556 541533242 532699419 69519862 765677654 508661116 983813336 296181156 14155605 16213160 835252661 216187608 706863806 566430642 656990012 517291804 973548917 689627156 784048595 447536317 57714229 670699123 819661585 989586789 673493255 921878022 928270585 578647512 193290952 355389446 893170474 369602938 923756385 303065504 105810802 809410550 47821729 911202570 509250660 881620723 506145555 762992535 759822500 924918641 47751328 341373341 750411636 893108745 871801591 393891416 968513443 57457553 38597532 712914818 894096580 612896396 997432331 218109350 235074397 324407306 906318675 410502462 803486935 765840286 377532835 705875883 996017279 571318025 929958448 110890500 538747372 214384412 689881342 647922912 880305942 278241796 962705274 578006651 436489176 430196893 397416426 1015572 749326285 642540975 502158977 940734951 858960464 418855104 750542848 303962212 883754045 856933291 79047006 590962621 863590018 783942729 748351725 659001258 62815704 527731640 282213490 340990561 449666743 919754964 167668619 369181458 502039188 313093403 368392707 973886575 570004864 418381331 240739627 158489757 909781438 791399988 317004269 673850371 701079924 581909986 975570788 743976117 991812625 636218532 404615531 219961371 294217970 399571728 523876365 914360890 8755657 588705411 984229844 228940250 170582169 243737536 394333068 859763754 362846556 605337466 137428326 831539059 902894149 583342406 696043007 489618978 52457616 512397205 700656505 368539572 327841447 701134058 68305083 238957773 591242539 922954672 502380326 421199943 836022619 475496900 968895939 451905221 229898607 668901106 259929078 11516004 740486160 141069501 907565775 737899756 961746210 871109255 323658455 163147034 116500712 102927876 393885882 537286425 679467892 54776553 178115353 55528520 108832682 294073741 400723475 54285664 979544858 561741548 303651562 345038910 512534404 63602368 406619773 460856655 842937352 441697717 576423785 587041722 413459987 832906763 683001606 787997284 442636417 407766835 669741153 986420598 797298785 38035741 936240006 354358907 759555997 144613040 670586843 899643692 424417398 641968075 548353536 635994550 138293556 52302154 730537323 692333211 1458946 501826885 23157813 115693225 495174830 545647204 182852418 497409533 140349378 308611505 850525876 546839001 94008856 207618786 510784372 278858292 30512892 555186527 834738729 216366917 588628288 193304087 42348310 187941675 891839281 67043313 537949897 695209772 938214136 707100826 384642055 237192851 691824539 335413267 436902728 714717411 460967052 864363837 984143469 571053190 889427896 467094065 99555537 552836874 549382351 409712538 184942922 752050545 603044270 40348249 973705574 220637924 511156179 714340208 869572188 516703537 247003152 736890385 776830611 617303176 330106382 622518864 205664237 637047991 438632224 184131129 258221768 532522355 140880473 839020212 409067855 918564299 348732559 126296578 40618841 881356357 722354861 994792321 867329443 21820800 958435083 487235047 485377792 210912566 545220831 382241299 442299178 571973811 720780768 628842586 710903506 117499710 331224635 279072816 147336528 769968426 880405048 454546951 988603208 377770568 331194437 898042263 663551086 95511277 561642548 666937673 788914737 517220604 266824797 630696249 87881491 589080180 783050723 845793467 509247687 899462826 984766995 973632484 176028789 39451376 152024297 302916407 272537666 46349815 742764050 830381475 170770733 702737611 242166827 671229187 415281381 161609200 945590319 843979797 863068962 359069807 379107088 312326769 574958769 73499269 409345654 852218874 530760405 397003715 355637521 268682068 99072914 574969402 966870128 185618516 955225046 755583520 169320109 128445864 697933491 807108380 492085786 768447969 958224838 177939254 378663389 934765699 262198249 233439240 504390453 228102028 435392833 864459005 743332310 625376127 360175926 32699471 145552831 842679101 102488603 110255262 864098249 291970907 404890884 602992607 906917156 788778461 981339017 829101705 297314086 952325939 368947274 319266270 402130543 919167389 486672836 781813425 564548999 379547034 867149310 531563854 392766195 517817914 228969967 498222885 963952762 739096453 292044126 616959797 42227995 890602173 456025830 932618688 770476859 506527600 975316892 511958822 909613596 345209427 96176436 154908050 475906447 185347741 902187165 352878099 106354902 717164142 214398052 613738949 275967303 320233126 913308812 230255164 90604300 288906336 545798369 413766958 744831681 618661258 323191501 513775060 373658308 148373244 270381712 222291164 43284671 524258290 172629453 768171597 608515979 307538488 961142914 94970339 31643795 10737498 351253427 599088864 654101374 882341081 987504847 881445706 329399487 901425013 497184052 678583133 299390976 403065354 162969600 974357177 168652953 463858282 616736365 315862661 628376039 423208153 452931451 868753991 65252654 849678901 892213537 751862868 633203484 641009853 80689424 892035449 370230692 12711230 376684727 611685108 761982209 533592051 72605602 857676932 459263324 414747238 349083055 20230519 809296606 372301834 318890129 694236578 301420483 909457574 685370874 452635195 239369283 22555091 492079650 742879519 355546768 208699836 750324072 327352141 838039381 883578927 715835285 355699120 594136644 439912136 888998224 46968426 996076284 655035926 355603164 982285217 522800674 315170293 420047809 328455986 698507782 758080122 223271886 166838770 656947691 170128907 527796642 14947065 618946418 523940131 84123202 481694632 448636060 215961416 269434235 396415700 147863007 397653362 145925521 221172513 800985501 994002500 415457496 647811352 896989033 164843453 890818782 327760731 134654272 815041705 918203539 123455488 964762867 93728875 641370663 384296989 468531582 571695056 964097693 479487709 857403218 285342032 761048564 376863867 682245174 274465415 969107637 279968050 772049382 371066148 449322002 998444355 48478518 963767633 55783977 114093504 119413042 623468915 390967765 169134363 605098060 499153967 808303438 968527739 533040897 128792313 752238810 631642044 76494653 534854291 445350957 671477188 465766384 72797726 337962467 359797699 532092558 626002233 558751639 328796238 408073217 494067975 121217047 958673648 734101572 52764691 144221786 910112459 290053794 711793232 286422757 359708321 415897130 841998085 518543156 26962700 533786635 575906453 591437481 472469825 437685041 593490139 524370116 566280782 634832751 795422669 543202420 895756459 833474789 521912196 78682065 248530319 192959295 766847004 930728926 421286209 620007398 273306458 745015034 477680904 884967516 915983948 752027019 796391968 263343207 405860115 161231657 717472683 343365555 382619115 877158858 119276925 860344788 825944762 505782380 615721030 385191099 55251628 653499566 343577575 858004782 340203514 573167654 820789205 571608165 98038220 524280591 565217178 698207040 369475778 357508353 232264198 691004544 397312743 255342730 658983532 504867278 620158661 442363755 939444956 744797891 348916820 937486607 97874247 13819223 732288778 29777446 993179124 310737225 804586764 923788812 372958623 663508396 582606821 85634020 454135881 717771159 886393053 977906297 50944058 75568386 674087307 914612306 959778335 161139223 80148793 382677793 883826697 118746772 5026984 486387728 565345999 468579434 19323034 56121896 941068281 789754498 641194669 218842827 750561239 373928197 144011555 563157191 509710124 680761001 734493947 382028842 49924655 752943048 643788798 361817465 202745678 351160396 729138808 923246324 204126538 305737702 857005794 474090567 586221134 304933039 505413745 515121428 668175814 261155096 717479464 6776323 632154521 629629156 699268832 716411298 464417938 562043874 449157239 39720840 313447333 582512017 717060171 846828654 817324009 517363425 871754686 566677844 325502812 573256555 60462620 366404037 48995746 303680394 826620592 299101051 295170592 900670225 957977788 831013843 415933049 544633775 253535942 399219691 117574031 639621383 183255316 380283856 515228622 641192123 559820911 925013533 241038984 439500759 343957917 993502595 293860396 678444901 433504300 183790759 426145863 722853220 902943725 918837198 498564478 43808603 399643857 310766161 989468050 220753319 243108559 834905882 397438993 323170539 348022158 167802684 502606104 337681982 799809746 777973547 466998890 390085184 785016873 285625796 905231450 360956668 557753948 313972909 792672577 446986459 628577157 76294203 800500027 434629416 68576452 761686210 75067525 504785958 589384482 541709588 612677564 377050685 5349707 558608018 444543112 16496732 320425958 234256115 828855162 618311048 626407226 909735741 755754548 810635135 738476989 903552599 573583017 595576903 861343366 47969010 351436131 119191148 613458777 443128577 528078694 872244941 918397157 777267279 342829385 978729457 468090738 42347066 739212782 755769820 793535187 88748565 704020775 527974083 65635599 336372555 522038309 622079516 473241611 388835297 337128010 805846983 434103512 809137496 1259949 723852492 625696528 514082305 879349788 424540992 447238069 499612068 612335413 84735168 971133921 116702902 642778180 148219353 655463349 384505603 633417841 966945426 828334044 740621791 791351947 834246314 673782827 708315295 267031237 602435834 208495203 922091616 363740400 237817869 259111414 450532874 177803035 112425633 720533028 723147216 193363442 950658216 179759830 82108633 12657514 84806078 60181207 152207507 342249713 107685560 472990096 201171584 491039431 137969955 542694295 211274618 66338588 782577492 761415456 313707307 733897719 328574308 345594724 173167500 941767355 31789721 266901049 983188444 423598555 253493129 120536796 976767717 195580720 671099301 150029460 459100694 134848634 680235613 636316753 588866948 292665061 46085635 414616976 899666561 904750247 756119319 857263472 835744166 435328988 800872153 217836590 475154917 473470512 430600963 851916790 219964745 528975298 641282001 711185319 117723424 817830403 219926938 694812377 823563895 168046664 24195412 398340151 330165011 228042605 701018906 378819487 744084082 640216105 646647918 839037458 561897997 907925607 496223948 574715334 659031628 71755322 211005336 257438161 8079084 63137649 287971295 895597587 498548138 374552832 855806667 111910264 309675687 215411923 535245306 827676381 634143028 586110358 649354645 139451917 481474153 97347850 346440422 414790252 739110937 696623085 377117821 198007998 388639428 630995879 46142157 355221854 858199218 690130179 166052949 243531860 490894188 358682449 165922411 41949761 461594061 622080401 673693464 675031318 332358585 280438801 876525614 446979736 860991166 633179668 504588291 242999244 702775029 457954125 536031275 693463903 89672208 421236207 278053083 957747168 318628276 680017916 465596494 972993780 606240578 262215532 382246286 458386180 841756193 575889501 235472607 583159261 158191211 374109896 743352521 57838215 368480383 437037998 372813576 698926547 134765713 398410292 976492693 687286065 822985657 950662085 275276034 309010200 872092030 66220428 798148619 344107592 249122671 959042670 419510461 758094023 827914000 219568159 758542623 911840708 510529347 416272751 254142473 171524375 551904286 763305499 234411319 682582003 725962726 605267236 636405547 127877985 709388578 658032053 306689890 279328963 559907731 518122654 128590662 944136194 698668063 710410543 233351035 690448815 616980647 658529688 879122663 381781033 765332456 175311481 382120905 842096633 112032342 545321812 914318830 9118141 505519877 187856369 332852884 346510302 84401473 665608449 204941305 482609283 385407394 769321457 905312350 926035403 605465645 450102040 285040130 776884883 720326828 462199111 162309092 174212537 515220330 708893954 11226013 295636137 796642414 529661831 126895188 102229695 801094943 883117733 297772944 174324330 318370818 281063969 846083778 964542748 751542194 77539830 510410792 734831907 984294652 15353224 556720383 70292055 352889178 63796243 439336623 250132960 208246928 672578702 519191020 362666805 779104307 313202868 234939144 569264187 761251356 71850384 388471609 471482091 528451728 776224754 160181708 939970292 90318033 380769308 471927392 901216742 91484726 590860020 210893198 308898481 332007278 76157010 121873694 280009881 900195268 381347287 270296058 136149500 953641367 329025622 71520813 323127914 973778377 442849200 711637409 785908100 502491525 442426295 674895442 631681785 139907036 248819356 575126911 778598647 651072242 711684485 837477279 489096517 937967954 991606065 692874677 830228067 693790468 587993645 416415104 568607984 952152937 347668665 687624864 890133252 830569114 944061335 72432711 125627281 242824416 748686002 384299574 314524187 530810081 2451961 670919166 98655386 60971476 802294843 110401898 508981327 898097922 590230911 799636635 113895887 10273766 207249657 973571272 513994759 228914151 188971214 680452454 644243440 831787553 439560472 848887195 792542206 423714545 47645059 384772717 421167290 74187845 374707385 874370061 101248708 463791200 70520841 117652807 441947036 825833091 542235054 66358924 386493977 596234101 236530959 80647140 132444668 957916871 188016912 748412631 752604450 625577216 669490560 666860775 237542917 40262122 691148349 772662265 964526254 745916297 109309980 438179703 887413038 312938575 982157017 985484968 488107238 462710258 47751754 449402813 50261980 352770789 603026125 869165226 817928847 847197600 166246879 856789078 642982551 134117286 538540636 621274442 76784889 388353528 402637547 112704698 243637133 120974576 820331168 956645666 420774343 189527432 263131875 116526945 88172037 230621456 597840098 186546928 91276967 945653544 545624441 580515781 269153186 312986502 658091459 676206240 641292678 947704928 564455134 253029820 136268338 930947307 657832737 330193209 69382211 416165673 270145312 613034072 958715271 845635691 775145731 972721506 295093260 793378068 65044192 365464995 627956255 345681607 771870681 275203814 762433695 179179395 264694251 121497954 900410730 908857365 977215405 639186237 762988576 755478461 56231568 924189391 558446529 187269441 526769706 614173415 233479114 123118614 218274129 902965909 992811088 410857143 861620398 977820988 463171915 603833593 570193612 988345109 599747643 314959240 380164308 213328910 76430643 508180768 587670915 942809615 109627107 240689887 309710679 360536984 223023620 500243421 134522422 590020072 329517893 872296047 33637155 151262185 440350729 751130640 653543873 779603766 330245877 189161090 163362244 490548405 578811767 941061999 212499023 30455849 962946927 31597005 304532824 411088394 740830795 658103260 255219005 900017968 560073570 345539288 410175725 625789151 862628318 531366793 336862012 227032799 105080700 813145309 935868430 24358721 992406358 889649274 568371888 672580911 589518683 779659878 109032934 317316806 10071557 496708198 951492313 622513050 531739036 194259153 616388106 634110653 126347564 911902635 856076116 289566154 539056112 248330884 89004790 163042541 385032519 388901056 124273129 775350948 863285330 666473813 862119465 8617890 791694253 840256609 214973408 820412913 74368990 170675407 641784645 503200814 593857286 3956827 584145853 81696904 660669578 388368779 165163947 215776073 768651458 248546730 631801699 418296900 403271596 574090626 345855934 361112639 321542504 956400299 870426685 588271024 708868110 673523946 553879786 245197828 129527141 864332277 204698837 829675357 31001175 91583009 842144234 452449884 52430990 681896412 34429578 127361707 623261768 465027179 328955142 285797418 255164513 585026526 505344373 514326296 392965265 494433720 903537791 463150031 657343186 295111347 367102134 560268729 276580621 738927772 173300165 714304441 441859800 311876812 649890061 178602365 566356141 364085069 646399330 906673860 283979654 821540334 534011088 965823006 145080238 569606773 923619367 727110815 860432114 141013445 987025817 654972604 723563455 510309955 635658195 17349303 78449948 957139607 861249633 418832660 828685274 919200644 609137687 919783305 927471780 671252319 389985259 299741344 552484088 222429960 577436786 984237867 525618144 450247609 45905659 464448381 527224526 436376951 53605095 590197859 300592423 437207553 46728488 607030026 549602242 396709356 631468419 506164529 226002093 573827039 617613568 972644316 258432860 806861052 541002052 385051234 834027261 431745545 292764262 507924532 147074152 715613917 921516532 6917417 550630797 828015582 706775266 252373509 231182596 136501297 937262863 316420199 250277193 185515171 436008662 280789761 363395135 917483692 238510545 891448661 580698912 930707557 132734417 58426161 987270095 875878380 606346004 402713259 659883183 790295228 194146186 154869667 554875434 72950876 626200459 422747416 848471064 384016526 852071737 119420233 556072918 468000496 500182085 49534680 393965286 863591553 154860737 189598077 272928167 12550473 995598669 536021612 516081991 634599637 896031429 838116738 47903432 868348702 812765627 24466078 801324019 489386028 774342562 21692529 522315081 526717893 556840442 204072556 647468844 108524266 364667662 380503206 464692256 879588906 452109947 823681610 99934835 543308166 144244716 921065440 787186485 451432902 849009104 135312039 127552540 183230515 131599447 839654614 93869204 141568396 234940590 583383927 900765705 811350863 132012308 772212746 812863918 414909773 739311341 967899407 246009130 817246767 873292148 77744241 126005554 249039569 408766717 721120669 792116503 452584586 169609405 816983234 287214412 200327913 936617770 141022466 776192709 164811861 856193257 999676132 969960511 537139842 34155428 371711939 337128108 79238514 145932959 997600154 882972171 870016285 994950129 795982473 569888112 20274299 752774757 461735450 731448291 706163287 823972582 725033779 371793208 600993699 647186468 233503021 763964127 762642864 301867921 815725192 621632546 175459373 909965691 871197664 369963346 512295322 419263878 497567174 290243208 106084166 275545788 995179006 693301922 162694753 823161018 55888245 184833599 736857004 493477504 549601331 889922194 286246625 968151002 850241537 872367109 308209986 170052817 538901249 867470117 136962126 731055258 312810701 801062231 871214635 721422443 990969311 67622454 362628841 142142148 190043522 504510963 188716983 980853316 71461677 818703805 730779167 661104846 687839702 864345165 6072136 770922977 520815107 506001297 13652534 966741040 814971750 654472263 326884599 118417544 458735306 453415725 127063183 212223816 106338934 897106258 565599947 213441664 811336710 388416668 673017446 889011420 886353502 528114400 668645498 198323938 369560025 602611962 550726048 328160697 507840985 61728989 675279655 328126409 546378434 947561090 552284170 774751844 167315213 294103867 135963975 853180569 935425667 605505472 524582164 759892924 907616353 609934203 366890044 63780373 813045098 64158202 679876521 179621201 667906009 698179398 129142465 892037096 587883686 567807877 967661203 883623637 742024531 602808161 803887559 889694451 471970304 706147708 279342976 124702147 949295795 554646211 897018226 928519145 537786374 926344404 847870637 815485169 285090022 658509376 494778536 977690378 932436465 436888193 375013065 217367564 692212148 912383240 866741811 502536807 592625164 589944093 378123371 916218632 255815238 290349560 91458970 213151879 959628159 880183382 315249530 299086258 757717360 525664391 190624944 176832967 609254075 249238275 15879344 835891185 57732847 30867880 917792569 215055669 533523117 68250353 423179094 430935481 367868016 399437234 324203785 338546409 392493098 34207607 158720766 109126275 828468033 824121742 736562894 483985994 7415825 17103027 149504033 121873701 476691847 590914041 735165435 676234891 841691470 623666483 710429136 838836534 927419394 846776071 106385361 720760227 881203588 304545787 38382024 770431183 630324832 646462993 948522278 329599158 448234474 284529544 764900293 974477591 736890624 769344995 492340215 693372579 354692009 260703206 161032277 553667636 167202274 709144451 116568698 476813566 758345712 731823940 764856495 906272486 638858247 419260815 117580813 333686436 40385533 233564981 323778629 282496534 599274450 914909605 871841383 622519614 87909743 295835611 500451782 382951691 893165638 891666955 938542251 9478956 840546723 976864146 750536918 989409249 502258018 825523984 366871938 385990109 585248068 979508272 840896057 465663004 163945705 62849948 238763648 515175575 6213784 663864931 254398621 594719434 499935368 816077450 885297348 946524422 732799746 77875889 928627513 683778989 721078547 225068622 247723729 662592869 797756722 867032848 431020477 19843370 556764035 652970299 106760974 71101363 361015956 700007064 333591515 641271170 145992066 938871350 799037415 473267941 101750919 380958026 137236661 1667568 943818827 631090933 862513929 349416812 838712505 807153889 671874769 65317500 789360270 551886068 401887041 898912896 469006731 610113417 778503523 55944999 245372539 479531134 87840236 80638019 307893580 877305012 698001113 204253993 132313004 87770402 96253607 106940591 234285053 430086860 611522044 793297248 344112756 622813065 682216282 580311859 253249016 485693473 413141057 813413080 821598736 732467160 351653729 30947668 382312463 478083006 898315470 854212101 295421959 390784870 933106885 506600461 514746818 236202408 515143110 458179959 677302653 553100468 500696586 559741718 690578535 662012901 939096085 566388349 774760527 153941641 954274502 1003144 2970580 245654917 36417585 129313510 476638205 341921779 489675919 77041761 483351439 667290269 48643194 565047444 952477794 916418924 914045867 743243888 914356456 954121320 250965763 40549908 190679527 306601261 818757542 850351496 990798105 72416273 254138294 323483290 599079015 931315493 696487682 617724593 672748177 746750857 336431062 699311942 721366678 675555835 423619452 393436898 197173734 246034991 984991728 994147733 235112818 797324015 544377830 355874536 520688979 933445939 466812464 8704179 238441928 512401113 63075288 557805778 736231494 333179722 485703024 214290481 999671577 748197565 450086268 82654502 799590411 640419403 621659160 400063227 345975911 653113981 263514961 50569927 535603519 409589350 58549986 285163228 303677948 506504008 35307049 782030493 773301490 176747695 835389840 947985262 946702891 711708493 714410769 232814413 924187588 68234665 687492895 394759783 467161542 890478700 914696220 860931264 756071521 248563040 927823065 824632770 167930894 234304535 171651354 228839141 96625259 977273207 156071438 517822822 609036739 507320815 651103919 307147110 210827725 299397298 834008506 941713542 967910476 682660234 92351299 647339974 268358511 746105014 812306113 161018776 830668525 754570028 373817137 709923334 674391196 477642323 618520281 617818127 62241998 118217141 193129250 132203367 488920558 268406534 340305430 541329209 132768613 809846559 753803044 738839244 688220175 940223302 564633944 705335496 44034043 866084185 466013616 145499265 384719226 27685757 463364589 521714374 829695738 227739290 416634622 808258664 893811062 502853927 972628237 518668677 426578033 143613822 541286186 148498622 433205901 618316999 978820695 510493997 480479576 825702209 561190445 667519593 117840488 627099208 123267975 386006569 482087793 938809616 213377170 844268935 61534324 578766906 481972383 328752650 566473084 888473336 327294359 504218892 137125656 309581525 615550479 485411596 12517898 535775199 154512965 220336768 857595147 706064242 417947126 228780340 362622719 180974390 697053306 729826181 80752391 403638131 395395217 362787334 314511294 871885634 678117056 427720405 118349047 578484228 399356119 546439749 119407151 970459876 66561108 604824950 560974649 521151198 476767720 159255997 13924968 927438246 827955418 855206569 529991173 197253030 671690806 594243341 73106154 574313571 1941398 355412319 617971748 854471433 112323297 155985341 659214639 646894465 235966234 876974698 769316104 734319476 290501540 71948229 481302608 93278041
