7451
178786188 347962860 895763618 150620476 554761603 581457252 685069911 270243495 841450440 942458019 833625862 505638399 494486237 485900578 377367946 492062483 424574134 264228021 624678771 493545059 806037487 528899993 749015622 627886468 776517288 198399625 582503421 119363543 607368011 149494489 192293261 857163035 152462179 877502827 451653445 351575188 261797706 520401333 701410882 504748379 59389734 395028892 863574015 693204310 795495713 202975252 649867922 621471914 295296760 468100918 597631594 617128618 288068871 904166779 125819738 405748961 315748045 787909464 48021137 237620868 705734126 314398043 675761469 119380944 965007819 152650890 713657863 190318323 213511956 85467795 351896983 367520900 237040741 448045310 890868691 392194696 702334061 862874803 666367910 53500902 821235565 90571501 460198761 620696584 823696355 375404859 697351837 799142567 644884309 562455110 849175370 200287960 830951534 637856926 228301310 639765018 377596276 293394517 696998846 124703106 182770189 508580825 587677989 46377746 911065010 705908113 347591555 531181960 442840068 974677285 221953543 902580843 707555695 240430583 578346565 177723661 34018950 904450257 739839461 882123640 474076994 380539041 870418423 340709239 846778296 728154776 733884465 806983686 16333854 288604715 223377913 767483924 567836914 627848641 236539677 373890394 656790706 8657116 561623591 35737147 909030170 842128393 717624628 257351049 45642524 55783146 67003 768457545 13678114 557524768 618003271 238307534 40239569 936703990 864354834 23452523 932395959 858110602 29756174 377837625 949640442 480673062 783309209 519874733 959501558 840660527 410816231 590338384 488367761 480030833 185917716 86019608 233959707 420512467 776674880 461111759 523828252 502386788 81885850 577683625 68959637 138985173 194772379 628767643 502593394 726495246 903225818 783813127 428153854 124418921 965567110 97634918 595674268 12145514 763344645 975561645 448460491 246482734 344263377 407769510 130836862 718364594 5081176 855913453 780936400 14513052 39595565 831332798 454788804 465486673 205681782 121587114 979157651 294786292 958313125 687618589 259020333 368077279 416019491 459529488 708396072 969385046 730805979 196725037 546633909 687888378 809959435 634249510 49593871 951883669 627975862 954180832 541860944 837325605 444265746 582560197 694832277 178524306 485325519 70701659 334681154 151902293 267869535 317946083 706077100 95242909 328802399 813774409 518013748 713863721 116844414 796242678 321911161 482161087 889668053 486025507 114281518 608630231 479654328 521819633 951654292 468233665 543414219 274770148 520349899 555841179 584887474 335199702 38470400 354767843 537084980 577377476 682880126 917435265 813070826 514581496 343640037 738181623 409787281 176781758 941765970 993991108 763525081 779576216 536063899 960657257 900188469 117266646 696697020 79744108 532971762 537210871 802012177 994847083 895244914 214151943 490561000 66860445 52660652 433697066 233527206 461906264 591279588 476451046 25511414 949261024 340752009 278393079 839528321 889816175 920593010 76655570 882063696 472398091 353142986 299095315 753244948 889263157 869997703 938428940 944621950 8106335 318156151 458418340 62386734 69087057 511035874 454739881 645114410 775991448 157227308 191725055 906971210 87434918 749371515 584592652 274503125 385384315 534898207 564722943 329773204 958857333 322263048 36704821 614836629 566662979 767072755 131293488 533267182 264593390 129721441 821655492 928218009 453882914 938964022 979251146 991591778 62291829 415192989 737001027 455233237 763761801 715701774 643609462 980214993 696350768 976158460 586753267 80950554 888878609 372219777 311464699 563254282 921541779 243287211 928658916 129034744 312359084 469468684 279203048 712908568 576017027 255686802 517042109 254376568 107836473 475991907 101268360 248910157 178243562 587747390 270830433 997196976 844901936 63519656 688062178 766028904 295538068 524437468 560406884 461998340 339968890 845072059 393680620 178458136 159127897 540536429 378681609 813425437 196069711 436043085 928986230 234800134 625971805 659507720 172946811 895748582 937767906 681305771 759581597 893309702 765671408 544366321 212219198 935036928 912768776 561038178 553330866 657407571 953910900 194635749 42699768 760499506 316815333 489439318 144445546 220987856 326696425 132358232 166973311 247382659 824857397 386530853 263967052 575952695 228443441 448911237 633131469 589234181 147121266 46021087 741486412 342885706 387935545 620725302 742544560 596318889 14572176 725190057 345297303 814000662 140999563 8179027 378975912 866542393 388078286 533811072 429869734 48499250 686381843 550300936 802835408 984467054 40285901 81293194 34168051 654163343 416136569 819209220 739326854 860212649 504039908 624166605 248815214 726502363 484449346 402774115 688668385 46112797 709488549 772240270 606466085 310758959 852431548 432972967 755280604 320292178 224743234 427539974 648443291 876737574 879635389 247113780 49090028 672088699 824117114 861780672 372904682 557906382 5732105 32545202 560903752 824153845 869470203 449849361 628676759 573062792 274727977 960256802 779325323 398472757 868979050 729616008 151639709 979671705 466452396 985242927 694380334 281001086 394474494 705537788 813848406 690139939 832681924 723562369 415379296 278074175 711453872 676443916 445787603 532431299 113753699 145137164 440133768 995723996 674203471 380881301 290134360 432495082 843402624 184887312 322409269 773403766 302485996 766719763 930878281 617312213 138550021 950386319 702205570 986932747 986037187 875328879 386278913 136393771 27253500 457484444 383888426 739979686 868103287 933575596 432395916 499648564 433685860 652913849 255157091 874587636 405663222 567028417 188295770 866550533 432272005 952510656 462382358 981343278 745299844 221928779 858018538 405144761 793540133 31037708 508683864 929812505 962553479 253180525 433457331 803438918 506925206 21028701 856785761 675846268 843000582 568393914 474971388 758379428 310117121 480143882 963610748 82812353 138147082 597572397 733695267 207994317 968804452 366071695 56449340 720809660 363652856 307804656 495489986 932166441 401524160 976551149 323275420 842638905 891157173 895652637 741966434 100313518 864878955 163185125 966199850 582112918 914777834 918184465 568955668 326454666 324907940 793339871 306550076 942210579 955459648 250791908 626676308 778308151 187404853 842719873 18892436 316628578 949294956 41812051 687720122 243094255 82744080 455128363 20956471 957111966 142583974 639240008 600994968 57963229 219744119 223628843 68501210 688406843 745382516 780507377 550137879 356738904 430027793 545142636 379870670 336996265 913698094 284676638 755481583 186155577 770457789 345102483 343214396 790519412 153759146 508223865 980711798 325462388 253230596 580982504 348368297 592235248 856227395 49467516 927593611 889063786 942123451 826963369 259102592 723831570 603665954 578180556 865682623 382729422 372656945 938174008 852501476 448659440 935248005 169475348 928969097 926299779 222155733 330833744 599589290 858859383 386283216 278381700 989169231 360933902 742227014 184044103 777056467 421417006 476147190 863837364 434607423 591319388 452569856 662741480 693971857 301985980 554410549 795107257 476192357 417299076 495880939 216000117 810247777 393655006 712044572 281288102 388896683 591287064 533489570 426628579 342065228 492223130 334755086 900637967 889955076 754424182 374946412 988159203 78570835 675247445 721016969 218201721 296601745 756191976 994851977 527820597 943514308 715386892 494314930 66078169 985978959 710908594 978340784 928405091 158133988 621605361 846581026 772297757 197414329 853506644 834107887 706398639 258125794 387896774 524206295 127252320 231736833 191165675 936772232 767217672 90812633 695557547 297737008 737249832 495280888 586925591 150372293 875457894 890904426 174129257 486200968 925208234 147736930 171947789 662569065 262936647 742197323 601507842 726321095 493370346 658483101 482982299 231663576 588332459 861829274 23961499 176996229 460815625 986335094 859592670 582919532 989053159 560677251 805204118 196683049 115481686 570729562 199006198 616861248 543305509 869189788 202973264 329396702 1815339 972587994 761949860 982953088 924687682 705116519 604066610 331631041 761548443 361166045 721476056 451230894 308417969 412308659 889527970 170041673 769346591 839813708 114031373 893346789 732188409 699788665 282286731 696017400 949519565 343499715 111857573 990557609 303052105 375523552 421105323 770312843 300228483 723495760 649728074 446814074 947333622 656708199 452617463 517736168 853565561 82039121 934725927 341222175 288721897 705788857 759858925 355149628 159278003 680250425 84080311 702551726 411843385 251915748 615814927 458742596 467319883 237602129 610555137 149176476 450047203 892441774 982679399 939184568 369142548 70029007 445098990 488961797 468169662 167660924 652074096 3917102 185382547 727157166 111415104 733153422 157604267 439796073 325468522 147943937 433528377 719890479 375004126 495611697 930338823 876862553 257960588 579666573 669402282 211739293 417437008 258039579 882630818 852475966 133997658 859568145 387487430 474920115 447824466 24989907 135424816 11376840 682747481 276459660 775435769 431972902 810864842 653780842 486823881 817004406 713951318 919517414 357299055 117801317 154519482 847330305 721796502 247309681 115575872 96713004 753625921 665192231 490727428 967340188 665060952 681965387 409104628 362240842 693136390 161877877 375379649 475898288 578484989 972949158 209700423 371617359 240032297 608497628 702390327 565635370 751291597 990477401 883871868 909236580 563494858 260209720 146949985 321488034 319329129 8515785 648206496 77256349 273069223 722034762 778335360 78660488 607061980 314318093 312030598 577605472 71635092 654653491 221515326 453912137 301330499 361375523 155481034 527671066 707910959 273428153 898037173 877001609 419903910 682566533 78360127 682259534 771313847 294169419 993690640 517252170 793573963 102680474 198206322 587631024 548550188 236463357 327198301 248283546 946963465 605065300 650034340 898734821 599487332 819187790 150417896 597053775 701096587 65889811 231407667 489010737 907378696 880545013 838840388 288689364 745180731 898377690 126216620 469639829 798434875 843903174 337908866 306446641 577017492 576811301 650580375 336902611 702119541 620111440 934670094 444598552 642176943 618008773 547769073 472717173 800327559 637808793 496050383 770109044 200553681 296187154 116178972 683466847 585852333 619519443 74959036 183486675 285972071 46351822 173118784 848117803 871872395 150868655 885227417 292186851 968292717 691177396 616306452 165954773 14845388 49581524 188151343 77784355 83698391 782766488 358865123 630787377 569017924 654493235 847813006 408760476 39742258 668231238 160421578 107670698 556440144 869656143 228380862 750007404 388208606 559615872 957981604 738920220 859435784 343959851 604202847 440890280 484611770 730246916 355635266 576458548 182286317 705981095 434683094 833208974 930826152 794786308 788992281 97187001 190198866 894585110 928880105 749641811 408787107 597862764 680753832 367131880 216248701 368813551 7278865 136354782 346032911 756756642 368137583 326175975 293101555 295395864 939675627 43415389 413343511 390309868 443300990 482700393 767466727 956071159 289936045 181537322 769454699 471911974 702427441 27594332 941187030 513335194 280507117 486735974 757839299 844350788 349669826 462950038 914490221 474765343 528943166 245082207 504894542 445267181 309794588 26287569 12049739 185550171 651790368 351292547 42317123 220322284 847901027 168734043 929334960 639210822 14770922 353527445 119749623 871298064 117980699 197577572 839836535 37701944 821364526 436467909 176665277 676861058 862097608 199136827 594789650 950701622 978633273 511294646 344939356 541773528 302510162 864767140 62948167 583678295 973920639 780534640 15929515 178756393 119290429 821437666 189395995 598108525 746259683 397853021 698376287 67890554 742765100 493016064 981564262 414034156 6797193 802804333 748014643 93327379 868796114 22143897 920497424 57008484 123922605 214092797 550212570 2650206 214034410 817530580 450514503 240966866 223700317 341942242 870773442 984596740 383683073 257854213 876296583 51324121 479680570 554194753 140366418 227138550 204197265 539617076 96585701 537891038 641178775 637039812 376359018 390888579 630504310 918657383 129476662 721114806 173154219 170973743 656283987 644940465 351681747 719607756 603511305 977519231 898153073 268993975 776799073 649757090 234423757 512750821 902364488 120914202 722164747 148397734 181727486 622961900 218326030 458417728 460792585 671803177 688281871 753219722 986596476 686403143 501083004 711419542 835477709 660493529 181832985 899287006 489879189 159968699 279682642 153674904 448667426 344236477 531703809 503160145 161035647 819024577 216590707 119660859 309063393 32480111 393478807 881081846 803804451 292058392 453528767 995020970 716609354 778424159 421676545 984449038 293378170 366424721 835201532 149629116 702238562 875471996 358409865 260628406 900140085 549243502 544395438 880254981 171887958 646906153 955031683 359925658 98884350 298894772 900366347 999065593 388211095 303407441 604662774 664803827 310019959 888497177 440007535 766871423 792455632 969903805 459580463 80292004 353978990 115505212 76185915 263289274 884993642 623103132 818035255 90915548 904148619 137361708 121549484 70836366 747491204 879561670 537537534 671189195 710337404 98568836 851041816 439071579 755143453 933762886 821475177 810428510 465999791 749089200 10835643 209558260 511613607 431947801 797141760 546338424 772789033 464236813 880792212 627341104 50911570 502895721 638923200 901516578 196200370 152037471 631512569 905336670 24459314 787958064 656894648 393856150 755220495 525688491 784980319 337959658 391294042 286019367 689513881 166630450 251534046 919014179 8131100 385455358 607971799 634569335 38772834 119732023 135489377 632924044 580224734 535377842 432140745 448155793 74925685 155327307 400701543 368294327 346156646 372226759 778772301 23281183 432364192 464308615 82003521 203078171 864963929 469747533 428569898 297593009 903440230 351236905 476991409 888930531 693571760 139163794 167358710 876777921 731018633 633081808 736197868 269047551 92613949 246473963 195120074 102810114 498172447 261359752 292020676 616985735 336920012 526949310 943713476 69107520 75847193 69058266 676114048 595868905 599762513 351132174 328276619 342068515 684805077 42023310 82276355 434195212 870525876 884224534 219111275 192541916 263026419 62375879 704753127 937401032 944035099 690486999 508034268 799566619 155788089 520250629 610297065 457416799 241727088 351031331 894251026 795115078 221776492 253266001 917449222 868994340 891064172 99819982 530385244 442130719 696176129 899307580 701751671 701837393 323481349 94862070 800122157 359778245 103929837 297086841 388078712 406257125 352024596 742605642 430713665 641107484 837466257 920897166 145917562 966891349 633886104 52678024 358275547 680068811 828742173 456999647 38533306 605633472 733678811 189711564 105880228 335172758 35341190 483053416 477883975 384368480 928061716 380290623 801364979 783049816 777209941 737304455 661790245 235239041 67815124 634217011 252457540 996704690 370120782 483114255 791433961 543515056 792067831 111436314 637804504 613339552 225258998 263756099 65677165 681774486 864163674 988814551 848244362 807655870 874667249 226151531 848136079 386304844 976696117 382399332 699128491 888233793 438226003 273054643 626950114 187174676 451037280 118114303 252455548 603300822 257811549 925189880 352531511 706412662 817605866 722086748 668862707 715702559 52682738 45959808 453969648 237154015 186486633 969365551 287230567 837250967 365344006 709880950 958713458 594521554 561707401 961789043 346547245 544761929 746067871 313435459 665691742 472188936 330563225 365823173 588312409 348611301 518785809 170693427 378987120 101172460 43480622 220733609 770183888 835294459 471898126 394227525 235353327 300376023 827994820 903690327 25529579 492054179 10688156 398927596 400846482 902036142 193060537 403594562 451767016 921140807 800112261 403850568 623249074 457400079 360208480 765372490 372882161 494482070 112525381 651357864 794613591 636534316 205881923 586456161 84762738 942000566 890775356 310751209 821555313 688609626 669189102 466559987 153075031 657181903 958688347 633245693 553202673 648015420 979669912 840610604 625902057 164177870 38405061 529041206 826791657 7288368 955828996 710398851 670142557 925224104 227039214 780491516 509802109 94810029 668622822 529727896 76744656 54751262 436156391 114734459 980460136 357795338 19077222 681992167 158583491 649333752 966610347 638274579 206545832 345333345 771234548 264541724 182044689 340816480 996091373 653013052 201969894 81631872 106589692 685550531 861842469 260962460 336100655 647230683 506428095 637591921 795957441 478425223 800545094 526691431 988892450 323568162 864893284 539314102 540308492 918902133 500775912 186863836 860275681 260826712 809146496 136602344 959532436 651009876 102041870 377057944 540782755 3069515 8203628 482426933 481479743 703260463 816513422 483403093 76894545 469954572 743499293 613706719 593657225 447483974 701166465 562650260 366730225 61342133 201321261 504893134 622328578 53747299 782889875 995702795 256373152 960532305 279360092 591630837 575272768 107778210 700103357 808467272 480678565 896675903 395350044 381503376 71660473 481475111 666313264 116522559 256792053 218601550 906548733 204229879 975196081 741780214 994439526 710415654 804364096 931331336 172229108 405772481 153786356 313314544 255253575 441200458 284196096 47331564 694713540 371136480 233340532 926944512 122360438 925158127 841390923 777186297 688784405 540920614 617826141 422427984 262214593 990706901 689398052 986071410 468847624 260208106 871859837 679632272 98607097 648319413 97632603 730484845 945513333 740803979 934467362 981905616 654690362 636589957 888574151 700425111 235691608 882754073 911451945 491749089 371105081 822556569 527237902 484738548 206537380 959778850 586617376 265192616 143804983 624147016 960255221 817465478 117202124 579880393 205292354 824847966 163115914 153127741 619042147 792504098 305417479 778441020 293724192 6015119 123969317 959544783 73686433 758698432 830038168 752066816 120752756 117156237 395645187 858837852 159789110 523391792 402851900 608299697 673006309 644979653 733540066 706981496 447604524 545597912 935987621 728125680 619149881 115222890 554822336 210251220 797443706 229749033 390520894 837828335 499091083 551839175 239551897 943857343 676866951 516019076 586704692 135700072 462852561 809301708 878572438 545763540 449810088 90844125 467622336 4213889 441665671 651420172 615053007 664850883 610288465 559038720 183070736 153464429 325586772 515516685 373465680 308376667 279037560 447765091 465811410 380804860 348161155 403504796 200383894 728505700 726317722 92658775 907824529 813622346 886790908 50101225 989401335 945054999 613278208 992061895 725811660 91914497 76729026 899804670 334796532 550211337 396246472 228442340 521921149 364798661 508860414 303780880 6912159 933492103 569709737 893408665 117587471 529158281 986189394 301434098 741310653 260332392 718792437 723505187 586568883 423564349 943479563 508090842 834777974 399725652 255778688 42189502 318668957 82706420 345923888 308413732 591926813 886820275 22690166 874044928 844648370 109989300 745301574 603794596 921894479 998536814 136525252 746011038 747251958 996984376 73779854 250250355 412551385 880572763 270848999 343788129 454168077 561049158 254161877 805936873 593369645 412339439 727350382 740322975 335958323 185583999 25576822 567848013 195572603 36369646 45188195 891792581 283351350 510838393 158138273 332895912 710040111 991679321 891845057 259656262 602426821 129203939 113493163 839558644 585753887 886769551 442426704 733160638 979549388 186282761 992154391 495932964 579108044 922864685 823095284 705200342 878908635 194354889 755023124 382244400 326981990 91001212 275527177 149082891 847451014 374288965 203965912 614612152 932570739 915704452 673651869 546060023 619089085 202554968 494116559 167791343 713070923 183530702 604482218 49463269 713336096 151811409 276859375 603150389 626038864 669453129 671922075 463705080 982014826 624910417 449851486 577551672 67068665 503788539 730526887 856476282 779592381 879261650 490679305 95679543 332645195 453240359 909963051 781351866 115649572 94083131 753857787 100259276 645419621 68645746 868333847 551062603 809058113 867133072 739417340 205195564 43051183 449481696 193074121 432875546 9927279 214049205 571014878 235386595 608707590 596201967 581069677 644697503 474497149 314904715 484367583 424725120 905514466 867708339 808286987 465108706 865057429 566143666 313421687 392827661 12240458 470346588 666314547 927347498 164144488 303107861 973660096 304543370 183927345 939069036 855136692 127029241 317834008 556779236 988944749 294052315 842035526 323557157 54039239 462756517 218815460 731471768 795588798 479897973 793535018 829529999 879834350 98784091 30805452 274450953 904582613 101136469 856549186 168058524 12810005 114930207 198579727 171030364 901873475 995940470 65545400 678039388 770736926 748828445 693534122 694743100 264237034 706162457 826835113 732556615 112961775 769752527 388943898 223743505 50613205 154991856 90760334 812071145 835170413 238101243 69802457 858113635 387058695 126682716 41326191 728544167 937711099 801324846 811502282 759618878 44640360 378517161 313986996 514899786 810212812 28584706 262577808 129278163 462282610 916832125 456836789 849395606 87137510 446264916 987028725 572237005 926636367 189213641 895864003 390372814 242335844 32147250 391661792 312592521 878486120 111751726 175057908 841472026 702107945 230106028 499055799 663448472 860003095 765583343 800180810 595247214 937422903 193201683 141060003 459981590 298449017 81514386 136045561 269827150 448277849 747899739 26008789 17777802 892010098 425984813 88806256 288435069 694391001 301271566 40385362 176058387 124382360 54921013 799124160 627876587 451746923 743563840 173926820 635949689 459429463 833123765 204216058 320188058 688737135 353693921 255368533 47665088 129695847 339385737 562954944 793703969 574087366 822193305 653453444 195999733 184378027 750710217 76439309 607449788 557532799 260094450 151308097 775893799 775378882 608228554 436391088 749220035 348059105 781409515 572902014 722951457 695273016 554211784 824416979 333032517 625118938 925639951 524309349 783203616 460816 127905326 630621684 431943324 56226033 834611093 143056523 282415410 481652101 960665597 918533905 64466980 611509737 449231094 983026435 204485142 943069745 993229846 220335850 850256833 998251657 542049059 160237242 899849664 704076033 662282772 334703870 32562353 428574313 595000452 617050881 809859670 870976140 315794486 709299894 335880214 221863152 607524713 564671814 631420327 777031099 568904394 512227638 70326789 786411043 558888457 116844681 777674080 15847393 310987244 640532699 620079009 849170681 207655487 344967984 22503547 803092887 303062326 723592925 425496291 778319409 574224697 819925296 762122455 961699012 435289622 933759729 929535384 739357275 56935815 929947010 19834148 218354346 507501786 502191010 860181071 375473465 254218675 863055321 979659514 200693272 373093704 358356391 38793221 892466874 106779587 544713074 506758047 301843243 915679022 357600067 910020120 928164955 542904560 219296511 962024308 446444575 661384791 485003116 78042051 66073841 704631074 488279612 64238727 170758871 353885221 572482811 143348010 461327264 496689770 531395889 171445029 513007477 339310276 662129349 59123436 807852897 911207418 205225099 108699670 320025768 639773743 317042409 42070774 154353558 75257264 829657274 108199002 723721685 659510469 328526436 71188044 999213257 105810905 287353447 305621238 897508528 46170992 302363125 705831259 785707842 182984897 10414262 639412565 69555835 515575947 535309727 719013389 272090884 50131118 624948464 623027148 223585323 933523149 835034158 733336055 445322427 184196802 366987646 505821380 226121671 6068728 772907176 467357053 641895978 162962978 76556904 450192021 677652263 699394485 374469007 370266393 997829706 935577728 702502557 285363848 938698168 814679859 887741990 378797868 805894032 612083265 202898601 235372408 972788405 695954740 93456191 383879009 560106119 855456593 970764595 209221018 42049264 158793850 585715266 794506359 204325910 377912874 613701303 374349211 300405248 66092463 990544621 309572277 938702010 383122131 233267043 367688763 450033104 837191396 445378546 953927246 637878590 228225545 507538281 282805512 618961750 848107274 629542706 722821872 183522088 828562251 712701416 981160565 495863257 509772578 787290835 428700862 185383352 476213710 483786890 721659466 714461837 54294486 345254377 657269229 860107020 805693807 352382464 151176631 727693301 364997841 298003003 223772720 657161449 931322702 29262033 786762095 721692870 115175416 620760309 904385537 303680629 181365543 696913581 568187588 889882072 760930339 578431951 37813805 34223314 831161597 507169932 926295692 514782140 775256454 257774425 391249123 456797013 782737672 909607903 593412878 207356161 89920258 26733723 477999855 686314486 565438418 115881061 306866677 504405335 178128102 964260013 55552923 783124121 763837501 475755243 482522905 356820340 656199413 769597543 790222433 555423747 526106833 153818340 157468947 90379143 966256786 706844948 230334156 560436747 206391290 986743951 310549043 159238266 170425097 655427980 547865873 931045986 321036734 150908092 244438409 798834952 446040484 41201679 521360037 169262268 739922268 541136205 183063046 807653138 191912897 144528661 134211476 137403918 245572650 911349900 9416299 205150796 152785908 734065895 374767456 310327488 615745108 792938625 585091629 624938857 60062214 397072886 645254501 433772354 510539650 82052422 243259970 753439304 863286411 109044134 433667225 998721294 745412365 266603879 843454867 938120330 438618969 691635781 141811678 94230438 675315504 799968151 91878041 350592042 40270601 756231324 330328655 588028213 874631631 419479822 73205903 293046950 180365653 911971987 455860697 665016430 244672750 479194974 267094318 880513284 745343160 297204722 102875330 960508538 371624512 599713251 977221454 33491626 617301293 813491528 151543768 155566246 750086499 708562638 328774595 780188393 515737619 692240556 223118889 765661878 337210661 490890254 830531885 337188602 840519858 938392145 85006497 869587771 879668545 867482900 243405613 957436180 46663881 354703499 128548684 230144549 262857083 378279340 472466387 760784940 938436179 741908857 796835427 815497159 390844283 990748034 298639567 819167991 821005983 909611979 808512395 508179066 80125598 232788284 9276220 201298258 997506046 910844160 153975796 65278240 186524095 667937008 554974535 661001669 165353168 644399048 684842677 437285533 239878649 267152980 603585369 667710084 220151067 455350129 495466835 344812136 35016853 891718978 108091333 772179248 53021532 600932087 650390486 943310765 479604534 530730603 491527283 158020914 989709891 567279260 146822234 944005355 249511527 294959839 233448460 924963246 656436846 209129767 771182339 517638985 369580922 260920239 991548862 774438954 156028916 766592861 189734147 723787365 653756221 590769770 544752707 878782527 479466210 461670448 335767996 386553346 163704323 168239524 76680790 776228953 952032115 66211756 287006869 861154182 134892394 694862552 715555140 361110744 436924591 989947671 926907448 830932886 798356721 836251668 888590765 29990003 232806407 964720909 965638959 758663533 310576164 759129480 80612 684485020 814075975 733828102 296629179 825193555 6003117 760314943 42429909 218408464 388880959 12413401 354452094 56183848 980082282 641389024 285215180 65420213 326452839 556668382 371372747 595812273 464616601 927251043 531358508 423733911 947105017 225024182 784405186 680586557 149514863 460297960 521864481 494032335 90132381 483013181 105853569 900227724 231551423 542649655 204990 535285084 261062165 999766932 465461132 499709949 72992626 856100568 872342062 894204454 419294063 270623038 530764138 11173742 570508994 167291010 863829531 351102551 260600727 892553787 348149096 835775370 574352851 362840933 687686790 248891146 656024716 832966350 68532536 148005330 132809624 556925904 319801980 933872939 642195763 787340318 582694758 406136211 925062044 808686854 580971775 972371939 42662935 552271283 202857884 772906123 103174017 737149034 755111770 654444298 925638435 17936757 82571053 872976903 142243841 140802547 19949489 51154209 824993060 332487106 800956043 227754326 696289782 169233770 728095680 599968861 14469928 931597791 103484650 285461696 212835470 422108399 75229191 308828979 16860817 354827596 142302150 31371476 385052263 594967643 269289956 120435658 352891257 705558672 820911465 23461990 262799823 861973321 728241292 776209305 104808264 330744463 418552880 691571236 641139833 715218555 659430118 871175934 779219337 757539596 931050615 514572811 339734725 389557594 100213286 199787687 891600750 283974283 204183059 353895529 77000815 601108387 476825036 143636413 922283005 234809043 499354010 270560228 932958721 601218125 588264509 544438132 993807512 589856753 239038313 846979299 301900685 243844403 741564241 773459345 593335419 887927464 304942586 596579809 260015555 134748230 589606822 512784942 426250652 799880672 232609240 444824464 234517432 298208442 358109511 769007309 659332439 1380938 19312891 927663195 785894146 691324156 789765832 846198200 169261162 713494532 815233991 255356618 662445573 354691764 824327250 337530864 174151180 390053906 405874205 137752244 277746266 277654526 181387317 576725507 140356731 729214187 190041781 286081760 799902976 556248421 890623338 445369378 185254118 207619799 884430377 565705109 889550317 698326943 919053602 373467290 285296808 774278204 4028971 16125763 789445686 586573547 942692243 23476802 476099652 600427905 118926392 186003870 177539892 830198544 242546863 516687771 939249282 946086201 526935831 813501917 420954599 810492220 88438934 791396827 586964211 481906265 855442395 901364886 604123848 652053660 798345558 202911740 373914608 705258391 88933090 791503669 97497510 599398484 36440997 241922942 762353263 847128935 609384057 583579216 731400979 828977128 497692835 621008854 531281675 90534157 282175791 158936880 696751575 84857852 75281718 715724513 956101385 21053793 941915042 744816591 331886275 373622613 244171327 748735397 931907970 540124262 55716746 895384929 457015381 38611227 566644063 13898620 439006071 600696230 278976626 947791903 395290578 981064047 483168290 412480146 252880331 940892343 510416817 238014008 530238023 190688025 743975111 576706589 704473022 500762415 546229425 850086310 48942174 54505993 864381333 156210111 376974735 313344831 656199203 452171219 470133246 824071847 983084273 244943484 581947620 261255995 137751043 728950137 560042824 403913989 31732691 733656083 455211943 960723604 458514715 87797135 363181680 55056169 705242810 527346226 429168270 577037046 692416632 690477881 86231639 538952394 334564825 646437287 570898179 778810582 592643495 241530308 647047896 789131660 138879629 957406459 289192978 65004449 153899371 925175756 584963459 6460166 665242800 300421557 137440639 24736410 602359822 772869387 740701894 193731164 773912829 186214777 33666476 292809552 53623468 966118066 138897821 147466662 324520115 145759951 541237078 249173236 303854969 451474575 523260641 459239239 880028230 231121602 574321300 841048008 904637087 872496937 510717284 629142047 506342283 172683910 198039724 592406672 778872206 701086027 775393849 605277690 563805852 722261788 508138834 445679087 940722028 704679258 275276961 60820198 738459380 706633301 244445383 14192340 983411389 650677404 648286830 932458986 21401471 332090653 601647627 759463103 972444274 891523878 932169514 604055524 666014802 134334769 694639084 861052719 245027964 627254908 954402073 764849621 831040609 865706375 99266983 668028626 694732431 484916461 406634845 539636678 984201743 380730653 186087206 987932072 416364022 616124730 961522390 117971653 561980958 69536647 723185845 475972715 696708076 419532218 81140645 660778796 695179779 922377018 658950094 342791850 423246173 513263982 678047917 282066357 185496713 433590233 198968047 982221991 229636907 450920405 316908664 26039747 321372913 270857385 327920024 266636875 955186539 8780849 525223739 636520497 754102709 383061086 1557921 623610745 793337965 333289292 107151946 173698550 636292012 151904739 161223674 51516555 139582210 556501740 481450142 837879926 777284010 544113772 707311508 128940907 726396610 161101040 790306672 798823705 442222381 832541444 349206025 837828534 962993257 109012122 821042507 728204644 732846351 926897430 80320804 415294215 464724719 549799295 886931664 41613767 448788388 599287755 387647013 297437730 247868132 968912877 604282677 133675777 946704465 575011984 611039264 511700722 738290287 496729862 654175524 366182281 886959670 469638451 691041957 589503090 258643482 28390843 287842711 903494964 107504439 876395137 521420507 903471750 688313309 905616098 581709898 897612503 959333662 318398088 693477303 114163903 809354451 155622733 357715437 233055590 834169194 953444017 930441386 217095712 233511518 969871340 589931007 360072087 285290223 866476741 337220139 217919839 191629162 833487406 391225286 330270921 730736155 157237188 656058467 105620458 328164376 429493270 387102295 860582244 991240434 697965707 53414860 314497844 84388912 78352911 807817732 799743364 423235904 438797514 801229270 782723333 971596282 436135895 591991043 397918629 581802747 194855237 589883829 609850092 376796752 157080930 444438470 505254349 130798276 561322460 203098166 2296230 814399630 543301233 613760603 373452583 960163062 610211536 90787452 355506439 90305611 313245606 855854743 782002095 821254598 618853263 910117958 236041084 67195542 706028496 193388927 934862926 522629844 417596026 392788970 483553461 199828398 871478321 580987916 502965533 670761123 267397673 888749132 613678323 867689115 339563298 239474084 150473329 473861769 114857884 311630203 322336118 377101255 488624450 631958516 466966301 264492414 739380740 531332773 229569487 548202954 251979011 439386546 359469737 958818481 147531094 783620030 749846489 934889627 716993799 348983262 757936032 307139116 496049195 585193254 893045585 580792099 909248116 944701886 453152354 580242295 251662299 216905532 948312400 61701821 578003332 894024442 774745729 545182482 68629395 913221983 315396361 61963797 580759343 392973141 601374584 393371631 119339953 157616514 329412049 978045842 988415703 138894364 591375996 741647333 109260444 346496055 593206496 4441966 905753658 37746345 396525959 411766150 485630142 206796203 519611076 362420249 770866287 979701184 844165420 356463115 575952218 124790742 549736876 217344499 46151469 11167872 186344599 94225509 14853208 749514448 415151416 204518058 137361636 981042996 608064786 228609717 794779143 341182206 818476644 658340211 801762330 68500573 153275237 569844585 276420696 538407254 530893813 701298216 565489298 256563890 350908445 92119837 196153156 79690299 921406103 919754009 951301556 560185783 499024914 743395607 797900013 60019854 422848595 440104332 92542263 704708153 710200019 476277777 801918153 329105858 901155058 791290178 723662951 484849225 669736588 676730748 395578359 620185015 1895852 274413719 767891246 397508986 894356407 47779444 985949959 716866446 164649563 112988536 269783225 785560371 988929071 386469591 449568746 524022073 180236265 863355978 280772855 628798189 721908790 910320908 392712786 362371843 434719396 118503660 588733450 571351181 714149831 89380198 433702763 247136535 975221024 909392404 297114184 921425805 81103017 758055770 448778217 554895552 326082576 271572717 938087779 844493456 506513992 475954028 63393245 275361554 1515548 139442855 840003961 987133031 763091829 51105290 578504657 305424260 431279801 171026960 416692517 486269776 302912003 548588178 570169202 276764773 963543745 737700595 230281302 621432847 592434672 648413265 401621405 669285037 555691948 775042634 503762184 176248621 471943217 496585983 51878737 268197954 43353838 837367223 541964282 530247761 42444356 315202298 554985650 485944661 522742945 314016680 901781789 5471648 670551232 579176690 649312120 406534504 530844477 826230334 670861834 520446586 947499386 112154595 553417020 170015862 633791190 619720545 750583595 706263840 878401513 24853012 397476810 49518745 833261981 434741735 784858959 502040884 453169822 138807470 516950884 864132653 276367234 300844384 506949508 815954062 84757666 345653884 298783866 925230055 924202301 64698383 577460832 103406305 274719458 906090028 624063753 993356847 317542243 381091771 231152837 215673765 920187885 511242288 421934582 172684500 535381276 333478063 965090484 60215395 119957750 135029950 89184018 752744990 154637091 723365609 514969888 375682214 279190086 540023080 518466528 878944937 768739888 16527671 603579743 980500286 869696859 930892466 389163528 109218598 227466304 305360833 857716555 799160887 46253994 430687046 943454199 338878135 215944702 667960650 390535239 405095148 498076115 257623448 951291742 435975254 782277416 763910814 482966116 178689400 630002559 926531213 559102851 486932812 203745530 464738097 626617244 957369057 676563767 223132427 910051880 868974678 949342124 45458706 450905517 18372011 353716206 986783972 881374152 495138242 516182774 295983026 254142917 610070812 685560714 972741870 746838202 145923492 859872814 826087635 373491968 57439654 775047058 466611333 784610654 549487951 880627080 586723042 432880580 31599729 673282916 335502701 939364138 531841330 440758784 195446297 42717327 144735206 300074609 860856229 470397368 171831494 720933156 132618966 320252971 46581266 552816431 135211221 426865120 933575032 357008290 814466462 341907385 480725747 160370398 122579259 112959587 54523898 959632287 51781804 382270275 313609255 422437353 153836400 607700430 228789709 207727643 809028118 17824475 341280253 983407626 246589728 238651041 43172402 683570125 739218138 538411526 10942576 114545923 183500480 663827325 78999323 940029440 17587131 772961765 476260231 983398669 713232690 794948622 709147217 965401760 541224041 88427542 590969511 859578916 844329979 837971207 349266721 35153304 798445803 700592454 780109031 118593738 154975347 245105790 592387296 837521725 722507285 455139349 42365679 998972118 435702999 931688774 725463061 64616317 163201743 890253349 431204241 961352959 209131132 84683620 574997947 563974806 653329500 487932272 126429726 557760028 963606448 79913585 524891559 932170502 7680793 676382551 969096080 58094840 476481412 598997118 125869353 153040487 858932052 759010234 524372838 402535143 237914280 292659170 355761965 447934771 572992258 38090062 110954454 501558266 838382871 9806343 407789377 142978366 437202178 894848809 975811971 242618991 314230604 231061076 352121966 244448000 11382595 419538142 15486339 255659794 496870978 482993886 750369859 523339171 85668587 277498609 995663322 904158570 932898330 4929244 328339126 740395392 494661268 588373391 538149861 533939496 263016397 661632406 724785555 951371980 518011145 759887844 833738464 182172975 323973597 898679968 329849997 978055962 916703159 215314090 410244592 29497556 120821648 358915375 862677062 496672711 451409518 124647856 304611898 494453919 208024129 515191276 701910464 546241704 609533559 798012451 684088181 388255059 339231369 568057883 276059530 279182713 992964876 563894931 14680695 701812033 427823618 997748930 227269925 733127717 841664680 475651302 633121362 406610040 457245977 366417376 690213246 991963652 76051494 506355913 642549932 743825813 625906011 669172927 574408439 829985412 759849617 246166507 185707352 702358379 529500018 129997620 563224073 107370064 672970511 491674429 220638512 542017521 42133305 991510609 445645821 761784192 102536832 212973862 538703485 531827739 557406811 132987573 94018209 705950435 854672559 925700688 124189511 905444063 445032968 295222787 353461103 644806212 152808395 284025017 955050719 269896992 73072632 115911583 292439441 713198349 166567780 421171674 403885488 678695362 685723585 182559131 838118517 801591715 657098022 172428798 833778566 852886301 674499730 818213920 179962348 15507082 274178678 88551814 439727169 594164721 438895238 252847861 447436423 167641055 183168304 473588281 12683031 406638315 485203327 559341831 503771394 40658976 921781447 851228384 105902032 596279604 69944032 889328566 985376260 899861307 857853183 535935053 810855787 384598178 982044959 981691470 261720305 367740968 330871188 750408756 843959798 347481700 972293778 230557176 762885736 355601702 723772648 155386993 998335597 774059804 360887536 968497841 10855275 593837952 103330277 551373698 517299660 473498894 917415100 66898626 16679718 491107512 987346238 363790184 756325351 622831560 790544470 275707548 398800984 378442531 984690216 387475442 913711183 541948268 155035387 106741852 513425575 94831821 953264108 90308481 803786127 757563546 479669652 24765039 332615501 253451335 413011033 971011094 13243933 852002185 296070846 82340300 644392519 517896699 582163309 469481834 828600297 614465696 668628728 160691653 768317636 543317949 696026843 717524687 797638425 502250344 264562018 865438722 119614640 403691512 738289482 556706914 411420937 531133686 324350261 859750634 58875346 586636650 191594215 135752703 2836120 243112240 936213038 435417322 383005292 345181928 360879496 547561212 977026536 557336920 279945441 752446721 762805990 269613196 199370466 383654359 392629229 160501982 320070333 666576256 469386711 684919671 288737895 481191138 4028095 816448261 655694302 389181543 247492708 854335199 700591513 621464355 957772362 880463805 642741539 269751335 453055646 529068969 428073709 331565788 928244073 994513547 837870746 553877091 992839480 194919414 845878104 384346847 318263983 74029137 387223784 256447161 523468278 34489436 147092282 910998230 829284410 844325736 184196199 85660086 450519974 358443982 63664141 774895547 569641274 48222818 966558373 698457378 738896328 1067716 552669800 840965518 287327915 150104418 91110666 556480926 161377995 90802698 575962415 770583495 419384196 891032954 653651134 825088466 623457332 319502197 468297558 604020859 706741678 584746192 529383900 261298038 605617608 807740958 876053972 892562221 978909660 911363336 263337872 142829405 279414085 22315978 581024279 818820955 72819559 474460165 693774084 999687549 597524791 975138244 369765599 803003695 479317548 705325358 333651899 223264462 485446906 233648564 544175948 36021348 18256671 787644411 99927601 883321661 463914526 792382702 305082524 539038961 82244890 319284782 563932090 558792973 29452905 647293049 862715367 861428249 824600091 950927984 578226200 453969454 189890998 271318894 255572441 683014838 40571123 484257912 671996065 605114312 217692841 729234017 413074184 404055710 517996695 246172506 312545587 873868708 115031501 247725311 353885498 428293021 344360052 737510715 164223811 63659293 156112955 179757920 210391823 623508432 347593103 713405921 124689033 832300841 395302912 893976028 5893871 111576562 784508705 232941755 864622601 918606596 778357705 710519863 42901978 733096374 517866708 467251026 204394365 588338377 968866823 320174158 608350241 651766164 995439496 664332862 848187910 678921812 960308389 150702176 990549867 56297276 168835423 237527851 345051486 86627973 599417439 714718614 51735257 710042419 891391739 35905880 766524518 426805264 422994651 408825757 966393672 804073716 473581428 845473285 107875564 140514277 852256369 684758567 239293809 393899927 173824133 5374167 89610760 185829083 928335415 126488135 409596432 415440364 911246536 216560077 152362606 539238044 255783576 783352658 60290058 474695844 189159218 47274858 857964203 567828433 303304354 592585069 397272837 759312117 942083436 311842809 905730857 433221440 139017234 73557354 162910641 610710047 479698581 784484616 298634365 941754479 660560964 577517984 249492653 433866501 127992870 462279220 904010865 782042887 6945612 71565243 45217940 533048885 750651582 720983646 978260518 144843517 687550543 15707726 910036106 423330313 118804811 737821792 133909886 907296461 185126622 535526368 286940396 806379498 189756573 802006916 835563144 842546246 493923404 866919249 620428547 37699752 352996301 151965513 248210479 387780202 665780165 84925043 603454495 916530104 941043202 761045197 561113854 169609495 496436526 261092584 586518110 855953079 455926108 140838511 470959283 456390406 393983535 759493089 690823670 788552500 284574456 313291092 73907155 925815779 758891055 810795589 86203936 378672435 37381549 820052803 343396433 477232680 69442863 416740072 221667549 604113426 646876297 301877996 263900186 887701940 79369371 378856601 432140399 971727661 663214875 912205856 970532325 692024688 477147056 277326190 495406647 883600439 126922245 704679590 9916918 576371697 521058609 693921487 826183718 810015060 117660025 909038956 286088849 702536709 587427954 816023475 183803498 335882803 10681365 467803081 579668907 623770812 612517486 934629134 347499724 763068425 643466820 703345269 237893179 327895456 274777962 285878918 859088730 220616197 997924437 863514144 233319414 560878765 293653439 544476924 237343546 373550917 775234256 455260821 528063631 967529373 558534914 626416640 472523078 681477866 616261904 583437406 587584944 150448899 609410735 572433521 513905098 81337568 591571500 321190132 161869922 299509488 672764097 934778554 441524262 522727364 314159704 417724094 375070932 955831216 196705821 15558026 50135937 86252444 923899167 497955597 347985650 719188626 931123953 872018735 872612306 946539661 20529923 212858927 35957901 859665367 874885755 611161482 983051384 473842647 370798512 357837164 309976064 697659170 315185311 526171604 520700751 632732300 642195249 38664150 719084175 816123248 820122008 714913098 410964264 390390025 242752709 666292503 645334804 591242645 681201363 983659381 85220387 588577776 719508460 921705277 381950021 293985840 968763303 38821279 89206048 665687774 419910919 621917095 818797380 897612856 893020687 578038858 500193073 844963934 379327448 968836773 924180005 554789117 237154792 342842277 937680575 785130444 780267219 283035218 228524584 247718837 923783274 801617451 778361834 195498584 573149338 121381034 338191458 477865759 390112079 81766266 696274724 719288434 784911471 848858937 222929204 44446174 466713898 816538408 695835633 89723875 579859911 732016562 754918412 489170075 750706633 648734520 713223742 862030583 119909190 122491162 932538281 920894107 449647060 88117420 795641073 899463405 307798870 507898309 140648429 515682121 117970040 353780475 808792670 489446308 984967026 342935154 816248270 362951583 921756752 682771414 65689279 238035325 303980258 156058361 118068495 382346655 444292610 42992073 951004367 32327552 205253814 455276479 740918384 344973234 65290610 473839282 818948929 707369365 599145795 511176013 286353719 979151865 294216349 222093913 12634291 851625598 382217092 822243407 43607349 194807744 941077737 378246258 815697134 825863090 660505540 808851473 762527850 90365795 461421618 389008804 526545904 357822267 801426015 91150192 902188467 105027957 272468159 991356993 411854190 853663182 557018271 231754587 730461781 855532946 481842765 592277526 800343718 417751242 623863466 452693332 737821090 61151252 695717145 608093508 691248651 226950477 997638048 158378464 474271361 253069533 275715636 581533550 350695898 141959358 175156019 77275336 112969942 504761993 148671747 515685274 336506675 751112328 722131827 12564381 270594227 683328678 8960974 335663795 846328782 530253282 173202175 319462847 856721295 818483100 850057517 913422094 448828517 453810848 721239047 932251568 619787814 799789803 871726295 168709166 182273892 682253539 37183859 708364893 851374383 965781777 884375667 87640175 834359286 831539954 442314846 276661020 541805169 488467288 529028863 383977848 342655285 721086451 267562194 668344912 960441579 149329203 669923028 757221735 810756891 509069670 452490660 3039366 860625281 673810110 885725110 187175893 402000416 463299388 708917831 820722334 71722684 900177958 320550162 427127510 490798292 891193527 995245975 320695908 19504304 546693003 531320619 704050437 728602510 553633475 827889127 341378089 635820218 432998150 611609995 913615301 68126548 690682415 211588048 72148940 553921786 5888947 464254813 853927008 408211998 86803159 877173219 368157999 546802624 773072254 147227256 714877329 145159875 842534631 838693628 378981862 858531950 513215395 651011458 725466574 815506260 744397286 750502049 112970930 193202012 754236137 343342424 717204001 910910565 858447418 530600533 885892685 709435776 788002471 580263360 571269331 917822246 358167584 837366920 952726316 687847391 977375204 487262160 346270760 696868371 238428515 446417211 896503411 155776509 491205896 678007178 907164850 583699673 659378885 722935891 761479121 363231130 467302524 460633486 961664629 984634295 241451734 665239598 225174469 469469646 416340582 125605694 303487944 141289449 297584312 771699496 572515161 382428665 708584582 971340793 149463887 293696948 110954309 37856691 43642679 605646642 285010311 291603886 129791709 468991610 444830625 843320645 427420233 270943720 907903361 240752370 516885304 191899909 940638123 634700348 219441215 275323293 669572921 591792087 577043145 531969056 976062972 246187548 965051186 767256512 469926614 789833717 58545820 717970303 694829418 856750224 634207127 207568578 957870215 523693215 572054920 552945796 841821086 380333431 920170026 887143498 422928951 16378928 521967065 330054478 120901024 558108934 258172091 939189532 947020613 846028823 830883111 654865442 380534546 440773403 77346788 518868006 568687608 333821832 614291569 832865415 13911810 119787073 814748272 885385151 252645272 982693458 989236038 290311658 618513940 907332084 456612166 833841708 756942541 26452171 727554792 669127655 573020492 690485638 639498690 531413483 998025405 248354950 260700095 645004963 15508205 879164510 663961340 425636721 876314284 837673245 218677914 443468226 996692950 730164285 13655288 134235462 12666637 850233755 180873836 869836156 6330435 547705153 816728977 576098229 696206740 150711549 766326613 986723747 542383753 708520983 423370292 368317992 303509623 274737374 503386473 45548755 943452028 521292202 963809677 606763783 975646248 452337459 715517664 881890953 598125667 160007502 226706554 949710666 157808355 623077776 304492030 821127919 695285901 162513388 44805452 428200929 439443766 970674226 276323136 695140764 207386736 351016187 656621609 643466540 458197290 521754985 147196918 57140811 280027559 647402972 934365871 618317399 798308214 265936821 297117734 455165370 560853678 25218163 643235783 383052049 635152641 477184087 594726724 561014177 768182515 698886061 499148794 105093147 320698433 178706161 380211057 990285948 64031764 717661144 232081467 709810724 368197434 621947798 999300663 428857687 783027478 846108999 382933473 146892609 181967088 175877049 203179251 742809506 503469709 43652231 654522476 128081199 746311090 617106652 745350799 646530015 643370266 628691537 492924160 547659053 626420436 138099165 71479046 412436979 983687464 311051279 941559673 224699810 325391782 776668398 826872251 313785157 941410432 402304173 221691760 881757130 164272202 201009081 589944057 394401817 857198929 205471608 507126232 692674409 23941331 304492841 459170364 750106505 691590444 534966780 258340772 166052092 590797078 557195547 364525594 955929549 412967326 749495764 839561454 628652339 229268143 798367320 740566978 671684707 668623914 212581526 602121414 197006160 554812693 247557249 764132015 853416648 239189379 197689472 723249051 755011653 697636121 488085712 107040813 923079544 898363673 12175775 605929629 841843687 946814207 586920683 647485716 461404983 117172045 197621783 53535753 299534912 514088898 401961821 151153797 234775008 871381098 134335050 865863250 123442579 511211288 120315150 904885239 488030494 163507777 551000869 443289890 465761209 324762695 803237100 414427781 847331885 783891490 189822573 679855414 940154968 538856292 688534165 814497098 490732168 127036262 198984127 520766179 71510662 675775860 519266708 800544283 335403960 734508129 339259702 495996177 954944244 950331355 252836336 247784585 484289776 215387592 438808638 91373633 160801150 412655088 949926131 280917068 31387030 601321504 52416942 605102192 212056115 595001693 898186074 343537438 228029500 632165166 254083966 375686242 961254597 151605672 139066074 984771308 958599275 594221127 428571705 810685559 840209022 25071306 421809513 740360476 505713167 407813370 516514898 933093883 630766493 63644026 929054884 889693030 229651777 975218003 442063338 774265803 264445074 904700349 295494922 66012520 786182544 644824287 937374229 66414662 633962699 440724285 544480627 596899898 116447460 113293291 532252847 149258831 193148129 998047238 636452365 760276298 148670780 925164537 901345616 47606906 642687251 95605346 416326643 71089612 57703487 198089283 612818669 502370800 20789021 60240541 508005992 143684849 642074081 562092675 714952519 119661195 577651928 976099145 283349548 580994255 732699423 821091070 959088222 486504359 715255729 729216378 540211320 120006009 776976588 205162802 917925026 986270222 624938265 399594309 695848665 836086560 438096532 557560755 771545444 918597390 400493741 881564679 444362855 754214071 407422763 127647602 379007833 685835024 736807315 473082941 303287597 627352835 24932061 644727696 289119896 195894898 456259945 898087650 838035555 656974268 629579678 938418520 116187933 748873024 523665654 952515862 571423790 290844109 868275195 363756263 964076777 725929030 212792892 151280652 967223147 452714430 813144284 793525382 118184144 422232892 601394850 815829813 118137268 127586428 809341528 162811947 895384429 139580026 486682820 5645299 763228541 246716457 139690618 833423229 204280738 172108562 321538084 76520336 88858167 965335529 624412506 18427942 734534825 594535710 769165781 577301538 232709078 353823163 158049135 459146437 966685079 575851384 217660361 855558989 207879626 422806725 317934910 186262136 598542766 791789396 231613836 66186212 252032805 736751307 767210372 205809631 298569981 572666060 869880588 362895652 303998504 364765751 166453024 21377341 684499213 672608142 822504975 557813681 460672316 314011277 330126225 322290279 726550147 182752474 620437078 906876211 813971924 485837718 409481186 104456522 391921650 694288333 888806155 529969357 186073822 760322931 203423366 41022271 387213320 511800864 625616402 870048071 290426458 585418645 163217745 202264652 385923425 239497040 647116974 81259652 145819471 548415527 984902873 474160331 115905272 133578569 706756890 822386287 393858825 416768574 664996804 110379574 425599859 838740418 136819020 902263589 662621576 451679212 825573141 543208241 568337878 622671246 558365967 927691453 798565265 479828437 200253031 755534844 692596648 571278796 591444403 880263618 937206776 846788505 233516471 69651259 641697151 775955232 152132652 956181893 663745800 909895979 91951978 291148316 809608068 81491637 840523698 82752123 271219469 255390930 576025282 242232329 536233329 870026073 933620358 788904000 204040582 114650818 397832301 17670350 771617628 440001874 982601679 157644328 462207896 107758524 133954665 557296870 100379771 332635729 909332786 816161559 78083656 944136598 725832556 457913104 521892374 262180172 840342208 94214444 494717343 410283650 829889567 949971387 668606076 510076177 903851292 338954518 112135880 951433869 471444019 388872624 590062023 264195091 568509175 484973091 81080643 330858381 804988906 852405532 166802788 688450840 567817819 173356361 46889649 937733998 926897485 866707773 180274212 820994714 969871338 87784848 442695234 142650083 83984682 662534456 434328121 820195865 192675603 731603868 240087354 33693312 990011619 710607374 30920798 772074744 819380621 984347103 643315933 221225140 571302703 376768608 443087288 109996937 925546058 74780 657606934 236411727 977483245 497274404 433186787 551882496 171080179 455725450 2723953 706604580 406898151 982065868 606291727 292757994 368552337 372183721 511990553 139987492 278181563 433350660 790629166 169887272 270966837 689757358 630588959 677120664 550835774 731234753 432130948 102907823 611466134 145149076 367974950 887892716 649287488 360984255 659684893 802512556 661021916 83275151 648376215 793181161 409173897 295198981 48538484 522604373 497909256 384516994 162002839 179220182 314994426 199528040 892308261 56604884 125732157 748705812 888439362 173336928 695186154 255098164 441073668 226440872 543083023 632792648 991105834 596528665 762396866 701109276 265666693 269252759 56433618 57247086 193410554 622857035 695860406 566864457 166995947 871197786 263171633 29416416 119489234 980016817 767726131 696790738 852457363 865695653 268340641 684045398 28494974 133938221 102409261 504243294 793080081 827004317 712732649 244662652 555830345 478625998 464686155 480703391 709121837 180086638 672376049 767811236 410447995 155005982 102441071 893691001 132922144 944003107 489245171 220359813 97114281 137435863 882603420 350313527 147059497 874815394 275564210 204288179 783488920 129802444 157748028 958734497 819650604 706659435 160326935 504916754 740213247 257557055 447846555 752426368 607341614 89997456 147452074 996501867 351620735 906720307 484895711 143714781 972775569 63038852 177432155 38719015 85004564 136919200 922568415 763454393 766544966 231155975 52666739 351677923 540556178 22291779 775762081 996685166 612204417 795271147 581427008 219432582 690428636 663634469 9149697 764412553 449988824 94149328 671688628 670383081 958297486 464778058 139358054 836469297 227617075 756098077 493550019 466505169 484993752 593487949 654667073 568931649 187438660 137453941 986780616 727644549 119805062 669072482 568778606 488409707 300954432 725521720 115049856 726067954 521528284 516250515 979875962 541256968 681753539 734261795 753431281 394588285 234066791 294067635 417652107 61603550 462158328 345392294 415725533 880428264 842082689 879084825 361162541 589186579 835761657 31345116 440310089 996088769 925358214 848453178 388509692 919872899 129717062 57751484 619659354 264873317 956402476 956171610 906419601 283450235 325637166 924365981 962226417 290611774 853638287 786953161 954649200 440461336 674213700 23479420 813629721 629880181 158400932 436170966 859966280 610807606 395355274 418157826 461281454 172210271 788307968 135324771 439522436 391031225 385419001 992380662 863209677 919603423 131409402 116583296 422079235 748572423 853758864 761999271 50473324 787835810 421125620 967122738 739399831 903935413 177341643 367222641 822029162 292426072 358099444 318097447 802817770 353303125 617989118 100436517 737046298 621009707 362147069 762452751 756357708 544808715 674203692 638576261 830399945 864905601 747216205 93860087 21221355 203017810 750947590 786176334 558800467 11639806 501603492 288918108 127058007 684196144 973653260 760147727 508751625 872392204 456014295 571671451 839778045 327378743 992709746 804450544 504129147 73603378 908592129 528991912 856987127 220092876 297232451 662757813 839227450 684346991 751432841 962258455 134507007 358112967 542638086 637903225 253960254 650335857 70210887 396954342 273606247 636682576 179421448 711395807 339451540 845054788 563292727 196356251 571741740 770783423 224084046 32462908 366477152 556142043 400871308 832986829 96474884 436917518 307437787 823862807 149117779 715858995 801707396 657024843 223719654 742289326 156647848 17026459 77068035 739260929 357084092 550326959 483446331 108151942 146163054 246692187 93431640 298480646 558019080 215794158 907218397 900012403 420611081 886128439 79269825 485702848 955643675 614180867 624492040 668527984 117179691 822898791 758475636 907515676 995005326 543720061 444141027 526879327 656996071 849791921 484547771 967723498 807836152 446549140 375721802 599549681 147806582 254470463 468826628 66753215 96969792 493222078 304089673 253103297 87418558 438143838 576727514 759070828 148465593 811156660 943046484 966641207 780240235 733466053 429757863 928542877 99621454 612611066 15385986 207200116 246126530 968341160 401006006 783428819 404686009 369750464 576767176 692116421 676790169 141391755 480061615 148106223 199914672 415388510 749199517 974134438 516022893 869485090 854261185 11865189 355742951 433951841 929293863 45375405 121695662 179726029 63360784 300038191 659788514 468251159 613741353 375310154 504607907 143676427 647330443 465482092 519874335 528170919 877439037 231230326 720974006 307744478 319788732 235933693 806366202 5750349 25980503 996521648 724006250 460557259 94616706 525250348 242142020 936804763 645130509 350020673 420050249 56276755 79212128 526166775 795953339 99010875 345446978 732705562 41871008 510113283 623548999 550846702 500095603 232897107 264326841 407469866 226141702 249920322 798309449 858245096 417845906 735197107 186675116 313055384 331653217 506754827 280261311 199392623 752851378 17679565 734258080 101256052 498563062 173412837 672077617 149965568 246990629 441076726 537165855 26549130 501583712 799602845 549259573 265718282 151013909 931544398 57340090 9650519 57775116 977561751 555166397 252606064 958021250 723805739 202834804 895552744 814363473 843426061 498735284 831563042 836008659 495008596 389297370 16238236 865264762 736908948 508329579 218106092 899620628 403347132 137232871 380878478 83116907 746630536 888842205 71170677 607573099 865558554 15859685 301239640 102025075 394551990 187334918 98180997 450485656 312375297 90500593 437171971 75962918 255910026 816468185 428025709 952971954 738983281 979586684 932882106 17472667 291761016 407074101 605273727 652625699 580487117 121958840 588095978 783762637 667125073 907588626 643467464 383494426 20872513 419856499 853241090 788109498 428810413 294112228 411039645 980041977 552863134 486860918 752859393 599694874 245590282 953860886 707611020 738069917 564115124 311642195 281074776 796050341 991147297 691951230 239511473 440596957 57885163 444640834 814282928 178118326 715578937 553826683 612438430 647077020 495541646 975522498 612445685 76324605 980528002 718226144 248727082 682260279 382953519 113427647 878819999 329701543 607239999 848553236 244773931 452705536 50157472 169446959 117808483 935054116 721760381 434875236 337484702 504488936 684391257 170101829 677177654 114240218 288969647 109300791 446804506 885159830 523267173 86249564 665948774 344787435 475497156 824526990 787704645 728902565 968526731 622265760 897530088 70389265 413841926 887701441 145237127 585371308 776596156 328676068 910815589 386719585 156257577 228343636 151780371 515081127 376306385 68199043 100714908 514592826 1584088 741688535 268904324 24515474 252375412 557877824 557646647 219299216 102490613 386215782 467622651 737355739 969282359 2068113 698179578 602166152 300469312 266870718 821091143 208431697 315626623 732486573 122887682 336672240 570003550 658091853 597353975 12127710 690927239 602271719 220576111 7080322 104996585 459294944 386003294 402590321 568349069 855762783 75581294 598979231 863393386 923611066 726989732 767693291 945298646 19379800 201028306 655307272 204839307 293782159 214889890 850334865 359609258 986168099 514976918 520433458 228241323 258502735 356363638 6063050 942174845 800252341 212171539 798753372 262478438 627719972 80991341 322613296 166231265 437746621 228601559 545575802 353843347 289748353 246901589 4491237 981996106 723737531 493104211 745608306 710719501 773372887 205050771 16577859 382894170 813811229 444455908 827553618 145926903 231565172 87831730 200459571 752921082 116026336 410886357 815973401 262794799 960333729 533580856 767617604 448408499 153801881 19792433 638142530 32094754 191185830 71121233 662776235 984173772 79201777 484485052 212176555 343312570 880451046 950036099 540796884 828006034 903074588 920301584 550718825 525912267 955737645 665371325 981898360 466277902 143604043 726789713 901791964 211990599 92251351 29836412 925250135 140884098 146566195 229322676 998485984 95364752 96352058 168957143 835400405 273361247 474893211 339909818 790673007 15742130 142586306 411352671 926671440 907903696 203755953 765310376 986211734 314473261 872839454 679295302 793466342 488859046 296623816 309763147 733248533 203084369 59878879 506546885 192739172 566094670 260757286 106611496 91815184 713172644 960529724 502785833 796299577 111972088 392316736 107748430 559343611 655723720 188923895 834635050 464228323 983634664 999079386 161652647 668183339 935063446 194242652 494508889 229879139 983209155 827158818 74101863 564155694 659010250 973441947 964982489 266538128 932701350 768062682 317021483 333404286 136632029 951691838 365245921 652159117 592535457 183400802 40073273 372832880 326040584 65756452 433384918 907859687 680280469 530065901 936449989 489059330 458401004 446129610 281371976 240408917 357048968 358161688 619432083 814980928 855230112 248217398 175610475 234444185 654963413 778510442 2417336 232346614 802203068 996210106 906588426 40320590 548265978 785543228 760269336 800877783 738991325 735856899 876820033 407165170 622679274 949380628 168249433 191070559 740920071 488307230 212466797 139983444 603696150 322303939 203231112 602512719 191994870 400861553 751965948 580614706 946329017 284495464 48554039 74508105 349800170 975413155 501408617 770139080 660897697 507243426 947754648 551195743 270602827 660456976 22761691 40437231 191336152 420905947 168990082 588491173 443970436 983825112 15766850 743939687 637587442 603980992 393067991 365121945 198360411 978376095 137904216 269756292 864347795 619510023 357733883 390127987 804508847 357268242 51220839 778100547 804304484 584684405 438336498 369800025 889572666 113026151 732537910 470141541 162936880 353429265 989342669 603236035 566672850 712862132 411596619 535719386 353640512 665808314 981306497 953352989 768689617 752336485 2113223 234727947 966114523 406047233 567081687 34991962 381125726 46869325 380777945 821771012 853529241 305444381 756778707 454689791 397822885 423062439 439882671 527142236 499901913 109640148 427001363 925496101 743373096 45365275 205470138 117203012 36206811 994804725 132211084 613085197 30710803 489910720 420060212 532719338 719744652 205653514 233254062 715365971 370311590 761137828 539257564 315315112 531865393 375448208 874209990 603767719 870273686 166249131 882510757 944624578 886576208 644651615 123219077 199029203 606992433 899924343 392616307 978895009 105615090 900265556 862051567 173800671 151403266 223745561 125339552 252903859 201526348 605032210 723863107 546403230 758973851 662131736 405749177 609702814 23398925 26163930 152994999 900463856 303834292 151458499 59378876 54809138 380652760 371058089 113622419 327962834 676054823 746157485 735244030 332582609 615546625 770322703 343022858 817654128 811621611 751196915 164061685 976110756 624408640 599250098 174600597 409062863 61717814 575273992 459883322 108742162 508454720 171148153 702643144 987540164 709758610 290417722 616973184 554345003 806157437 153347578 73995521 806898565 319973776 865417868 859103211 125413105 557060423 989734967 678763111 353790712 250070774 932224820 811202195 257370626 145033926 565568802 220081174 302154145 80073835 932167456 519511465 663557770 860271770 713727869 366186052 774120042 216685578 422127912 759834662 662478642 571631837 681340118 147448392 84655273 672267385 783282797 297362478 834444103 57693407 376203869 651237780 755690940 651649675 481135359 232946140 426006300 814949260 184667857 372106843 168666484 81123883 501063438 674683676 444754237 910442595 623841781 812317482 888536929 768320939 981011523 86064933 557884619 861818117 76494173 434433450 115295243 100268173 856510785 643743385 133939086 350651346 531089049 778870110 671328146 670242149 987385127 515913881 725255717 457095809 498315636 62197190 980843155 327473992 394632079 252816135 65832654 735205916 210377373 980507590 738853885 695294341 569399543 128840251 994566923 746647437 173116706 67488676 558208714 515603485 928114550 160208397 991988703 151767218 500953902 588395484 906067035 447899901 209563588 984713492 912296955 62752252 560828469 177843574 227148496 801362731 234141420 871448070 244838563 685469334 642701310 796999576 126951005 778404792 251726533 780427818 306834776 341173822 24258747 533107046 89338973 218153720 473352596 288864316 981305472 347182662 968018053 380181900 664998267 896361612 172086243 252012415 390514769 591344658 65372698 128153968 507318942 225679308 124695822 389529572 568013453 743540487 100862080 403809407 515357798 70537654 907467257 334015239 588679471 702285111 330024848 292989914 857462867 397804263 224018945 194554988 87528585 925409539 542269081 948084653 210494214 349717661 951218744 979998176 156245553 335751836 860964952 446601071 408939147 669570583 608090362 130360393 874166267 252550407 912635000 596042729 113987907 883006494 543359695 308617467 749321168 634439716 166013795 186333290 217024949 535113176 479809448 212079001 895449416 295505376 418890221 472361113 1776084 856457854 262753121 983070500 836041845 688246416 522510458 608757881 262262164 644162082 207410841 178539138 278231102 174969362 558096773 790500131 611455811 26838998 469430749 205635 650632129 176973112 592761144 652240347 531709884 772202905 44261486 545251295 736555451 785167265 732042516 11294569 233481389 609031427 967617403 615464345 333871032 466414988 679235717 607647765 923075694 214127224 134858595 682520723 814322808 483271486 885507913 189151102 228329452 412344857 741031370 780242197 402446834 609600956 276982392 547753369 327880367 655680840 451863219 995353403 129279179 16893582 611304620 593476420 301455247 595810403 273865705 661231662 884596048 790815454 522701324 36407029 895973580 509872886 971865736 755430605 579752919 934596885 215430906 463830568 478224875 402613423 160139707 261424149 700962297 277541564 203054607 352361135 442480434 632115888 714765433 450928850 637148278 852363627 492614066 362894990 799408186 166025257 36965831 878658510 634141041 470445436 644760799 37847053 522742233 10025267 561684860 551671104 330542847 452376491 880615805 762106301 300258590 424601645 873506250 350619042 904281014 368445911 193323638 749558057 433684658 860648155 238661650 621175757 630997901 222523165 449536272 691968119 50517659 510382467 737239149 671424145 82917413 664712540 960725219 646665126 167914417 565896258 141087365 263083477 141044064 225669508 894467210 878447582 198598808 135209723 277213217 649158173 749571568 69319944 257390398 748891403 630170474 633077877 298472545 279808416 580138015 970305577 73323515 784539983 96631024 412756885 431568886 860066124 783881034 329555708 50729129 239496266 261285662 177371650 759370403 802765308 817536676 373871046 931988526 302261936 164303566 760980620 7982088 909575555 617257149 800193208 68008182 348543947 527868668 286398358 513330892 814714799 328369103 146992612 724787363 525614255 516666653 255739424 94238334 566996603 748329839 312267488 17923009 754426526 693605203 185606281 572861950 909071953 948662337 110971427 764229664 550582983 449770739 303469097 512814234 14535555 470735019 944976816 815282958 285845554 466019326 472548810 198634121 235245920 911664951 765476677 105175724 445396189 654390436 196750283 744344964 887943875 260565869 968230789 133292651 918471499 231809983 215268375 864935341 249846316 62804866 396294476 521566071 266335280 2887334 223268561 470631398 584089914 739896042 238672860 740424156 303231975 863637065 328403500 32039372 229123100 329701922 572284639 386516966 511133496 976714975 293935793 744197195 829001592 104222264 874739283 957399258 736963599 652060387 462799055 76406549 341188506 433204327 683884913 971089369 122564270 652972689 383548046 870159043 203077804 846828350 765006923 913702123 812599966 860499971 465312078 382713770 176677514 464591277 696728799 431485733 917091586 387003886 50076008 191446131 966493394 839204696 745175190 768534095 616375056 823226388 54406001 461940195 593613323 786922746 302874683 373438905 488105749 787432327 333794486 958465217 114847365 173584674 664233407 642536271 793054515 553887741 726297740 445353812 170565070 110897284 812595196 998477140 203859215 241013411 663411243 272521526 190785166 5148489 329342718 410659030 579249236 902835508 696685347 386418145 440956750 366597159 352324211 704613314 571403133 729852974 363369706 963868851 724898205 803765988 476974023 888530895 257480075 104508379 740894789 554982382 243145913 643038548 210838006 25954011 447710196 526542718 979716738 331042277 729768988 895492642 331027569 579192183 8537753 90729326 944353067 344245421 838285375 798447240 22059153 997110262 119199025 788047993 155173744 549235885 517795459 129631998 583028724 660539234 784717545 533898295 936146849 422871207 452907903 772732432 793324656 156913439 977981663 607020074 585403977 1661724 298536362 251742960 27448073 910982397 757153715 690759349 994611605 626211524 108094104 839830675 885377957 335762145 234310659 557711317 23828209 582617746 691413022 48791386 378308320 724479112 442283479 907479361 507951780 823860177 808366964 98929530 897262705 905373863 729799696 209734009 107674842 243294137 350788343 799287975 752519296 890003877 643708390 400053566 207000357 547999249 205496149 725744158 459849795 683402903 482116250 91860710 972512476 504257748 762183517 17744486 249344059 666470244 223997054 111403621 930515383 491385965 576909652 634835027 55822486 584635116 659571602 737387671 664808098 726334142 497553579 633185086 172305870 87786966 745390758 150730461 227332339 513177751 226572104 858913971 216279922 810662926 499771802 228986150 124843897 172142893 844517345 483610628 620337486
