6092
733208057 976987549 382873208 920420320 486737880 865175683 479137876 414263178 286797460 497914483 207911123 259851621 806888218 215845210 275540203 854050330 127493045 408265284 170047089 21767736 424293676 986676712 12652106 525290017 316999802 544756922 370052131 676720842 946937504 393188022 765315714 766830312 255253317 801509269 166284036 636394284 148341281 215384802 335072762 642532407 859159431 156719256 655931054 578611793 736121842 307379594 10326456 665354461 445311247 879613976 639579298 948245922 716002327 727039218 224902527 632473797 284873588 64836308 136029318 255352749 291107557 250518834 709666753 413917659 442737687 751916716 632712379 84328931 375606665 970113221 437559077 645129300 714670662 697641503 531919188 321837540 206510878 716469113 573256280 124736994 631072823 518285591 740613642 693038760 373224075 565519598 756328650 954990758 879817557 733417435 403401381 786186000 672213439 880288123 298139303 937924957 497696095 234036999 954710676 484057813 345856833 217658335 470506973 326243735 845053191 14446389 854919094 943393682 669968963 784263801 868755202 905794659 928939340 27648984 743291653 122757739 51411954 304649451 931912644 143040242 787992242 889264563 884230383 223656977 964804412 68655839 647898344 512287879 97597400 904521016 910893289 794111607 836768896 2958662 695627517 778128589 621303273 886514837 741020424 724533330 453030636 755139941 843814122 748299776 827456717 253564902 363318003 25851227 907791126 323804510 522821385 393833672 847376609 794094273 920441924 286305997 206931114 880349525 435948942 805039818 457887174 898093584 531979802 764740913 155352577 63924613 604431231 245679259 873772367 334155046 939719862 986005711 245404792 347574557 545646844 196497084 632555307 502064846 389971287 280738034 890604681 393188382 991262736 58493799 217418011 131142414 553051470 172799134 240994683 406501344 359467787 265817064 897261341 784530295 936136460 457947254 361182034 609233629 455532199 203485906 138133848 610591509 726027188 443138695 681765934 283039250 368103945 33423616 126758323 746239029 594387216 529941550 140050543 519652526 994985287 65552408 661925010 346137879 200802280 528093810 998597406 535011085 927948291 656361217 621003610 439448581 183677389 743735302 968421230 193986542 549410884 983642804 517118718 632863774 554894061 258719760 850471586 834951160 798572868 288167238 390055449 885963547 546014048 665393103 223730578 784785491 860947611 172402634 805644040 735319214 100309632 919608670 922817961 497034027 105551415 73661344 887974385 247833371 362820957 743391015 152139825 499405191 778867052 939954626 509604864 615845908 904233865 116623476 152300961 716633241 171459667 230281980 161473566 752737556 534005016 314150977 643778043 328028465 134034402 617925124 793294841 343023240 553019526 613192204 547502980 318614501 515117239 591318652 986286135 291744635 814039821 316625370 702480942 963292267 13130744 18738715 983031059 278187220 807384758 57542171 548167581 442689164 129669009 152908077 643512503 197827602 9538885 627640425 361377449 26192589 396781605 982410018 397656883 103940771 687794561 341191004 758402701 331952515 24081282 255999387 831732375 713979895 595705512 317331851 26383881 741945939 948200607 338661972 516152192 160602388 561761137 985863927 780997563 451215249 351348817 33807306 128704550 580969298 804715558 508068224 214679186 635725210 17413212 369630302 200688446 757930992 22098369 135800649 487326257 234086251 364656964 498687480 33321217 848886338 360138755 6653083 278688460 74482381 688591146 534728773 503480883 868835645 676622095 809492219 567776904 768623737 854721594 439273203 619336403 202368423 571891236 96668827 204842806 302002525 19914058 827794191 134577382 792676057 450850089 821563381 534664845 16472012 298135960 883129013 888994760 734021663 283608487 796349676 941931827 827925355 647551094 78686123 936929860 477539194 72278724 910309744 582901132 428155947 788410293 734313050 190646407 458852415 531587762 61629653 966591138 557149221 374673180 128746044 766439446 379614962 437281064 352253129 495850590 263114180 213050169 20708041 812994878 951728916 298791415 165549013 342104662 15117230 86881349 81297091 694018144 445155165 460187522 197244273 299954815 533991188 157313211 696856436 467453802 614844499 680511860 117481585 774131666 194462466 735789189 989433792 463475117 370446935 601413156 72089813 842331250 115499019 877698730 864632104 765742004 636084444 698706331 451078455 647363375 93374243 389836631 467510820 376916535 284111170 827082562 95041162 500764403 213648322 5244777 335457353 739569009 352619903 895455690 767868792 765138360 293910815 129586410 252145648 969238124 122084973 608609883 52968110 902203896 162365373 2259227 8592863 585861975 194000906 126777373 458129049 581535868 846737169 895129896 43116139 799002430 308842032 669403684 356014580 421117220 95973686 98116599 791034766 672679824 387945944 25973298 238057535 368437247 149389043 492012808 954486774 953987380 954821301 762104406 728780192 826676786 858819546 998011525 356755279 719555509 668553578 667593067 218677626 298600170 326073783 448417994 765939327 267183988 869089350 140565059 588181116 972787363 26464860 956884618 353955649 327207354 981770092 115435263 618209575 52260484 550063469 950171498 709708025 725488715 688377366 770065425 233209049 644670007 973404112 99985188 188695534 192820194 733110893 644776901 73773182 369837692 589886026 751282168 814999362 748703275 185918582 172805661 734873060 904726865 427409884 399305332 291353511 474953467 517250182 627654631 348974270 738086583 205848406 87846088 935343866 951909836 49241449 620839453 631179382 624909737 780586263 152365281 70579082 974085998 259185122 137676523 715980979 488660503 920129467 482129182 867278001 444680 646572736 954032073 281193896 519352667 287310425 225333293 603114396 922137761 433256524 3397554 973726266 372509721 358071657 627974777 223191112 473375240 784754132 661501467 460857626 964932695 949234197 589341620 454879532 735144037 111025108 187041405 892687213 505922163 207970408 329348340 920491778 121213725 473367856 717402434 669805609 537840054 292392842 728144168 230380426 439289472 214916157 861570937 558081873 108472040 367898147 919410389 501608480 415065638 145944369 707914819 819416802 206257451 179998634 434812417 323088021 749634275 717610744 426359924 983061915 957488661 392879501 293823772 205733957 155568498 924538246 190312303 580095435 531928866 242163059 325142831 498133341 378979464 844069645 388147303 17640767 689437934 634912166 7859312 770123119 766422066 546881275 982684696 166042155 310547829 199613494 193710756 340440062 330512718 959675698 292238348 526025958 308222254 539526424 730483070 838580414 65958150 499573984 450575279 465209273 419703719 1383604 798631820 49017756 448294832 99856936 20858805 904539804 111462668 316875739 2990888 306071126 191199911 271075555 574678739 104068389 496301879 874381045 240505237 581890892 272514418 265366952 631032073 867270994 335475653 704660505 207033090 247333037 634100464 878547850 425889472 362734519 652558551 498718303 337713818 114155806 74552436 478155669 182906387 667677353 905433281 787789214 396908446 959830419 509116867 197839533 645949173 669296869 414798020 854638141 753759190 462896829 208546555 105370409 935498710 321680243 8053700 88479839 800455113 759064678 641075850 943025117 626394958 651279182 909576566 163013881 501279756 247351319 727271393 348123549 504473012 660053194 242305018 812776580 514119532 802187425 891937634 517689068 161139297 440264078 873983005 359332729 439590034 11175622 472472748 440296814 329220196 462476298 963560528 174079090 552953556 621762317 145226971 92067412 83993454 209214878 841123310 718809247 248745936 496622765 237884741 655088865 148059166 387076286 47897918 847214553 416358282 787761195 82647026 479799184 689496665 437660038 418846739 359500989 947973225 176132564 411286133 968792622 834013310 466401425 203713150 944071041 139724435 679528449 905915896 784077954 878337689 743009625 285399430 263421582 461415927 889596102 676533413 416920201 727464136 842339735 560897431 594040578 997700940 647611308 561361527 88820650 287189072 245893270 755951470 203299198 613458339 127442421 574391107 980363165 666896349 640385068 223460701 18986993 934859346 854035626 52693533 720832863 372478979 643556268 411415353 530256843 546599893 628276739 14321217 896187942 647315959 5865741 132001857 484886495 13596228 128374008 799526776 636678933 878975241 470891663 210911476 189191502 697976744 938284490 583667000 533796074 285288738 445891252 650145721 680716346 645756789 238893790 82299581 257915249 454788245 679693130 752878953 382288159 543137910 455413116 291838212 485607691 714743013 312493955 292375689 932192484 143249346 751637896 70050416 727893680 950312136 255656296 146886143 317958814 529911445 669609462 535259921 695426777 1142763 957581293 67146886 439551300 572711610 808171428 157595424 345351035 775097229 475130442 700717077 153821136 514162830 173458025 580106772 948266802 811398902 946723994 853731149 202296829 122335643 148166663 339460052 347863665 298464567 72854163 570651622 928469940 988508899 777415786 809487039 227528827 21162357 868955506 934235171 347568848 282511961 934417829 672083019 988121243 622298274 61898438 178651948 289022698 94818653 98737139 951862494 794074257 297474102 330407769 97531749 516075783 210482133 711334576 645500670 85644489 527544008 826486436 156746993 200962893 418831732 452731965 501093053 385413837 982891574 483806411 186937137 715891928 389735357 876625566 705945311 958700280 666303688 101770526 17326163 165548994 192174630 883609745 608166318 737716758 638307020 995093193 706097938 476353368 462976815 479201881 700383229 291094530 80729532 554939989 286603688 302336876 603031951 136055848 293983402 28555833 308069698 943886123 210999240 621297650 989277997 230607214 131857815 783007227 108583909 367616433 132839634 933931483 333203976 129834924 196248955 287501119 444137679 336917113 156019452 560400796 868342289 451092284 105463172 539310965 891947531 168888404 602461062 66882002 809225291 167791897 37612855 471086597 69610774 626448669 321349436 659048643 954243135 506770316 713838164 52423938 333425368 261165297 97994910 778248389 839652020 395062951 681754056 373027341 361974927 581105656 483028788 216316956 81295387 928178958 890443314 252917128 217663377 742556826 194877732 73104820 215703154 649889062 75041259 551608722 986917793 103665515 240687595 752752590 626463737 531736885 262382914 97541519 157735414 99299931 2524111 597596203 111786756 201147602 262306768 458081750 736165929 311058522 933276930 873816483 285585202 287520949 247521238 896411588 705507128 955413497 683879383 210113413 639121240 107592589 21496337 174386233 485024925 202376861 160875274 514706745 697158201 509024765 186745848 542015312 258288108 472859133 972098034 566376248 151472577 87132059 458507455 811177677 793064048 698347859 483486312 350953378 572827186 727715799 529782177 231190925 322836087 746934408 312691541 441065557 786798966 573748079 719906554 105755447 251470896 350072977 154199513 82428199 93248000 975079486 512463062 108573321 659251615 920393940 350832346 750513833 112522550 310697102 806971153 566968582 905366650 822834634 546307674 806487508 167919357 513749876 939894511 668764120 302704624 360993644 912389417 892529207 380795770 825295656 844918602 81279848 7536527 334309915 97111460 268398322 934834056 583097269 677445108 491421286 209604503 494512546 642800560 270742955 116797587 188081080 21309537 265358882 291805432 738592710 663443512 851745024 977400292 63402247 572325705 236190409 957708765 278779764 864329223 681244818 107941948 608542986 465283962 317636265 855083449 392859523 735145810 909426799 114447825 516332139 407481192 988251600 254924172 358232646 588548551 830560598 115223161 86796796 724141350 375187510 398383116 209204864 555658013 365674764 398552469 255880927 839169683 352761031 105000754 923827476 96980600 295177311 359718684 789339193 939283968 259492113 584889560 899571503 46424409 522628999 702144643 790726753 38872870 962730240 182992770 999866230 908703881 492544925 612168036 760788089 380153980 597016962 585600950 855965370 52279876 604671208 724631646 48946523 178651932 247951371 762270341 961942291 241171930 81041435 809728662 889754448 89595276 587910422 681549552 736546282 833827203 265796132 367757571 737183280 984051346 237104445 795743509 828235369 180691981 916579715 539200673 687737079 717721786 416724417 409613295 849580908 389699088 831332250 607027358 530374629 40854713 806216903 364294976 753974274 855665487 572529056 501659786 991126283 770935554 875810492 765848002 516948360 176238959 749624488 562311183 849832602 451688525 792740321 588748248 299865817 728143206 223644938 998081653 747143511 430925780 532379174 467941374 675388599 94680527 126783820 503843233 88547020 419694821 906151511 986972041 911521893 811859811 532274903 922707404 197552011 505704812 426274509 117777236 66334057 911521070 240232068 376495773 527038298 994878694 529270929 325711395 440159490 30814114 680144715 831985933 106918009 205470157 241090932 828542974 859235659 44246391 263319166 894733093 140031472 797831996 339420709 164808435 300325783 88701496 758213162 739833280 349305919 48406950 984508085 69015126 620277853 818447508 958981483 666728319 7859813 33695722 301085118 596375750 111865630 864362667 670209946 746821946 623824141 584395031 212561913 311313935 60760186 859930457 59436001 828918182 342769070 459858279 242251433 825426085 903796502 376257432 407191160 292081632 261439078 548292491 756012274 145406098 66469569 261572316 261874525 341592193 729081497 656418596 838727551 86642552 385800444 380170788 723815815 98957373 47915818 642043156 578972107 242768072 19080518 813032754 695211513 606514176 787237945 79521051 509298967 993830490 994372826 635540237 419318170 886429281 330007529 286937517 634384280 537175238 651093102 232434458 846413165 618115528 322207067 168895310 582119134 938399266 285988274 229774122 109790291 304969625 354439194 795784732 983650397 372799916 311931799 968886342 921480979 970032181 527731223 488668379 984508228 899726615 956885771 26288956 280956878 920168816 699163160 557923282 251320357 6368380 840269109 592801231 813526824 413378750 692462642 434711032 818335876 238176800 902775081 18219031 630306513 783212671 379801078 144258535 757330902 692285229 886034356 441255969 3074680 579402644 951477266 984119318 64887926 398516514 30155336 503719277 845763345 764821815 963188786 68347024 665617349 446459879 433388914 15359593 68055212 557502630 497352073 836002122 385299958 623989230 537684425 850134906 827031095 765372470 269620682 992762921 402384272 359328802 210030375 456240366 31876188 919131979 183822770 86269680 431090150 632366339 551563967 21421244 745446723 216492441 184843639 123256938 170018205 103338728 975982773 949798822 860623005 252813573 970500821 639394939 323557256 775853862 627218845 892380834 36799734 779638951 645770601 205348583 655443654 119668171 568771662 857892954 875709689 82086369 390723333 310720584 688537221 275316734 911680049 501024475 758497208 145622315 994932627 72626654 827202052 816511476 873274539 712307422 912442078 862706036 771037531 552502748 113828270 113316882 181852112 315842988 330637845 299971600 974745562 903158724 637377725 190331156 852745745 379757472 921526597 999208525 811045713 915880222 658679926 173279089 2787892 551567946 197923067 17644846 669007600 265551557 151063482 141848104 465681066 45880505 259058584 946039297 281312212 747058243 916489159 245551629 649957709 308801769 99178906 262348980 12648868 967873613 684220357 695679995 758572522 73108561 673584502 391056878 583993876 163031509 239208697 218159667 610346629 727231159 739924593 115702015 912572039 965560078 485418020 851534350 617569222 245635726 909859586 948218690 382838613 261867929 60861413 769666109 910909156 95491452 225982721 886380003 387786054 51556594 570868958 421374194 461625901 136639092 634689421 464245913 775161016 562810851 233881220 129809773 877457680 166392599 2812825 329943875 888791716 382923847 289593866 179322100 371301709 267107097 202362354 963976803 79842138 338644866 106148239 599225090 990954119 573412897 260129774 150936167 564044981 340397153 913515841 678325124 916308065 115797486 761452731 56301797 510486685 729134520 629168653 534681182 766921363 775522931 512650053 784571024 992364152 338654561 889379263 548596745 555661096 578010596 921641718 716925732 476494160 791625938 318309691 912243046 296107174 909691432 721838469 384919375 335703175 164260942 942201872 871891046 971109414 314796115 245502420 38505265 846909172 117609303 808794935 695158508 607524345 249885486 379938514 931640437 956368440 298212862 822956382 135302946 888065075 93095456 390304287 583982903 323056584 276892755 380607676 998196721 492009232 654373624 285938548 238725065 6641850 520787637 611166332 245790537 322784789 269349333 445723366 153732629 53884566 530291971 879894424 904668900 861007386 637916190 900950519 327281391 584534913 18381908 436835260 876640648 919092482 101801423 870307763 280857688 804125735 21711200 473890298 743651975 116342890 223801 180024454 380910538 864470870 266452231 257775113 955125365 105056189 641575995 858168868 882275110 161120374 829000573 586961218 506626870 471738976 803699215 512866289 246368328 545249745 212916972 167280404 728560883 676749605 133644009 31987357 621054958 947027578 150868454 972410974 605461177 596569151 618578003 182532665 32495635 812627998 147317178 590014542 862724055 942359024 178376416 724070138 797461100 108901379 867052995 341353304 782802224 394649731 872149975 194176476 42550736 768066941 418240466 443216317 316319715 841059144 909440783 286137043 998166839 935717848 591793357 239118579 603923154 19731170 369887894 485534677 242859995 398555244 827428281 46047650 274830221 596721514 373591106 377451454 597853904 660565707 852110422 811642849 168667142 558924246 129518218 878679681 243642941 353022169 91879580 762323250 151223817 678392629 142376657 73591842 841941061 493622887 444351221 292957545 395159024 451893179 706974061 181736747 591183960 170047496 814733876 378823784 553794506 246736189 504352478 165876931 412186388 817598855 476284722 244690580 252433114 889206822 767490180 241892285 978494362 982799569 645741923 568419247 55605864 449447900 389857347 751371837 950129246 419476669 993940920 507180463 784069413 909897507 531461284 56812366 353501089 301298515 828863148 638684593 662846343 532307229 78259567 966124121 88122175 495038608 827949700 540551465 983980515 149056141 165750849 152158886 624959151 643135661 411599415 51242743 180550961 661399647 361331861 500167723 830725771 801414403 529082606 939333664 232747573 558774808 747644528 41012057 489149297 305257154 585494083 791884566 211759212 338090222 507341775 547698591 825500353 763019828 299376957 65724947 883830489 287917935 507792309 349032762 226763472 216283230 339018659 542300621 176571171 292219822 693790825 732972109 300529576 776160959 138699142 390886565 3618052 824747782 210574063 476168916 186034515 670843460 513192301 128396695 521177606 240260204 745555560 763103038 236153590 186205806 435552550 410635469 214878510 587345144 942079269 906908634 141367503 537620726 31680856 973068952 533543564 58421933 104352123 121686143 386704028 473193165 300762488 253600365 661186839 785244647 538517264 657526594 15442127 805920074 244517223 338451057 922304416 231362269 859885696 696697007 350869539 395945454 200291049 620107487 363544722 939500172 471861591 562947731 955029178 695990278 994466851 445127339 437675587 242761499 856768750 262212293 660227789 20912806 834773689 264841603 219481473 617106722 125054007 762907691 113358375 943664034 773410555 500473164 278041367 871389133 166625904 64674179 311077363 251537241 506600487 755108288 506774651 291425507 374606857 635175212 507157769 755359376 786012431 647716474 239549751 967297486 470008031 884784551 295086448 644281837 726022153 124962380 416657757 867139543 277763135 601916925 590406355 833243301 869347403 452745671 840752682 511019289 731286232 178412205 973067226 596242288 832772390 611284472 376471347 479044596 128685336 614761730 618476345 884190017 306142344 34035594 945643133 889821203 722451110 790197081 230060501 393577624 16037549 703791811 24200402 637658709 728380623 196420154 840245618 755173917 701809849 457487623 333936580 424765054 196584387 679452152 871400032 793938499 660965207 485420673 448988581 296456185 808796596 671032 28734476 642520291 102906070 965684997 485683251 938506181 436271828 821607192 659358540 26165655 585119583 822291318 991615820 3706876 542081158 554624879 276004924 130976064 723900296 250248309 21377772 625846012 923288234 768802941 546661949 282145480 97634925 573980688 890682415 411668556 880988432 349364622 177676086 4284538 90300678 9743115 974080373 229345231 357819254 884686173 883359681 891980740 187717494 885160086 660056973 576233938 16404247 522715937 60092204 609348016 418410550 562426407 918521297 759653939 864324425 25039056 406768468 602185813 900533215 407408338 718283088 758504612 782788259 588843309 507461236 893555110 340623434 829662545 719804503 651097645 272234917 101623167 544074499 716820328 801572791 487048356 583574148 926359029 714668890 547545775 189592516 500994272 136291944 657173829 281786623 160444328 233857888 347939900 136525399 625321502 247882120 939424468 841204329 277949799 919461797 801644712 948108926 99445694 445177582 811656750 912918475 760781509 729065338 343728527 160728230 665137939 772083992 737630619 34551192 69152424 136261729 729913136 456263614 662148387 941764957 323217582 717466048 354794373 780090643 131633677 450616777 6602535 627277261 67082135 545124944 451866309 296136769 583095899 987987122 678826020 419917458 399932569 408887853 723719445 784860339 233184893 978733838 606872342 577834586 305823980 356904289 455657329 723350155 137707014 632905633 852134706 91542047 835678870 162390572 765417701 199427984 482952880 867015557 316106532 629446427 121434078 161480506 910109890 560825048 466221777 318667809 39980105 598572712 115794800 455582148 729032350 804135667 401379781 161905528 44666210 558555635 680763223 903089488 443379922 577889709 419128765 646732404 897998315 655562947 817064072 864205433 886747173 111527459 946533422 247302886 158715195 902719184 842451882 202880157 601987499 952876850 251775473 469338975 825534578 7922253 665871481 308251392 375061926 927911305 401212731 808939938 604050896 327151238 386289816 288889748 357244226 685358079 894017165 109327914 113495632 924554934 20358502 91025502 11480309 629784531 142264073 555838032 534376297 620061968 189260006 525880799 796264316 567330949 648893902 538739625 738204436 459870719 178581426 113602708 290100934 531324256 509453712 72145766 327554736 611595360 754568236 828788253 404155110 957382755 870040908 125020518 435722820 294925355 759012418 485772126 574077295 350266352 550259852 601651999 825991046 94542491 19993721 734237215 199357239 610536597 147157448 908321695 896686410 604063754 136162353 854707147 96977841 284248032 867555765 713088030 429174597 418550562 153235791 395314218 229797485 214294018 885568683 28299613 757120633 767498590 979558714 131203018 495891017 523184258 823784614 23370925 527441488 306707548 387568527 311883401 279151841 219244868 421665528 348688155 17342285 83802666 441458739 120371782 397932291 404015693 201196326 735031746 666696737 951971251 934597484 237173500 323020234 812491984 721869187 520923893 177207158 337739024 707392944 818609943 351865491 946748211 11724584 429765361 951907353 387648059 27557282 571190385 213011200 897728146 844339811 894278435 163228105 969999724 351594458 337121115 114689517 819001276 706036083 171727120 307322769 127768072 751058876 362994298 802952127 551300759 959961666 602287008 131728997 653201224 303885658 702470351 696399162 729374759 155329538 426879577 545808734 310259300 874301712 664987087 203421767 578159541 75551868 966923711 318728595 745856165 10302373 506213437 755133578 452814408 205390986 584523068 321272717 50019439 332280664 965951877 591781037 877566424 781214540 672773268 486454298 251914619 570598347 162030278 867854386 943667983 289725161 205730151 203331560 426370120 844432492 418741974 877631154 811783180 821245827 20149228 222578052 402665153 229358151 588178670 792828722 715203952 369241398 48908741 76381850 522621336 617388602 889660182 339294739 477063507 534699621 432783202 886796257 611334804 269450650 770359486 704155614 402972103 666479037 20739334 245328759 604827826 465484978 600453073 347203263 322719541 807000777 428797083 366175001 760303065 238257047 832216893 287744634 142635691 254615358 710264135 212270177 407321695 826039570 424537494 372152187 170259937 531206509 385745412 184286933 704152132 812375074 416054614 894706285 100870493 336569493 843504207 341148612 706111978 336113685 37180809 571233343 22544494 21687490 279159011 184282591 159929330 613433600 872871894 910254246 58861527 405608681 570049480 967896788 855968482 596715830 353711119 376529217 303830480 49145822 480591381 419398943 638076072 641544681 182079057 974607668 72258095 44546572 427396647 353000048 944815085 867208686 756479591 578482430 949462949 692749520 615692564 839462204 213141200 629032237 800531678 87143262 103224279 546571488 500430347 469551128 904064722 553809146 751600526 568048834 198469574 206241823 763101186 675056952 108945964 287382542 710944873 261844882 470094122 745644114 478639054 693397140 928652480 740968459 60565622 324478760 383818860 143984861 414166840 521015775 722617655 270400572 584895252 567436137 841200840 910860277 765545369 517543458 770514899 605932553 675413149 3788671 56865167 964246065 959280984 575720096 627529838 988372713 883907016 644829229 245466665 409107647 725211065 800912670 744164042 868228510 713299593 700547360 160869873 23648218 780561773 503588534 380561511 965488082 558402020 377668853 604781921 105170465 414767071 501241166 49221014 562174483 608333047 848201631 150607004 152708296 659302586 523010105 69741405 349365822 623068359 321094069 397090535 714443184 882673078 811604843 684710579 218521574 562775761 386971124 125030807 542715278 532719141 985368216 338498213 937029463 43743195 780652641 252417198 560158943 13297365 671158562 341348995 222361243 500096573 599940665 331990632 166677297 129847506 297791310 306125189 997159198 193202910 814596825 167243811 808613694 73803697 367119836 476585802 905940472 143011 806795717 924619829 921323785 173783721 920352825 465811301 211133515 395236912 334881080 544725965 807114622 689923901 669664549 292298123 448259950 762149682 557628817 200839802 288192849 576473783 927376627 393028392 796516451 71254571 192695356 162609869 85995667 921925993 866384894 563184095 518169599 611908384 516952258 130682166 502801292 211635837 791033594 82589819 205604055 249549780 545209518 638559195 356350166 358126789 731818194 436349401 420034467 823718443 52577054 88507915 333843623 925748763 200000225 278477875 102085613 291835418 844213241 963648453 205797940 409067477 620258661 464590838 57751004 936820904 98364554 129940753 39325035 173999882 46909430 996977283 807579035 338430618 686864637 299570042 577086006 578362080 682611793 128829216 819780662 943497960 875820317 21057974 909862542 144988429 962434301 843249101 153028880 448187814 701972333 628676760 42520490 666257643 854553713 863172186 640516788 614873713 496854782 127125689 651895049 949809025 152509462 463364530 480173340 573358194 879553596 142513078 457871377 351435257 516501313 886679748 636539154 719437831 870449585 322124807 245890962 938075784 900641782 655689571 606345958 562455075 109784486 725829366 869723969 755316539 226705581 979412289 549937122 263822646 285380816 120154961 312640646 20578682 261062136 584381804 550646390 576157408 359496999 831497411 371315958 203866417 468699260 599482390 450046590 561667896 980012634 529176305 542801894 340626810 100049482 364009968 343159681 509962675 263843491 705686992 436590248 266907085 723843697 290420144 380453431 827689860 567653500 956871451 310091200 841907544 615356845 241798642 148480645 315267458 64964112 976571058 246122686 594934011 318972768 625428453 575238448 881538358 669044102 746957702 527357989 747374354 118298423 512291352 300910190 5137964 302260355 238134850 92906900 23807068 580909647 134481626 615040885 799025969 592388439 789917086 496943604 896501876 167673082 517476765 766346947 329619903 561365887 67354729 642930315 213388397 944076078 72597527 542817584 549887992 505553948 45641884 917513145 126970321 114861347 110520969 390506128 804254395 942324533 983662575 860642313 793635110 811759832 604462097 128743823 351354177 497233786 451458744 729139437 426520791 974860670 129906103 52098730 723368258 261341322 128300313 894265854 920503881 926577424 991567346 14884325 687698398 959198340 545689926 326669394 733159834 588510670 157870089 312562003 242266230 522516997 254673416 155748501 558665442 680540850 918000377 943055550 761667627 104817422 635941802 823337307 939040728 565238637 450348112 9593569 105741778 911042738 513077474 33391307 212260664 129640782 730160665 599234988 716844736 732738221 826414215 576638477 133757372 865316259 24039862 361402454 697804870 898394115 70843930 194914341 24929530 467001705 639406169 876552951 318504707 723327180 141414992 940155963 681018662 978085007 77767838 438575555 750518035 757977808 228990513 690779500 556119034 549695295 947935421 853202317 291869449 942995842 284374925 454617002 888269023 468422819 376684081 270083622 153053349 18182796 332816225 954952125 678162793 68823723 582581685 291251787 831639152 148798126 269312482 468938380 978976560 689437577 925112484 785289526 816184194 511918092 423567326 86584400 966000513 703585982 271096105 238136551 796550013 455164726 32769313 723384807 38451273 10695499 991631794 944808061 870959661 450882637 877252867 244643677 316936369 95014268 975258470 511194520 950773176 169461170 841080905 341134745 597891642 342371684 686399996 385875335 81316353 842748266 592036200 81629157 395306305 526471662 65848767 100617659 173500599 468511516 865331332 908926149 630202740 440020112 424498463 368567368 308357051 558057281 650495259 515830885 392614740 994031703 391592360 262809436 715084872 845041719 779493484 328704797 829522344 946973685 297757638 906002891 921457342 861394192 639543863 700164590 429883103 397704733 364596315 660095979 629237127 122524360 626978658 230091138 591313980 449125528 521803427 53172648 833301336 800485255 86716638 599823349 779210528 637954645 821231996 286933390 429931914 791937243 935685071 855151025 654561154 384857508 115103061 929663187 422983099 743872899 611058769 626690961 577859666 92162061 981071254 968331717 764553433 651299990 578775321 729263562 245182271 270804701 544035337 406267966 230118325 111793256 339437028 945984966 807270456 927587331 124930267 790736013 903490918 139536066 32847046 72320060 771381129 55529429 344741208 933100444 394463055 817947856 634993790 796421356 375166860 219826824 284441074 367509139 570189852 953012927 319462647 485635245 102638937 75340695 862802373 131520517 707496 587882114 833576939 398590754 39664667 25809263 444367305 725458136 281875255 344941221 553762954 407236618 45324157 589004972 641775058 617840494 735076265 965547355 681602602 96459601 865952661 219492536 494347754 343640749 309097787 457194742 122931445 939074239 171136405 183424323 463764575 454045728 513915948 816715959 18556364 808326205 410701667 328196009 701764798 394674842 101982819 769040507 187606973 486607638 575932464 966265548 359304686 160237325 427310720 511026017 340791052 128328278 242566767 35449112 385093545 948940071 74979452 145583459 87850211 64972422 834895597 156895008 15535036 729782378 194592259 338361812 311061163 486521877 762418243 366270858 565013905 344019765 472017696 284432985 89519434 214034431 544821371 755946108 615200759 331421340 870088302 158292160 107852988 409207327 480524384 208145592 993523264 380667192 257820946 985967857 456355427 865167385 625820259 666580784 985447552 297694174 394543248 454030392 453275332 429273373 268472852 316574424 562190671 398430697 251413049 755544715 142751910 290429997 149667093 210847825 572077392 261048725 402278388 438245429 130220963 651259408 481530603 576439784 121889278 366913943 740676498 621803674 957019611 432762459 378992377 417936671 635209697 947093591 224637881 210041128 504273263 374766639 142730764 912823703 889829255 332301592 439754827 711264892 460582634 435904386 778978108 240115626 368665397 709043760 747743987 310295527 614218042 51801347 832099272 879749332 47867572 253131740 501720127 402678800 20380368 536713609 631644136 510067213 609207734 23614353 414130505 151426327 508656703 234971151 332462767 614277119 156201512 204087699 382785196 181651732 354007090 717417192 306300701 819565798 275192472 259924743 883809033 847474110 168210251 133642298 223365891 59491326 461783413 316871039 797052165 660905243 777886663 924181973 10753862 19379400 236616942 279101465 975636316 225262640 982829659 93602398 911668175 231774015 643199655 853901971 586666173 167877321 624703464 703652542 435496857 708087178 665353773 388013320 566091307 85769780 835695670 696574837 981291158 948811391 18328454 268135622 971031812 738751410 114536852 222543609 622863778 526992307 501703866 60813708 557415255 216243090 461935853 288157072 49546246 287699904 657875639 490743200 412192360 211650707 546907428 923192656 645081205 519459067 6986027 539612530 471535955 862595891 178804297 426364057 367164241 743802229 878596194 429534936 513888909 613991972 70849300 609893429 551000840 783161785 275551686 880818359 813294857 943729123 572472264 320243904 142839579 93543286 153767298 427913648 383582045 207012296 733132654 47508911 443795348 543177309 658808725 979362523 284451018 610275281 670777866 358448819 882837603 370232981 87651735 504833601 229275450 988523805 603369469 586345174 791051255 486457192 531580950 189594075 642365970 696428970 577596531 602512279 805915960 493861108 870400047 110076619 466370958 268771174 354415751 382210302 541585645 115546174 563398934 799295287 160085332 182230611 331399350 359102182 921014046 372238840 27229213 234849735 587208524 896166125 636500987 898930423 146682022 646747761 477044695 885152541 375874358 915063395 50030163 943463851 381085785 746428615 52532340 311692250 619316008 56872467 587435817 719658810 447472823 993202458 546986330 911605933 121773709 304033263 804961352 373050697 352530488 301263811 660271370 788847671 618868711 93615570 956886061 401184773 401732110 114030096 648748470 392074638 135721013 702580853 274324050 586864813 536460367 350627542 244120537 856996272 612271714 326883608 610835497 731512901 633341454 729723237 781421853 170237239 999920660 312048530 500585545 177543016 291668534 916343489 499765630 663848272 954625910 557333435 190700712 53580934 369477758 800156270 608635566 253148756 743034137 878997197 529910583 79232925 552555000 267476215 240681153 958080723 321606491 186482 39363355 810199135 439843982 500059344 106324585 653109416 773084769 271779910 290459827 447291076 654870372 716472668 528650881 579027489 114159561 27828027 783405423 814783393 185068451 467063286 593549017 988621283 955946690 973260641 127419844 312486736 456251610 986039983 150759093 875518280 263052740 846670101 691927356 997189747 284566127 302079970 709004850 228532943 880720971 214631935 654416586 154830638 624205248 225178810 821428574 686900653 136517360 957733034 348716894 316673637 714897023 84819280 818930769 455074465 135340140 732299506 419000285 968254685 424821560 832997139 205451825 904374510 750544186 528092084 594252040 226890477 618358325 619952101 669029720 160073342 708935377 466275790 317128740 308068052 988129846 218797546 361519911 162503456 78086370 40448523 201495197 825361928 330803763 890058155 586266056 426070319 29551632 174797975 815023184 438983519 511928656 480671246 682264046 933094494 601645656 14069229 433827423 467501243 968721158 611309244 603008514 874809218 818254761 119236682 549685621 922142252 822377014 770214954 608736323 78501342 694875343 219224716 183546823 809178344 970535240 196150468 774332866 617632089 984628294 543757084 395253050 536675930 701283391 434314883 493239432 554465117 17087223 127919529 701093189 757338139 899406914 241430011 564612562 527351161 69116657 614335172 271599985 77363025 218816036 677788321 589771816 690546026 964476479 806799699 535087543 504717660 273386554 304430287 519997035 116596391 616697141 948112435 389146485 419529056 915587070 921942502 856674003 278382705 752855780 155404337 352871699 265313259 219618289 438168335 44458853 900165155 295287473 359688670 642939470 398981098 6766622 422506668 98388299 521420380 858940782 989838982 868884572 824373304 726387355 508164522 738413702 591750406 30605647 519261265 500303197 997245335 526411432 885551845 265166169 237034315 511576842 122843178 767270134 794302477 601430011 295508122 946221837 513061956 778184455 425099212 629916167 689893187 891503661 799163097 310788790 117922746 823240606 883838293 92688851 15727351 985769022 322819188 320191585 683442914 526538825 450699247 910487638 609765944 534084841 356448818 369349559 650620227 600887507 834401325 122181816 225220056 200568987 289145416 101107606 482324869 759365045 135978684 167844331 352554896 293514953 468176326 307493456 633382822 713742410 615908629 742486957 550787463 412840595 29657683 773667994 655169425 733936502 461813357 135859981 844351759 367378368 694748768 228400059 23661734 401746900 208137773 166304276 916188779 367429638 641450732 983311454 91598659 874531635 214957109 39912409 661200315 674989556 133455177 245627783 355210253 791263721 826819159 586517774 214180747 396587636 70098901 718218862 284351622 565041453 782279365 960235225 646885022 685409615 26962865 653913942 720831978 651901882 946017231 117760155 387424138 146728972 319651112 945624111 175392205 934183074 928506684 916891162 913306643 157890759 909025593 272377698 772879723 880190324 707846027 660020386 533444558 925002355 980546412 952812586 637784823 330039193 909382290 369937009 588319676 204750372 488551334 782674217 298269884 229440700 152021047 275823393 500770698 214857301 480662885 256314358 621880208 775131294 555497032 333630409 692426110 572057150 140857807 160512394 386930801 892550900 212075128 608120067 763059449 505079566 59371894 953953890 179510846 244720692 167874343 5235130 802992826 955519731 968059835 570380933 179924481 797665885 634422175 224241934 884956883 434745866 447180875 69474994 150620520 754592356 979202959 277970585 523760385 922165206 723379599 936138749 154754277 180798723 525531607 345736674 771826605 990636774 364851891 49619396 82371063 852954099 742715329 517871731 540178146 978515747 721203537 658594781 95462512 699582654 346739673 334789538 210159950 161845545 272942607 389658793 831055247 731754874 935103415 193007155 144878447 112403258 317637346 630848257 496460319 245660186 202170049 349411769 213017373 886116471 834122737 433277952 247273510 664245641 837356741 158759109 979456130 351203856 824323612 439871391 80530947 190265022 438835395 370468993 119366856 870479262 463946825 89355660 907624559 269673304 566032939 615594245 774974044 204533055 633712559 273187684 580888789 112191273 166269698 41393705 606532492 137997925 326311040 769062350 855829513 896311450 52733897 659207678 747727996 564752295 852837292 456366092 761797618 333337129 311357304 71593353 231034639 282458813 258289675 291773383 946940313 650287374 608446781 181017012 641430761 778301379 207653793 712833089 698638047 192656509 274019135 360200385 465993911 198311413 15660894 578547880 708419508 440183353 844242926 879126280 488207927 489686393 966680944 940590444 521668574 174649527 348526884 974618019 307309351 592378415 797828028 665716800 384746460 125619128 540424868 818897559 861821855 406785573 598242457 19367938 10914292 785363640 628604424 823790722 497453574 997403828 223234548 402763198 961078306 513232773 451640678 345201605 327136781 848249343 162719584 386102740 932965661 197778388 485236036 226766616 835337444 602367325 586255360 660883208 565636077 599356586 557258615 950207466 693439328 173954197 788152919 467051809 375987419 37374937 149249750 436039469 52127331 219945062 286631897 452969954 850603291 361791363 472523270 121688764 294950538 917478964 798767134 405452076 106616252 880484920 71183548 318676884 965110974 195485975 50000170 721206943 286664627 291092813 314702267 121759390 757756517 422350948 208702006 123239506 812273838 591396804 846008767 410377769 53026843 326355601 989765334 560019033 196284734 802205192 398890480 640384116 815972534 742270370 388612023 228418950 870167197 349278034 611557535 331789889 113056083 158070139 395321966 102288465 996954553 227317151 986377337 709344134 996127648 312296946 806318348 533175567 164032009 206210806 109385545 949153856 779892087 155375012 636979090 106761828 968517696 674331420 221377628 390871230 437775393 205987959 387546417 426912005 443613198 692081890 963592160 255542486 615770115 688188351 197405624 337057356 213959463 765667630 848656514 854030901 634062106 555021195 545488061 235200059 146067180 463357375 193544363 53314244 91730071 595786298 391829249 9572282 632359789 912116540 251215278 428222851 877054625 67450452 119612704 84325047 503760424 119469735 503214894 394696425 998090595 186276836 21316620 466341034 430792256 180191810 561925721 178796217 997695058 135864360 625809578 588717632 848604535 734561702 940284018 508675503 296159295 590140199 604575822 275094775 352651284 557632439 111573859 393440146 259926362 608747182 385121369 655814320 329860077 554855324 362544188 735299866 978578757 575946960 189221864 428582126 457373337 85125322 422177712 75646627 735868646 927894244 569679829 885871627 817944027 394666265 113196683 360707592 995353435 151291415 493953859 742838024 442486983 50427355 682738092 400792127 980112119 818673059 505376494 771736084 829903039 82848410 791398680 440674750 459729095 931259302 343556550 167972754 487175010 198847230 143152611 520055536 515412538 107309939 601968914 567452374 775392307 414242434 893023290 652242530 465220499 664763009 468131036 666037258 265957430 835257472 423263392 243990038 53212534 356739126 654018899 767370437 314291571 294217129 474372155 294927596 767121039 401574367 513881590 359237439 250507085 233862359 374072398 410513811 26500892 80409338 417076842 401062143 697151 88715941 369994378 906382737 122649912 436143933 743061705 614992035 863407572 919836908 884688437 93624928 127295032 94476562 932779403 295387024 51587109 255306833 320246708 34517021 224216041 233622435 918800541 693861432 223723554 203107471 331493623 736660542 909465957 801435810 222991352 982842358 154745858 687218634 403686146 853130394 551560171 846981604 181971272 250792345 588360264 171206515 720375831 480089724 473079970 645543230 895791926 603615464 526290947 11098681 354778247 530348593 939299004 258971271 493264349 250469982 662473556 121988485 433394136 565393443 746661253 438071389 4585064 407771885 986941209 60144974 829329270 430605617 580139848 480051048 934522570 696721788 609848133 632595388 247964218 150375882 597063907 992851360 831068430 231136168 661771752 558043717 352218806 486089521 232659855 95871965 577104160 743343865 331387976 778785277 514427626 107956072 215056425 750013528 191161205 769645363 165667646 728774469 703044450 970970570 497610812 101046023 261123303 448268475 738861072 753834484 234150580 318781327 457939650 822155718 553042337 772391288 856128918 470309159 288735698 985271774 936432488 433947868 552063063 852429829 383471941 390778297 760999151 552465315 728388044 967102536 788131036 855857225 267913291 218821858 859059586 445599355 596034243 9065254 399676731 146315262 77190973 165135329 926473953 598664646 484341880 58426820 88102999 982716966 106716341 537012242 233929205 265524536 843561909 135341247 488510364 830175044 859563396 449189764 93122583 499390785 261154789 781007318 43895774 740154731 697090967 27782880 232438536 687824898 341755878 904534103 10803438 976076891 191720153 686436425 656881497 725617034 651138065 941164199 384379169 601011370 507703870 98573571 370166199 198834084 720036712 942184839 562762375 701121645 69724875 704245817 260540720 861552263 872329575 184534651 117673573 852345578 407392200 250354514 153473285 771671838 581528246 737749594 221303208 951812835 881180397 449731996 364126959 514147467 611371967 676626728 153756522 14728797 116174820 405428994 994752900 897261428 963607280 88246643 718086442 843342399 938741366 350796691 523696315 341164200 172001294 141042323 847573903 433140789 509343532 786284936 485446431 89805587 82141034 666519471 570002193 215401084 332805552 362740416 823145704 869042691 281347609 420836991 245857090 116319188 602729323 31623446 428194881 659980985 916493414 662276968 691380159 493161770 99985203 415068084 175000183 689891115 526542468 740976626 37025550 626851868 259084354 989960964 630836340 469459083 213170500 309274614 391821647 936941709 356764742 155097491 171110283 965366484 895084189 74053145 46329107 877447355 10941884 520545446 564818544 396589530 958256167 745590780 149041058 51723401 916133607 458423615 517953981 710398225 650563848 112658509 586943868 759337660 817929969 991931351 533639180 317340203 174703660 688057235 606346130 384536131 945924586 812648407 897275262 348226819 527348821 441257508 797142007 252348806 230947067 285797529 304622868 423774929 460293641 710955777 923450122 130206471 286567490 253472157 925281242 498239684 262740606 106943872 364029378 189881279 129801287 867393511 593977286 764345566 453075069 384208086 529105882 786756377 905535944 111806738 737863490 170995138 730970646 519601743 134043352 38958649 545480466 42948748 725634138 391585854 566975994 323225846 735722854 821579887 457990559 157790025 423556698 566532896 804539441 874098423 185038387 29745262 339751382 788078816 518110747 912028925 537329197 54820453 294102776 349346603 307282151 324765134 502270396 816299568 593122013 442223201 386731763 774695982 213611357 223052034 382607388 852208401 73915786 254809427 675245760 140284635 798518985 365505910 964762641 15136377 917228887 325515224 310405551 276401590 855177046 636106955 367405722 909827114 806603109 182894077 556263674 802777860 488888065 325246172 805980332 153755938 197539830 600308702 14870955 292660516 614828694 642142680 637033794 744039469 540685390 491963268 63618034 412117963 355976712 708955932 492083975 791288187 488631851 237597669 86780690 129403779 968719848 817289581 288036088 290631753 120655356 700084584 529759198 686927891 373262956 539643050 173425617 745197922 276969965 548481080 705173618 194141492 843325577 671273482 983847238 4812263 73983606 318415361 684420210 784350990 249423730 31958989 687030217 977469669 698226854 597946941 326861893 850166392 676738062 724704642 213429260 594336346 2063376 4442366 992816206 428288540 72549088 401897935 827760323 535504535 667023123 532871261 27275797 821959796 628163703 475584453 334094141 878137496 259795032 980204250 455990470 41438822 32473459 75321948 881184283 279909927 320900611 438920295 287563842 641345516 545488749 795503158 447948307 267669100 731292840 471715735 865504629 474275050 228561238 535593993 488314881 392566864 442416711 115243957 383087063 160246203 38848 11125235 146885274 782672348 776086273 796662476 235201943 930449834 458747064 706923641 347088004 848105544 975253983 85784777 631637842 771520691 48849287 834310864 500489412 236404525 503870948 137691852 409275040 355888015 625814456 827879361 673880617 102430068 863372024 788742542 82541297 941115740 468624591 419572676 424165908 130791047 207682815 40271312 887227025 641381988 258335326 618638679 305856805 228970648 12661039 7240774 644195319 283223564 846484769 228052035 561673791 241720324 199313408 305116312 702530340 935684865 547720998 424939204 17253440 434841767 644279862 113036384 345071714 398750160 781532102 136044174 135020198 317695121 502394312 87034868 879647747 951577680 628504231 871346273 854047440 570419914 653115161 737282642 590671438 541210275 609680570 563400638 762554748 70223946 758765641 564719840 742212225 948612538 839864316 167854704 992234100 597638930 430753481 131266203 168151330 167184797 589770686 602222483 356312596 70333124 45154075 650226237 342541037 710598674 127169483 347398187 691037872 161242153 409380224 165287851 686611775 440766499 476323643 219963808 311923868 572736563 297607462 573732782 964903735 545407749 654699939 983243799 59001341 413813398 410324875 927015556 192347856 7619587 8937109 317855572 682607829 45034690 233719096 196901716 695846470 622820223 603866447 147518733 748666382 144015272 467367992 928642262 98561543 716305864 972192233 361212292 197031190 124813749 717789115 620152353 278008091 71853347 417592509 14575293 635240913 698936926 25731216 729228455 299520875 292226874 179231502 888393342 869654773 279122570 10426889 80117925 422137564 167657835 70978797 972724228 995830079 167279086 869219475 278889554 506581507 163989902 58723514 994988530 328949178 664495848 304975010 123269675 762523049 742548794 579879493 128241611 257066170 447621763 603400561 537665307 321340744 72738789 327942443 631879312 638739577 303316319 610052352 275797380 44065539 78066235 516887547 194498017 156410175 611625402 303759529 352597118 872783934 356984537 735779598 214967703 851263861 283823390 176008662 84327793 388885851 774469469 383685278 395185558 292992073 314673023 757444436 728850479 412333702 529803916 745411884 792146923 928973849 63199760 488248123 868211372 371218421 451396183 367545008 818776002 339674709 483235490 106911812 974945734 778582380 461340416 474745286 293759952 849239313 343444737 188668662 521413075 211995621 543200436 459631020 557420942 611927033 966058181 392882438 846422878 741408281 190597895 672755008 480484045 563746850 554809290 622766009 987208518 676168281 63000805 992812913 937774900 621746805 698334335 851108528 887737422 541409405 23835987 345526040 423063339 40567040 866548934 680390721 151215272 356892443 406588779 766768907 986082972 739341020 598910231 153481771 246127045 100703657 383880701 905196316 120076018 28095029 294201019 223297924 899355623 792795332 166183730 445633414 190561026 112238333 108130324 725180598 45807109 215594894 136417703 441564919 834853380 995848350 334387425 779429701 750206273 118679299 592017806 364855049 630366179 457339683 377686991 366032735 71668241 588691976 69489041 755384140 484278771 34844207 782533888 483472787 124002596 597021043 335153602 684788195 595713018 338415214 30022998 139413182 403793728 402674494 645681993 935348008 585915153 768245984 342752352 18513640 494074320 928189257 44534277 18589769 607222984 925478610 454532609 658590371 769813860 690776767 188367339 736547453 419957039 374694511 951261755 135783027 480898054 293969758 51470811 594239136 294262977 670002763 370949734 315081667 779418796 597638388 225709349 127016756 119487388 555841184 555362209 140797552 653419384 861973074 166764773 483705356 741319145 850621629 280292402 51975605 343215682 927480953 142065997 868392542 196979019 289208432 579719014 337368952 289470334 704141216 193737902 834887007 44604548 430227600 950993288 35494659 907344545 947976822 478407343 849254813 37352066 713026788 884646534 537732707 325651560 221669633 965467910 733531333 505575478 24437312 415926645 350897994 549144078 896722254 785387415 231524706 86018066 468231815 961296025 484287164 108525719 276864185 189753142 455348290 792948153 128513767 380740651 553249634 816078614 53050733 700996728 936622121 542023106 649737940 880113448 751464147 133188093 484564090 233967581 652993755 504190080 945851922 104710851 274549955 26583834 214066298 146540408 66146879 357919545 822730761 864955396 522058839 26059199 705713816 533463096 480416499 578230136 608504805 221862136 872618301 480627484 363373269 11399686 982717458 844564485 346068140 961679498 968074621 155551931 35119231 61421425 115023662 507780432 161963457 213199507 575220063 693634775 238212264 984569304 184066523 561536617 221660541 664818635 101246579 264266804 198385500 77260002 493616116 62851690 482511371 686785146 340550998 157415061 695137234 28591294 40161239 436685582 52300584 459140003 500192847 7637196 308496596 619691355 72714334 945291693 942018521 990147742 282537223 875722318 842810844 354021801 391172025 175827986 563779135 287734030 518207738 944123871 327414011 139819967 661842101 543067280 372243686 386061950 397227148 284414758 865208074 662773688 112959116 781492154 446515867 920322818 782399242 815395938 178276439 130814872 920667692 328223743 475605317 221817115 529976191 471738031 911296615 330568827 435088783 554061301 718915880 626034558 906228534 166956914 772956151 940628636 784188562 995686346 554086626 857308645 260316236 891920354 530955571 298750922 214919962 960209664 419388778 315505964 91247865 338297807 986270193 48633050 300691165 28094702 598062412 889940201 722162043 42389124 340555145 658671111 167778890 503878252 760183149 822863635 615906830 511984367 264403150 799587275 250904376 816033660 370199562 740567713 549040359 655208612 949079018 771889269 709914708 613606103 21726466 951842939 480494465 469556245 85609132 35271849 854440388 208823075 311776922 509495350 132690345 512310186 783161064 882993469 966396795 458723471 13881312 194423187 94611525 686089613 982582896 444565149 133235044 555378904 677672271 819971010 56158811 529888708 208805282 344981180 234240213 444805977 177815969 486257771 641078914 661341791 725721444 67665922 565381617 934934425 874570718 216176374 573918009 104824733 968207696 427569488 374362766 823314550 214701825 937372203 804711237 631590536 288027200 681647113 688711652 826783265 44585926 505066 729186079 258619572 194029519 575555227 363984692 703757892 595656251 310758785 718953285 329328000 197754719 718907193 389597082 318074936 176677423 134129895 251890681 644239080 31757091 926900748 431484221 389339174 711617598 617468063 108564362 434377063 462578341 316406697 76876287 247968054 661522393 879369809 271029853 642902963 863471732 960102086 515346090 79573557 631405361 338251738 491952226 847080985 791116556 850146918 863530193 878407037 177950285 543220971 979459741 275334588 964432805 2813689 985000049 878114693 894522257 526598459 467087701 319838265 522115822 21984984 355669780 309347061 101141416 86674566 917702931 303087548 548696799 395380763 303652870 757405460 896850881 596910240 569329035 545989328 474958785 527158443 73292898 932108699 785309924 954580174 97790650 545787909 532458037 393200022 246597661 482701057 520725259 531358739 770295574 858349616 585899212 38908766 504195335 845521095 756957562 504059394 268974256 321615041 237618324 951772133 8619525 946457864 536497581 264446989 895402886 767571883 142068464 241421341 299691303 465368743 963148732 112328724 102131728 715314342 162026906 316765959 876323849 932379034 773593634 84782849 96099299 937247966 781083581 980646957 401557165 672641276 53670533 290374057 299563596 8149063 394191845 299699402 940838832 48040933 223070103 762141917 164113607 976652937 564127775 17614993 469056966 909487465 675850659 29859255 196746512 541400257 367806073 948268236 899540882 105409417 338302828 294428131 872236702 311597712 500093273 428743777 466673474 433970183 152269747 769826243 684109005 723010315 877305827 389117931 257517949 9942142 198870054 733056616 938016972 925095737 101388068 960335220 13927237 394786789 897094317 271055258 236471959 586668793 746290702 504224502 10867693 977097874 863132068 746139239 370605884 785383623 662210190 422752208 874000817 3028978 58190835 109789081 868741300 403444653 835904916 350633154 647557804 865242594 648245965 759879007 467382928 939475964 362294843 556250011 335938280 604615617 414084985 686516594 375493579 848909398 405499342 231656789 826916216 363392587 159620411 459557276 159206104 66006455 990876595 764426902 824628958 203929425 948811047 521410709 657557864 894881304 22703066 146008898 248780455 952118146 933573866 3231258 966008379 804361761 294950676 669916263 626800241 994814097 974690397 858590458 291848062 20205233 345442110 363831938 842350652 768362100 42955424 745980696 479442486 805600723 39677278 73371381 109096135 220396029 369621798 297235983 485052505 391559300 545660030 251064813 119806278 821387624 566669911 174352190 183283081 917148281 447145120 194594420 979729900 548877857 868262185 45706794 625480685 716425577 711786269 473764043 85899813 39858601 946561789 437614467 325456915 701827771 576948187 771339766 554887042 898928876 67635771 59373653 455935565 976200678 865622887 340974091 143321011 54167375 426029326 387650843 447328291 253883545 398118759 501142635 812505935 470609797 107736248 996814403 985636734 181476694 494513414 327886884 52416455 921358836 196884121 520314761 736354683 115458825 475812853 687797587 755084828 570305426 265952882 738229945 155103890 827923528 232160275 335808962 736353510 525913158 658575044 984988445 722195231 704267205 166849585 888111441 978032515 549514200 900030509 539550320 642754600 133697500 172618801 945801379 624786983 617346590 889908497 982348044 458994720 533279846 165607928 636570558 631143238 438974682 152748445 989987353 870382779 676225856 763473549 120944461 975559267 351311628 887747937 313422042 828460003 275271068 975134040 589858534 427557652 282830416 809056413 219736953 261962036 126423086 444253999 655518701 143166611 775980151 617795544 827249962 192624296 659552777 540329571 486819050 4560744 546523025 216861025 406984865 317559469 576834664 501517499 932115769 265817869 538103770 425817051 694259704 400453924 744150358 221859512 965004782 759979007 878264411 510017142 894091279 227109592 583161087 874060309 327685765 686095799 638905330 603033108 427439210 947435556 615639215 148819824 204192716 291809994 593177503 344266991 709367315 248622983 462611506 345500337 345665769 959095790 89734263 28807812 277424982 79025226 385838018 715649101 50445028 461251044 669710082 499443422 316916857 522533538 281487053 649824392 399864119 918412579 77108558 733299331 629278994 616289187 16780046 869206948 803737126 409880729 833528402 82701291 871768030 796721361 215733916 911649495 420037770 150166452 556678529 926851071 540944327 874311210 600861250 701080386 494230823 454832802 160098378 819471433 375008816 990185576 851961063 550564390 487092479 101455464 928197300 336965852 436873235 537673978 256239018 798789047 804849589 573859116 89723071 285024873 962332762 413399395 852583225 687174392 941455926 60719036 790948377 476022508 686834412 807339496 199951666 582533341 846580837 672068164 579102084 282153 317356144 364054101 693387086 18831521 718024345 616429411 651196388 226989174 702433256 181252932 862435359 506928662 156232900 984149589 910300397 803043093 8087135 310020560 652819708 402735173 666053961 450156320 18407005 496067907 164934628 523172587 225194839 897073552 910029871 856889492 738162642 513686006 3380554 913704284 188763937 450493416 494271375 584644942 556075225 702492572 336125093 212393007 400385260 197705687 277450356 441239821 573798603 282036287 304191776 969935777 457180730 781249767 451561587 595507401 523175275 624367954 853867118 24653481 176376622 967002104 876091135 681904791 459355035 153843635 830936443 450738569 815831665 114747740 239132201 393927370 28795615 241770421 629690822 824900795 698126254 147265870 367905715 927138639 532205325 220805665 269159631 239879466 226249330 716222965 818053931 406745263 91267528 147383238 495620839 157193815 22063117 706488684 773251352 662906736 128197850 356516503 414912311 724960983 349405979 769715960 37097018 758257685 949156736 141998024 616218874 141404053 27109254 792087621 729922694 110154087 778851371 725575352 868920125 916720121 141440378 98313544 806526031 650702156 566694704 519768184 455627921 413013362 496706821 831018011 517204712 817364948 982764922 148330464 741853502 965994335 417564928 378476287 6355569 156414975 930239076 975242814 824377712 673819416 784415037 356136321 356342701 260678827 301499509 367379654 664421380 33719247 631516500 608087421 924148271 359091163 690016008 767150053
