2600
527830624 284132548 848707252 748140263 484896560 311578829 714737690 58278755 501941493 399368943 815251424 540245095 233742924 404232444 658838111 979195341 74350860 854614648 526275885 717010295 527740586 492413587 860785604 211080142 693241117 194392692 259473948 645763668 918117780 702067375 399213527 214606501 784359263 921873309 644982423 68223766 571365525 399895671 649309025 466099191 65759845 47757478 467777387 119385488 12607213 348184344 724832208 584679700 25989940 925731819 891399247 603741799 975122152 489166874 684091130 422086394 489455856 956215837 544108074 916560234 806913394 323452023 626191081 953520555 903723866 449456360 525739828 881471989 574942733 901434519 34730006 185621792 228461444 171061725 50975342 358854737 910523412 588840672 199364963 761203139 995663706 41698018 339231763 166554718 292960558 975974059 938830541 328580840 321497893 630481077 801411174 655509506 180216997 339024635 246193873 737576791 600446529 594213443 48129929 881888888 489580066 606866081 21901020 584555169 721740567 253386757 123743637 919743581 34759700 243106341 42614305 365664797 617211197 941968140 68644559 315234642 912101937 748163040 508905348 517624799 72393239 826475719 977081143 452515488 868715408 736307353 128567515 679569964 339453640 938651042 682550394 806088518 149840044 625567483 655869637 102764932 266605920 270842064 690159188 3093565 582142913 580913006 378397854 970336377 4482404 903674343 233870357 220237742 529985123 473715107 73143596 897330147 5013492 573635353 862670917 690942860 182182927 227521193 60711898 79020448 215624127 970253660 978819418 239450068 162693541 246978975 72710840 58634606 992287754 458311478 3053904 696813475 132669948 877554559 49905457 370614284 840528049 149882737 309055019 309612642 132980790 575390869 852982483 534713699 608651184 990169984 296593473 357012896 481511911 320712234 830917043 276309219 308780471 10213114 129312418 762767474 886280835 40086139 794018190 48153473 342373312 666013904 392032845 476980251 139353108 157432947 618561569 384644930 628522451 423461638 761328317 901736721 679764234 250713312 212396916 432034299 800898342 851061189 339979065 941039608 463970524 197796035 208165462 285657323 158492462 750320670 503137401 319675683 242061184 834015211 287839746 218286245 537319706 916710800 674946150 311160359 858991122 744217586 141490366 317000110 590351573 972008748 974028150 781404882 829361594 669166511 113313716 342026203 219077251 698920636 864115582 46839328 484363868 667951258 11638563 290657787 385267006 244823751 158631561 365747462 803547413 625480873 569520963 871560081 454835614 59411082 16193562 319603323 139540873 187074723 86990072 581681434 487204153 578514125 398623831 102607803 279461385 674897925 734001505 729923221 92640046 68537319 502030600 4238435 935709723 537775013 995619484 205239270 150657426 354027614 201406307 477770191 775253082 466491723 848254484 384885174 659621428 953713856 853596052 964971253 908439892 729336903 93470879 945122270 586354282 684901143 419148922 72140668 755073601 191209839 281787764 290291633 653473964 723640547 328482586 443939096 635367036 694438358 128988047 237945036 210405601 380499944 618749731 463364386 656243355 970838508 373776150 535938255 597003610 559339655 127696959 185102941 610344282 22184059 328725322 265757238 313058167 261017714 714358957 774764511 785890489 487364596 751972156 350774248 259663736 14770147 850317265 526493891 418034765 140387100 887227653 128540218 781055710 379898403 841567502 213553513 57353027 264259991 92291469 466196129 210107301 154560277 413894285 559470119 922124458 314467580 853645365 72304970 943532371 196769641 420653145 655638303 568445427 64676490 913107808 664613688 659437164 744090778 813834937 544999854 673282533 236415898 16061731 220900949 847392014 34804719 66711358 759315908 284462198 324238739 474312891 381882042 108120336 61259714 327302777 369225016 793739045 178999087 745800191 91737273 107490032 121436300 485479728 262726845 826846764 193872331 823588803 464139400 767531389 966026822 408665568 729751721 971765027 930236452 42590041 307626647 568939474 75700977 825623035 179422954 352351484 34373347 789645766 324102274 568870009 413939412 962846892 33317231 546709525 418745953 914683355 449462986 349226939 511971869 577028200 645971254 909716081 715622836 364574043 969375045 722053774 460437639 851644878 751937674 36451143 975901050 548141641 139676374 427450882 951192088 340996737 593842949 627738937 712260583 350110173 545237947 268070001 922675063 974946903 368464090 160209387 913825767 149231218 126926288 316132369 383713815 156577610 404322468 636875233 168019388 504585611 56572358 312068911 36058401 773115990 739922198 119027919 546607878 878009367 972796622 300360147 301995956 456971469 874867727 925068263 767306885 94863098 873666427 486678654 533403985 206662278 877038334 107342876 411015134 235340712 475967030 127896553 650524565 106383869 564607860 537354607 341026153 801035896 206312628 81909880 733431858 205192776 660180436 100017004 607778283 255351678 52813742 945574586 323824833 290283948 982118432 900022642 392092294 471951683 239502303 117116176 110629388 890978409 666649542 365190202 70605945 402176139 868550505 157789908 500752984 526050022 891518227 133480489 278368080 107612026 365846039 59508549 711362160 268117800 706373873 702424290 237694232 948874508 835606984 729759078 606490284 610379367 755924513 267094192 580321087 570475824 926486732 595339627 46234803 126806289 416630062 797442863 498612364 202683681 790358548 924861357 606453830 141170311 916980611 291700955 554449066 812611920 379833700 761550712 942653853 913422795 550741315 75758598 187842587 718060981 249821009 677827285 699920721 620298242 545131244 13566913 833084230 321859098 328398425 530265486 784033953 246274511 945828122 613739541 116145724 866820317 599550679 662376376 197586425 773161166 787444467 282733829 915750826 401371708 606166998 253792908 453155847 594994488 1991895 121727285 43524414 377834156 357354166 507070975 657459382 618570383 858001046 157946212 918659185 261194216 736720871 913809978 8129281 953422035 805066515 301901145 77303544 666921744 379852088 658285966 429097913 290948673 232843252 977108510 387656387 88723022 369374194 728549175 345294214 207874706 307111777 8518154 181321943 495124639 199634556 767798626 432605230 765969838 992476899 256974381 712544101 42298387 717585870 494337931 44050589 97991843 229209774 901343558 268675546 708014827 795075892 702361162 816351580 381023823 333694856 829839422 549539401 621798672 644901647 202077863 578543924 834317965 701148631 691972439 598982295 866445611 805344190 274814619 844694616 361171355 610593148 596353690 626915494 443912795 846260763 772687072 901377955 910182274 971049062 35284522 220561679 441833197 198022173 218021868 880342112 321088567 641477853 536702298 228303922 102672987 325441028 148836561 548235109 124317905 520511870 27939957 823411051 446489087 685252722 375578174 645914623 470326115 59641176 311246723 652291544 195930491 741518178 892999037 916067052 21186482 465462439 693341936 70365787 657041059 486105809 592533961 112924425 918098637 168224377 167980980 210182714 697503748 70025226 129468320 189916915 857489157 344753093 152048982 288937959 899819665 123765799 833635698 932148991 481004170 803364608 9775716 447759303 756855309 564055462 473486286 930391420 5997676 381538011 357276081 973615440 182938315 289827110 330302393 923701059 411179718 986468501 943722031 421263194 517436581 894003106 231208501 440705725 15111227 598134506 24457554 169442337 815246741 62119613 886419979 452704291 837235257 458796822 128316409 488293065 45403192 278582222 47427344 888955175 193178659 214557764 8632858 301668500 415739436 337665161 944159467 687198659 216131152 982772390 426861848 873471346 705910675 949487327 468737870 400747044 69685692 124473579 360969417 394808596 745246153 911345253 339703161 235331529 497577506 838264096 472025579 996645146 418794739 517153321 334678134 912599193 836940126 981897088 625589296 345698798 295535730 758703095 511845279 894821379 414246035 435678935 570192567 433751763 161760216 86279152 784775401 203052731 30492723 41791705 550305721 609345534 203100208 295250090 405205330 696862191 814276701 724057363 776618548 956520151 435026527 462866745 554556478 763080061 871472284 894706516 765082804 368709917 149308598 257346594 62906363 301025010 314545260 290223017 807675498 430401376 996749472 837855970 132737902 328806961 85069535 729115260 130845541 765820052 134183676 84186782 274826408 821324356 686981611 40551935 895655533 41042249 225674616 606549552 332618646 880292779 657052662 122200339 698118871 599866774 681955228 380125754 578170107 641038707 461640579 85149165 208740668 153872818 833782797 407691766 820534472 117444091 795282941 958580487 633011583 717194230 174710346 135660279 496828061 994528441 761829197 761141197 144052151 708110521 323467079 492222409 995139090 767924560 761584853 944488717 192374284 579278807 880422003 324071097 836442541 780687721 33692196 168525011 759697783 84517666 154106848 529885119 588369813 997155467 624130447 589832110 747636552 895947453 54733021 469956681 64928045 529004768 635833441 82199898 116342214 115423090 505785157 912803829 639591805 339397718 647259893 393853973 928077654 935355273 911917573 817879619 145267947 974499555 344131258 612234881 611306965 72515090 790319407 645593406 482755406 218149850 663292509 509656201 851756544 252852809 70197353 173146704 750101769 816498701 859018811 1938381 433442790 389785839 399015772 398981908 22245954 876945480 827131686 836145262 462624768 165683554 180756668 410355314 582313423 959166635 30038884 587427617 279846567 718892337 738291684 354032766 994218578 13997129 50995442 525475435 783763654 520107779 838562172 112310348 711461760 939081291 133332443 75723900 74708845 418441786 630626194 698033435 264821564 335889276 467629068 180388387 754592445 501410081 103051317 488959871 629426346 949207166 436266061 368127078 62565605 421522880 645739583 923797422 875059879 9343226 750210324 295712071 693448529 12761749 886411856 996986527 326883478 789478658 652899720 257779797 612594024 906112327 951753965 478589959 903307427 228560303 621246940 712443842 173553904 90249044 601499612 591563002 139974337 471391370 605314523 636117506 624774415 31873810 517777274 662695605 185408304 17288854 833508331 88119401 512840150 54840267 16861922 576291065 266164919 458433693 258614926 984437785 65979635 762281970 697290988 733957659 59018619 322163170 936654548 450570555 381325496 485884854 761813425 934712088 295383928 555694901 489005902 145164427 213045953 743416149 927840346 660105107 9881937 408341019 381193149 239974588 133964620 95748020 421894394 706025820 608865556 51589771 895114513 232304847 218491524 292362891 470518412 236824102 488303727 868720655 190201689 442141940 887826272 348839199 76088363 871373391 309005061 650920624 815435218 527127569 911124925 74794611 906108258 16359847 368448967 806724851 302214836 782343362 310292881 572890893 496391709 808236761 91886463 135385332 303073898 964382887 962414629 112862265 512264315 66109533 676476253 279413459 600115614 456480189 363768161 866626800 307252942 746171351 718681360 61083067 804968843 249664465 893241275 534301531 292739607 144971156 602527706 974950422 506991235 131980088 243409000 709928773 666440381 958058834 132463812 51270205 108406454 148395333 566942215 270006260 782937271 645403259 409595038 357289760 941798343 576330051 215385336 73517144 916477873 379151718 977345633 818710057 587888741 64470802 287762219 970499506 30384835 585610042 637548251 845048822 860370845 751581282 821740973 987892676 174132656 745369219 569456563 907428694 737458821 975412527 225059509 18937887 848705605 792867547 965826490 382595212 318084428 338465962 456792514 126315058 905443205 206579700 69992097 803181062 964561564 95875139 366301501 394647851 224037906 297588608 194600205 567622895 48936257 218551787 416707030 203288880 52132640 674862627 589068944 299472080 201675973 557041291 556274896 975707986 341604940 303511407 45094840 591067804 290709742 996771671 989136856 262456517 770033981 620926660 766623032 707366811 668637995 833685967 958394628 553352777 473502817 402786811 263760959 698008152 731050150 627241630 493319552 275474097 99571912 270756410 652403863 298118056 434588168 567077122 309438817 947802605 968418171 941839926 711700047 188711934 449277226 134893745 721814214 343746805 427668145 669897485 201162648 442828810 838421581 922579943 181894964 824754906 282795420 391143108 573283583 992374191 334335148 788246022 769098857 193434874 708407187 382502439 354602121 526567336 263001784 512970162 358888906 526236803 134872068 736213766 546745922 860741804 923635205 461776907 102375381 131416815 697992476 459302729 662836883 15736155 934403894 276417126 321378462 922948945 355323802 198741197 450331670 633998270 300830806 164583185 875395391 220620424 490868012 772989536 23122485 119886983 611209250 684567089 215418389 705697116 288227717 88830831 529398923 370634423 391241748 396326362 152319984 860135155 178357426 458580199 632456006 223800840 354075155 821132872 198833994 759224597 198026888 981353636 349931033 546975717 804707417 397266086 313431160 346787501 647990319 534493733 793728895 614490868 166347175 208076821 870449818 566743540 817186649 893655790 177437794 897130090 774574998 969074849 264271510 631413153 820476539 861757237 511746908 756837035 901945789 679680221 590182796 759876970 613361930 842369382 387771420 169964667 69636616 768197340 74772142 779423883 17817128 734661036 400216465 449396081 268550965 126237709 935367287 757107352 992799387 125046806 619095318 649315524 761709781 6416235 666255479 55131501 33138841 499624188 289339777 614981760 387294335 787786629 394251971 297871685 702181971 315040644 590070771 929621176 538226942 627300537 165058719 780992791 10111583 842013810 456583269 791281050 791494196 892779846 38218864 395450312 313339395 329148021 384878353 475944809 209497529 252375771 907973667 784919655 462913537 44380185 881349890 435857976 118198047 349408999 192864136 631345756 627400197 260413667 190451893 941251278 895437768 730305313 848726170 440061401 926916551 206869043 432121631 459646465 938339535 354582789 893065307 93467162 494149268 857202156 913117369 75750952 617564846 337218367 576126942 372308360 561921273 732114181 172811358 887431573 33469449 372254490 849415422 337545914 439257189 316925427 688761113 233315515 725028499 448794561 296542090 381617704 674840346 170416477 91069463 773781692 252518026 949812693 5305778 957401016 25117172 641566698 23514679 599074069 229614529 519123998 433410879 400453804 250783668 773815701 14044854 174384955 809916252 914335759 510097342 637591193 212967765 256360679 929526950 90096030 84180382 74346777 152618198 503318180 986288225 740112331 928730391 885558897 614098218 471842519 742619781 504373727 735608750 818724308 999711071 823819915 647114059 825684507 182415561 942368100 807642911 709268668 300739844 565492915 117604556 797676663 448330831 357697402 533290468 400777295 485462020 389903012 163350341 378591742 132383389 530619586 449696344 808776903 295847139 763891677 978530367 30616397 785021299 486871306 136422843 102142884 632271597 416609029 902876836 611629379 230042318 495072854 800734967 494325476 210590504 673588444 219205722 280476531 442297664 875233446 590376937 565958276 678723969 874205059 556066628 879098497 393749103 301545773 728339666 275930727 68886463 615607191 766945394 184619063 945997483 672625410 227222895 135768958 957784408 262673878 755530756 575988054 15806953 401568380 263112407 531255063 963048759 582558571 705446028 228601530 853371297 929550197 681884555 203600530 252844881 144574262 809632998 665252377 399989091 820377701 791855464 258826011 669122239 694701287 414523326 797714458 760977408 102514308 868849099 537093094 935114235 783315604 176143696 422339011 146486325 75184860 703049807 396594424 984188578 613014700 990538784 480022628 658136811 938751148 332610916 454806443 617702921 583587965 715954616 746206091 35111715 310156700 466300879 935248344 567023795 422926049 693341486 364984173 333771981 460962891 724220306 334155555 802352495 824321632 427204131 66169907 918714335 197986196 916970937 154825635 466699940 665493055 591980276 702278987 579447587 424598961 147177484 439502394 902582431 128488229 563019282 962063391 684656079 550707269 727467027 134613014 176008657 240106991 707332086 474268306 826508131 693998225 526098546 425217121 438367278 502976375 213532170 368698661 370292696 226293652 526055015 985545494 623704655 655948868 208322315 690602187 683920027 917193444 451035879 450396793 629578897 524829991 741706467 439407779 704948951 676571918 272691331 708976391 939259882 81873394 823973812 917144634 736592294 556488554 84691702 626696095 374952727 553664921 754489446 920742164 7020377 762656225 351755393 359731776 674092619 771563238 916639833 743616142 725202376 811462839 501575860 930815427 695060777 488211288 218438314 190200870 120807399 888991760 927205159 95313395 448586361 64973622 496655734 232694873 17230767 771476950 744665960 290101786 606514322 332956552 799954441 632615267 379570608 365264752 483232361 169301094 1920006 180717754 981439031 897426464 105262366 407864101 107740833 533544358 48608318 132963886 368366857 425781597 247813226 746045386 928345931 505807405 885878547 943972731 580992973 682990818 715015115 538538196 538583217 850933925 992629308 239552888 339335647 322917769 525310083 364206868 596821840 172284529 393356971 925151500 180885115 794944919 28984089 273142029 53515313 275536855 90700193 122507977 826875595 367175903 255253057 859989692 876101401 82617119 7832604 633936568 966427135 405575504 960387598 258564556 820530022 328913833 453255417 715373117 230855807 156024522 607827872 973583500 551256734 727808210 89907786 438979997 422595412 625960874 60370213 16710057 963635981 599169814 212520174 669742494 728966315 764975182 721006632 27537500 33535626 524502575 777703185 897843914 634625181 145996043 743508896 241423227 752931088 689119125 167431227 970683714 135797986 327386775 789362426 757636954 655302403 55673692 856352828 993967783 314381319 188991379 443273155 412271710 180520402 420862436 556172478 937186569 591728272 672422342 585806952 203435435 200048067 439253861 104551271 439337273 618015511 340649634 802401562 563766488 234830149 907165794 178503423 977389299 805834246 371950533 706744432 39844550 46303411 97599800 942801479 591963484 733390396 371956124 445096148 117665335 599305782 549975507 299139527 661875005 55739291 154680316 320825335 428877814 311268478 658550785 125168525 391563539 71485712 229840231 818176996 210960491 430708980 43795568 421599384 822049366 447294413 928329339 410806755 276811964 712531322 648462731 881950047 813518314 850633826 583935885 316912642 852289705 577025983 128714104 254347696 765638342 801377641 539100683 729628332 218994672 108182461 826679341 803672511 930255679 666645967 799178689 661980886 760741162 159792508 15133261 605698823 481985926 953165497 789899767 624562546 614529505 166188838 268925506 501395948 419058987 869011765 660485790 996721465 628413280 664228686 578301291 716264065 677480946 505929674 981996965 445108720 466517427 860734109 495266871 244594682 358872901 150428832 690901294 164358515 38677358 234516467 772598717 954088021 322441599 578363130 483847076 21897699 855042637 65314630 473427289 75617525 357577098 874313973 546316938 575310486 303212107 765438967 866109710 625152867 673571681 77486514 227266397 970817440 719388867 52170302 262639863 703683965 868329940 628778689 521062124 601358274 800938005 688002028 682877546 458494043 129966649 999400237 161192464 265322745 906752208 782148576 313057375 661869939 554892655 671344424 505842683 330623563 687802821 611352845 420282462 206327937 534260184 502748566 981807584 236816546 161972247 616404005 985861506 13321074 222770709 885332569 17510719 396069580 34542169 266732451 635839457 737249128 923955449 831361375 321435895 392495253 767449991 337255200 680963804 539015696 812139240 217272785 623566674 782245228 719448525 746185895 219088054 950811520 561765117 97257306 861701466 479212733 643935348 565907599 842763663 529993485 308265671 218295002 839197503 96302009 58867611 517859464 802221142 280166522 809628945 335589926 175747721 91704529 155257550 715567961 617613981 598001720 174959858 900424051 733999421 287060867 965588077 792048902 12230336 782979538 331964035 478373781 837530716 697276067 59490795 512457790 85082714 545407845 878221263 777085426 112680635 475883750 55499141 595714016 928861975 469042556 795742070 660228637 93497985 834436827 298542020 39450660 38495050 987638577 950650603 230463457 703785882 892971909 250808741 947236470 926665720 117788379 606146123 107498085 206992549 382930383 61277615 433732839 576617991 590255340 352572816 592928073 717039401 856248012 263518413 251767198 521000047 472217014 915548633 903299000 548719846 855626516 24564554 837245763 662179068 432919444 107295330 88294487 358589369 400688571 607156347 102305382 335165073 954538731 442478241 952076211 223696614 591598342 289414964 338507429 97123657 149662749 547520874 296432207 288520845 168631937 628015473 577692939 340654916 447951947 259693245 621058632 766678050 231081230 733713203 673419950 364840407 667835209 554248899 888065333 155638301 58532688 255964967 466366197 389430507 275749260 987241490 887475887 789515736 27597558 17183449 995657413 230772114 181753860 858834968 862168782 660030730 630442500 777914039 313472502 106640663 993341680 249422012 92688463 123260816 543269198 174233355 351312286 20878301 926737224 128279516 822474909 803960823 750492524 922133304 518759690 58264030 934260881 68214485 998502361 580797764 3287921 366075254 768136123 979442115 834609972 556833535 827652551 809393642 9171406 690986049 409507529 75067449 609883167 674434008 847867893 739778359 624908972 610923391 56194518 408150559 239152366 641865611 624912213 933590139 383443733 122549299 207344838 240606796 988377099 695237236 549079037 388823933 363822696 203542777 762798895 137750151 928728781 346112371 614601874 439096536 835072324 222959730 235948323 931974409 870839983 436657714 602170480 418121369 159765562 376464571 718223859 315254975 887711994 514819710 218052756 284275269 183245123 948687553 648324225 894385019 851726478 18519982 270899237 453610608 866428114 378723337 73933115 532659167 338536722 286881068 525677944 977648271 819049160 958314895 410575121 55619022 198987300 745844156 37252102 827700354 125972056 162418807 949139490 454534494 360508798 77573775 171737362 101266012 884955690 345536127 880709793 328698626 329152297 308221828 346960039 37857446 819284086 852939921 678268296 419698171 976524329 459668201 525774396 728846307 891187959 380354300 594926068 210779219 82390359 486502653 134544365 48230439 552141020 282179036 541588666 678587006 569926949 262831320 681550280 239534778 884312763 280981188 110393284 886422618 659840923 266349378 84800188 263965300 932576545 232472439 178713763 182822984 987153045 500197479 494918924 684062514 313935150 592318760 898839613 965971887 948401962 651953724 151547299 433242173 529151272 866269300 274554750 191115679 759328734 893604866 657443627 922332160 617437662 938783765 873974179 60161951 888818208 767938348 569219045 167641874 765101753 776180843 920709636 745217515 520604982 103005631 256681623 260063037 779011135 115852520 800036567 478991067 576012704 464017096 731981628 31345429 745467309 186716878 274769725 371505826 588260085 717006646 614291380 477618609 30920795 321068896 819348621 147694293 930550086 734840897 183918263 707599398 970922915 167915398 573623087 455664355 343658075 170185181 517737544 125848992 845016825 506140906 204211382 322245292 206626706 394570749 512520871 781288158 202855173 189837236 833836750 458017090 302537465 787623087 145201946 84221668 809408805 933209549 684293982 223773628 186892146 665303168 145287960 311214595 323314379 603490865 768339707 472746334 479687580 60450520 14488604 794219424 918091023 335628534 166149466 720994191 772624991 873086483 208463733 146876308 120942934 85110020 167900087 8348824 921265006 849806474 865201523 221258920 246163244 934457224 200022191 517373598 587470919 490930381 292103959 722661872 563044228 767442100 240615953 47226890 956758293 370410515 591024681 791711020 152764839 702690972 783833687 381778954 194434259 229316606 716064609 311098715 950355413 421129825 921607511 670135891 130563555 491544971 468081023 456223901 131048220 476195934 827186378 961398657 931665831 900113526 384877452 717133350 938489809 209561687 317115124 237672211 129158337 817427930 560255770 104695635 143013670 699881592 28295904 681517638 831059132 79418934 456393637 772307018 626865469 840411409 836554526 206893801 701507141 37468490 734285840 230599139 412663357 640915683 566926554 739295693 487339007 675142489 276263212 472587327 302763126 422382626 670799856 370708842 78965488 57623016 90897779 611720920 668067682 485676931 510387424 729236751 566854281 272575648 423038736 152275330 375010119 449114437 255377379 376539117 944199962 544546213 536657399 234075716 495298683 751356368 197145002 719073091 567790248 432498673 46628459 603286059 684867106 644774619 737964351 602369009 585694213 611050639 740212165 955771110 11997077 554861151 425533743 733096341 976649186 693327824 788072374 461874893 131012971 774070392 923415677 23512085 894877447 350068150 271166331 76345857 241525785 880064898 376751276 862808379 224328630 38393787 575782687 945598687 973821397 887526630 800509711 141077688 994855903 735050330 941907580 640544404 558699767 363249337 620512055 363768628
