9315
540480665 996469989 277870917 355295548 93729126 804559641 26297375 26998206 107963371 974859646 110401035 287860032 690846388 14203369 404605933 910591194 753920404 2037745 233420220 689169572 194110401 223897410 555587741 76667326 801922623 613673881 903635936 383297370 588644319 683544465 137445624 198861623 92025564 77603055 389481802 817299952 74589593 386497886 116815146 133314522 930457151 623471547 282936092 21277713 562824503 839634942 498675506 927195650 273362630 730115299 913493489 307136542 924869462 998998261 562636112 526419912 832100425 122407747 304893833 986173237 490634675 870781489 606859435 413368590 147240315 893786561 631498100 518575862 613598991 65313608 585243235 742379017 689966870 92114878 540838339 124988337 243392359 127015240 651419581 310275624 881428699 662386938 181989330 360913610 691959686 494600910 776283667 659008077 155112121 441070338 334041583 348650122 274451619 583381472 837254109 637068442 856254997 381937071 306089137 158242103 572183417 586699861 195236027 174883013 711157305 658482385 948392913 948073401 992209542 109735234 6769770 956747272 842677700 672501236 603470799 582475128 152179233 64926484 502661093 840640349 581351859 995989485 643840132 290275489 558112201 545626155 930949234 385085231 915484304 486622675 465139044 785955794 993040279 677591504 49115489 135652099 404494992 688890333 476228853 90221879 543701520 612578329 605219953 316460667 541344854 598481209 642683819 873168817 219686817 315114881 488163124 292496066 815142662 172023251 800097778 400167185 977943651 911403392 800564375 44896789 320578260 74760411 270205457 275015323 825268064 872706250 473976625 628641776 930835232 126113248 558390366 773506942 808648113 117236085 431828868 220196772 29112819 577867646 811193145 865970439 352855515 519345576 467639044 496100501 906886716 928482127 63420013 875223353 844775772 572650065 272401081 334751847 523216291 998102488 22395449 582624173 65554826 123550584 897659753 709880174 792719526 572600050 724786309 516821078 347402625 68888177 58459917 672188971 268532771 803820232 291238530 835880492 471783515 888441171 599883700 794928312 855701602 405757501 724390404 539107682 704909006 487301284 534821460 254529259 280529294 796218185 663399899 763914449 127149710 540481085 374766137 879181435 5033568 292245604 628353677 127130159 266826976 954950714 258315743 80062659 493845115 982902370 457737927 200723707 181917227 644554846 465031035 412548889 835731211 244693121 639091324 573021844 728388388 612983734 716412172 323975743 452004668 92674318 505926257 314304895 668861217 810873094 523915397 7910788 443006231 502400081 306764660 455557039 600219155 192279108 905906244 855354624 187740758 723307740 624236191 438064314 366473523 878193942 954248087 294913817 222463400 659934394 839554096 16308103 942413574 811354486 943226022 80260188 684597992 391989382 518761180 231594329 707921298 873006172 603494666 468217240 684663748 358648766 390611883 215675259 519777676 509467344 469640415 220082910 683142212 178492162 994613322 168825586 469332713 882443483 719189386 84227163 778300211 407913125 789695807 510748971 539754571 453382365 427479777 591302777 241590254 90653319 279603772 494276758 598250803 300080098 290154603 620946005 905776667 755884063 655047591 830787527 496485047 217786060 285299709 78075 277224194 874626707 139577020 573669595 311991565 720821343 252160797 320385791 988992970 742932155 120832114 810988099 518320763 458702637 920231006 952705289 602560048 695640686 926300373 161752899 685198979 115159820 63133562 908272598 948202043 296725865 545979300 202940559 7187154 268985503 342009367 884367390 102262832 860353205 14629917 507033890 529769875 482924316 971494640 641943779 546672348 806740992 349130198 301283546 438606150 553630062 961243248 708070523 826033743 996293560 660757452 518077220 425272542 159484536 378824810 247959569 962686224 613495504 956880155 554543834 514643362 444022780 763949442 590309523 771887316 814570888 208132745 39408248 846240613 96860416 344111737 580174683 383417839 781445982 10339060 655657434 112120640 36954500 167389441 359929549 120687448 904660220 171622727 605503255 419451457 46659662 160122959 320307614 927177158 773515457 956468616 92404874 758317927 828194469 167011155 212845392 937328605 659744735 994796777 856141886 400969348 397432789 246890043 549590773 93596008 554694050 901627532 867600740 507123139 444451504 431688478 388616547 984804078 745407579 483152643 470337616 967811345 12284958 692283625 854282686 730508301 795311155 364347137 777810375 218629887 850738151 469681913 961815078 527604103 74771309 65563645 280101653 155971444 658401085 936727895 533944901 426838492 915885469 500764271 925591480 133789896 519148477 298091176 436680394 397127100 920737532 827979111 479813470 443819444 441726092 987246663 404570972 960145337 525450425 939049070 675402762 361195261 348464980 175028221 625779595 26538887 804753461 301897502 372807179 953466113 909697014 71924158 574085018 755908092 824199107 69845962 445192602 565534204 118766215 653875714 545794271 228127764 307245564 970440789 468718399 246752085 293657317 219939514 29279195 853397983 234033394 573125562 393531754 757745091 55794693 805272089 562556190 980679676 648160284 865531666 18122763 575447817 393553117 814515147 370794565 736017618 65396756 891871371 931343469 349687511 150601221 654912485 896816492 928084628 818832275 911452063 95047293 804298491 264546538 304856 298321917 330137968 829380674 268261022 79835193 832250550 751078798 20175237 813466621 483830987 110085866 64639589 575469204 217586890 664378691 63611966 644795775 946543390 310701674 779968736 752250223 600604224 759036284 84197287 208467496 567922006 780246098 171222117 621576719 648576 82018025 996597387 491745475 827236102 827166097 474653079 775745368 712392444 83129053 761328545 691588160 737340100 334642743 798767318 859288319 849946110 532403702 299568184 72656246 778597298 262053196 149475119 576210702 976542068 680690537 54630554 600429981 559501175 612016944 230209445 316783247 599231963 890003831 204058681 785023199 61776617 560211439 369565040 642680901 334204682 576398023 938707337 432926363 364336824 474849141 560175042 901907164 47499232 506955346 751418345 224228361 838870292 331364435 285355751 801668903 262315447 349082197 145499749 674972714 978427331 778171277 320662198 101333416 900775162 560025654 40503819 833724543 723823757 815600231 266463331 457026923 935357559 183356787 208043891 189198007 855065636 50636101 945824167 16462181 682099617 991219287 868604826 93855038 227916707 840120818 354541286 513139403 295126740 78746381 772425386 817083786 794905431 326805450 277334824 974549772 533216414 354509478 517859792 511332448 244544583 577831053 902131310 752683579 997974128 200031950 670407686 634556600 579768971 749219911 923863018 645038775 74268520 785267005 934875230 191282201 415618496 501618325 686870374 39499614 917403599 630616417 420777756 573871623 34585382 473425943 340397215 97408956 61909684 139544924 210626034 564734871 762588527 897171874 224082448 337076722 853660417 122281690 120037215 29188023 389768367 757454679 986282539 923868777 184113777 913075465 277749913 396273502 149778777 249334752 435230302 324914922 604368501 477105270 583436834 199120581 616360523 23665837 181880648 288757976 67802809 229656718 659726056 433744950 701474525 165581751 730860520 541769847 954605875 672507503 801014646 687956237 658358701 773498921 763272935 665696927 617396891 753525835 594378256 484310507 509985539 741648159 861239418 813652682 600295147 697116960 283266406 948890905 500536842 21232493 208069110 610813277 818536659 879710939 719303772 695002699 657419257 287982128 389981291 780194907 857409425 509716766 730356063 200993707 990352820 387672998 982182515 624641750 273304711 118774170 419450655 557293851 311762972 864065030 50267861 886827194 344720602 212861934 93627225 908616578 504203526 455341202 683357441 270024740 384757970 991544416 514081239 80235959 732131041 433608227 683259031 94606639 178965142 800551678 540629663 866119246 37919279 158130928 904126434 757174024 503845136 693831686 869755533 333850388 219994604 16609050 157580996 133585857 811348229 920672174 278381063 902750511 788642140 428680137 610974461 410931390 301794433 273843348 921261180 197311367 171684340 923145459 512821800 575306678 598023364 262996687 181301525 148205971 546510998 69913339 991254978 904735254 913785893 754503440 955947571 797714682 670440694 167832777 245192441 886037697 941107058 714267880 748304131 421190982 67853061 243647911 460850879 939361240 537037433 529348354 950412195 245825703 491360829 573308151 177835616 641697658 370661291 376551630 483539811 275370185 9974505 319896495 146319531 272319505 425335502 698652566 506950814 835687205 366450703 924621845 441349791 551377918 599681859 100670829 377596212 223715176 726069050 895738466 615033208 118901660 115552830 212743471 428850229 221995069 498219180 364863114 407829008 882350931 422133944 549009908 883003298 141196770 246352617 318984045 347769839 809011695 23847594 384479546 934675783 250819914 454499180 592417255 51841970 56188551 738210014 917041587 645953361 820354480 512730609 497693930 53930862 246975738 622481055 363355749 106092839 910056883 189693283 578828944 749070450 105323422 284579727 139324033 593334735 511886903 887180285 977511887 389819943 591784453 451206666 898404635 532735539 965082800 379469203 945020982 798754509 981294727 190367376 183877372 993264562 948527947 900981933 549400839 905434537 119500012 526787182 949358342 598151740 815880175 617482706 763458268 160754915 757953684 23883795 999730209 260366457 106275655 821994564 236128241 489497263 142866982 96063147 186934405 354438758 841847294 781823757 797862066 580279715 746773520 755417626 781969296 587032308 205617398 397435275 996318893 428715765 552474762 325853386 330527898 332949989 307061077 459428082 814411591 562414761 12352549 149592092 427546333 215367382 73085 447938433 401481223 644945561 351519265 831349649 629272604 802969375 503819312 570564017 890825596 758293087 100781594 374822861 678002412 28585621 778188168 824011755 849845819 45007185 766080053 766127555 597836023 985269916 865321801 362616575 591968602 198695745 800867320 899402774 323020083 474167584 682130038 226795689 381935001 90232594 906457085 160841547 497014799 962593258 861770792 327391567 384850813 719391726 459350734 960048267 145970162 895628988 401085858 558874054 389286140 773692841 510253410 853233373 101627584 383288362 23097345 245312362 60355456 767449708 121148265 354058662 114081071 641858395 867776254 960730170 778387684 311011888 746449748 626895116 478025058 98400896 871459757 522298603 86724004 527290574 91194055 196140072 427903753 319854664 521049882 550370435 816394 600959359 481491418 712362121 309721295 966575191 39575266 616975620 254036394 27656260 166551075 925523262 61811807 67361591 423772833 134610430 99847942 824629942 551949880 929816091 41745642 202172363 364603328 367037424 36676682 694239968 433488704 616499094 739456710 831537067 305739273 464608422 36386957 192874699 216510100 382387507 194663582 163761290 923136539 23448202 747722360 750623840 2033887 258110632 990195999 868879430 76286423 334606394 718558554 844271595 343739420 519028972 27118941 345858044 482366561 376336003 42341961 789307979 458472421 300747336 879972012 631173534 553790597 162817429 295416619 390301949 289578111 727571544 70611001 188309620 460744937 120917297 685520776 916454424 17949878 334748384 487653119 330458659 245284736 590545074 177979 866641645 401980716 809775888 9545234 681562183 672816135 509653044 485471716 865783784 229411819 257535007 119407415 588845618 127798936 695631168 189258274 880383810 795242361 879292684 510980353 631445911 889404294 478508924 57327518 787186692 379485254 777691057 921854963 698776637 874881311 52042974 59815458 973169325 946156293 681795344 688760786 261609930 856641484 79298834 41607717 357361883 327968344 510966772 699573909 505962425 662589389 690942578 331434608 123839443 641811464 795605043 327444358 842828004 205460941 121951172 582412342 294530516 333451544 918792488 359995069 654603437 397811263 644686635 928928272 371173682 680072527 760940317 317494469 292517870 655502118 170322847 645603566 824901535 365846414 153506101 279722934 125609678 894470493 952296107 74970241 238954601 21192310 277431483 125790685 593652782 249152376 574648527 229134099 730979631 5877168 861559488 52451639 208848630 638908943 566498396 258742408 519873856 383713525 331117848 87584868 459697545 17768896 516644019 29712065 219770525 692413943 179418906 291785681 440198441 406589965 763222361 331948960 235695225 141779204 446856963 625413001 566953710 369762466 565741900 216413358 632543955 326743688 81426648 497148407 521730633 960655472 874223907 655028363 439376820 278833773 456427218 450971910 777309025 311515711 653154789 390036729 677494610 962763848 274518858 852720549 622386695 15443844 204910290 461489180 443734989 988008382 286126884 742124760 722962913 889243817 484327327 940299373 508841024 323619180 414616635 128742572 826664202 823110171 451667225 890907726 935420149 993070544 155715063 175554792 745911920 817356563 481501612 70945164 859636807 647418264 606628632 886496807 800573050 383094960 436110501 467233902 253226685 746096822 813476769 146253628 883598415 380930862 464041696 490855388 974330641 500679171 511071807 856036553 744341967 506483688 397954228 537641406 557590433 753358537 489845615 580849778 218598630 351497467 146921915 374810177 623878496 907696352 768566274 317203447 963379817 767071525 321611337 96693033 289243550 571225129 562408566 54270181 898438794 757615457 865820414 925356438 152203305 552742118 638394675 713395834 382821998 153500174 98618679 761169633 759582225 383608386 256042378 678732580 13908674 398994325 376114106 972555011 224241791 841889938 411834425 505731734 767122426 197067936 363586654 754312604 779908781 707233673 933784331 296746660 634974906 304472776 6986631 121764507 440112271 384560875 686830604 281357749 798297912 272717186 68408952 214771448 91392407 776365563 707069700 774072330 355796430 768723963 129341448 547246279 235297561 342399696 242454068 500405201 304277689 928169852 382861657 47307840 975210164 581912683 25825381 314507798 133173656 21971004 341086434 301785452 722310804 90258951 115248499 428448260 34031576 17388505 9569483 612435065 654792467 240859958 980138575 472499972 725624038 490295231 913080332 110967287 533327740 346980879 750164194 160980875 742709862 401448557 232457363 236383473 15830197 101860649 536405226 334538195 424005478 533405451 324408894 436756372 435047390 109505220 986054753 442455343 610103668 808362691 898844561 875909238 122931468 252870508 866763394 85547402 550845155 675138032 564382170 166086541 652325456 311854089 177138441 8233335 249208043 465567441 722889150 862687146 384589227 820961351 479748489 206402367 162306223 168727617 440236313 442387834 697131323 368028692 313107217 751003170 377606327 678343009 986785016 798276993 993481424 366575067 950465093 221392951 39066913 514589581 210880252 9499612 445949625 715982421 492555197 638814312 913052492 710272766 3912887 739053263 146618804 752468239 861945731 192565256 196327740 546081542 375879963 894892749 213869714 151180292 224312904 738717840 348245497 182427759 264849031 852196615 994450384 657913237 857761569 199381566 754176792 831941419 398472679 381571923 301039914 717922622 81723901 719935784 258517200 876840509 447585032 247120794 153824075 511561207 918882622 46121495 125163018 189011289 195227042 52274628 346369842 588563408 719087616 556190827 753806780 225603024 350188737 108409538 955761158 213933981 22172727 998936706 550715302 994153212 333554862 994432652 675255797 161584081 717615016 853957965 827005517 378264090 426897143 96295676 552378680 300020504 996256105 809528359 260328254 277578211 726760250 372535484 509512767 391270239 54487167 103821193 128569269 516142802 805721778 588722522 16506753 776423722 224261952 998314979 908442890 842725815 597256501 971294159 350839270 614227321 555948576 207169581 862010458 332743261 318030416 163860285 312340609 941581376 28070555 543022669 382344902 357264803 910172209 802721556 476636628 460558049 179295819 431944707 345280596 979105453 457360169 672716435 860855871 585728828 80191679 230288600 256181461 423488094 456632219 417762773 998684848 164630202 776448773 386639779 761783640 240319096 401306280 34798230 788445480 953740729 638899821 54044514 357654184 212351691 508307107 352698763 75218296 455252797 649590086 169921365 999948901 282136822 3473799 809271642 96120128 801607922 651749659 140248536 301122268 370297622 85636063 542394993 821597468 103783139 558514237 42819065 568045041 277642826 848637186 99385046 747685704 768409763 478740591 683822129 107815950 550517909 756598875 456944407 445477545 717012172 712809950 965520724 331194363 660109781 9702267 948271710 341610505 781155396 687910218 813065574 948360344 388647143 789332661 367473457 106811309 182232870 524097212 932322450 288849406 885024259 51954705 533114824 336634864 702521244 395138889 713973163 44372232 387793158 243297538 236004847 504138177 238365963 855109409 787627567 124646837 570718309 709259623 631988886 528464730 285359518 904373221 141538123 601740030 291933193 659984380 245542676 808444726 228246252 63031397 145005123 358191832 212372954 819740153 571603923 646330876 219431969 794183722 505112696 729823153 14828791 685363355 92073993 287635637 556394868 823852938 741129973 584726610 963859501 103507001 410004972 580269417 77533209 715801072 284185167 473801943 303489224 553830295 439501367 550866593 882700922 792880139 743239432 359380676 592598993 384755276 642150358 336658291 345091513 238204485 597478383 194750202 146451914 127413775 800767119 661138233 366763521 63774294 294327827 554913815 388240884 383552163 367236279 243872076 86171745 555723038 393247675 314944060 795060322 69156160 386435532 560556182 757797214 460188382 894888217 100477537 393703868 459420463 125138933 890163968 78727760 381840379 661434607 152454129 878606654 90816638 325160295 691251457 575949301 725567737 699621770 967949961 750420539 942660895 293750826 242502091 881453941 676227633 65244198 142367197 560036290 809483032 734289837 564797090 215120680 677980481 952122874 462452514 247196610 673361465 657656576 122970156 361867540 194237042 518031980 19896737 620935399 244407000 218762942 84226941 539989282 443249124 889764012 649409083 614343755 533551841 229107582 400035586 114230049 577839953 13848 745825134 91578220 861991770 592918387 284944406 467727886 144047296 351989286 749972850 950496140 33274468 993524585 730226735 273122831 435297518 617243995 565531612 125643077 825555107 675809763 198778745 823257783 451857355 626847986 256895736 825877651 464138144 343741336 39291701 607506327 823192726 539615690 66062561 184522311 425154487 983132384 294434315 144242293 264301190 563003013 48567849 722545811 684690825 685947202 141165387 586291273 224491658 241710786 22022621 226349611 121563705 802067503 347810001 74719942 345003580 131383925 827681413 988505008 854061289 767789112 485656489 482526296 639877174 507355613 454108413 89584026 945197148 585234772 441260709 366084478 708039352 550671258 780204137 273501529 767033740 197845999 611629111 944517478 140308087 403022787 769688586 467797313 593131330 798728698 565856730 270430236 3669449 523977994 476918327 612861847 511254541 472665713 710609279 607646697 88649052 40386444 59787788 123327021 816836249 206113806 160587741 799918927 898601806 139802780 350777541 973350783 606121369 984082265 993633604 159031529 898097190 602830733 311454777 647696317 136397365 551005276 735406817 537531756 186049715 890214811 932864885 716099730 427522601 455222655 972178444 391454709 712559355 569420468 290729545 995001793 401734699 978430359 360410321 863710474 506332903 139700687 781841340 173962000 242357623 836774771 177523519 225620376 190742325 405443293 746977873 146368825 300753851 218844631 444503737 434865908 983864072 808165205 585213675 221506314 456855046 979450398 585059554 87316852 287130118 698122651 500644197 894216039 636379569 294910705 508789209 361489632 421280214 808047056 352615463 873403077 793292236 76875888 646235420 444067310 601138122 872745640 104790331 312316353 410881743 124613064 867214805 543358744 42340986 928910513 324722602 775644260 953342700 759512524 982002616 680228737 446204495 222084952 264026274 284308148 708329098 914565160 554704524 560745787 313722291 392782628 58030927 506651397 804804273 107908725 312207834 287383892 973249682 18864600 608507440 962891620 760739303 454110790 806508134 511202757 370609708 291464210 184202500 989589892 259242757 859630901 612370238 359447394 158268405 727040236 336031060 593713227 559670875 619906721 661809341 722356559 31988377 815966418 14676299 943776246 856602925 594936467 810726005 672164613 879573073 669128844 87963708 107974643 503022797 717210596 879346555 748056985 783390164 770021824 488109172 717051360 525355209 518888156 639211808 157731651 61768380 988744705 581759818 177693773 417466291 989526348 229000274 96717409 265830336 74008739 264620494 757848820 82763053 97916040 362294785 944718097 860562170 793202990 144273812 436915418 176734215 4748340 943942254 731435689 580564142 220523354 532603725 206906572 10394879 339510051 562858780 350287556 68893841 179600336 913372971 166814147 533066150 579304038 603582615 963396780 296054270 878118023 672151737 986435988 732288105 335894159 832717149 383052491 274314557 361480871 980857911 126159655 922464276 504094910 141907789 794561612 91904169 287952229 83777388 74592699 231245012 74743700 483425317 25798914 6287049 362890593 118746611 976010745 397777559 602483445 527463730 575228039 805815274 992751814 279017280 106117783 283332975 165926578 935018756 977966580 30640454 629879758 175229481 857008612 661886839 341408065 979862459 589355448 363347578 880242313 83973913 958753853 245605119 974828105 60228743 847709967 636249737 311011639 53925387 371983635 258828600 393148745 752962552 603989773 372965266 355258190 114962446 685362404 365611813 584002933 713532049 93456864 125072362 322192650 12808028 811424331 484006546 379717384 862390191 265038629 985572321 406785542 672626871 928481057 167559770 172913858 462639 568195651 617447320 981318578 461164535 667695035 883527334 447722804 660146526 476116161 812135502 389196546 844084970 255939801 32681271 388616584 486713130 546828985 44028990 443759707 171896309 142963954 208329053 766137433 922342408 466298291 469484538 578756105 786181727 30117612 838704153 663298274 506598761 805611142 813435389 496372189 732235579 15593889 133681035 575812085 143142073 901691039 822783821 257019584 710467468 280818467 429585495 327326110 316534 447053075 92673793 424992863 81193639 69015821 533006431 832553803 847543830 251356670 383362681 990216852 556929710 258980351 912639644 983588156 572471138 65835431 372925970 633754959 528010514 824511650 882676556 960925275 866668746 200728746 259190657 995602580 682978835 153173260 425597256 321016993 531785086 22451630 444354119 18043015 921827299 801556817 313636231 416941785 375123630 643206284 709795791 285910783 215138499 989526229 634882453 146595840 792110729 582891187 701794295 445509975 634964859 227915349 952596929 190859738 419528068 173324730 742655606 850235481 706215102 197536976 50311042 420205353 824244330 796584717 884051807 726054575 476103464 134528999 485752877 7943861 950653346 522014953 849971457 74062682 172041837 369236770 533241620 469544410 640913048 337929621 601603662 906305927 790023955 287302262 264731675 48665708 808129156 271051988 306146084 744981791 605315695 689110393 624650814 952010091 646660961 239828461 39978385 896262129 463721951 692237778 124720958 247225366 865058641 320975116 226822444 583642508 484286797 401189434 240649044 709169455 879652206 728002534 573082645 399677948 625874154 10457625 852157573 356647880 34571592 490789437 614207877 272898475 231273921 796660935 766891769 274725246 271438810 749584847 712550930 881324215 908261830 576396538 58786749 309770855 841088654 740068130 422964606 66326753 401749304 520770152 50888984 896898681 284633153 422759410 42314795 435767969 963360895 995890224 829333858 378363942 325779025 147374339 464159845 907479410 279374520 987028162 821941798 365813655 363857321 639923888 778959337 435234236 247868346 244291763 384075293 431337504 329451085 419775283 431691155 162272660 249154732 59417430 273585374 37699703 242582269 356192331 437647804 96762843 596511 63885243 96958759 73773706 407450098 71297934 166518013 668432041 544787008 152551504 657917734 482881719 97970465 81744887 796263746 831784574 435848890 90121569 9520001 341515768 136698018 962084838 116693457 721376639 592473486 949644549 42709056 974102740 969915805 859432938 666304991 666277463 410222781 310614187 188119387 390678941 193833574 462826205 692568127 38385131 676568703 128301457 606159861 516423129 846716562 280088271 352639084 279105754 431911454 321450485 435866604 390038568 181235248 858258550 389693663 817316923 756074167 936373641 365488361 598472725 624111085 176361107 324419528 849996497 778237444 810133399 46295354 385180064 244195979 993480369 359976296 883370386 707487105 478486193 88761145 63696086 625484779 536291142 341868498 455896163 785485486 702190200 153438930 21968230 966677523 411817958 182764569 536203890 110482893 369619386 816371210 261979268 738604601 404656814 871561792 361956550 530957327 101130790 711548200 720705945 765418047 920528585 896573099 442171780 903521958 427868046 611881501 913706862 513228234 551372762 961847226 119049882 961878106 325346070 917378933 429891786 423353507 415245243 903573688 74728490 621823778 513266558 724044662 7594934 462067480 967005424 250811107 233614769 267687191 698288349 800659761 754926288 791182203 85023468 992495932 765032334 392364078 913967707 400269023 18359382 887334112 644090648 128346513 569049149 437812688 728332062 679475586 264035755 635883485 817227944 954372095 292251665 808215504 508604404 913040027 911027375 406010234 591201964 868393264 303573456 819727893 134550680 902052953 851924693 80092793 639015989 284812654 880747139 971974001 518189285 459337746 333900618 447541285 957175589 935668788 264249733 91187746 957626020 920644627 527492362 22251665 74842564 841746415 888028829 347689047 221822131 497370943 276456823 242060034 529049538 816517195 3710450 153553897 35802705 907198866 854538885 642554522 662132371 519609082 752139836 393250044 950847124 591026419 132864270 8226607 726792872 746427759 788704324 893761988 552592853 862511263 522111769 642438469 370889477 623043007 830876920 181921978 725411448 817021616 412804362 595362205 319005386 572514311 235179449 311078594 515567818 264962803 717730333 199974056 30600827 633468483 310031226 37115851 917650595 688299962 507685238 500160497 461104437 609487681 494419855 197678256 902297524 313183010 771876068 674825354 683205485 305655938 283295389 818826268 390265408 886501071 253051568 785580780 952348393 161418981 452393526 92812009 31058543 821493729 294394924 465169684 402174329 942614538 501327699 154112892 343812838 507482205 164207907 711787982 481170117 965540301 28877594 560065058 362790312 812220506 418059738 606201537 286880734 749565729 410444556 401210574 92740740 19990357 174528339 906819446 498844147 145134254 336658016 922481557 952837681 246704044 998241236 66846621 844377614 360870330 797621893 41637558 711540077 811783039 699739515 225836644 721717818 874311021 604657320 808370858 302219519 917420157 793133922 146391369 934705907 101097034 471502504 86579555 535883380 748701317 985796782 261926307 684246900 739420369 807359421 670943763 22848261 4932134 466376957 7498713 590120955 115473858 629936364 636453156 698965520 937609632 905493455 801099425 828694674 331938942 995625249 265013994 884865758 152538750 660806266 214294056 866842813 556734276 986239441 304448004 568348972 651522229 553381106 232367877 278553032 452509 278277292 368816310 781369288 976244281 223684335 782585919 336191356 585297186 775309820 183653849 486481178 548924406 142781203 422430725 233019520 507860032 661569072 594849510 424167797 425324235 548744918 241387153 26310115 693833931 794626026 757379856 199650141 430023075 175852878 274984899 20526153 471527306 637794659 845773207 774044787 807373320 789814023 892981333 270112715 988186125 663086772 730382627 72596895 883692955 601189202 342186378 743252056 557026880 224459836 350674923 596537464 20020255 73717644 569009325 353045549 314946242 856067947 469698755 589273954 273609353 265026382 719446439 888062014 665195030 755804365 746132402 122790503 590840158 669104093 712051133 804582772 666928861 508509792 628033402 684184954 424059603 80155058 638088226 329678806 616854460 814062081 117084896 234730217 132636983 114247918 439986171 637616237 467943509 15328871 548845907 858827684 873752565 233182944 465073334 177717684 17582147 556428217 646453442 442261991 715389156 582342235 349049573 898325353 717786105 501547635 18590696 235288014 503455485 282049916 285629516 820936346 572085203 566140265 610263688 463517949 162037607 322268093 695746979 765286044 254236723 537258652 840582893 73913556 808182202 213999126 772238569 951291327 389781460 73355461 935826819 807253294 832843294 803066606 555019021 503702523 427645607 774089394 182249853 661392788 593974210 814915685 300271623 848036322 924360870 261958355 367694084 451205903 500820998 801519181 637242278 600214065 975112714 544214615 82994955 861258443 520332386 346870352 390333902 90645635 972891218 876404534 520673939 174837642 543189265 835154407 888686681 414465091 132036676 542238386 347910279 903132794 266386645 952015064 896183210 810974745 858231315 826643099 420471643 724015127 379284742 135305243 945434660 593688786 963263593 358692745 806169579 807528381 455945129 633088583 787996904 937409273 944249664 531071074 765487533 718107664 630329210 242536183 572698200 877633501 504079294 435975179 784086934 221874455 962531833 369103306 391889718 774153100 332601222 935289067 95317041 713875680 754799394 302047878 839562322 525802726 465011539 84401087 422104096 909743256 183084533 180809935 687623225 605367940 763321142 153083221 268220182 708405619 904078243 233438922 350488135 724924302 186934501 859052508 200432734 875578813 526940246 50134040 202047850 84969352 429979092 995518295 638623672 964234786 863175100 977112038 725125621 128848074 110186689 408006076 56425434 561005967 739489266 381683655 256887509 536232303 503139029 299412228 649333673 13846784 801554726 974319826 625060846 233763290 69886967 336883241 612271661 319119411 36256411 764681957 422123843 688055987 835413788 720179422 377026853 919624661 208796067 433051542 414202136 537770040 738926396 668315620 85650182 361000140 341155860 421903513 964452779 754758187 3051221 866311352 717051973 740034877 126611398 286300521 726146269 413415186 913398472 801041667 155872546 8085971 299243636 519265988 290914300 953200242 231192470 923030590 724410417 346996895 696483053 193182704 261361904 351839328 579904131 720743873 663550002 183378603 791865125 841544030 570850791 105931771 682637280 259448947 921051883 93041964 631553738 637237003 810945626 103409905 731598090 803013517 422103506 687219808 829361265 275741088 239992677 962116373 755080300 266287614 633350236 756596421 597320227 899290906 63321733 828782434 353255388 160295057 800503644 579845359 144035595 868532978 899530060 988864261 336435119 844870383 534508216 27874176 899897170 217761536 554393908 539335812 57596444 922046705 895903006 254061369 927149684 838889085 607134581 840230304 437597200 921218179 63722785 303945367 277722271 985302905 662487614 804662019 482855643 291412272 931018686 855059797 299692326 865936156 980934966 91099553 716346842 941838192 970119378 218735663 393992935 79402007 432489415 7456818 802444889 346838750 769221204 138618058 778437520 859206924 930131766 961011849 790011287 659641162 541080022 845175175 160706016 822973315 739168694 389578801 272099806 841716994 216570169 964213829 352618686 363958796 419357841 326450184 133391880 254594496 734426241 229611109 519456727 25625283 585985869 437256490 290102743 116996256 985588523 499467650 484401192 405230865 883776487 28885608 660341673 222121356 410898836 631475587 796459920 429973437 412904549 555283674 16789453 225850988 987626090 365211343 801305980 807243783 539073228 625256817 603676591 594364727 386781394 34983275 220938220 453346537 362629996 92739352 394045994 148552730 384302328 737230697 480803289 979265171 837093612 492241387 239617307 508943830 591107477 799570541 238944488 67141935 840914774 760397072 156364580 362028948 122643415 423778766 488207579 439806521 69930846 848646769 451731503 708906820 678424642 215376747 421927908 401960184 544392106 811685618 968477595 402728474 325512898 485747476 60274421 299337980 420443095 195558366 41095555 49006628 5050276 17525409 959723704 462661586 943866139 997522321 206283485 73091886 999077846 480854862 299281923 291354731 743427828 839997420 662284414 863700880 549148245 847530732 861409600 680031018 76600227 643386434 657654762 404638201 159575938 145946637 33257240 45008759 532486800 287472521 422480951 112419867 492199489 698695255 343161230 301860827 696799596 150610576 815549708 407909564 985700559 647030061 729591276 301840094 227738231 749371255 814880634 595923169 79668444 704333173 613460521 921975909 842418116 194738231 611122861 326314261 364678929 387586532 984758105 872264265 318131931 709529628 482806234 574962332 613447444 902020450 604877583 660666870 702173970 904625031 262171737 92870719 467245751 561130859 302911628 201568949 551362624 319817689 248296356 732989132 508065036 722643088 843332536 567346094 557894803 45947775 13005631 316578642 937594467 479150678 49380256 19914605 766861695 98947837 247293278 21669411 396320540 297819588 937549504 120935923 690692944 384381805 311924622 737001425 71629318 833881766 513481375 782263305 596454836 823036715 845960620 764866256 819181321 812012054 523989751 645635958 97662772 142372339 803183129 898882883 429237613 364709912 130538995 967063430 362422801 361137204 253467943 897889196 984163622 251175434 288227064 512721945 863836153 191064470 771933622 530236002 627814574 386318831 849910902 352972524 379107362 629676571 877775715 900703565 748915268 795981593 776174589 645388835 565215869 509807627 978338173 91528171 144964866 256963650 928024680 269863255 126997817 436250116 840397700 827006715 153360714 668780134 268452358 573087619 271992946 366883592 725142905 706118750 454768658 147579166 756115236 856032837 105835382 201503127 18763273 910195893 756921570 601175175 556974181 205456988 634606091 326194418 951893092 585489386 595174949 614104695 598183933 109716495 378574566 998034421 837494432 604933203 413698572 65550829 208141703 562601175 683219487 460219249 599070074 200090035 312460555 521665513 226637022 639898620 190450127 647336591 169478488 267702050 14102117 177928629 710401434 511931608 732665775 597581174 110718001 436235742 174266189 264247460 507286834 185507086 734775890 220381591 459100373 619760294 886072672 140662891 767821509 522396934 67646786 543285013 226678356 939362530 841393594 459726353 394570298 306103358 126681315 193960156 590352983 757306581 939055107 164411463 510793486 363923103 354587650 472418133 739193500 99913905 684510930 169606583 322786362 439268707 827880400 353727955 382731283 492513334 651357137 640190 349075363 51479744 570050234 494194371 92540822 594369349 197249174 157454010 515005140 509355317 143773977 206739025 315223007 129718018 14100118 146723950 821889014 45969673 117965105 599841155 368009462 283466857 814493727 748696441 451254389 40805364 155056887 901107062 977136255 350244823 586749794 715012937 125442022 286584366 937289078 34332250 716335589 252615818 897035565 596761243 227688443 54722501 992053380 774253651 507141179 735266749 490483209 607249287 650915844 296086908 642068546 911979498 360908582 209613839 681338718 264976307 450057875 684750589 239874706 483976420 828454694 156618479 771836904 556133491 460760713 395563466 354729059 181190101 933552964 548161500 243739431 324336349 120917673 6436510 829564659 654250589 900868248 147229805 173776057 859297299 958695956 423588141 388245606 879499656 120545804 635746076 992529717 243046267 183703419 99395306 599255284 567592720 111010322 496306232 305213691 366682452 976833855 334493153 160218099 641444122 12480889 47721323 567608707 304833854 356320425 153957649 463202073 962041418 750444624 861499758 157574391 647310075 968952898 310597233 824402037 492340142 669005996 526276109 894379117 165275269 885035416 736390316 70557927 269534057 10207652 402804979 732110963 625520293 38222918 669571572 130903927 1647325 981411155 82470564 696466355 940538674 840129221 618649047 227222079 744624884 117346472 314649906 199786583 538229428 999078180 125559342 869755437 700583770 495902773 537827269 572751061 214846857 944004748 367755605 409500641 444993009 997823725 160928796 756662025 116518728 773248298 328203830 262590404 279274682 863819174 961067936 378134828 105347733 929014608 182692626 762317329 909413259 118371585 43668541 978269377 837883936 900362260 486911251 635628586 334126711 998030426 347335940 458903692 861160081 400117684 928036859 506385069 283141136 902584424 663703864 807584098 286606968 198981907 214328203 819760535 853219789 294739664 752152553 206525385 674421959 557632067 956348907 743000653 916112432 308701426 960104096 181152571 407893611 863525899 684720465 310826273 418264591 672904005 778480148 961736650 77762352 48421458 980577071 709917705 564085801 768457662 215665918 232091967 39676021 155531594 78445011 795396070 760021913 538048723 925992850 427390038 327558796 611934738 296929182 98657762 21875262 298882728 899009265 919189634 401362023 740776835 124587887 258222454 199528158 372221933 411401504 273312952 837705531 27418089 620618625 979432767 352546954 22683601 981002582 430899935 52002019 136308583 103598819 106906738 572676343 301078166 981872672 22281541 193145896 278721005 888235444 629651057 952377537 232889585 665128737 338148082 202354263 683514569 515489989 111350172 711501049 258551541 456925782 691597278 967198750 137827595 936666344 316945703 540849285 56115702 97123934 644448793 304438475 860413030 794261686 571124846 585491724 475720601 234410516 369892726 970223972 237334388 650828008 479957941 208489509 954430384 12238248 760771912 851966122 715820428 242804427 201376013 118493076 634881483 94900750 907462672 637096929 392806444 814850512 877188416 241881592 583384780 443164174 699449633 196316581 415081320 23293146 148906322 972879595 352760509 718927390 424922832 530631342 46972100 396181297 680983498 389081788 578397930 323802760 7550066 736155274 456542695 331126350 120866122 116305496 471320552 70293010 486877803 797256352 158865788 454685503 907800546 280822965 470761085 16837371 773032693 643425365 23543345 77780812 986095558 557275619 293847414 100514967 375061032 50437589 909283216 425809589 639670328 109349777 367016366 556723400 824830774 900384543 721565446 816613911 580570605 39262353 277110713 278258814 146869042 316450482 753508510 347845185 304572264 206235639 706826866 216544077 471138418 497146573 982418484 706024607 579787555 350653952 257100660 931767452 908916771 93036173 987493947 479149545 331704104 715238569 966456765 350918175 593733933 207297017 587929508 252724318 907641150 736275944 86365046 157166433 68201977 139474313 91764476 767669675 8699177 543641632 260212083 676502756 785545738 346772389 796747256 194179437 263390892 208364759 571562509 868156879 472219023 929101969 23513013 556670263 931470103 441828226 599356193 805018198 883263915 273860014 633677442 60281159 451035337 377914403 525465099 758434308 998508007 816130766 859091483 875580098 202910139 634098534 3008481 628247626 609131099 599380308 714040404 196039057 400823089 690260709 366350088 415669441 169884010 825713875 564976029 50106842 709471037 100785919 285492348 961936680 467883738 241810617 944465814 132945025 10685418 889792703 798326141 958259814 155655734 121285777 843553084 318671750 162167912 530142091 98865023 529204279 799654528 532907622 776777564 90816904 508289481 422987423 998534287 870755156 7962736 78906706 148673363 921286461 222720791 190969149 984772645 926986369 165951929 736184371 789205378 520226217 929981318 792601235 494920083 929045392 588186102 419023947 578582886 234427730 957246685 342297359 660772561 496609124 524443220 869774353 172718325 931603632 864585905 245110781 746174338 422692511 846997431 436954969 286746652 978384407 490233807 67865823 336538004 159898447 5886612 912670272 510435131 150981803 359160576 821185122 245960060 474388519 321518877 132709349 324771670 198149044 63529558 932824561 842577526 109915841 242595736 567341949 385989607 305900761 414488097 437323503 285475680 69765579 837125918 850277111 8029719 395204238 489505536 771864201 978252394 90278375 496061697 934346822 914637940 415840840 627312403 592744376 700950997 130805810 512851722 190430998 321832005 500001996 741669680 50878598 105107001 474344235 947003811 984172345 11466214 341543457 760507106 921838987 226287070 705547595 383439352 454658107 10173334 541942908 271305824 494031872 758864590 674879943 990038795 357075476 499765313 468384981 811160197 703802138 89347886 138066803 350836198 31363239 6471146 418497204 457467392 781517124 101405257 835481832 463229683 3171398 122443526 445194757 568646722 598596114 555038730 799127866 4285797 612386299 551383462 901629039 559612671 331322004 86645536 337357029 144467717 648699655 468821168 810854362 373095286 222307202 214808551 159927159 814340466 536388216 348828106 525797512 442874283 644525799 587583252 132603014 94674464 518546571 780016866 35513462 291812370 541398301 204116204 460699452 497550181 361651175 206003241 617272857 197909676 618795413 519804241 820584856 615928574 977630674 691282576 860559121 155495948 832235533 513707888 337522579 460848451 716751432 414727954 279548462 48192243 591473723 94103793 645488561 313879588 904205176 114401099 755242403 505552874 946286648 528359499 40201541 980188430 611061967 513349337 744977991 858446585 825037720 779467860 356722872 635564305 804538000 191707667 796606146 829608280 836679225 486502001 748638531 368000199 899930376 980475893 332844202 404589616 20870414 366225601 144825215 130856166 884873485 885309259 43579073 196937553 137165675 676798798 371173799 329904028 27539969 864477090 851482747 640593829 390706660 460850732 976473295 554992049 19472560 747242239 918539344 541275250 793672320 539721441 54239961 739886507 390505053 88673431 927143374 574844225 351783634 191983581 404864778 23493261 968260636 296122856 947859128 796187858 317952803 569592474 913726641 727262180 436583251 124432574 373579355 498537359 447938054 892595402 218031232 101291418 760017087 694379470 503115338 821886409 457910774 213641849 771176572 3769591 247176880 136882211 735841698 738213856 522097014 160474283 305119537 613759367 667412420 504760071 842528625 906119061 611302252 164761432 90446750 337344048 332191920 1738393 542518424 121677893 469553821 189374908 772036298 637261055 807468564 81625078 553601280 479136400 673197179 935549735 493726783 562712891 798068865 499000071 512478906 226141886 601835239 393939812 910506579 256296649 36015053 75669436 80769802 131487489 976660275 326026807 458314194 216776126 673060883 521646729 652020208 945970988 183317708 398790283 986915898 500587931 878418823 303638572 146330080 632801362 821413674 952094800 631294035 667225698 159014174 126890710 474770284 920070364 198440787 304116410 757262557 577310251 683702573 256942433 868624407 534448892 282822256 855929166 635405297 578126800 666595419 286995845 471022346 216293703 710887253 64639435 984433076 777702585 231776496 792949701 471235276 484939580 275117209 753897194 449111186 130540808 894156570 992774910 95714485 50680340 559648451 423887801 497361654 239398932 759092357 394271664 234689932 636461786 901318118 134816825 671752840 496005124 164405228 93853959 604940195 903116170 15366121 19168510 504198039 611040907 208525797 40393778 28742815 962967762 686548693 702136474 442288093 493258852 985974357 841373595 736102372 824581797 783783082 412968841 652201855 348777557 352200445 432249547 376257090 927265395 702362466 547167468 404992819 110750589 207072855 399232901 233786542 150998935 490070608 427258608 585291061 102780122 157848256 272304698 424841838 606295794 649126102 790503927 825769512 757082082 974892226 303792140 290959307 25761164 479329879 745464670 104017556 428332602 896652200 404431587 706030096 961799676 697504257 506327617 755635631 788470311 264038389 651032370 197426953 906471836 361939694 749836629 828618828 221450780 34428135 724523023 279417740 58774133 660245209 649393829 590719413 676061661 369696967 728313510 253418145 520855111 371793012 653952057 184789992 553151398 750460915 143040748 774953343 626786595 497866218 999139062 890566770 338961992 759422202 382661622 989146671 174634874 296626196 820909981 59783519 628527742 942891898 101130075 158693678 529656503 464926587 670243643 609766136 240657246 580912040 340375235 270953851 355182789 493499449 323269416 970460985 313099577 509077679 558415228 470482852 576963615 369301241 563070538 866695036 401686789 903605827 397937724 58752628 929878260 292931757 265142011 60711472 241103152 905553889 586868106 821689 936449958 736698686 595373124 283865809 676357470 819300873 232525586 353236192 9482149 392148655 207364907 729695565 188238190 561086451 803429551 768246954 234452571 669242806 65425653 357598916 403043213 605276727 433123199 374182129 873662681 140629517 929490732 238507222 585396260 565729136 976182167 638986175 130232761 968731681 339345301 392253848 829352679 84387224 623054442 830768673 571417494 247634101 390164694 44116659 952650052 109856943 537721364 977557487 210687136 2622203 369885969 385478222 805744283 628282625 381091888 559040792 145438123 16631493 627889420 406178422 212608274 746188205 394906161 489405473 822234984 54737945 985697329 324805914 82867543 76716161 600034163 108781465 579102435 797417530 308953451 678467987 464288263 617991555 69084478 52036795 131740556 934326868 761176480 955841681 442509377 862331450 765087509 119417464 388986411 848494188 165686259 37943007 429463701 258177530 19790472 559987831 62736867 827156680 694565863 513911012 206599885 775210114 173660246 181657401 694779152 146616413 135273602 32966210 743470673 846761447 465960441 665786 824894858 110227255 898371813 330002608 661578009 49741748 650711996 129471016 708496276 721789670 591577023 417893973 354732376 84236804 419578239 667367605 735855019 423527062 639083941 491467840 356935966 34275922 462490566 478103845 427284611 379525714 810299798 262884414 575041034 35725327 962256810 598381690 876812504 278093349 978379871 992638777 625238629 263280862 957095742 772020542 519680526 167042932 524655028 276573930 878624747 351735737 367073973 837812800 632713687 28991843 76618711 83131836 908662265 130110635 488287103 629375502 853972492 840894661 12313331 823936794 121770474 285433585 941321646 213421057 176398729 97611402 827026935 443685081 778648862 919843229 744120243 974936788 294198000 433871631 977466720 997210307 256207000 566338194 375826060 894226394 729636185 44384300 32816738 642927744 519993512 599496792 11831351 465918114 902823638 813900637 259364279 850247832 440975465 67305270 243586677 636671287 936181293 206491966 839036830 524121921 297267436 891799956 684323000 899629641 996699643 521342519 567789372 808565706 783587665 372323528 786830021 591030962 732653871 760406793 52857252 258314709 644103857 404824969 539788531 913478060 355026049 851104359 681606830 102570497 227562862 976646298 954719939 927420775 138735226 427465894 321648132 421024932 216843831 805451431 816058607 93556140 503007545 137336400 287597035 325928354 571354826 393568453 954969417 503764313 599817724 856639495 57667197 88863987 575102753 889352315 206543333 33781303 228464194 525362903 232855954 418623808 208815196 924246876 211748523 966610529 951343855 230192006 191497432 696708226 166757714 487717437 254206771 571269438 363232958 258598842 548063300 155308829 743948613 586035928 838619520 158464725 828446956 73310076 973932252 312273249 917510380 103734298 802245058 898295745 218088490 119957441 437758144 666233237 418860582 240268333 721342037 848255148 558232689 360865546 891002296 778561908 380645963 788544018 845817588 11141380 430518039 884722269 229218678 753777326 959539615 281829075 217443845 114250489 319560698 624189709 515497768 599894524 707432864 342729536 184905380 705604992 210520372 558757241 322943430 974306189 688225314 432048894 898048408 535507541 711741441 14784039 965101615 180069876 143145278 460115201 462286479 744224827 600677863 440014618 633907619 290019924 257991698 661203199 320193722 66509263 578136734 70078684 903303966 310808182 824774480 86758205 219897055 534228281 624157331 564009247 599394990 6893220 860092348 838947855 124409591 425802612 789196902 990853652 448803262 16169750 441386726 249569735 734211055 975746194 814226925 331537746 733192912 976334916 156506245 928610742 569970390 173415814 206137808 937175330 185665792 959208643 286880743 791601836 817356293 404545434 712397957 982178382 294202257 908428934 670245806 183639180 678751889 596443146 995981054 357939673 424494131 43185655 926579309 72964244 393967604 853666498 717114876 826137211 255198391 475207136 954326120 993794315 471969803 327481769 371263870 665579909 518609673 487065540 498333412 430273513 487710092 599108896 280253404 725624287 960192158 579116369 738185324 110215147 965589075 51852196 491967214 271606937 530049322 498359278 873299705 128379318 110515055 478829177 181801287 510847365 9761671 153296561 62323842 463512383 13575994 149973190 720176459 31720915 905599531 896234784 175862115 269925882 276105791 110102007 590410783 948128433 479514059 275067726 102032107 553971644 252100241 921849979 662156914 987570793 602227006 432641932 358274244 697049257 685535499 778353865 588591573 324433580 642955716 481160993 757200167 936375720 703182278 664345592 848285039 332106379 340548761 283070864 883042684 118305121 367712959 523551252 180743247 741821385 441081594 90844612 424853964 861731618 834368716 147519239 81394946 967153642 463882353 818336689 247154299 95511426 685296676 722801595 477097023 567231896 39241132 838744692 72389316 276933014 950325247 273379283 901605655 210065377 999724593 29550800 345110831 47547185 444613270 854439030 988226594 48445339 723470133 614714274 776231461 221405382 22775496 965478235 848001972 611066096 782152792 953205697 424077339 497739573 425713635 785972918 618559029 518776336 987449101 861311418 426389142 945367730 737803972 52661567 908062981 462846176 663406153 773191575 836829634 636389822 295560151 35856653 311132017 562604253 816371422 875703820 380026599 335774690 761245154 364143046 854136371 107476065 552767515 847102131 692679820 575018074 731093203 489444686 276824132 411661344 788750638 894146336 494974947 410377917 229540410 146042894 511325353 898237431 876840390 407939620 425949700 575730425 464277480 806953401 177031127 220607774 302240160 931786385 382155141 68050201 647161974 342261744 539981272 84768639 285268544 996480634 788954850 932422197 936342228 708603571 389197706 674787271 996497207 185153033 802198603 220125146 686900466 419912473 367167639 209028683 526518329 803349440 485846899 452317617 626459896 970554834 679567318 241433998 895631964 786127370 859575062 156863812 348879695 886306684 633118980 747839226 641339542 654142478 654805349 332591352 170060994 986644411 46372993 118580492 757409340 897219157 729490653 105293488 861074237 5262029 344001344 829395026 422577320 611792258 280444274 562874461 695828826 485646702 389259465 75485604 524758324 485795572 369026394 712341523 725041674 264112600 1855146 439592061 52501828 544526483 865905653 125687221 973400443 340438551 664380177 833597179 887634578 639358985 524342139 971935747 633426114 924751522 199968725 921800423 508234280 522061115 460407495 248136829 283349433 763781869 590738527 645211016 421951481 872125389 620775175 320460525 862879140 752270079 138754176 503077483 923371824 139493003 53040815 435274795 357389530 183879754 228205960 90062077 390823658 762062157 833672750 531970575 162912366 821024718 656934438 248678339 360105487 767315333 964433976 355769084 545014696 292631407 351946282 234843451 709923129 909555988 512436268 585106419 986684451 415154863 376324832 860317316 279816649 851560513 729756607 754631392 643631050 991192663 901919165 555593999 39430086 701254390 506157799 33067168 746823275 618202254 50749208 370108636 652349514 88381470 759712991 607899484 620064373 939735240 818911746 8645798 134777148 861543214 884661263 524132509 117299528 947808977 591981682 799353429 439401632 277287267 428200469 324248071 97875547 505152670 52957683 362776587 887896612 789249327 794462933 34800047 872708541 886571853 644756630 720902852 961283781 755217364 811409801 137999129 668108475 794315555 8775510 324230820 283848771 794438882 952888289 693703789 764788573 609199028 367535519 892346902 708240366 329635234 355819537 659328731 552001259 294855005 283858647 78672618 406252869 899762107 764931991 959754813 772351010 379498888 739102482 515669929 675762555 508571420 346095687 860553564 267568343 132687796 553099406 144204433 888637934 580936443 468543902 550988617 327523096 989670724 586574352 281860652 397701354 226716166 347651375 644670946 465385989 167091956 20130019 379702730 800343695 583505838 312936428 545292092 112622619 154854467 132386147 399704301 8652422 189282187 451192025 707053898 433883099 80679089 741872978 708970990 552844641 738134826 302342333 900954402 581632105 611408517 826508130 764366699 377578373 730761449 819076578 296408898 248320404 307467381 614968418 148334928 771340789 972033636 442031182 82063881 553202768 22384371 616053913 559321997 11126378 10937471 594875037 346905503 683744755 717491875 318226657 625847339 198154488 662206290 702577799 629508267 488962914 539014998 49128127 485925359 864914842 301987537 823388885 281292260 632477966 650194991 672362195 800044474 386317461 385955171 297789656 633099441 673515206 487931389 344347905 129522638 136093402 920705834 214984141 401014320 649706203 217888491 434911991 996501042 736601218 495360544 503005502 100497745 428460527 988320202 342236198 387882713 120779306 254545130 705516598 440471785 402340722 875565159 293175444 502082821 687142847 96776507 615905318 607484798 171455792 795768474 508310770 804090067 421730945 231723394 156377268 445171203 529204193 390333570 189701325 967114989 959661302 236539921 987330364 216999484 102172566 313489936 250268460 757530102 284376773 111243989 717371983 149221608 5256026 292247714 636227365 713246052 905700382 627940403 701721738 236945896 556852108 716595055 955212184 672124601 554078925 959945176 57933884 594868045 108497374 608171851 784249737 973433730 714910275 469630195 318947053 154198640 981381601 905394107 934017789 798020813 303634782 280394291 516592097 64860513 811083864 985870052 386241706 327146167 642196200 991334818 357150133 128496973 418998008 843022424 525388909 966515775 94309208 168672774 726019990 463206816 68048474 161931868 720499651 978693524 448503921 24484662 102805748 262224565 251004031 773658983 281051383 614532169 438716919 862081614 430207338 915419578 690080699 905328934 149782717 949605531 395091940 188262408 973490482 869500151 790617784 572177201 864246644 752149110 782296134 907557655 953326100 420739701 219490436 888223551 563517675 344743162 806848057 986706474 262789282 316678262 284407442 833357105 747129108 194144441 102220890 645374940 161734171 206631627 279852245 445063695 933861015 530223557 753226647 783590741 527660547 312650861 214204329 386657922 311641673 730905364 384537458 431091952 115961859 261091544 999373384 501133494 919375134 286770214 200703349 641719423 987322768 806873029 318463395 613916392 27684551 78146401 885308119 181169614 523442620 196443873 56559178 109239731 703603578 204100032 741196945 765951934 607187377 319099867 275189400 741103757 534652863 703878546 702669528 751807667 413138024 797208371 271961862 558778617 70367443 587527648 885891906 240956780 256842108 18117604 304106006 643821506 354989770 932136646 182087815 337975063 432726790 333719652 556903009 852437556 743375290 85134941 204183986 300371483 849881420 676437556 907902981 291648982 935379250 33833470 317674732 797780563 579440977 836841750 624670215 146528817 874887148 394870871 679200042 921920976 559027123 996613856 65152163 421757618 21805312 248258007 578345945 259051571 962688657 357846637 912209011 328752892 21749569 781897371 275612002 293872487 277927483 160299328 302152493 297070884 422164550 67580469 757691701 351713381 396759508 85473569 23927504 222195629 205583089 333578058 210066349 163851750 218340327 123484476 296490989 277666674 779717241 891716156 561320904 214867209 416083851 618032061 232827751 161349345 120248469 637972875 899851269 783736708 32877952 439314576 841915594 267234513 333700093 234707754 359128915 198389685 829287747 708456011 60080026 487307670 16470690 679958059 782793765 813425437 623533390 558142054 421744749 385744247 637890379 627099627 285281548 478936768 721773328 401178189 841995649 964121720 381797152 888646193 817871538 286955103 255932456 985568525 17219970 287479850 323851255 231933167 789561296 317733949 428813250 853811287 760321631 794402000 432190244 886307708 747683857 701965183 883062715 530390066 86239187 87921417 14166204 935002146 702081741 367524671 236127949 995056308 178410462 596332270 406891786 885860115 213615335 147556258 992207449 108946970 726216580 83477528 597227547 712886639 599290289 720462408 800079478 713656515 747999257 789289777 58307241 197858493 301392272 896895660 849222079 566884003 50418775 360190684 188792099 624268935 436842136 995664042 415602499 240717371 576368374 857825356 959546877 838705590 666511323 126410812 17100107 748718906 607316029 790250106 562271780 772161706 140004745 345043082 409766394 404059284 432338250 644722263 3753727 655229014 610606763 497738756 189169802 684430612 846673963 789147071 169598361 996340315 609722335 655390825 828833344 357090263 159629037 585807708 795619602 179400118 529106057 743899449 31276001 462083532 126327764 603636174 343264992 645248942 926078078 90020592 545958895 186472012 794732494 236509767 674108003 283343335 908476374 723332871 116064910 343224330 402521942 820984087 716978521 55987119 256589879 993709286 221638323 259562554 361017647 323837491 877265848 345551056 319530199 139298767 435823104 667835569 775696755 445405864 156402204 697347344 174153688 319736051 330245770 383877462 320082462 232736539 152220612 690499061 878544982 349958653 828735264 704761735 475050453 38832612 500433665 614467189 328225122 235372345 854539973 874327489 990154291 400118744 433400472 775868051 12872451 727734659 888969227 210662347 323668297 667729554 162119839 372821856 872778295 973660109 675852250 403387496 824696502 999945921 408279848 341717186 373705676 18907374 550831416 949003397 667138972 254636376 852106607 865671221 670359546 785824522 888833857 519448347 31195 306221634 819870764 641445409 543352783 623366468 494997519 534951167 399029474 531394003 566161005 511929078 304855424 232174391 209993966 351538367 790557777 450472176 476835917 20577981 864505207 981547155 965522269 527100546 330665384 356860708 795317339 70447436 347767415 682461600 788788123 180629942 768696976 323949693 645278615 646749564 123931897 326438623 700345141 302494989 527756118 346931476 88936480 904205025 112241549 561411477 268862431 595529690 680209453 604486530 476885713 55653249 182774031 35873631 940381609 652227930 751217351 860457100 778534108 297697622 67559660 356567372 761445006 210249636 551144501 644533144 273408340 810943399 473608430 695929416 232612538 132718998 242921900 355270544 810777473 982322528 451678729 438379096 822052875 924589159 254610653 522820599 342244503 797118517 70843078 695273043 74612787 575651710 987971635 607093799 999481207 289762577 514658438 88478533 699810827 835497128 481024312 201687048 297462887 387303685 300251530 755584931 695366697 669073108 925759287 727006370 426746167 984323245 563525163 571062155 585808455 783476109 970353441 213783824 710595525 915307398 133578023 434752116 776521894 66941619 81702149 657138484 744800500 792691835 210344850 979092126 648989680 920793630 885318276 293398457 306177872 13353481 794215648 485483321 86173972 316002437 768898075 191788529 385365023 168057983 565698545 538719365 518912498 767390207 456143119 540565759 363839993 579974588 309408310 578301825 421551297 687400831 544047441 660341795 201221121 866654393 492545456 896974851 685550933 217736470 441173675 67766748 431008751 784481863 545769462 994632325 645733083 572220971 415113745 403246701 87789651 571625986 530918880 862380486 904683543 106035357 269061370 870160930 318176636 695790844 612477653 139469984 117597860 540239145 668574624 123248800 863772732 719038373 825453729 722792442 168672448 781860644 174621322 537687828 859754113 218758658 685574867 553450640 273670058 56961756 453930898 821188897 429877743 32147832 26468936 181149363 856542813 448914973 182866597 167056599 697893066 556017376 451759542 407813355 586304870 187076395 225058522 317918644 875633679 924673955 958186531 896001825 471152090 324613444 322751212 844321295 882990073 436554242 409835876 568210879 413711778 430007222 684783240 758618432 761992921 748759631 421126682 34170637 143329786 925045518 251396617 774346775 84853328 490957945 120697560 877606317 976393275 243026298 14766815 238330548 265064331 356964077 147831766 857589955 338989895 475346568 132842761 642109805 10519538 928102644 950309108 995298144 535163159 597707517 447791688 588171189 504663436 684669484 225279148 228774566 59550009 166712170 491304295 434218166 660528634 775546501 851977711 606418119 813313900 766303141 236161683 268278945 471951497 541698019 566884993 660917249 177610672 566225158 665376752 701441870 80655715 157431986 387187613 631586607 199558871 34771706 316003398 674237941 823107750 206728292 486742908 140933316 919551844 416617138 99092438 130964031 776354405 675541697 667895589 197424498 148326265 463738634 538962345 404329751 148994904 533248707 617215055 984223404 777683487 424936203 789538366 287781745 827803711 780086189 301214910 216362098 589326891 276577677 768456399 987573609 160302095 578824712 827668593 358837909 225695790 754492479 940161245 931540533 547449897 314360249 975566626 940136565 337148593 668709177 633703580 195323642 272686336 724344653 806192173 210001632 566037674 711608012 325063226 385177247 826171379 625438912 43000689 103636617 701742658 934794484 665022291 362976685 123844077 870673452 570535177 430627682 239593233 843267150 428203305 292239700 16937121 807445002 692262937 414254197 492698033 989628284 495486695 884433636 134016272 259300547 888232459 26951000 106530900 524805540 631175645 120959419 801601073 638607789 891141418 80422224 671773513 87735629 347622439 147266561 451077000 680848793 112855126 50442696 767410184 58408536 809087174 657148042 65147815 47879545 44769904 161296291 356135787 634380138 189363938 110398986 51699157 529414429 354399636 927862407 420200510 644653904 859856492 937870051 610778698 724578832 832782793 70179151 765973587 839008826 913977024 117865178 100109645 411880901 415584865 609936433 7653664 902992091 773465841 217651361 29018961 391538066 719240135 926741528 179885051 84756572 72891950 363415540 200849164 319958213 704783051 832696180 804789946 713569291 236749988 270732902 782377958 319911413 349330099 510776382 217140069 936688663 889790878 807632010 116828593 895899917 854411768 90940910 502894527 134001017 373503679 729151316 74992734 704693461 389226738 923087931 438026837 86496770 973114922 217620059 277962456 445253615 457031052 566612929 60270246 683159309 52583731 564077789 578836505 305341323 62432054 324819329 19799149 829776287 291961897 228163645 541557841 856271905 103565505 482374847 33029754 919870048 868369255 827034294 488232606 881065110 542856338 686454650 97441227 908053794 337407399 3808984 168464210 114510657 628943599 883701486 469833351 281526507 531888926 944367735 740128521 770965715 146551732 479876675 815759502 632092317 235349 542649932 903393958 524579980 362831101 196178536 834620143 576220384 334806420 83117821 5005872 844452186 400445521 928276093 844081093 470515431 422550697 501062173 303923595 13766364 345791867 539360147 410984565 651501118 112030736 831938129 512848682 410308550 537471162 594465211 886485917 889117641 303628168 424796852 994024076 130360167 735082104 885040407 630884851 889994829 63250102 91533427 168607112 403253599 632877892 420274238 882409521 780746508 748641057 295132162 357054750 267616770 488591066 140487724 683855928 582073228 245451511 279474778 112689719 444767100 801473440 599520861 905497909 706813389 537632039 508633791 817494908 925234443 33928307 474051604 290739622 462702629 469999575 850901868 527419632 185399724 336760126 34252489 694302595 322765842 961815783 509159741 524762483 880990715 913867893 704204117 507562186 673469165 332403615 380346756 282825728 557200512 208194182 91042106 110571837 234499167 765735111 191914339 929377199 684633125 490959768 479060913 597026288 609357741 751275058 756833925 830015864 690392255 529924013 319113084 861492188 902224061 661800283 179059417 16755399 697613944 641523414 200808918 547276732 304472303 668776521 227639722 812614485 452644333 925294210 807900657 447491976 766661484 658214173 530910386 230989660 180239047 99683854 232048919 624338573 567710198 62826265 467632157 263496962 67214477 824129284 109017982 799524638 57962655 312718085 561174680 988909401 545061927 145221822 580252067 722415849 62236869 27017598 27152045 466497635 300813626 438359444 109274374 15656843 753576982 971592902 915819081 365770586 550655015 439629511 151352569 650416991 31164843 570638126 482402612 896759389 343668369 184310237 428735834 340669595 312271358 864916115 341282305 36682930 105222827 550411989 861526414 750300277 970828314 777565097 464520933 312255699 268530823 535795196 335081226 510862520 188367564 737780981 995302925 585918407 951615542 186711682 790579543 132158881 220682696 211848982 814050412 704668296 293086955 847303328 479990581 982359881 471247579 603248780 613572838 554619670 40012226 833552858 757917363 916831869 58850956 624335733 22198675 310683550 223009482 36625986 525899698 656782783 68099691 99021918 459692879 295708454 650440462 865938839 48515443 442805557 333790760 907582509 157341068 509568302 658048251 900198680 47541795 9632801 613429980 452306410 515081617 605480433 818611324 764809145 48891325 162924757 481704679 181034822 266521282 157326203 236803724 736464269 55107600 394867380 932768545 206152261 308642279 93090477 998973482 252777724 857303187 255369401 708758470 244095289 777123129 194476551 730033261 106888163 351814893 382443079 769168540 833300916 243069576 360151114 876305872 869397775 734025681 191658250 698507225 82595907 854824486 727032789 260537975 843057815 915632912 439915663 149719662 801662621 914323948 921714478 652019110 914832274 781693694 64896897 604576448 51490795 658574992 455100522 71311073 941337087 53451851 356446127 653926894 335241071 175834500 567577649 22134889 163714166 368605611 829779386 693589239 337464795 349321904 20101260 355370916 294920384 580128792 466691488 610801989 692260954 192920807 310881729 841909325 425497921 836003083 520901474 975968267 893853562 89210358 600924931 68560964 8856933 128279641 510864421 401167909 744992259 895036580 687710598 822312073 658494033 177102958 741659822 420849800 810743701 610938470 228725501 480201026 840721238 801932730 431464878 976167415 233400702 472444827 565737590 623220249 93350788 83636533 993239838 905079703 379680266 827835976 353070408 360137062 157086819 17110961 232370498 952525950 713528927 44399172 340091252 8863643 731206631 103727705 445915137 738917611 920246396 578607520 353513130 633524008 694525151 394525367 809217104 431324846 480061287 504210023 191971910 763466456 845218251 189576681 702186590 780875841 505966096 192906800 433046592 880723670 501631501 934707768 526405931 926795737 503198621 921621799 201600492 410302752 215510301 112744337 342346530 559516423 811432902 391681435 579529431 779116748 523936909 298589467 719530821 397744380 821437437 142507810 171785265 292764622 445954788 488574497 221817135 640169247 104294274 563228709 44823469 889801344 12550901 270607314 867115597 487333173 764004938 575925083 676092879 284581784 670594658 762509868 367633008 695849259 563522572 571735413 454824621 515729449 411185427 511323151 790042790 121136459 988584684 248066760 644438895 26379027 635588282 241633224 163454709 650423691 196821317 579423785 900338713 450759270 732944109 14313672 424864297 215438550 645206533 312334201 485391514 771399397 831284826 851716072 94330933 91976707 251090560 577325229 774366497 615061264 185697254 236603074 751136082 665589985 501396408 489532482 680079979 980618139 503590654 266034170 719058567 955120361 393225086 242593471 694718884 204829357 893636581 875989548 861643884 714611229 405519338 821055054 906820105 638619479 806615555 348437223 978641093 973559572 393744872 467733540 233335443 840781201 324626676 631107194 193701757 291956768 263345173 347729770 634801085 829452210 654778387 50151124 515825232 802730934 19569801 173550426 918218418 867637508 531920049 35603028 711076518 350857657 872208900 441155055 761180986 74817885 451317175 353110069 80683080 734032311 577808319 383949527 451766895 242882120 546885766 363439131 770428815 116957324 222872311 957374109 429249543 281082007 318390201 626924396 211061965 130885180 129768722 737972970 745110628 768578092 893686117 117826305 420787553 94737826 352424178 228046772 296010792 376108853 44861589 721388074 620806868 580749714 540410067 933974463 784884383 975340925 378450173 741866186 538225321 308924583 589622418 802050573 129613771 518553876 746834403 549832446 481662881 625404936 16703425 539596663 547042777 475577549 327409672 313126651 851162733 608135193 431463028 749672899 420535279 99363262 796465733 495407067 71311158 806263343 960638714 622182970 782003961 481139336 553775451 664844667 482775239 341026501 47000609 92201625 121198017 687223621 463955899 331424162 95693783 128523933 907354489 347034212 523014768 59779299 921889304 708417460 684819957 107685629 519462633 627800248 82331854 803160190 64246784 585426141 830605913 860907569 888869207 581437989 190024136 622513598 278834184 515982777 713440610 55997726 926005955 196196517 429440098 842662240 793173812 238013532 685885581 3956156 661112274 686167353 790475514 130968879 847312136 932403989 451615770 254327446 824663157 308044990 678584868 59038246 829005257 589415136 377145880 499898062 498010572 802009370 880929731 74144896 82286758 109660304 462556136 570826802 184210375 676445942 43103525 180303217 240805807 884643549 504799090 314505076 94484061 471944996 760528185 368213768 632465579 138641804 686359285 963401632 172502831 922295911 705233602 570280119 805417487 316228621 118362456 659866001 799619818 626885099 688961043 689896476 256304610 211577143 769284989 404669321 354818597 876755074 329955549 159596426 642307227 153397595 702614067 289892088 106435539 118946098 413314194 273830867 668804998 868335686 891119250 465576009 939101355 249415043 752214074 160977033 102474235 224318146 514677735 317440572 751527540 845540168 151451300 158292771 367218954 878971603 43203134 357013360 25560559 714626946 922653580 280535617 284342098 914888014 959977198 841484273 79242817 935929400 898185318 92177470 623948402 339710869 206502557 78131640 409147863 85732294 909014148 260213663 827816633 344952294 277412223 506052467 9258090 719967880 544853997 266215447 226098389 156817992 705539218 464057096 947228294 956734143 953694594 519489282 225128456 1159106 523374240 61907881 73616228 308232147 337436210 470162989 887095860 345431755 632795406 345002146 898801498 54908131 618038207 506691908 178860823 438377472 730379665 713615183 450900280 549381782 771961425 794453529 815245188 295027829 376084531 666820407 256284656 494205934 256772267 136872231 34222923 298806415 707988109 646461221 110630523 133245541 79154595 993064985 893376196 752663093 515705814 377666547 45414407 561137725 141723912 168687110 884220101 929080938 692141964 412023088 71595043 802465406 315483176 33164273 953551137 258355608 157214983 363510611 526610257 949657851 43646140 545812399 185789673 535691847 676546603 363530243 965237213 939594504 189273682 386103710 103599166 205596145 375042250 329328482 159092447 290156165 305616032 492684084 529046301 292841044 550049775 299991795 117856005 853188559 307230890 695169131 197253034 222080094 307874906 520689678 401340691 72670764 588848707 19647370 520481299 955654152 70260620 793376989 678326817 761904002 677927235 717846395 501636757 72854534 129048417 66603075 887259896 461132254 922300058 249378331 980747787 60239291 131726695 910223022 306272345 326881341 201249173 137287197 212893861 531324036 808442626 345893222 386069205 259898405 552336874 79173811 892157767 860919795 346369241 423838370 534649899 461718134 501098820 786015246 633812817 988480757 457693762 824907428 590788775 169327133 7736609 662015415 866550304 27214471 102619430 858224357 363022720 396946743 527397686 246716217 837461514 602442578 232935793 557224167 633694256 723580019 986031157 805183697 996641748 612671795 128996259 93929553 770972900 942431582 244213519 424759487 282108967 634035075 129435593 887096567 589135701 339744976 472880678 880040807 805854398 868757603 8240346 132426114 90210714 105777664 486608162 561715157 245265223 883399974 600723635 61967615 600985353 958192332 310636969 894931685 503072491 464553887 989552905 634129044 228397812 310297292 116745947 753707255 832487529 96673040 495453058 769686244 678530861 335360259 378235243 262995166 864442158 160289764 51463592 912439721 464026471 947797357 69965306 217460057 215955622 152094243 721281160 494909816 330743925 9694949 754959012 290195732 392369250 407129330 478317003 162879229 845049900 348017200 216228543 993615777 492284436 424215514 783417533 56008187 847302382 530798343 169217059 174543623 223692890 101515361 751374922 680075262 348384781 277797287 530551776 536870189 338663494 378699520 796252996 395115569 576653052 714478430 239002766 581919531 889617244 161494777 340673009 494533529 542384459 341159920 49667365 382763240 14823362 592150948 473385386 85162734 991406680 857583921 932108651 538722564 777588831 117982449 521760935 550017072 291433166 860730284 272191410 940870569 616022344 787874305 799495933 182159987 750156054 217787561 709261534 312672640 334894183 814029088 786777987 305297814 372844945 385380547 912064416 186135344 459510082 334724139 88102187 605076926 719561127 477108223 841908308 284367608 960507004 270383442 433261490 924393571 70736314 778206574 757788433 407913376 599704506 442192568 707361980 243039763 651649131 780455770 699014874 790481054 886226010 763294255 540589899 298981291 884884990 61695426 405293938 655474420 917970738 537146704 816346855 851891178 55040989 997848367 212946594 304910523 198762461 293176329 912042486 145259139 958897708 610550606 752386983 518193381 509544094 827312428 750215759 518669078 651862073 401323338 549676151 557821429 110517624 30040094 66215404 192455410 962762266 432262868 511980088 771971714 372855113 359326255 521550140 585214807 627708032 440391576 584883285 814327667 870942573 130502863 811285584 174285398 984639562 635762699 36861890 411305412 3170028 146860268 807388204 84172147 653018566 641736804 432768393 623558555 801319834 217096900 450492163 718642841 318492844 941764991 829692735 617321920 512353863 199688790 210365208 132389061 788392249 50448832 471530650 942103328 399614662 748502950 530936854 450228968 867870003 973513576 520111579 92789342 199717878 471897142 692804704 98441629 263003913 908521001 40122455 366382135 877558765 662872890 202850498 997633957 830365286 578902571 901961159 333527469 412075759 318493113 984390080 439382639 661086417 973996260 66867752 127627282 984252018 37244475 470456308 644527863 877889474 270421955 364987741 711785832 947457021 304454745 612939731 174756628 21617666 240780926 302868656 408581032 111851892 15019441 942365176 352155915 978884462 203524712 624116459 885040109 851952260 385770347 522469159 28604719 231689064 516697784 169298587 461806870 268481157 396571020 127219112 886533218 291018979 446859690 872820588 223347809 239514968 71527338 357491731 496991886 81314097 235025048 84023132 255332282 941674049 449292076 686316862 648779535 83166407 629307962 655540500 484812400 735483815 649045300 634719893 10686099 266867647 314742300 860769361 607738021 464908741 219543872 531180259 687918609 467282180 323008105 63380733 13929231 268586745 256764740 926129724 171342976 25585615 103138655 755054240 924521978 922113938 387878737 809368280 806439412 657674571 380789367 590194115 512468236 697772103 281017939 46472729 685754255 462940050 234580103 390920126 371723343 32975833 853401394 529413713 744519446 255918697 816407179 429709748 983481581 536527777 388278666 734393782 620207474 962381101 659103921 271172785 619932837 8394482 327302304 583275673 249948392 467637756 72846565 447045831 37345909 593898918 924597311 270612951 457058295 410262688 304228603 251639839 541066239 899540287 415604896 550484491 173551972 237553358 279322714 353043808 950568902 371648160 534000990 756219380 778826174 564743475 690554842 662749443 930142777 936079111 453184438 111031507 787636849 748855116 720302907 757394612 350665426 481412859 528088196 613470786 780357666 894863459 290154884 501724106 874900202 995017378 502738153 603218635 737816172 52317687 566824806 676783322 855577882 211637305 95704603 45174363 135170036 427275983 567415153 854191555 849149287 632221388 89279887 628587143 952621896 320254383 874109103 864814344 824148170 80730894 628400658 234426289 604927094 407246490 349511588 769121995 637419611 272946172 425592060 365974985 903340798 415641556 705081169 645143610 239127829 804215071 8656690 723143529 483745105 528123138 895764097 50568937 513431134 370623075 2551627 335582602 29124731 470024643 748477531 700162700 631486363 277407413 184176603 736857353 649433275 110647074 363880635 593400759 556586929 356171624 676017806 484606407 585282837 817686443 480539376 887946064 205378476 95729287 405357041 535987280 596474536 987602629 362639159 11897989 241264721 724125153 935412298 55179336 78653618 857103986 754281809 116900058 129414529 520672415 968039355 495502741 388526594 68185612 256203639 152863684 234147562 496556474 574472085 467663722 760705267 510629355 732143482 175249158 229525074 353860228 634605485 293898142 271919671 130160654 213345138 699482298 38447358 845962475 186916086 150522052 413809072 655193426 740188039 45381307 993346529 919204462 777511754 41679119 181456790 689325010 244997473 894986805 673470412 918449591 102900282 99718839 380644412 548065559 216155688 738210830 225000699 728266485 374300766 109366094 741443632 995276881 616802342 584009258 959719937 84953586 522597684 825053594 214340277 192400872 404287416 763594451 45037645 931369217 227988744 973297170 180113582 448778979 937560748 73713629 55698470 900792765 63731881 858572863 39401502 663093047 371423404 930749280 909920599 879354450 46580964 179357240 721284294 264426098 592076544 971355082 744881687 813595851 914657619 781895669 341036194 897803080 123839736 364018079 625360170 894155580 964953354 194809981 446058609 361238683 338486701 137790055 533511183 547736074 752096073 454703619 992688258 143226851 563225124 198276334 640856331 314265271 103524875 845500933 617491762 231088274 508193622 398320442 73109154 202732139 742323045 244322067 823872054 159177221 432001209 145150373 505871632 688949273 843327487 212798149 280378294 51830484 479284733 144447426 198642908 476350585 812132509 758364928 180500365 188806204 390707823 555184534 691342653 706932270 874881658 627773994 384965395 950198923 765024970 786921326 619019776 60540662 876362834 271510251 175759421 417595347 286237092 636600936 258483807 676959755 335514899 113353616 757610816 356222554 408173406 183873541 775435845 448576179 427581688 481854979 737524827 527416682 31600756 835151021 436748330 759570714 421825440 62903498 111137773 522148122 805565927 927705252 876169377 472464244 311855998 389456251 415539755 85134370 34714356 832934473 89504828 455290890 75031398 522141726 862470887 814666492 286615638 758041077 823927279 474574711 8393824 849774100 655812323 71211993 616519665 900609634 32622727 887226463 901948264 129805624 465579879 314570795 890548379 843455171 134698634 208418041 286785719 32025264 500640466 191584698 935893261 605954057 606420383 295085922 613478718 628652435 661616208 724030442 20088289 743113091 951320072 360976666 198208739 96464251 30434227 104815101 723988314 644842560 886489943 327559210 688837115 190809443 629133297 199099928 32607882 705790160 286339661 290674935 298437079 4377012 956969387 681874103 788391966 657635638 911865784 523172182 658750667 911312095 117311630 428342907 371747938 589644320 42905821 967112705 115065867 150168185 491327345 764358856 392258191 757306935 527987574 861380660 500372 591151748 348490701 908453929 72967859 819579580 514660621 762442372 106110594 845802757 422501718 874366581 334504826 184520489 73517495 296335906 255431205 301276323 551807532 916539803 884647401 52036509 298713683 879584351 546321430 794663732 733882936 925003834 11776265 649485553 400284138 472432855 590516666 933109917 44784677 643614581 638690087 711821628 104147801 473187249 398208267 68348404 666717542 384599950 895315363 126671594 755836442 416508343 912622669 514621476 133600066 934840345 684959218 88789288 100505106 391497328 643583967 709501754 613197008 308160145 798385151 505721187 657990431 393626047 321540546 529449137 105558881 31899027 780573047 185825458 632563643 33497535 248617419 89669495 518449219 61135825 187090962 544487329 976430142 944941414 186257594 279522789 312719524 683217295 513032459 334900465 893239513 346497046 976763827 684510438 348867980 722533705 83967714 981916893 797826841 595517775 440417727 519308508 903466760 313900982 217256199 204527894 240390012 272824062 615944233 496584481 308971156 355891487 88814228 561499131 196000951 837121091 991363073 662129208 731682233 564398744 940714168 201525826 648399580 771295388 382695926 367817488 530529231 493382073 764163618 68133067 252379945 186997822 808363185 624908774 783104755 38645037 190264353 846776125 535531489 327530264 996462661 846944795 951269303 324029238 398749708 406321346 255121482 801169259 395172763 694825927 964495264 145016807 833037879 918002572 34680516 892226170 121182529 95783946 950936112 136097694 625276624 632745910 855361720 679167063 865720517 810822944 397619091 315797719 917716022 870502398 543974350 845197631 938475220 250042429 212468373 528091095 100813475 754565078 250989273 374683822 469538801 939023989 57023055 550954456 720340867 660409181 731984807 49895243 266911657 509230275 3780355 276881646 620469099 669880988 77986635 834259390 790201199 177502129 119537846 763052225 406836712 109110322 469008115 168339262 72250664 810839985 284547197 590432572 207561402 810793215 623378961 947456950 636600112 900406108 292649834 740660214 256266524 230580431 500151662 347228546 858052551 60660844 673963886 944196246 438312421 648881330 732564096 78373979 11288018 399530932 844008687 489779451 882217354 882752347 197540019 569271331 529085947 534732474 220072578 590908755 41696929 699582775 11083551 254946685 107937590 195193813 677665298 213181201 72958620 309103679 214378146 772908514 277099701 199222486 605790529 501531578 502112616 391565737 932782618 602044258 178984414 692561999 480277628 648822106 507457762 559848120 525985331 430874095 557749846 503619251 668516733 164021834 996939153 209314759 869487737 407167639 483047634 661849492 46494719 188501111 454359387 65607579 833843115 912766693 877416416 253783524 355221178 52509834 576352155 631390335 318518916 684996685 63502145 488635243 709515090 586976462 252826894 461067416 555559546 28041291 401367509 525962677 280062612 131832978 423826592 618169161 359159703 569313618 816979354 829139275 930430693 521108874 782380905 113393730 780005164 358321540 862198368 990154344 185911427 538375274 866356942 83345286 995469326 540586458 959347921 76566856 758696567 128042770 743475274 667622232 640714432 257553117 625695131 529263341 166201843 954467504 334656143 931396774 61012280 10450052 716950348 599632813 670903888 782836397 863210955 846972075 477206605 594712325 18552963 575981079 436018783 47584824 196090364 746790692 50066530 519870158 368682907 976399288 352147587 483817573 754285644 709125833 819162029 228495550 610587370 804499281 958113199 403642260 179336083 600694545 68226472 809182486 775229400 655997922 559849834 998317728 813647316 466817579 568404343 126361934 508954200 631323217 900886383 762312546 95774734 656736359 187172396 135243755 756627157 816306897 162571232 268867454 788148097 669754445 917718414 586404606 483445058 61784649 160539946 972714125 616267944 802397850 277072989 766593504 628732785 268789369 196619570 868021436 136431590 994254364 466006648 687239685 965939677 514323940 922674491 664723186 645080383 642915263 55856028 205005829 392137035 414795490 80867700 567762323 515496407 183170822 72378389 875713100 169230576 288588331 587561094 181884032 837908086 62113365 732455184 593777254 954805329 536594660 443355292 388336716 813230770 326230345 372431389 33656144 826240 546834794 714151558 780134300 903479147 111771521 958258266 775562465 804319138 486401527 212628449 467067106 184093351 531801052 531155055 992208791 913515660 311247983 861174809 544082857 866548590 430180044 907101222 836857838 794354491 677553340 646460647 606620477 896716756 375693293 200320902 442842113 117617130 19422950 828032236 359655116 141907564 944198963 403311100 576736960 487356168 725276612 561912677 702543616 78958000 162725728 838881903 862929836 796628734 257627170 755550410 443886064 297700227 522878522 283419189 493170233 967091316 428906381 698182387 685947361 253825974 641061863 375085884 429114714 414350353 908133210 210144517 865205458 400706526 943087203 239973846 778710876 448306477 436196412 916193968 168272884 833161706 729853680 787575695 670627787 464806927 367519038 885550745 789880878 619668470 138492794 648642200 212948557 478765 709098746 570850841 739289988 977983022 980195111 198485226 955603616 270945333 476145522 222304523 110666303 199823810 547622833 245252513 130210421 144961285 607872613 68507666 720559833 48038260 666803035 861972186 598410783 775669359 723370734 581974232 802839265 66242896 197675237 207988633 523265602 277700471 612144608 126656209 935964442 406738372 818833736 135410806 115605693 336786170 204574779 287465239 502850417 229815667 264575624 614785720 569101785 639125672 313855298 518832444 897653955 156411934 929346938 637815945 72648847 727563581 843916535 31813194 459337416 566663606 799263889 941890455 220067804 674128431 427039911 674543112 65848349 130062650 699728055 221994240 296089895 453537182 106604529 479163769 837015469 592107339 296348809 429038040 812675602 335746577 124186522 126263198 512398166 834583839 322849674 718509592 68405605 937201796 22790216 546290041 143550314 131062089 256249243 82954395 867233276 573258093 284126048 34508509 794724644 808690375 960729278 84495432 982350002 245649459 746346750 622556074 800527739 598761588 995294793 919268162 487904988 430257358 970576674 329997229 702964170 353465391 985228373 192198332 642281040 67823657 690080329 194275886 512301987 76255406 890743154 571442801 734508828 936549743 251066433 995311446 512526405 556464396 943828279 837568044 3418455 548865326 453004444 331681682 765691782 18632768 966980166 208051323 933528800 623064319 894913759 727788782 986789401 569526554 365238648 351405096 757662117 784798973 556182542 19090951 123686638 677455794 990520182 564302122 504732564 125893432 26349485 622293073 406872760 520474605 81895996 840742056 73843985 504063226 779578030 925237097 554992347 609671973 650540584 137769727 694285676 115495402 413815213 349400947 251739641 455164654 864594475 733091681 324037024 7472486 733520556 512874106 443587471 997089484 570749048 645050340 986516595 5721101 404280932 390979049 76420006 945116252 883399078 239124724 449870238 153431063 636082895 585756950 913236619 232514829 538350798 959310048 901786978 287616980 96749854 66561916 179118325 1434300 57285870 830241895 266799024 383022343 148219476 993658448 227179776 834767108 107782981 277281242 147817260 475402340 549406771 70528074 583125224 779804560 273656935 91828792 372042996 874930715 949379654 884341594 834086315 949742748 376829571 793956915 951055791 677855690 305935275 774449749 313689437 846253009 886838832 794009952 104379671 504127074 474422702 73462946 136994576 786037547 737158969 296974764 625131410 389608547 94334042 567954118 787665872 418893263 365790052 806517276 572167538 325304689 836106574 502637253 984204679 63766027 724402874 744788233 31792071 44054967 132231438 506758596 303906096 165248588 423784523 1896037 762253476 666849767 824418118 748653815 439764450 125349578 815056280 21761391 154055092 764295691 186416430 815646835 144910952 305286400 104049917 279950454 25046934 55577147 846102124 176795221 988642603 808621170 725619349 835524805 744410209 746921214 27312549 687392159 650335687 782152988 174883208 73410017 33532623 955156463 659336061 744625950 160225043 495812913 242327980 692132505 751514188 184889871 866933750 303674741 629336434 787756427 817370767 796331459 275058386 543463736 154067160 371968351 763494174 973687170 62320841 120341907 215613506 399067843 261747254 304297018 889366723 482512448 45620239 99359603 556508605 888190380 523532133 72498158 450651296 582507210 860893546 969239001 151487926 374296476 382593744 375364308 10127552 718930699 649935681 101184474 442430528 945137159 474812439 980866993 516022825 466809552 987494668 864705074 326128405 900661750 9664149 167422141 785059296 566784396 606797145 388224201 561373606 667338087 921335790 444653745 961557508 425726651 417955760 661437942 977619734 4957256 963101964 380698256 154211055 518174571 89469655 48610073 877138162 603369778 27421435 74272820 455269530 337344172 481617679 426440426 150600228 192903283 857006438 524137921 49872347 83978403 906652062 512300886 513223026 440393871 934077036 445792900 924229760 504174862 458422888 511694882 80978431 84480712 830975311 406840550 684200275 778846513 897269981 542855468 464775469 538533170 958592439 220330470 986461131 981661559 130093464 349934873 939155494 999591143 696615938 153099785 226712177 302664442 73888090 856762838 339224528 985384219 471264690 824267894 187269792 772801537 407512397 982203415 554904539 994654155 299251952 824313989 7596107 137582055 171546753 630237710 580864855 800293133 652724689 989728147 927824404 525592574 556628992 846984690 887608637 30208542 965727524 659107384 134487487 223507503 523166618 645778201 509848491 617008164 520962675 40727186 958915822 506637833 481003962 712540985 685555005 342507732 256504188 75588846 661341824 544601046 317877475 998136027 527685131 230560544 23324328 137913375 103339338 689597220 328842880 782795660 589617012 707989447 151772851 255872181 403176288 644454047 843546899 600161311 597939854 322246383 744135775 624312997 710574085 178239 522227683 233798823 742393536 875820323 291820629 919394476 827753951 83415482 114926323 958182922 350120682 891619201 661732643 637377479 603160626 788891670 894686621 997255181 549237835 436677526 87855862 654489716 118382358 600298629 647962409 948200356 362617322 704682132 284750108 517844022 720964921 462188507 784562571
