6177
478612376 90351989 614845964 436616388 807889759 725382497 650786984 285289839 506126246 338534514 352570931 158563173 461151853 824688370 447580190 789060882 3543458 959411096 477984843 687120984 534453350 154321106 975126119 513324446 824832451 219985550 3317049 544329373 715853093 919046345 215776777 150476910 287589335 430222456 984088605 85558775 362369059 408018464 347336515 486598522 249418402 775291935 988601531 820252143 324736532 685639302 177874885 220422970 707122766 405300969 989039809 271083017 511842892 552967223 31324048 339663432 880444363 169854564 830066279 23314557 580764993 210044670 66521056 560884479 240706670 25381453 236329304 412319559 74849197 401200779 802368750 238099614 60986703 785843426 745121766 599051057 912557469 907501422 324951238 307021577 870941443 29551031 838915353 812636353 890568577 627855968 365978439 938366343 284367889 281733837 350405886 877680606 621118323 798796559 876185691 221233114 895741108 243891756 389766587 580713969 10616047 990820486 545135465 323218336 527788880 485830466 985633581 997361084 387109937 102550801 47311513 645545452 736035006 701644237 761931826 192185449 278992878 783698166 64262253 707523064 822302524 152651406 616851767 403006761 399006806 198298741 670891436 434100639 581661087 928206496 741034693 262102621 323036835 509154859 101681048 675516924 276337999 774632882 124667330 926712822 536029755 601284467 715365918 752072967 133461778 136250295 827382749 660406198 395987303 522392594 826154770 45148762 830427781 487325053 374627618 535964535 846559602 580087018 203274429 904987455 505911768 742747627 803220499 185372322 724904826 676679104 546089669 103688346 723701121 621439248 890076627 469907338 793989416 309130780 256354029 715027890 76679199 262394355 243730632 258613886 376351122 294067820 393416108 713914475 642756403 324852027 417959838 189796635 235211632 320648324 737593202 429472584 210945321 221160870 109409290 968639128 244048082 844589856 71803775 761303780 428453567 421765723 352969881 464922330 961790589 123923654 822099688 417125705 277496922 283654830 830048587 402346395 78508555 724682191 119371341 636338094 933315274 647955121 835145155 165213673 205174398 504055687 519521459 264815597 246731059 835053288 584540221 631696209 454081823 299441286 871915185 855847713 267790179 791493729 885173820 901776473 951875323 815827788 16495325 956820377 987331103 35982539 842831701 406397945 27793875 950327644 89944969 537604710 540224101 457287077 937033189 250669678 182343130 904911799 181007890 4862762 614409359 986848915 646364075 73185123 741212575 43617594 12112651 290035844 519308624 82336791 640641892 543974889 720005922 472423917 991504921 131068672 204298680 61344149 22970530 596210466 268984153 314284437 624322860 461060202 373469618 621007282 926358655 574307552 180010854 165136150 89693544 351115442 288121896 139091492 521069306 9360125 987960807 838975335 2396374 814089449 694020478 845738772 707013025 816025391 108050646 750200845 328173477 960823229 964488907 407557223 601819810 301598082 258301594 821929475 506491093 219116934 112329565 648118066 431417249 247352133 940497835 837829493 155978171 741145704 357091159 784277242 97333439 855068379 200714795 141207772 66134757 643580296 895854415 556699222 748203537 359228899 332572170 470698975 612779075 656361960 350291298 404748170 812166860 382228080 226097089 646300104 300948613 781343001 973177521 153319787 60266123 618802550 45499162 54626995 643251522 411599011 195079356 932526810 457526134 578688505 54442852 336416150 744390794 937038081 382996625 444928723 605664244 812298400 356041703 274692148 763988769 34720215 328053062 616235490 746390669 915174101 342950245 847654088 36787004 230678119 493776579 410617262 659602082 955546847 198961133 805885647 340326073 284275022 183553840 800458602 140372726 822241251 938702191 417403469 477941896 667829549 661874873 864113199 766951663 476130826 97587725 919755576 448898531 320572359 91209353 163625088 593729445 109415156 923202289 134449609 23471119 624747326 243325168 276134116 701184951 56068148 459301495 52890426 97559212 80899942 977511871 719932640 757880063 139466996 246604749 966842991 844620987 921779614 240550964 529439286 668637330 938389377 701684993 528928696 997040725 941345919 617583897 954277852 191184690 294632915 240920955 20662358 738420679 732547614 369092172 676891690 806423041 759207845 206457355 688401347 838252506 276615345 56782192 564954969 182404065 102035650 478930760 857477649 577188585 465521036 973136096 388607344 789381374 168166149 229781816 980884528 506268148 747270154 87828002 294288131 197776645 480552324 127075075 883427025 575249464 213229548 503984856 776266860 526985548 503524050 427533044 293620986 593717756 537235167 186271211 980189603 755705130 69368967 885131787 621656703 901405087 991483196 949131377 72604213 672754027 101568161 586966359 199359458 712199532 971443165 228537999 381195323 581612102 431446077 961903797 962784466 569128440 65598605 70363379 573678585 732409039 3497400 314556525 517059469 176410489 874523995 904498106 895019723 199112053 967824540 417835913 82108841 161087455 760094365 31095293 758919782 963746240 560146820 947967580 400598867 402836436 997536789 492919419 841926749 431920562 787552871 91587619 862276474 964345318 775188694 697190455 912292556 510325999 467476913 609586859 552268697 974376144 500975526 976896446 721012712 779323766 3885554 676061511 353290728 796121936 548890374 448017448 911638001 467465516 391273268 222531148 456860802 623107215 277372365 156777642 763388926 535488190 239238988 923339466 303479843 153051220 340956622 58239664 441467818 671332076 504757536 954191931 803980677 840629057 154011352 426105154 337842745 728617796 299020264 498848026 545245011 330948251 706308706 600937709 379142917 323291817 794741095 164976092 831927390 960717360 94033519 56175612 831470395 411161618 120465825 844145002 649674310 613606879 994026880 939764646 230001481 392712798 84632647 975350753 257791174 595875159 375481733 81881669 263980436 510351259 495899381 847733884 66769455 156945143 286721660 336362327 893137140 186205376 440341335 31618878 677975420 964638101 248734937 911530929 783039028 999737838 658935995 234136787 825506576 530373078 515349663 72819873 44016801 59289461 503997320 93612553 705527880 638121139 974425823 830010746 941451777 805708697 58015609 484128164 47343266 187171816 189584320 521401715 424554984 898580787 892698939 37557863 447562535 985296849 454589926 458366994 921139602 600352132 130683499 539611388 562341474 974323273 672300060 860598559 29064527 534760395 236866915 687444459 843262783 274867503 262774682 312852444 868941869 967280426 422458816 637641359 466079016 764518645 804034968 199829767 95024804 948315055 38460001 462713043 353122087 732522335 207756759 25399391 686947273 717466457 203958862 26378521 669088495 800634898 742036237 235383038 753245584 142193751 341383055 853614009 746877285 817125214 543397875 663419553 4877980 124016607 733025623 888681519 863674295 456185900 288250317 252850385 920581902 630404258 923185403 985055542 618861307 697115496 713565548 151589589 394358048 525173443 443238233 743469297 853974095 173823411 181841696 512041571 604387126 301183929 872144113 524114198 968027926 323111527 486926017 193959742 720886777 190007742 527578463 596683358 367510256 991710839 380243896 76262808 677196619 703528069 701841906 536291785 531643252 321865441 744720763 129849283 308614324 887636927 690114933 356615823 184651548 757368940 727061783 347959882 409833772 121282945 509219474 358460025 818566274 416028701 574255577 368900348 955554086 719925592 280804872 402126987 903198264 878624117 350368327 389153249 167630857 754709571 255216625 564522161 104082904 854872428 538712843 436671930 805868225 626691820 584437870 738059593 659149025 726706722 188431158 51744686 184691325 232886817 580855350 767245096 924118868 32996158 842947916 983649361 90834711 539347882 186993474 982728842 658397608 477034085 755293442 384069832 365431209 596220941 800965572 330948833 847625627 806879913 195180422 739475124 929154762 86093173 243964971 651149794 71122307 499947407 76691535 193052318 344508017 446424375 676082866 585351705 688698233 69380262 370154530 686065622 664898987 184430543 926386319 943646935 813273477 667664342 738816039 553237171 991385411 137726631 722083771 207643505 389458725 25435749 117839062 219502615 284238373 550727164 10666149 807198109 391767220 804599548 133554258 576212442 112648181 345846196 376341026 864548049 792183794 391346869 889236957 753435935 686695319 95836384 794438730 634668043 10465309 259383537 794233601 930807675 387918832 746970248 275161996 817468136 51249574 446412971 276630544 508198084 47197155 141499324 769093764 519121081 933351984 978433093 197182019 958048619 947015240 582290234 505091802 554055665 304267454 558304142 62040864 359053953 459355557 30386608 37325645 515344953 604878295 287515520 166338337 838105163 936235630 924874419 750951205 836775929 48781787 661841515 421450755 618652792 326744005 348644440 399148690 140572937 877856681 808254023 731118906 983602400 999186931 117109317 737392316 605058523 848202465 940888880 437545405 442307699 582291743 350295183 403463305 660364020 959436608 186369884 801067782 774113015 967209093 439349040 170790819 973836778 614250240 379651049 974046401 866935106 95810539 598063778 951732109 504636649 779576604 628250495 634381227 448384336 10123051 377346996 520131899 533053054 385583703 457223103 465210070 131399407 542285063 682416866 935975593 494844523 816681034 365061997 982547257 26902003 535407263 271293895 735437987 69339155 622537441 72284853 392628043 495477444 320011467 169021164 951840911 366168690 913462727 159386257 483951106 530959709 610345041 964073203 871474461 294589729 63956240 11833691 440312782 859321947 544175771 579401311 239152545 922644861 550015971 654300144 559972300 58147668 284233295 881944419 490717749 811230248 618415791 794968627 918633023 88015925 602005976 313591026 45537795 466584690 797682640 159030412 509322877 273715106 564870380 79132159 49865907 551919725 558840498 241539209 53700213 367481758 782082336 111731967 109258503 101415496 985592211 534722364 454768023 556483715 855038320 441598666 2379531 934621196 74741595 431664965 738467147 294204129 371304404 840452427 127839220 609719226 360233079 453651128 689827584 120172017 822283546 573693600 112566854 148829000 278551421 778318784 337453747 305792545 122322864 26416955 711141967 680742350 680533884 562297046 211265979 481142630 971085096 851557688 382369972 299105090 153443726 325928554 879465787 793238385 416438381 899807369 677647333 992459606 266180356 568086996 106246441 627350639 212701447 654040808 876281078 834264264 976602425 154723500 745187773 22754611 138825137 677045843 239959996 853178989 746370436 981426233 428935173 414259406 669163803 805045448 618693610 600497044 8577328 590184698 599594174 485699438 324780853 270754256 930216725 417168655 961515837 802802071 331927353 450565192 762191691 794367991 496419913 960078419 545740200 781100698 264490592 889290388 624738143 207611491 341199774 908651226 636611980 891485992 303874386 473490731 490505854 17950694 451440814 772063821 651450159 117139440 359136454 363868518 267288657 589522518 533320134 669773287 479010314 161507142 818026920 80786398 385930268 562342760 786825905 802295725 971440347 746765321 155320102 620877941 280928141 469048981 12194334 768810950 378102020 188518041 732883525 12774521 550169162 199837370 653216059 977248572 407451822 66190112 932347036 149574488 577437864 958229365 354166600 928818542 853040616 757659662 927689181 587971349 43878632 934424465 171227427 749976471 249417797 596871938 247445499 771824784 537963052 42873783 697585416 345716941 745392091 364926632 205785558 963318448 818871842 906482041 803146937 198487956 910966611 197430875 235850024 497187093 746023199 865693083 818061590 126484920 787930827 151577367 797277069 784159248 54464144 221243727 268035648 355694601 929618005 162391640 290474121 724552806 292615210 950316174 491944312 382497099 152478606 119613167 84204159 339908685 788499766 294591854 41612269 27049269 455502072 952279186 549570684 496826406 345244773 369352346 546212846 441518775 979771157 753230473 405589751 167806033 452132468 494245769 102362382 524997813 331575587 578805881 213678361 737279064 234557874 476510560 718096268 891527532 391471019 979635553 191357490 406606581 878420517 458876715 336224520 843437842 463430608 523178900 118529698 953137824 119927832 961321800 400671243 915592106 198502008 543709660 319893500 514378532 645524923 65705754 178818760 301889284 988126968 363791784 904633520 499800675 550426253 982676419 533412697 636239363 516390931 605637727 457595116 668148461 544076297 58983644 582474751 31137166 515340652 841933168 286672730 790691945 419757954 401649434 316416936 98938689 789604721 376726338 339313113 862506613 654567018 982981534 789241780 566671986 111898118 908216263 780011733 534326466 523443233 311232964 695332682 554040669 828182424 67005641 405584300 516210304 903785879 204551347 687279860 506291154 148064940 450256916 609526933 869240065 746128526 380449308 877805076 97813833 784961243 850831868 629263862 179141317 832582055 379890372 994914367 933853902 108394751 310901716 466794739 772146567 125081681 333275133 977449201 894732496 289892901 115986013 143815878 854083368 634707681 150705956 461430758 82068289 402337579 580486671 333911503 118183379 681020007 776784894 40712257 703519741 585243005 501649911 832625136 705475621 349003749 579402695 300926529 499467269 535698403 338992921 871733325 981142284 422740564 639977481 837171343 746986359 419889380 279257794 315052864 682358892 376945781 207202719 423135497 795566023 499810026 564674021 868438467 150633264 600754042 726802887 779626781 742617798 121315267 780930511 562734153 681827815 390270739 99399955 295113050 844416153 91813377 306140099 423594106 139015680 721601973 843353568 526197309 910020050 890516754 680679563 325153765 950057431 211012256 221359511 253434206 409592229 604381713 290833768 623788884 567361144 431956427 565321691 562549499 821834737 919818053 107044893 399635416 692197684 909024284 63887971 102902853 569774642 90840264 719533184 521491257 539569454 86248201 227951588 911783901 277415919 469570340 659522573 431146867 490802135 13610628 176867569 373775515 277427348 225339551 193609476 431087787 506137271 293288738 244786642 332164606 617665063 993016878 277257155 187504922 179248407 362679306 348678773 89120372 239273873 554621784 591742505 784700185 404993203 500252399 23842961 414591754 495714653 517567295 336616091 678777596 842760485 725437585 986556513 505829468 830747518 205300151 604001581 554175193 578013201 736740673 179116242 732722203 747191270 996936349 751077512 29434596 148352219 371400733 683627128 403720241 860139002 733973763 416929745 986844789 416112012 552372367 555498807 644191423 514525566 459183981 194897370 974161564 274132157 827711418 620450308 44292498 707464360 286154298 110666441 429474146 313066429 336107398 877440113 999204996 789322693 100172236 303834832 570861078 40804852 159679855 258293220 438869636 65013397 325096028 463366949 539812103 705502148 919434983 509397842 107506892 243001833 47034212 544245305 592394199 178609607 720801406 439550164 165907537 682596159 927000084 851673624 659969615 219023665 63246879 780545831 988628320 584517186 803434857 271404245 678103838 113921931 755415057 672274207 322621064 184395935 826205403 900838790 584101530 319222409 651573998 831781881 540165905 832263095 420468656 219096699 651499371 560342975 823525488 196774949 117823229 486203019 183229073 475651269 315626467 658412733 12993506 134374116 108546694 32521679 825363886 56495972 812846025 956726459 689742623 293151217 636808764 527836266 987266470 480229605 506600708 99583750 685952597 67010658 653720602 765727601 253169882 340334086 445610699 35018589 785945179 379780605 992815048 636939435 561996581 913757512 833160899 455283108 258209564 855389627 971835151 552374662 596451222 382109434 900467605 487196950 38082488 89294122 836547244 195565993 819124556 32860286 844744080 406577185 772732820 975797961 744690394 367375029 587278263 573152675 649392452 632922239 852533561 577762664 390833066 578643236 908208464 158419549 219943392 249663117 929254050 87604858 754790477 596039041 635129504 367973395 303058415 208167877 29786621 777858203 114757145 233004366 528920106 503649479 410317813 916286128 957306556 392629315 270658303 18053587 278298323 569890410 289636131 113570018 328981762 782391958 698684238 235644477 143402445 422505338 312998921 872093954 694315154 656797738 454677084 250996021 360091117 227176648 199150926 383573731 593193769 252304512 267722260 964801836 640212614 230520395 547398709 623212365 500220638 253971791 367133948 757402579 255070690 614115859 912635554 930240938 635431567 362455949 786083085 225061874 499479138 218854905 751624372 315953998 96268257 698843358 154076825 436636214 924553010 686697934 164433823 613468038 306172917 884445596 85835729 736704495 869819980 270048375 26186096 769325790 715264653 920239888 542556912 828227677 481426866 979871349 669241089 944716613 495508189 659928813 572736316 614573163 33120655 461415877 483324794 291075279 498627954 715778566 774219064 946108142 734072810 463844268 896766818 40496327 115991605 879778830 889380225 537183302 83312633 849635490 205640327 418592606 428465962 283496890 665985141 82946298 412979258 753995301 160473713 27102788 776651090 74139794 979554985 263123397 144275854 74310378 35786098 424997397 623256303 556722408 492511273 157257261 93966121 575737067 718440093 516669885 94401125 927378997 591482181 879332753 263369758 695378414 204466710 753909345 880368466 91704129 83692623 595433856 283742251 469071655 454472976 424123498 536644508 693435533 465067767 215815080 772456955 488701991 181620580 548689828 699488737 430394349 984145190 947738223 323295940 400436339 157493805 75869231 47792487 766884037 54340259 606385988 737057675 711637347 101563019 385468740 597134816 327844883 432360545 659854600 478915299 217551508 563301317 60950339 825120736 99307462 483552501 836220722 441755248 584931254 898646413 324725870 742492142 653368736 77189457 52895081 800207916 788427513 556060785 767781776 332430432 413336199 546201460 687449286 414518305 185890231 422011723 25762780 788649454 743686188 885320867 254144763 106397737 286600595 157591732 901270629 126238981 755252594 711764213 313736651 542467846 443167237 841844660 221406965 724249286 77599603 474590480 294759193 469306025 695112087 269198362 160639800 545803943 485662259 480679656 973485915 199093835 866524094 285328106 307189615 966550876 544244278 247556888 526405483 205045536 631608901 885943436 896930425 664209427 444922904 422776095 785138662 376725155 26481370 887889485 38998250 846274169 772646996 672891457 291045423 82907115 951048491 73535417 269994191 123641583 643327944 805769129 420982670 24780653 881589200 139215326 548191021 85491686 206743548 807642709 341980393 419075402 401729545 744009913 659559380 395301229 34200041 884213423 884161049 966943681 513202669 897556557 304358641 247439570 791920480 103177628 338330209 380251766 851988621 152223261 91748896 781417010 904118461 974832998 520530999 107866370 158336096 294500340 110757281 410842655 3328347 508447795 138920266 308567144 276816790 364662394 420026686 817028733 351706997 300280961 970034508 648728528 312443558 64194910 726244442 499452256 980015693 150869641 770337544 192067734 111322841 726702217 240391535 430923935 87106599 394195760 7645946 218370132 634443352 385626996 559098650 634534260 326236067 853429465 435415598 255540335 960761072 543369196 69636404 279432207 706112054 852965798 294064043 50881092 790580346 221924350 748098414 9040029 834276078 36066449 522870555 328416721 955394191 973497664 72672135 681239278 490499138 287932763 993962015 881416719 502452238 347761674 806256930 472328384 429313628 927893157 234393620 171715745 972821875 147741447 108595876 50699337 74411740 168076644 256653084 795071568 948554932 807354732 797670231 172536426 380887702 918914566 698940710 75398706 3802376 874317177 648892598 121525254 743016397 362155657 541499483 418780584 700501993 812281333 233214286 106871381 489647612 541762081 446934717 305910958 99914382 995450895 445137555 670781194 739407681 274864886 162291849 968604988 831212590 753809039 772013554 506307796 910276065 504877062 574390854 798466363 331426692 399136011 531551724 315288311 645404516 472436845 841145316 871538487 199124732 672260779 880495984 895366216 59340910 559577487 652464821 621820334 902604658 390744816 298222305 602894117 860168704 65120192 171052908 915846584 107786717 804947479 724579422 834822872 995511630 908200565 594295119 688511752 751547683 203791442 917892500 987906206 507175651 501228273 183430334 683737514 262186248 762573871 874748628 418560596 784859914 540251540 386495778 158433043 935777725 834603767 7893801 550162033 110215456 286508608 293835640 583469852 144618128 261872933 971644000 885740865 207742916 462883577 284995363 549019366 608985757 135545684 650820853 526617740 857950557 761757472 108089037 477792947 448108134 463291327 734390308 449513373 61010370 451223799 268373185 739484582 430669177 583961727 41335081 220636340 874590300 580112716 779292336 307637617 796016423 169260485 188870226 478385965 502831831 912179048 806567977 906405828 577850744 935302910 786372381 987467927 311289993 407021590 531062456 755314304 280785297 826674174 996070939 227524580 787970388 636546205 320998771 550957202 942327481 708597866 37089296 720936239 2813033 755143741 950953298 622080126 498580445 955967160 625175295 324544444 993722355 710269373 654924026 966417928 882911903 524518652 568737371 687163530 56987535 339186352 355213010 829916434 629390499 409943397 334234846 668257254 275080816 984508322 130867186 944065490 718916288 513500400 101532851 798309993 191740952 744429494 232066009 624073655 637930829 874241481 903944907 256808615 634141856 17258100 617273025 762015597 69440381 535227319 164452446 740191390 826232660 795974879 933161776 908251944 72579636 251206963 995706445 654619180 246759014 851381399 898647100 894906683 96138098 605227678 455090016 158647611 73854703 626629978 933983558 501052077 368027560 718785462 104441328 630738026 440166554 568708017 683470477 385487361 623673536 958679774 265208298 226334800 887999256 431918955 209875438 240714961 176002999 57006157 563859083 104988882 214065365 336894592 81217812 357835707 546333072 200598174 992188311 352499390 56960079 203499368 489267403 317878262 763588222 467051295 404953638 770994081 373416833 677674028 850431434 777934987 818483113 821495325 346465984 865634578 549739257 287032215 71162138 471893655 180163233 291829657 665026145 217031183 728886092 575632526 789653282 262885718 892624567 230112176 653145138 367597727 33163919 333122525 342645532 279855867 680212230 844240857 959082478 36744670 362382861 212736082 154486445 460241508 869692657 643290103 353393619 823404916 183468821 696222231 672007790 283586024 265377046 751066102 532646664 676320630 253279109 931553950 621234956 688711303 116603975 925447248 916023917 540486699 891127138 146289848 377201344 959181218 66314043 226378034 292116451 9252132 517840898 519805868 511920725 28314719 56660957 203440622 585298496 264430667 39373289 801853855 709655794 372764226 317083764 824435481 429898302 887619542 210019301 724073784 969845608 877116073 419612273 273470681 49006797 917176098 595997045 764633136 758064816 860763375 234618682 830373896 802344867 640872079 297943409 161103288 366114435 49811720 329949625 563481497 952443642 877919212 158084051 730321668 736196480 766230759 586299462 996639403 678745809 643597818 658379795 384158002 323341451 224258528 584222882 206337072 596740277 542605871 697042671 778826481 758283394 113067019 324140413 418928319 896738600 182855933 955443116 394794161 939015517 622441065 161216371 106852499 708062870 372509664 810516293 331762905 822071507 641298826 780261309 565331670 709324538 629551917 822399111 466260104 705219170 319406014 274917628 29449766 902883220 545046695 406579403 451041697 806033084 608069254 105848430 918432296 660921588 662857766 173956642 698077063 44900045 599243366 416055086 327411534 911643700 225473623 889325004 310749123 598963155 231077460 469346895 613462171 846974647 375032410 829035725 83876506 501545523 726478890 530843244 535210298 951496068 184466016 619885222 663132161 629498889 851191903 336626800 320309102 739555192 456750713 434578398 318392310 838007222 152320500 63646923 693815897 351268363 413368512 349213368 871396409 510787067 282504 257079918 159157981 80754484 719428006 334084044 488602672 208219899 950710365 947289969 204914994 759313463 197410192 795290139 653949226 850037766 79912513 195976760 538451562 999962360 546400766 851303940 831207335 194952798 961959419 8563972 372962997 879962674 304491254 295324274 317451839 452128425 458492514 882259659 819839373 617728115 989034647 876446625 552106119 304950465 617673080 23274192 765136518 613436024 446260531 653854827 292447083 946645343 47531368 308435939 248357472 24637847 829001821 381497740 810572545 552566602 100369897 715289445 667859351 248212891 77198725 788473401 64326284 64765985 585407423 852297701 576065733 416517587 989871110 70073010 976327535 893409555 982566967 296906137 931900196 830748885 287750835 620541544 612695920 182111106 179033420 55321847 30105750 679057158 748772846 576855976 827575045 39047744 645507117 5011948 601480268 495646889 775575507 276294611 788283066 61382980 85146308 969209298 892842110 173708255 64903507 22520838 854005499 565273084 122451634 517369855 496439926 802137416 408404173 468316344 773940010 929619915 230088501 96151105 551011175 100142186 345881279 447441020 696301524 37840996 218521784 921310483 46103942 104724154 375071777 575223934 921150052 453960835 307709403 570695045 877198352 694844915 832141120 404616178 10673487 532255344 628206768 824423847 908757844 658646579 146489249 609789085 926810826 477106782 716164361 676995784 475955554 537749965 691004718 109932113 871786236 723424648 679786692 216393796 200240051 58325767 508295713 398418776 9810147 958716485 447639458 513580243 141824017 139694346 945944702 845398721 632363188 111521666 385676532 532741519 50157425 167441090 9719277 885113828 713157993 174712019 692553024 568430657 224074681 651458582 97320148 833561236 472696104 468045619 243525292 879556649 847738960 909487562 585639634 871391247 662418679 679500175 944696771 978534617 868273271 519162516 876363798 836694056 686504528 879451953 324205458 782118855 665984436 727193262 794555249 231830185 202973427 178595196 764664901 941216368 585243084 533169773 860307900 144435789 366629757 63329726 768878579 28710385 264270910 794319339 66013063 302080445 582703525 112085198 420097978 622879343 428701171 732179729 946693307 965377132 235806122 10598301 446175695 103770414 381734609 63012474 254259456 299309844 315715414 506993203 393765887 898857186 224669505 249661452 426943556 451553844 843739172 503701336 739782454 386666883 289923990 411887754 760903630 352832143 964530666 456105854 579365509 428292280 483742934 698332329 346163857 29531884 532862197 724186910 264256645 1434407 843952244 307421983 835263560 472329171 614557392 824153602 656004304 166059473 925147267 738919955 448103621 485701263 624833638 80277559 985559018 981987626 405488820 233413539 689186446 386186704 573613532 61020021 775566115 87938487 648962489 351218877 714824529 198194612 742266265 358110899 117920944 626671674 336859878 323073888 624053316 315779367 277351929 569315598 198093482 640455830 170862736 914581609 945972298 774981173 911101977 856737053 306322714 432536987 447354578 270017704 605234291 545233868 739135548 276058787 241840322 732319392 953982971 244727222 126123052 609153375 354317513 109118018 245263609 756027446 146195542 642395112 916540773 240932824 70609692 569219873 440078589 41208947 944342306 2977210 94170872 281688575 312698724 981455315 137531575 644569140 972773749 800347147 962568566 241484428 473427664 559098022 306341159 797692743 768168901 428613905 182405516 822877380 813820879 571814524 787878499 440228419 432188017 11380692 819051294 153343319 67342443 282763602 112026486 764260308 706752336 41242222 382740797 386373141 827771134 859494922 302598666 158732650 186540079 923785153 349282083 209574725 128307351 706313076 52386253 756117688 678129661 171246370 158137681 963848303 223231882 395228426 550233323 939055372 262754940 414351504 402193452 974565925 154309628 915831686 881118364 271354574 321411780 97478754 49346733 193419413 26288885 17458969 516032140 529405140 45833127 768978562 67856635 430003473 232083933 322602550 882559164 526553926 865285164 976858402 468563385 671367018 502285251 344335380 453389713 450595983 691665878 347594942 490015943 111675868 876527403 695837939 429146253 629732917 907184760 107960914 198171136 345108185 985578407 674416936 605314903 959177947 734050765 498790329 720767018 70419492 371741420 268810134 25468731 939851300 834395689 679479167 627443154 330202129 909000044 57785763 851117371 747902218 688420430 866936936 480781274 646860617 2139082 849359263 757045884 947126796 348381481 971906523 214548101 208420581 589656331 121392482 714841936 927371840 818242863 701054142 425907773 394122144 27276748 154638059 399094897 466987673 28967041 729011294 178154895 312357918 625131781 719697996 959322537 544087862 888092630 746030937 640747621 757304999 850678282 932241071 584074108 145245044 304133892 265296701 834462885 969542737 768665094 538211783 259685928 765556368 585671434 419954597 874343173 905583335 802209976 937939995 778483419 879778540 644484951 537660175 694992764 624406791 247357566 933778628 256554049 292717612 902414490 201110002 659698197 718366167 455408896 602176590 635612391 555729210 888317068 114550204 150317336 153253503 155775449 247714480 124016478 158104385 767031500 83243181 563919846 24668786 785722027 945498486 707921869 383536916 758112772 505334146 204918765 562956839 994832105 376651551 519082156 412284908 61234973 465231890 942901552 855069224 156724612 408181916 842997763 401385420 103095817 203459182 827987359 559703681 905933486 354390694 269937343 107781124 851182945 429772939 2482089 554353233 882764289 84709955 911490070 351765130 10473281 69951212 634646980 397494485 777834390 591269256 793861414 100466952 544382013 943906554 577859007 18889447 212265326 90041155 957665032 35240480 897310400 737474253 929677997 577297095 303568948 646553693 231033370 599101775 946533798 65234833 71955168 452035272 788870430 338615445 794588105 111175560 894619847 894634772 908135953 670947438 127640129 19046563 423727096 805167965 323000288 982227331 231705311 259270316 842433581 343897525 707961231 835404864 530710546 167900846 63586918 360416588 292884669 549836088 908658501 835876431 155248937 271321292 956585886 622724986 346506019 338527143 224545717 858246501 676352506 846150465 733418412 553237645 381551967 890065891 312786490 345025884 757739943 367355045 302801965 747472250 247125536 432244027 493252899 379326694 835183081 632635570 843551093 337416882 151164876 112537887 312237196 612874133 396816325 449777650 760562137 998079037 896114705 775628585 36820292 761341613 296178316 298322481 132650654 70092879 568583811 79847780 252267953 580839163 750728337 430759378 475878868 789041842 290000497 630572398 738930012 714911285 453464562 320037281 193411695 826644622 35310103 460962102 953075786 244798391 691793415 847947256 444707879 271086731 404487517 445791687 537042690 492616705 974996753 707046044 864914635 55182159 396086598 985619562 517701281 768725485 637943863 62993815 185844720 618619694 257726730 523471942 11574636 364862027 586998024 228272240 942577323 368234000 51166828 170897027 447035130 105920693 40725383 395008914 964314154 357395244 209235521 782351912 589892292 15054374 328838863 223424435 201203205 418733138 526801460 583821396 276924691 336249716 753257420 547970166 603102751 160826279 293787636 476520629 958015742 796409786 964992629 175662470 524410782 871935482 294180412 506129468 263319830 404269957 654225246 769779345 397676102 30373339 432108389 534946911 73429132 829211801 52429431 383442959 691764278 373354355 560673742 587006371 658352204 140352589 229873268 519750551 346038424 383277390 226436844 967604186 621584721 467324417 358618513 651210002 46683742 566987991 699241217 942013159 965799172 952118590 967385508 431910516 943703084 473969481 972544224 739246886 189012055 794235087 619609753 903423415 927438898 742482670 171218665 229135771 884261315 775234319 519879381 424875825 58979651 572476372 133862316 778140497 41899980 374221961 544940766 660985609 624109022 310209949 763120809 457334132 722744418 536475408 603238934 484878589 817228821 266507092 493839024 612726964 651563047 146357862 6298689 808750379 109374069 779953331 572811277 859796629 397898371 553956979 384646008 248252321 937251285 546439946 185648226 408923900 753466524 66349166 446467523 869717142 631999017 749257755 499981868 323577077 572251128 848470992 484607107 100355563 346161916 297975196 425208146 397555127 257412019 934651693 55692600 267958654 596707582 230183045 883287144 3610311 917372622 815575301 409075840 970100520 758597628 876825471 186718445 500134824 710911464 192196651 428574608 932024829 300390961 339821398 773231319 530638240 90072568 200606872 482040386 365021409 615143871 915063910 507236513 704444804 158301305 351672566 887173888 716848500 726493597 100792580 155631094 442421051 935214157 352618785 783978531 519123487 730133147 601157873 927588157 891017925 904211095 233931344 992586937 145284461 200063391 901622997 872353457 796187732 370193479 679373660 93179655 83105748 951176521 989478579 539122118 951763064 731414682 226975077 98522717 787399369 997329296 845492779 30289887 199954380 685123804 567475219 379354979 225426595 987803196 35259263 104355386 579445243 266147565 495199404 885465738 724723882 321629187 8376954 795836901 53649261 943106270 683565430 144436306 231809801 804413785 384007630 869193318 907913344 595942441 268069550 423922524 125165218 318438702 813093564 191495514 337379894 33795211 681203165 130659782 595104579 715161826 304887725 981986837 383391659 595356630 158437349 781895010 753815988 624222764 336592035 975207776 974238087 854878098 34361327 171747531 699663410 467155356 453452487 888011151 166240111 974209835 825601051 63665762 655458787 655268971 850720708 849535711 892330971 552548597 188714058 170769137 202270856 499095808 215285450 641181941 639813902 558099739 291795821 285326641 962116013 622342446 972900512 604109417 98503228 919327644 162830896 666223188 219379566 251117161 885595963 552960959 72789742 102259815 172630319 410460684 306888745 593320327 790272455 518349937 236605130 361821616 367853464 781077759 296171322 78487007 545895141 501032807 548034885 501177765 802282480 757417832 850951542 662632846 841478736 856375407 268758737 519691196 468420574 590991551 318254155 184991807 751052178 126665467 962780917 339693129 780414875 888521486 405199599 647435532 43434334 156679998 91983538 871449128 732891836 941655385 312225644 26364536 555948948 952290431 997681622 198880803 120546310 421180321 385082350 751467969 434294510 419723943 350650867 595569471 343570926 630747504 527657910 576845161 973033740 604411133 370752304 187898302 725316814 372897666 165070377 93867692 155702482 671736471 825255486 398164205 100896750 605434956 347665559 556586604 642660775 137916851 319595106 16761576 426759650 411433175 262513016 303401768 570965640 541096410 889148295 900375377 392484497 576254153 746176898 766667337 147429789 428412667 635319084 20960270 558498759 404269310 788584835 227091798 326717913 803881813 893873637 723973925 908494724 842660586 853452641 906522998 189509438 532184822 852664260 81332615 633312590 172190283 21834020 369447477 20914542 801811234 441360137 940757834 429006382 17405828 48864566 351922221 196355912 269165009 954131910 55353811 245179693 84919111 460157229 485323525 754903796 205682264 813160493 600905541 891326041 151769620 396333560 763926626 188019634 113534270 37508039 768658168 51152789 646723915 655937274 161941433 202657220 929878928 300707252 247797081 347250391 393271929 33473574 605950076 290933134 448242135 867117913 354462431 972976686 49568160 401775161 431171147 936360120 32688608 982034715 72963619 107498135 110521591 357478946 393286657 346247765 594204861 978203629 580662366 3458919 838118943 673789084 704550673 909604031 239488194 955881877 511854386 242666221 967443712 499409453 498828870 190215583 354462373 66252556 439454975 489857305 809395470 613192 933730033 729829538 755690551 212890585 456625130 63898771 296678182 751737411 163253872 829264140 978126019 495010 716297393 922913433 455914401 26564517 521198718 378724072 508136597 171918963 50982847 544299939 39896171 368631129 735928708 585606661 391452048 853416812 550210647 479848246 236965391 860906913 171486416 935260642 519545832 735242928 288886571 466827891 150337960 461079585 222912317 293602349 871849015 356201369 45008471 491304165 840284490 992409020 417459597 775551919 921732394 13506695 70107755 14051766 187649820 341645309 209323644 754188213 464663934 360182459 271467084 48276710 476339354 199868049 897825632 6395064 487519628 143986721 825059180 612950029 690629151 726552233 746893587 776455109 256984071 799448292 194745443 548245646 352958824 912073780 522672870 640127518 494713363 422067253 615826847 370835167 893171708 677884835 196581998 843893160 132978039 995754739 396490979 946595819 603699387 437208092 768744884 35478687 404298493 561957220 277125947 773115987 730440285 833336841 826301704 118320620 588994347 134991531 201729443 775794629 550620849 557513691 223654786 426164440 79342523 735078208 873445896 145468233 391248469 81291264 828088580 718141630 930618320 773366790 52725639 638520982 244862611 252865734 547131234 928810055 415836677 201257263 116603229 248185528 920099764 513884885 898355922 858600059 532224727 982251682 954545773 52972534 468729600 169721565 779048439 247346987 395698445 948634890 43309324 256178861 939637519 269217429 51284399 96648644 987810377 666839079 538864272 228381861 336094762 183761986 462418685 967352862 917329128 757285858 218571573 943864856 310677146 718578670 310965717 719590195 661419008 454932084 468703180 465555310 814680464 550520719 373625784 873332270 759700545 581641016 371263723 554100273 764866153 712679155 536222964 780346174 831076013 616119736 823368619 656166453 476209997 242761209 321955508 979982314 293097985 399295835 783761798 531485202 247566866 725321758 863224513 237905839 107304144 40747910 428743567 764501239 221589306 39897068 960478608 268480449 601511950 914501696 102895069 619148418 655528915 924873551 139836122 634520345 490739229 431271453 740569451 170429227 741248205 240967906 116655810 506100106 209054848 213391471 904851677 132622451 622016277 564526886 399820887 923561908 384039575 402050712 563349116 875452204 514953824 737053472 62906952 1626240 97047810 838204877 696851200 202765042 47779893 318932705 60422425 524012307 287892753 617850558 694277346 862750976 43769547 268859205 922580422 528475307 593249005 987998069 967436913 83735908 884570714 33165052 448328202 526485354 487016133 201980259 84368069 218698916 177164133 468138781 410629423 373259925 91058966 57061952 805448025 610349811 506518086 601913162 606319287 767285348 456176247 475056321 357919360 21260185 84344789 64151600 500468232 832338519 789592909 128546848 389341811 40725361 618676886 495650866 570672568 535412293 972874459 375672885 474051271 685184798 341006237 343466143 827663487 109326711 654148916 371818460 98850985 556591488 952800993 44649870 97672031 769971373 698687829 56849145 662218186 438776624 789740030 660955518 333290126 697536603 821702281 370468894 569936113 955848635 151414322 897873489 720834646 509068937 531734954 595058681 289030736 233622889 937274656 914209328 814088689 258123234 289495133 735452791 194301258 516482565 151938440 555988524 298414347 923062405 757272354 352043160 319621856 300813777 822725562 770362832 573200794 89102216 206606383 293835739 120741977 984377170 348032828 487366704 521782985 929887821 500756851 184148780 761463685 853190584 2419779 6637389 590539004 664292204 396797426 355992309 956735552 344491233 729200149 462818937 986333429 959986250 350210389 692746001 467581948 241487882 925456830 58395922 72990869 705226215 255510225 755984037 962709357 774641727 705246546 144582100 931402218 462590730 295887544 874708509 162950578 454548384 996660952 317990034 556524761 710058145 582708855 257208127 667399636 875856315 409533304 124468610 120480602 647141364 947348344 715991999 413117344 541024647 433490057 966089446 926925711 481961682 444443311 751444991 787355347 489374270 3440340 707235234 734125580 642343761 109318144 905240784 612320163 463797828 632843527 127817813 913705986 233122998 244194967 621960425 888795397 622621438 974097386 995642390 208698473 559550921 794958489 236875290 76049588 859223604 434613210 61939049 420978753 725593991 825516032 179148223 734446183 36311431 640728499 40435852 762090494 907285765 999060389 148072763 417806728 254256033 224069904 213951817 784281182 361791742 636235512 330261824 53139786 431341044 763113156 576032485 926622110 874820487 260557555 219848935 868524270 976747351 371255853 921017618 595226402 868948980 143284256 905866507 470466794 927672380 722903550 238774513 768919649 192057550 720595511 824056364 817214511 365336005 140303461 285901610 617604304 644322997 47074036 459604222 311482972 212871688 202940821 837097812 340374262 17764415 195824847 835092191 678439704 434824300 410268211 846110934 288786633 173706750 734619593 745578701 90718637 183560504 210226952 911214069 597704384 186794991 386034508 309908582 244167148 911820117 402400642 212660632 563428379 771480081 778585592 214195801 311542131 657387682 803481896 221847630 915617291 562153828 984299967 293087252 798689489 676953879 905906942 615276172 390163216 635814002 909831689 436820329 596545155 691156147 128911467 379901046 342139351 678554509 59688569 350860922 152304862 249269746 513084921 990813507 362180708 682156307 571658833 97128591 161540552 64494449 553259074 595165084 598704590 10203020 374917451 353533634 741875797 224029220 111747418 53722223 76348546 234314041 456202976 597168761 702693153 361100804 72382929 614576436 810262652 838482194 680155817 846565688 17414079 828920926 733833160 38092840 507283895 412268048 902248070 420616201 680292805 609477127 429957442 260405760 753556030 678409216 355555764 397982351 128045223 17353661 398447152 213666054 864658421 949516499 126240410 747518212 252227513 531146569 603160785 81153258 810947169 447908018 769997234 861649059 503837997 399174150 102414653 198204681 779217919 78836036 269697618 904278772 465695187 790308327 727496682 607883852 124107792 570374232 683390919 185590596 145871672 384069210 531687263 815836667 392019951 112691061 777368423 232367059 34862182 277207752 704113489 437716893 307900069 935379213 488999330 361814702 974570890 875236354 92688598 243860760 890459570 455635379 954749208 267826238 25685474 655596627 71902600 831152837 72421101 197146208 359944350 448310566 769950098 172751625 451457166 86886816 724654279 642221120 103572614 487084125 55711538 706520418 728894820 903156342 874522784 474868663 246543670 744782799 408000821 346744483 662168418 682464126 668167829 538828893 562183644 493231731 537938853 930967439 607642655 453459569 404656424 412803166 284017915 926821471 527981885 451280537 553905722 135279317 537836815 326918392 649841378 337872201 815856859 375996397 486532206 58556728 140056172 208972687 121621904 56708925 120387280 833002371 754066677 38931783 765273374 583625466 72824913 626272825 652956340 148963586 274963424 344108940 816554784 140403666 110688859 527845251 297670064 732958014 670643617 678202163 202375579 333414365 299133159 407201149 500316309 905891826 151952668 141858530 594883420 369566977 647309508 695997105 686566147 230126179 689096845 641192407 680790508 569244642 658570112 694389818 941763528 421556025 171211411 173646383 539631284 144565420 330942838 332601231 540963432 254516527 651991304 902328277 400541470 397697550 689048656 454442588 717869048 330416688 925788410 82027798 682659224 764121471 149455212 798748125 390465604 988980819 46052490 678863806 924735395 830792657 816551146 115857230 627473282 304202540 426171669 867337692 932786103 213891714 527819254 514783643 952496937 545921103 814219435 39398448 417492059 338460998 237026501 242721916 577640285 133294589 305061077 634193587 625324549 407872229 35438071 885230453 209881398 499907185 501832238 876880025 587077664 824900900 599517330 43184334 899844083 322745877 512898598 647032002 153073533 81212870 396726083 476598421 256884690 556409030 707557290 542663040 57589408 576368365 434659013 535782375 364159558 855840923 847572484 24230053 964021140 888280651 325585469 678512384 811711581 15020445 496189839 889611705 454695128 324029315 712782797 920524991 294297610 364515026 705981294 729932943 410772671 489547693 448132204 988971506 919005189 825985236 922010720 688468161 528732205 865813409 408634493 960055782 518428477 241294497 887821363 114007122 799584432 972863913 6023151 11075714 512654021 721473546 98239593 604163947 309530617 15908041 365726824 987357188 995651281 563538658 383669694 183208330 145012071 101861269 342533234 990854991 488123133 909606976 991156670 853111212 310577339 88772193 39876057 861319879 740128329 479357520 334566618 911249836 549636490 979660071 212300640 136062035 716156878 888830658 534749750 881675202 609526091 74304318 453875013 615098009 491008642 474517670 523743421 151217119 409491172 172781379 253892821 87595542 266217586 867874616 634521829 832419518 250561678 107517960 736941806 484646760 752836691 837169520 602224316 385026351 80644253 460679604 523147723 255797636 679256281 76171070 198791316 70614485 294272391 681580078 230226056 957848235 684748050 251778674 928329385 696762550 709284011 644958554 487101285 473894602 653280840 351173856 198121019 539619154 176463514 539698650 36299003 429209034 445901728 919090091 906862189 715328762 775412836 855916721 71110594 447885685 78290153 958880820 657838251 96164613 259145955 741194009 248731421 221828911 164354695 613261110 362725009 455819108 332029285 430244076 704233412 911973584 507411843 267459688 457378437 155846677 764698643 730020412 349215535 78998432 704679070 125640885 915074409 162708036 330840081 235330967 514112249 218744611 601949133 926454059 380971654 615574416 319109690 682076780 981438112 738342582 615685055 476216273 325434416 947977008 769889151 725841472 642387700 933980823 562285242 811218610 530430144 744192244 263953582 342788442 526520264 472543734 695929986 490316357 120609067 208006968 405263799 452123121 508830504 901034385 246922941 835774736 729862783 814725005 80737964 178655745 716016471 69121833 513198761 728732096 734650389 320972620 559856575 309044124 678536825 511854861 50486582 73647479 204261654 78801498 141600661 195395688 235488837 586054245 274395305 950436588 536511572 109345752 544256016 202459556 963938517 221925522 236391875 192984990 225459778 450216571 197035636 810693578 70843388 322869513 421963750 640181268 875633745 115948396 644851174 551678498 988827896 811287800 939050913 584712106 787893553 850108838 265076818 724516 823685945 598945804 210133649 106650990 635188772 640292573 805876953 334626316 718807930 105989062 493022638 166580730 716170387 288157203 447538719 856815599 627816171 23787126 438329509 370740260 750915859 996875543 311990017 53868284 775694767 476639962 878410062 290552954 216378372 824764449 840175475 610826547 560654785 39098024 697211705 180868138 349101036 315080013 795526472 320510760 143047335 886145725 786448999 638750949 539429557 375430159 107073691 698906563 629871782 746368671 497705149 808065501 616696035 296415820 687133731 360316913 601851697 350919943 180495686 208232371 986701608 816417070 470376721 940649604 73137928 107931608 175060334 13573406 127314587 916285842 461260330 168602432 348244837 489303588 470998198 324937420 795461965 327178148 815396309 553602143 841188028 117748123 231647213 844151611 707710875 205839706 385107535 223588548 27382408 227723873 162624169 246249563 21686588 93679455 592515303 595468003 887855941 416059371 708534872 351591139 81957188 705220334 72189853 302762722 739804403 399672838 185164366 881792940 497859917 886203050 307405922 373481271 62754714 425353049 105643868 122098050 496392770 630765144 57217123 744237091 284095147 187884474 303962260 458955444 727861826 248256548 46059681 591168961 551786540 870321260 13068703 890640200 202540950 227614301 101854896 671507414 589781906 648701200 236838556 469254170 911133390 283584060 661998160 507391553 451190759 502161452 418199314 900457645 562333370 467200330 966081047 371332664 422685955 889404196 382514892 99633850 899222327 459175390 810923033 429942609 233195238 272452839 889588325 110525934 854578760 933342469 679813434 966263995 186763003 6540785 829093257 457841905 160353595 386150334 103160677 910042865 695690595 491931729 904278017 493529717 140231896 570494692 919358347 512173975 666675809 596357 984483323 634945483 422285882 341045699 502820649 904695666 902160111 646317706 466541556 686408310 837508182 357317982 114291680 691659839 292956059 331200242 528703589 72994915 773725194 907564252 579067137 471113084 711974759 690159723 312043642 84801248 392625892 425842122 197863518 317111636 365651121 561548585 732187556 648186320 324961884 589376716 187254910 191676886 862586490 620709572 951980892 124011017 735856252 240030691 193123418 481782119 342339833 219732849 629978034 22949368 371305314 924662945 580383034 524453460 61122445 977213539 121673905 477276135 966806061 25041964 617780889 803489010 179824834 576555351 705972370 409513608 839404620 145049917 551607453 825935022 236635218 447837550 721173767 919049398 49887410 712112245 174001194 526700572 257073249 200204257 715341209 143625251 157190972 4236089 364322834 123502040 606163326 284579129 341997901 575239127 654918026 239063700 693928014 345383124 748988903 1942353 448249990 470698629 384550057 286127637 356795044 874221476 934233646 733977805 840173894 671682912 612205062 358972413 884851739 672096009 182341810 567716063 137844128 182110339 37981317 739661126 761710898 553241169 960489417 902069478 903642563 466408367 119418025 555019261 630296606 410163073 913725863 488466500 811724948 970944916 966932236 100673125 199806402 844877262 354135924 463688987 416902943 190699149 808177456 500679558 32470239 461210966 568704896 642156103 616656387 405860144 11180323 671145914 972545763 446210224 515372769 811796997 582384925 521197608 398978215 151388861 519142475 404613544 213350244 44887025 407635304 584989248 938693544 453731954 769678861 215171116 348813645 997260146 442251589 284936943 967083758 362880652 821180849 65177277 59318704 717421345 956415751 234281473 519085461 675913970 759396057 414757561 489631220 441658388 172341305 610553950 38831860 728986521 495415918 694589753 733980421 560204235 167328298 13304547 666149307 409054178 970932697 747695594 836521147 414047062 542603733 156082926 423752045 668687893 180580176 410546988 994248402 705004363 109542394 846547984 973291601 839437882 842012309 148301894 415320532 260261975 184129401 423873010 965749976 895296533 707700976 46920733 237856891 988504759 84640949 693101276 379772878 325279277 365286203 993495878 344478923 99468811 742198710 647045570 372908801 531697286 819655674 289720406 503333052 845761435 947718973 577366741 787386015 825194800 637072690 498935802 305125969 796441312 477913825 302499764 442758247 292495756 489851163 185747569 438388788 976350881 987853164 624400674 942114423 115165320 909498376 376742882 494975924 895230753 115017580 744862742 639597561 70908759 115772303 297344965 407019647 29860825 56057576 558375776 305142407 285448069 209971450 610354121 549801610 38826224 987889166 387243153 382641884 80567984 992877095 5073148 501147504 556808964 450482158 88419127 446521504 371937888 588164108 424139174 623103903 466755585 101524016 526097977 220987576 667757679 718716323 63878732 169732217 720615047 221588195 442097935 928720500 437149771 100353607 644163188 458556378 65288107 91206224 836392681 965730386 921867967 645168587 401029073 795048743 526095161 949365474 174994112 649929613 416530082 68020519 488737709 184727869 525469382 481533364 909090541 566684085 189692937 65313766 999169845 732719949 995953884 820293393 19656552 86573924 605658536 293600241 191870340 599907990 53240058 528581614 809169584 351732809 879640994 273875178 120221922 234232188 52359876 521954372 391610487 134658634 738041209 82308514 853635679 526371027 280808773 990094818 795227711 688994156 226769117 664060472 211870161 550000777 117442756 544556811 286400483 485031978 254531956 36322937 639542858 11313189 536918354 206068097 449143130 374155997 693991011 845066934 285052777 494957108 981063800 761677539 917839457 285313839 560132543 917711471 22069128 128984298 378981287 430670997 816336311 606767157 380407910 867254326 526242157 186201726 804095551 43640170 904028131 558944148 643291314 313341511 687720120 118284802 343507239 343013947 618745240 950159406 686437582 241567398 51903404 552255611 529074446 557098681 118343983 192525015 490393810 147562614 546086318 693768302 434402930 25169064 992836895 2550307 875836361 883509346 479177842 326271063 425080091 132955273 337061932 485420790 717486297 766522092 488197893 393739530 207443189 74867731 655425134 331034421 379126522 344210882 115473931 749075212 862117300 678992658 320402153 311013150 402245194 633724551 64923676 895870897 307557464 253159944 99195445 948763331 987442803 640046813 60460438 265423343 564902397 355071147 875619665 16593139 64916776 533934417 841178276 222964673 124459835 932430241 572186401 851084281 783954056 282772997 49323441 266627689 263370528 969118975 835382739 484425091 228200563 271973310 438003976 921552726 288520780 982788969 481785097 883819516 427627702 528190140 781231270 666924699 220752300 947703695 346979137 855493191 803718986 490012205 849042612 717028344 12225614 86657949 412786758 757001903 94512971 487088562 730269902 927668546 658779755 962860547 562950743 614747256 431948648 418027731 725785914 99200240 346100310 732572406 499015167 691194644 664304234 218773678 37968839 280003512 351782893 97009735 299831100 403492708 205689548 297454550 187535889 475481770 203866130 450189982 800296358 32635994 768953310 394509516 96311042 911683029 69119594 655986132 411179206 670227728 11580813 291018389 85504829 349216504 69177564 937762296 31049547 538007308 221659234 780209131 951210444 49715942 349789392 198287102 277726194 892156555 731122016 342775937 918655783 360127012 487941731 454790789 402523057 758013434 846890260 827552579 745621355 232931030 342105127 471365468 787128613 834796051 791733471 276461492 925958006 708565097 232825388 240106223 856397385 369756076 841029634 631256422 377675263 155555883 767001814 274401240 701283373 718088739 810052181 671323814 54075790 794022538 208337383 468284590 979510143 776517996 139437560 754525951 793786305 242071929 943967558 55316061 423321787 195655543 264010925 846507744 769176597 586222511 606999922 206894529 195154742 292282992 979456899 609255213 687010106 881957566 159563687 266797359 13917318 208530161 707830363 444472290 456819561 130087682 329838102 223470973 294551684 800890151 868617995 834680376 263889322 515149206 254113791 768232465 76972022 895875187 74025716 565248825 328841121 825790131 335095609 145450366 659184086 592706985 482432234 420202046 121602220 381521889 261308240 192813868 246046234 663570238 138523273 540058077 275099439 280814487 325748730 444050634 722444897 384905889 919471434 907031747 910273553 326353808 859279304 141464791 470418414 969104233 280992818 463128994 621984072 103471087 774409575 149330253 760080924 660924479 712336111 41873520 202695682 846190955 465835843 675091054 52954455 225369954 420495378 694890504 93329579 341043954 303810137 806480599 195457958 59841483 337676049 769984680 706949022 80598553 900178667 921410835 299426623 435845206 937492230 979592383 413110367 383746212 335899954 268531788 45701071 341492650 854622908 996734068 512391208 645645307 779622133 953621981 494212893 281108023 692308164 74059208 562374362 64113072 344990328 213665922 247384964 780370128 850381020 259008596 680883136 460598250 101927392 47067291 515618314 199197510 7969764 972093988 777296124 166979246 64793307 692328414 731172706 366141358 60076991 657310282 219972914 91976976 322718077 151553533 144513499 178758527 151872493 213216522 961740843 939178197 191407322 892195314 296041550 849832608 132107896 53074630 659442850 666523784 4580824 623637644 701976802 306189624 110548518 102744169 884175343 210113207 225949518 231583214 599503682 776311420 162343241 234567114 264421529 357741682 799081900 817193951 975256847 313143235 844262 728194210 814739926 448031583 909264601 279221708 164385469 296160394 362375329 477659507 676902673 91090246 802356633 58896245 749869301 131518219 886910164 150228363 176830147 870004238 242918467 897742944 513803521 487881055 187620566 427308264 411636228 4278342 843545855 961436102 707780396 608690710 135328323 978925895 631283963 3341185 968130612 280234540 829950090 27551725 221598501 254801168 707808180 53666176 939047965 359256330 310040169 464149014 527803899 958822444 579402287 509682576 598352663 82293170 224515582 914384744 25932585 679578163 490238643 870972748 146402398 704776853 972237890 746776801 683239370 709320137 217558211 347653232 974151896 451324454 412951974 467449184 295920105 155443612 384898953 384095461 568359822 974827607 562912811 615434872 254640050 138904328 548591210 718464264 68046099 65888078 889931553 89225670 449246228 214700082 518018207 453465943 845555223 89477769 719028762 916876099 454697556 36289275 236314530 903156765 353097290 595959459 81403195 797803350 982570986 24681670 568342858 229921556 428358652 317180108 598409384 127914446 50253358 612082410 320513023 436024830 160647512 439162351 927400410 133178976 248807807 899065762 49300383 616178546 704124418 39609891 139467548 687654379 745064187 516370400 35713130 380057090 200996665 67604383 231009203 231982061 249919106 509556143 793360415 35656682 954665481 667747929 100432399 351797097 336770552 574131538 205138651 816433042 590011078 937097485 506134781 700582354 616060266 519470105 525695821 1676032 697263799 869848042 108391143 504574320 798888789 286047528 57467121 669680917 182641476 864305100 370793296 649968983 358567702 889115334 455320703 429664451 848213022 326887208 985033255 208215952 96054756 665184697 31252342 571989214 157263905 302386400 610014150 327082283 41095115 322667008 284742261 687812003 840068695 231024110 90842814 215920377 709814029 393535128 162242749 148484908 637863713 900287468 518237250 991725801 695622950 373226627 399556015 469732117 507782255 596868639 144759535 911567768 317742123 584602716 505664886 703985295 560506540 591173933 365867174 393056589 459786665 434131689 829189343 841349305 455823810 264486716 441649924 171477658 66330546 472551560 668958502 941561448 987862547 745360986 973433487 958131092 80594100 18821177 148582892 294258418 228814161 191639076 531503685 789661576 343434258 245887942 867255581 314181846 915112474 211572860 20183837 120602584 625089840 639550953 57656691 640108035 268465418 192160087 523117685 378706048 133643085 905568308 63982542 871447040 636265373 775039185 765739237 316098175 943809017 190107161 206042317 462522452 36171078 702726431 54255452 836033459 319680784 5226696 338928250 989056423 313948772 579326055 98339990 823089582 720664161 986066982 128620063 439492934 833169210 784096138 961173284 837200515 219922356 505845615 544554974 753799906 519686308 63382687 550898624 864764932 865049240 385711185 679151696 107735247 840806462 890587626 233474589 227166084 584202265 808412687 739841642 575623038 440564165 289589934 388534652 69373065 936196229 12903732 857986221 927710675 625172481 867217572 836645587 954702374 548923437 926566530 606428254 15092008 680285827 866421099 598713597 943576117 279202846 119189474 649278220 221930082 609253084 342397070 976373155 698473178 844445211 648090668 328257614 1165380 909682377 95827695 30481344 652746901 619575149 867789782 291197158 352416518 91836334 162191385 375462122 532286097 546432405 86700527 982347798 720246915 566167640 51970616 279940138 619717416 291131162 423016466 592760661 829349879 822571643 94663377 250659568 971714496 151082021 853250176 623615292 143981078 563296725 361467553 572633305 691878446 560754859 561338125 398326683 681578817 783421986 117312372 561855065 181716970 792414100 128576911 248594930 35955328 757844875 543969935 244784144 729059825 863155463 74359374 401593444 524884264 984974466 366358218 76501060 957655231 296491399
