124426203
951
124426203 124426205 124426201 124426196 124426195 124426191 124426190 124426188 124426187 124426186 124426182 124426179 124426174 124426171 124426169 124426166 124426162 124426160 124426159 124426155 124426151 124426148 124426145 124426142 124426139 124426135 124426134 124426132 124426127 124426125 124426120 124426116 124426113 124426108 124426105 124426101 124426099 124426096 124426092 124426088 124426087 124426083 124426082 124426080 124426078 124426075 124426072 124426071 124426069 124426064 124426062 124426058 124426057 124426055 124426053 124426052 124426049 124426048 124426044 124426039 124426037 124426034 124426030 124426027 124426026 124426024 124426020 124426015 124426014 124426009 124426005 124426000 124425999 124425997 124425995 124425992 124425988 124425987 124425983 124425981 124425976 124425974 124425973 124425971 124425967 124425964 124425959 124425956 124425954 124425951 124425947 124425945 124425942 124425941 124425938 124425937 124425932 124425930 124425925 124425922 124425921 124425917 124425912 124425909 124425904 124425901 124425896 124425891 124425889 124425885 124425883 124425882 124425879 124425876 124425872 124425871 124425866 124425863 124425862 124425861 124425857 124425852 124425850 124425848 124425846 124425843 124425841 124425838 124425837 124425836 124425831 124425830 124425829 124425825 124425821 124425816 124425814 124425812 124425810 124425807 124425806 124425804 124425800 124425798 124425795 124425792 124425788 124425785 124425782 124425778 124425774 124425773 124425769 124425764 124425762 124425759 124425756 124425751 124425748 124425747 124425742 124425739 124425734 124425732 124425728 124425725 124425721 124425716 124425713 124425710 124425705 124425701 124425696 124425692 124425689 124425686 124425681 124425676 124425671 124425667 124425665 124425663 124425660 124425658 124425657 124425654 124425653 124425652 124425650 124425645 124425644 124425639 124425637 124425634 124425629 124425624 124425622 124425618 124425615 124425613 124425610 124425607 124425606 124425601 124425597 124425592 124425590 124425587 124425583 124425578 124425577 124425573 124425572 124425571 124425567 124425564 124425561 124425557 124425556 124425555 124425552 124425549 124425545 124425544 124425543 124425542 124425538 124425535 124425530 124425525 124425522 124425518 124425514 124425513 124425508 124425504 124425500 124425499 124425498 124425493 124425489 124425488 124425486 124425485 124425482 124425477 124425472 124425468 124425467 124425466 124425463 124425461 124425459 124425458 124425456 124425453 124425448 124425447 124425446 124425444 124425442 124425439 124425438 124425433 124425432 124425429 124425428 124425423 124425422 124425421 124425416 124425412 124425411 124425407 124425402 124425400 124425398 124425394 124425391 124425386 124425384 124425381 124425377 124425375 124425373 124425371 124425366 124425362 124425360 124425359 124425355 124425354 124425351 124425349 124425345 124425342 124425341 124425339 124425335 124425331 124425327 124425324 124425323 124425319 124425314 124425311 124425309 124425307 124425302 124425297 124425292 124425287 124425283 124425279 124425277 124425274 124425272 124425268 124425266 124425265 124425263 124425262 124425259 124425258 124425254 124425249 124425245 124425242 124425239 124425237 124425235 124425234 124425231 124425226 124425224 124425222 124425220 124425218 124425215 124425214 124425211 124425208 124425204 124425202 124425198 124425193 124425192 124425188 124425186 124425183 124425180 124425178 124425177 124425172 124425169 124425165 124425162 124425161 124425157 124425152 124425147 124425143 124425139 124425138 124425136 124425132 124425128 124425126 124425121 124425117 124425116 124425112 124425108 124425106 124425102 124425101 124425096 124425094 124425090 124425085 124425082 124425079 124425076 124425072 124425068 124425066 124425061 124425057 124425055 124425051 124425047 124425042 124425038 124425035 124425033 124425031 124425028 124425026 124425023 124425022 124425020 124425019 124425018 124425013 124425009 124425005 124425002 124424997 124424996 124424991 124424990 124424987 124424982 124424977 124424975 124424971 124424967 124424965 124424964 124424963 124424958 124424957 124424955 124424950 124424949 124424948 124424945 124424942 124424941 124424939 124424936 124424931 124424929 124424924 124424920 124424919 124424915 124424914 124424911 124424909 124424907 124424906 124424901 124424900 124424896 124424892 124424889 124424885 124424881 124424878 124424877 124424876 124424872 124424870 124424865 124424862 124424860 124424856 124424852 124424848 124424847 124424842 124424839 124424836 124424833 124424828 124424824 124424820 124424818 124424814 124424813 124424808 124424807 124424806 124424804 124424802 124424798 124424793 124424792 124424790 124424789 124424784 124424781 124424777 124424776 124424774 124424770 124424766 124424764 124424762 124424759 124424758 124424755 124424750 124424748 124424744 124424739 124424738 124424736 124424735 124424731 124424726 124424722 124424717 124424715 124424710 124424705 124424702 124424698 124424697 124424692 124424691 124424687 124424686 124424682 124424678 124424676 124424672 124424668 124424664 124424659 124424658 124424654 124424649 124424646 124424643 124424639 124424634 124424629 124424624 124424620 124424619 124424616 124424611 124424609 124424604 124424600 124424598 124424595 124424593 124424590 124424586 124424582 124424578 124424574 124424573 124424568 124424563 124424562 124424561 124424559 124424557 124424555 124424553 124424550 124424546 124424541 124424540 124424538 124424535 124424532 124424531 124424529 124424528 124424526 124424521 124424520 124424518 124424516 124424513 124424512 124424509 124424505 124424500 124424499 124424494 124424490 124424488 124424486 124424482 124424478 124424474 124424470 124424469 124424466 124424461 124424457 124424455 124424450 124424445 124424444 124424439 124424436 124424434 124424433 124424429 124424426 124424423 124424420 124424418 124424417 124424412 124424410 124424406 124424404 124424402 124424397 124424396 124424391 124424388 124424386 124424381 124424380 124424375 124424371 124424370 124424369 124424367 124424365 124424362 124424360 124424357 124424355 124424351 124424347 124424343 124424342 124424340 124424337 124424335 124424330 124424329 124424328 124424327 124424325 124424322 124424321 124424317 124424313 124424311 124424307 124424303 124424301 124424298 124424294 124424292 124424289 124424288 124424284 124424283 124424278 124424276 124424271 124424266 124424265 124424260 124424256 124424252 124424248 124424243 124424241 124424240 124424235 124424232 124424230 124424227 124424224 124424221 124424220 124424217 124424214 124424213 124424208 124424204 124424203 124424202 124424201 124424199 124424197 124424192 124424187 124424186 124424183 124424178 124424175 124424174 124424171 124424167 124424163 124424160 124424156 124424155 124424150 124424146 124424141 124424137 124424136 124424135 124424132 124424131 124424130 124424127 124424126 124424124 124424122 124424120 124424118 124424113 124424112 124424109 124424106 124424101 124424098 124424095 124424090 124424085 124424083 124424078 124424074 124424071 124424070 124424066 124424062 124424058 124424053 124424049 124424048 124424047 124424042 124424040 124424038 124424035 124424030 124424026 124424023 124424019 124424017 124424015 124424013 124424009 124424008 124424005 124424004 124424000 124423997 124423993 124423988 124423985 124423980 124423979 124423975 124423971 124423968 124423966 124423962 124423959 124423955 124423953 124423949 124423945 124423943 124423939 124423936 124423935 124423931 124423930 124423925 124423924 124423921 124423918 124423915 124423911 124423908 124423903 124423898 124423894 124423892 124423890 124423885 124423880 124423878 124423874 124423870 124423867 124423866 124423864 124423859 124423854 124423853 124423852 124423847 124423846 124423843 124423841 124423839 124423835 124423834 124423833 124423832 124423827 124423825 124423820 124423819 124423818 124423813 124423811 124423809 124423806 124423803 124423801 124423799 124423794 124423792 124423790 124423785 124423782 124423777 124423775 124423770 124423765 124423763 124423761 124423758 124423756 124423751 124423748 124423744 124423740 124423735 124423731 124423729 124423726 124423722 124423721 124423718 124423715 124423713 124423711 124423708 124423707 124423703 124423699 124423697 124423693 124423692 124423690 124423689 124423688 124423687 124423686 124423685 124423681 124423677 124423676 124423671 124423667 124423665 124423660 124423659 124423656 124423652 124423650 124423649 124423646 124423643 124423641 124423637 124423633 124423632 124423630 124423629 124423628 124423627 124423622 124423620 124423618 124423615 124423612 124423607 124423602 124423600 124423599 124423596 124423595 124423593 124423588 124423587 124423585 124423584 124423580 124423576 124423574 124423570 124423568 124423563 124423560 124423557 124423552 124423548 124423547 124423545 124423544 124423542 124423541 124423537 124423535 124423530 124423529 124423527 124423526 124423525 124423523 124423519 124423514 124423513 124423511 124423510 124423509 124423508 124423503 124423500 124423498 124423493 124423490 124423489 124423485 124423483 124423481 124423476 124423473 124423471 124423466 124423464 124423461 124423459 124423457 124423453 124423452 124423449 124423446 124423445 124423442 124423440 124423437 124423434 124423432 124423431 124423429 124423424 124423422 124423421
