41873230
701
41873230 41873231 41873227 41873225 41873221 41873218 41873216 41873214 41873209 41873204 41873202 41873198 41873197 41873195 41873190 41873185 41873181 41873180 41873179 41873174 41873169 41873165 41873162 41873158 41873153 41873151 41873149 41873145 41873140 41873135 41873130 41873126 41873121 41873119 41873116 41873115 41873113 41873110 41873109 41873105 41873104 41873099 41873096 41873093 41873091 41873088 41873084 41873083 41873079 41873075 41873072 41873070 41873069 41873068 41873066 41873063 41873060 41873056 41873053 41873052 41873047 41873043 41873040 41873036 41873035 41873033 41873030 41873026 41873022 41873019 41873014 41873011 41873007 41873002 41873001 41873000 41872995 41872990 41872989 41872984 41872982 41872980 41872979 41872976 41872973 41872970 41872965 41872962 41872958 41872955 41872950 41872946 41872944 41872942 41872941 41872936 41872933 41872928 41872927 41872925 41872923 41872921 41872917 41872914 41872909 41872904 41872900 41872897 41872894 41872889 41872886 41872884 41872879 41872877 41872876 41872872 41872867 41872863 41872859 41872856 41872853 41872849 41872846 41872844 41872839 41872838 41872833 41872829 41872828 41872825 41872824 41872821 41872819 41872815 41872814 41872810 41872806 41872805 41872803 41872802 41872799 41872796 41872793 41872792 41872791 41872789 41872785 41872781 41872776 41872771 41872767 41872763 41872762 41872759 41872757 41872755 41872751 41872747 41872743 41872741 41872736 41872732 41872729 41872728 41872726 41872724 41872723 41872718 41872713 41872711 41872706 41872705 41872701 41872699 41872695 41872691 41872688 41872687 41872685 41872682 41872678 41872673 41872669 41872666 41872662 41872657 41872653 41872651 41872649 41872646 41872642 41872640 41872635 41872634 41872631 41872629 41872625 41872624 41872621 41872620 41872616 41872613 41872610 41872609 41872604 41872603 41872599 41872597 41872592 41872591 41872589 41872585 41872580 41872575 41872572 41872570 41872565 41872561 41872557 41872552 41872548 41872543 41872540 41872536 41872533 41872528 41872526 41872522 41872519 41872518 41872517 41872516 41872511 41872509 41872507 41872503 41872499 41872498 41872496 41872495 41872490 41872485 41872482 41872481 41872477 41872472 41872470 41872465 41872461 41872456 41872454 41872451 41872448 41872446 41872442 41872438 41872433 41872431 41872429 41872425 41872421 41872418 41872416 41872415 41872411 41872406 41872403 41872401 41872398 41872396 41872394 41872392 41872388 41872385 41872384 41872381 41872378 41872375 41872373 41872368 41872363 41872362 41872361 41872357 41872355 41872351 41872348 41872346 41872342 41872339 41872336 41872334 41872332 41872331 41872326 41872323 41872320 41872319 41872316 41872311 41872308 41872307 41872302 41872298 41872294 41872290 41872288 41872285 41872282 41872279 41872275 41872271 41872270 41872269 41872265 41872260 41872257 41872254 41872252 41872251 41872247 41872243 41872238 41872236 41872235 41872234 41872232 41872229 41872224 41872221 41872220 41872219 41872214 41872209 41872208 41872207 41872205 41872201 41872198 41872193 41872188 41872186 41872183 41872179 41872174 41872169 41872168 41872166 41872165 41872160 41872155 41872152 41872147 41872145 41872144 41872142 41872141 41872139 41872137 41872133 41872129 41872126 41872124 41872121 41872119 41872116 41872111 41872106 41872105 41872100 41872099 41872095 41872093 41872091 41872090 41872088 41872086 41872084 41872081 41872076 41872075 41872071 41872069 41872064 41872059 41872058 41872053 41872050 41872049 41872048 41872045 41872040 41872039 41872035 41872033 41872028 41872023 41872018 41872015 41872012 41872009 41872006 41872001 41871999 41871995 41871994 41871990 41871989 41871987 41871983 41871979 41871974 41871972 41871970 41871969 41871964 41871960 41871959 41871955 41871952 41871947 41871942 41871938 41871934 41871931 41871930 41871927 41871923 41871922 41871919 41871916 41871912 41871911 41871906 41871904 41871899 41871894 41871890 41871885 41871882 41871880 41871875 41871874 41871872 41871871 41871870 41871867 41871863 41871861 41871860 41871857 41871856 41871851 41871849 41871847 41871845 41871842 41871841 41871836 41871835 41871830 41871828 41871827 41871822 41871817 41871814 41871811 41871809 41871805 41871803 41871800 41871798 41871796 41871794 41871793 41871792 41871791 41871787 41871785 41871783 41871778 41871774 41871772 41871769 41871765 41871763 41871761 41871757 41871754 41871751 41871749 41871745 41871740 41871738 41871736 41871731 41871728 41871726 41871724 41871720 41871718 41871714 41871713 41871710 41871707 41871706 41871702 41871700 41871696 41871693 41871689 41871688 41871687 41871682 41871679 41871674 41871670 41871668 41871666 41871665 41871661 41871657 41871656 41871654 41871650 41871647 41871642 41871640 41871639 41871638 41871633 41871629 41871625 41871620 41871619 41871618 41871613 41871608 41871604 41871600 41871597 41871594 41871589 41871587 41871586 41871584 41871580 41871578 41871576 41871571 41871567 41871562 41871560 41871557 41871556 41871554 41871553 41871552 41871550 41871546 41871544 41871540 41871539 41871536 41871532 41871528 41871527 41871525 41871523 41871519 41871517 41871513 41871510 41871506 41871503 41871498 41871494 41871492 41871489 41871486 41871481 41871480 41871475 41871473 41871470 41871469 41871465 41871460 41871459 41871455 41871453 41871452 41871447 41871446 41871444 41871442 41871439 41871438 41871436 41871432 41871428 41871423 41871421 41871419 41871415 41871410 41871409 41871405 41871404 41871399 41871397 41871394 41871392 41871387 41871386 41871383 41871380 41871377 41871376 41871373 41871371 41871366 41871364 41871360 41871358 41871357 41871354 41871353 41871352 41871348 41871345 41871342 41871339 41871334 41871333 41871329 41871327 41871323 41871321 41871320 41871318 41871314 41871311 41871307 41871302 41871301 41871298 41871297 41871294 41871290 41871285 41871282 41871278 41871277 41871274 41871270 41871269 41871268 41871264 41871259 41871254 41871250 41871245 41871240 41871235 41871232 41871231 41871228 41871225 41871220 41871217 41871215 41871210 41871207 41871202 41871200 41871197 41871196 41871192 41871190 41871185 41871180 41871176 41871174 41871172 41871168 41871166 41871164 41871159 41871158 41871156 41871151 41871148 41871146 41871142 41871137 41871136 41871134 41871132 41871131 41871130
