179939121
510
179939121 179939122 179939119 179939117 179939114 179939112 179939109 179939107 179939105 179939102 179939099 179939094 179939092 179939091 179939088 179939087 179939083 179939080 179939077 179939076 179939073 179939071 179939068 179939064 179939060 179939059 179939058 179939057 179939055 179939051 179939049 179939046 179939045 179939044 179939040 179939035 179939031 179939027 179939025 179939020 179939017 179939012 179939008 179939007 179939005 179939003 179939002 179938998 179938995 179938994 179938991 179938990 179938986 179938985 179938980 179938975 179938974 179938972 179938969 179938964 179938960 179938958 179938957 179938955 179938953 179938951 179938948 179938946 179938945 179938944 179938939 179938934 179938930 179938928 179938925 179938924 179938921 179938919 179938915 179938910 179938905 179938901 179938900 179938897 179938895 179938890 179938885 179938884 179938881 179938877 179938873 179938872 179938867 179938864 179938861 179938856 179938851 179938849 179938845 179938843 179938838 179938836 179938833 179938830 179938825 179938823 179938818 179938814 179938809 179938808 179938807 179938802 179938799 179938794 179938789 179938788 179938785 179938783 179938780 179938779 179938774 179938770 179938769 179938768 179938766 179938765 179938760 179938759 179938755 179938754 179938749 179938748 179938745 179938740 179938737 179938732 179938730 179938729 179938724 179938723 179938719 179938718 179938715 179938711 179938707 179938703 179938700 179938695 179938692 179938688 179938686 179938685 179938680 179938678 179938673 179938668 179938663 179938662 179938657 179938652 179938650 179938648 179938643 179938641 179938637 179938636 179938631 179938630 179938628 179938624 179938622 179938617 179938613 179938608 179938603 179938601 179938599 179938598 179938593 179938591 179938588 179938586 179938585 179938583 179938581 179938576 179938574 179938573 179938572 179938567 179938564 179938561 179938559 179938557 179938555 179938550 179938546 179938544 179938542 179938540 179938535 179938530 179938526 179938524 179938521 179938518 179938515 179938510 179938505 179938500 179938496 179938495 179938493 179938491 179938490 179938489 179938485 179938483 179938478 179938474 179938470 179938468 179938463 179938458 179938453 179938449 179938446 179938441 179938438 179938437 179938432 179938429 179938425 179938422 179938417 179938413 179938412 179938410 179938406 179938404 179938403 179938399 179938398 179938393 179938391 179938389 179938385 179938382 179938378 179938375 179938370 179938367 179938364 179938359 179938355 179938353 179938352 179938351 179938348 179938344 179938343 179938339 179938334 179938331 179938327 179938326 179938321 179938316 179938314 179938309 179938304 179938302 179938298 179938293 179938292 179938291 179938287 179938283 179938278 179938273 179938271 179938268 179938267 179938264 179938262 179938258 179938254 179938252 179938248 179938244 179938239 179938237 179938235 179938232 179938231 179938229 179938228 179938226 179938222 179938218 179938213 179938211 179938208 179938206 179938203 179938201 179938197 179938195 179938191 179938190 179938185 179938182 179938181 179938178 179938175 179938173 179938169 179938166 179938162 179938159 179938155 179938150 179938149 179938144 179938139 179938136 179938134 179938131 179938128 179938124 179938119 179938118 179938115 179938114 179938109 179938108 179938103 179938101 179938100 179938096 179938095 179938091 179938088 179938083 179938079 179938075 179938070 179938067 179938063 179938058 179938053 179938050 179938046 179938042 179938041 179938039 179938036 179938031 179938029 179938027 179938025 179938023 179938020 179938016 179938014 179938009 179938006 179938003 179938002 179937999 179937997 179937992 179937991 179937990 179937986 179937984 179937983 179937982 179937977 179937974 179937970 179937965 179937960 179937956 179937951 179937950 179937948 179937945 179937943 179937938 179937933 179937929 179937924 179937919 179937917 179937916 179937915 179937911 179937908 179937906 179937905 179937901 179937896 179937892 179937887 179937884 179937879 179937874 179937873 179937869 179937868 179937867 179937862 179937857 179937852 179937851 179937846 179937845 179937843 179937838 179937837 179937836 179937834 179937832 179937831 179937826 179937824 179937822 179937819 179937815 179937812 179937810 179937808 179937807 179937806 179937802 179937798 179937794 179937792 179937788 179937785 179937782 179937778 179937775 179937773 179937770 179937767 179937762 179937757 179937756 179937755 179937754 179937751 179937746 179937744 179937739 179937737 179937734 179937731 179937728 179937723 179937720 179937715 179937713 179937710 179937706 179937705 179937702 179937700 179937699 179937697 179937696 179937692 179937691 179937689 179937685 179937681 179937677 179937674 179937672 179937668 179937664 179937660 179937655 179937653 179937652 179937649 179937645 179937644 179937641 179937639 179937635 179937633 179937630 179937629 179937625 179937624 179937623 179937622 179937617 179937615 179937613 179937610 179937608 179937605 179937604 179937601 179937596 179937593 179937590
