337272214
779
686 682 676 665 666 641 638 644 622 668 626 620 638 556 546 626 654 567 614 591 486 476 466 640 662 586 426 443 630 657 506 469 622 521 584 651 434 464 420 491 366 645 350 299 510 371 318 639 590 588 186 635 166 368 470 356 238 401 454 568 386 625 190 308 110 101 422 150 210 134 546 402 254 29 94 236 154 301 608 -25 -34 524 358 105 -154 176 170 77 246 241 56 -42 410 35 216 21 398 -187 196 92 -314 383 74 -138 -354 -154 -56 151 146 -77 -84 464 -98 573 2 -464 -126 218 -22 210 206 81 320 194 -554 436 -322 -457 174 428 296 -493 -502 -511 -118 -529 -538 -684 -280 130 -574 122 -166 543 254 251 394 -784 -498 239 236 82 78 -79 378 376 530 -99 54 -268 -914 42 -934 -129 -134 -469 -144 -149 -322 348 6 -340 -1034 -698 -532 -1064 -18 -199 152 -567 -394 -581 504 -778 -970 -239 128 125 310 308 -1024 -1033 -274 -279 -284 296 294 -496 -1294 -508 86 -1123 -526 -1344 -130 481 -138 -1177 -770 -986 -1414 -1424 50 -592 -384 -604 -394 252 -404 -847 -1514 -419 -1534 -1098 238 -889 460 -676 458 -459 456 224 -10 -1411 -718 -489 214 -736 -504 -270 -1234 -1242 -1734 -43 -1022 -1764 -544 -302 -1546 -1057 -314 -1322 -574 -326 -584 176 -1362 -1113 -1636 -1127 -94 164 -100 423 158 -374 420 -382 150 417 -1474 -398 -674 -952 -1232 -1239 134 -422 -148 -988 -154 -1562 -1852 -1861 -1586 -1024 -744 -1323 -1906 -759 -474 -1933 -1358 -1658 -1372 -2264 390 -799 -208 88 -514 -1421 -1126 -1435 -1746 -1754 -2068 72 -2086 68 -1794 64 -874 60 -256 -1204 -262 -1216 -1858 -1547 -2194 -598 -2212 -2544 -1582 -1914 -292 -622 -1938 28 -2614 -307 354 20 -2654 16 -994 -662 -666 -1687 -1354 -1019 -340 -2401 -690 -2074 -2774 -2090 -2446 -1408 -364 -367 -370 -726 -2854 -2864 -1094 -2170 -2178 -1827 -34 -2924 -1486 -403 -1134 321 -46 -2984 -2258 -2635 -1904 -798 -3034 313 -62 -2314 -818 -822 -1204 -2346 306 -76 -1606 -3144 -3154 -2009 -858 -2410 298 -1259 -484 -2833 -1274 -2851 -2072 -1289 -106 -1299 -2896 -3304 286 -3324 -3334 -1732 -1738 -2959 -126 -2977 -538 -1359 -3414 -2191 -2198 -553 -2626 -3464 -562 -1399 268 -2247 -154 -3524 -1002 -1006 -162 -3564 260 -2730 -2310 -601 256 -1900 -610 -2778 -182 -1489 250 -625 -1066 -192 -1074 -1960 -2408 -1529 -646 -2874 -652 -1996 -2450 -2906 -2464 -3373 -1574 -2485 -3400 231 -1138 -685 -1146 -1609 -1154 225 -700 -3481 -3026 -2569 -3042 -2583 -1654 217 216 -3082 214 213 -736 -264 -266 -4084 208 -3625 -274 -3162 -4134 -2695 -4154 -1254 -1258 -2236 -778 -3715 -1764 195 -2758 -1779 192 -3274 -802 189 188 -3306 -814 -2821 -318 -823 -3850 -1839 -326 -1342 -838 177 176 175 -3922 -340 -3940 -859 -3442 -865 -868 -352 166 -1398 -4534 -4544 162 -364 -4048 -1422 -4594 -1430 -1434 -3562 154 -913 -1450 -384 -2530 -388 -2004 -4165 -2014 -396 -2566 -400 -946 -3674 -4774 -1502 -410 -4804 -4264 -1518 -1522 133 -4300 -3754 -3206 -3213 -4336 127 126 -1558 124 -3255 -3262 -4399 -1578 -1582 -2154 -1590 116 -456 -3318 -4471 -2184 -3339 -466 -1622 -3938 107 -3374 -2219 -4552 -2812 -3986 -2239 -1072 -4010 -5194 -4615 -1674 -4633 -5234 -2279 -4066 -1694 -2294 89 -2304 -2309 -4114 -1718 -3528 -2932 -2334 -3549 -526 -2349 -2962 -532 -4194 -4202 -1762 -2992 -542 -544 -3626 -5484 -1786 -1171 -4274 -3040 -558 -2429 -1186 -3064 -4322 59 -3710 57 -1834 -4362 54 53 -4386 -5029 -5674 -5684 -5694 47 -5074 -5083 -4450 -1243 -3822 41 40 -5784 -5146 -612 36 -1267 34 -2579 -5854 -5209 -5218 -5884 -3262 -1950 -5914 -5924 -5272 -640 -1970 -3969 -1312 -648 -5326 -6004 -4674 -3340 -3346 -2679 -1336 -3364 -2694 -4053 -5416 -672 -2034 5 -6134 -6144 -4102 -1369 -3430 -5497 -2754 -4826 -2764 -2078 -4158 -2086 -2784 -1399 -2794 -2102 -4200 -4207 -2114 -15 -4930 -5641 -2834 -2839 -2138 -21 -4978 -2859 -1444 -4291 -6434 -740 -2884 -3604 -3610 -748 -6494 -2190 -34 -756 -758 -2206 -2934 -1489 -1492 -768 -42 -4417 -6614 -2969 -1510 -6644 -48 -49 -2994 -2999 -6694 -2270 -3014 -5983 -5250 -3029 -58 -3039 -2298 -808 -2306 -5306 -6064 -4571 -6834 -6091 -5346 -5354 -3850 -2342 -3104 -6904 -3114 -5402 -6172 -3129 -4662 -2374 -5442 -4683 -82 -2390 -1624 -1627 -858 -87 -4732 -2414 -1642 -91 -3982
