-449870248
533
530 526 520 500 506 520 482 516 482 467 500 464 494 504 418 470 434 428 422 416 390 467 420 507 362 330 348 449 474 414 410 437 434 497 394 390 386 308 340 335 490 407 152 358 134 305 162 342 290 40 130 71 10 477 476 145 418 74 124 412 230 103 -28 89 466 465 266 -6 394 116 -30 104 -118 -54 234 -145 302 68 296 -181 290 -118 284 281 362 360 -330 443 -86 85 -10 -380 438 -400 342 55 -430 -149 -58 431 30 25 -388 221 426 5 -530 -433 314 94 -350 -469 82 417 188 -45 66 413 -60 -541 -550 -196 408 -577 -586 -720 -730 -359 146 -244 -250 -256 2 -667 -542 260 -14 -155 392 113 -30 -34 -322 -614 -910 -920 -492 -646 -950 -215 80 -74 -534 377 -856 -710 374 373 -418 -424 -750 369 -928 -774 -618 365 364 -138 -478 -822 360 -1009 -674 -508 356 355 -878 -1 352 172 -370 -918 -380 347 162 -395 -214 -779 154 -793 -420 -616 -430 -435 -440 -1225 -1430 -652 332 -1460 -70 -877 -682 327 -1306 120 118 116 -510 -1351 -100 -1158 -530 -535 102 -545 -118 -121 -996 92 -1010 -1238 86 -1477 -1710 -1720 -600 -1286 -154 -386 -1080 -1780 298 -868 -406 295 -650 -181 -1374 -1621 -1870 -1880 -1164 -1171 -1910 40 -946 -458 -1206 -715 -1970 -725 -478 24 22 -1255 -2030 16 272 -1801 -1550 -1819 6 267 -526 -265 -2130 -4 -2150 -1891 -820 -1367 -286 -1381 -566 -1670 -1954 -2240 -1138 -2260 250 -32 -2290 -1168 -1742 245 244 -905 -334 -2360 -1210 -1798 -1806 -349 -1528 -650 234 -1846 232 -1862 -70 -1276 228 -1288 -1598 -690 -694 -1312 -1934 -2251 -1640 -2269 -2278 -1348 -2610 -100 -1050 213 -2332 -1384 -430 -112 -114 -2377 -2710 -445 -2078 -1432 -2094 -1773 -2440 -1456 -1794 -2134 -2810 -2485 -2158 -1155 -1498 -1843 -1510 -1857 -1864 -156 -2566 -1885 -2584 -2940 -2602 -517 -1920 179 178 -1235 176 -3020 -2318 -2326 -2334 171 -3070 -914 -556 -559 -3110 -1660 164 -2039 -206 -2053 -3170 -1696 -586 -2827 -2462 155 -3230 -3240 -982 -2881 -3270 -1375 -3290 -2917 -2926 -240 144 -1018 -3350 -248 -250 139 138 -3400 -1046 -1840 -3034 -264 -266 -1066 -1470 -2277 -2686 -2291 126 -280 -3124 -3133 -1918 -3151 -290 -3169 -3178 -296 116 115 -2798 -304 -2814 -1984 -310 -1996 -3268 -1585 -3710 105 -2026 -751 -754 -1186 100 -3349 -2062 -336 -2508 -3385 -2522 -344 -3412 -3860 90 -1234 88 87 -3910 -1695 -3038 -2599 -3054 -2613 -2620 -3529 78 77 -4010 -3110 -838 -1755 -1760 -4060 -1310 69 -2704 -3174 -398 65 -2266 -871 -3682 -2284 -3700 -1825 -1358 -4200 -1366 -4220 -3278 -3763 -2338 -4260 -4270 -1875 -916 -436 -3826 -1895 -928 -3853 -3862 -2404 -3390 -943 -3898 -1935 -952 -955 -2446 -1458 -1960 -3961 -4470 29 -474 -476 -1486 -3005 -988 -2512 -2010 -4051 -1510 -2025 -2030 -2548 -498 -1530 -4114 -2572 -3096 -2584 -1550 -1033 8 -3654 -518 -520 -3678 -2105 -3694 -3173 -3180 -4249 -1598
