-313872297
676
838 837 818 820 826 803 796 810 758 802 818 827 730 721 698 778 822 804 784 648 678 670 662 631 742 738 604 784 782 780 658 652 742 772 736 733 622 727 648 526 798 510 418 666 662 613 516 462 694 691 388 634 682 467 784 288 670 439 490 543 718 228 652 712 710 578 376 302 430 769 348 696 478 254 764 388 306 145 214 48 438 271 264 257 250 158 666 142 134 482 208 565 470 -92 274 268 742 644 348 46 438 737 226 735 -202 -2 -10 410 -242 729 398 505 -170 273 610 -82 722 721 484 481 -362 -9 -382 715 94 -287 460 -432 -186 451 58 183 -86 572 -368 -512 430 564 10 -135 698 556 -14 -449 -458 258 -476 -338 394 -652 -212 536 -378 -692 -702 -712 214 681 -742 -752 -762 677 28 -303 -638 -152 340 337 -842 -514 -862 -188 -538 -27 -380 -212 -42 -578 -230 -952 298 114 474 106 654 98 466 277 -666 460 -1062 -690 454 -1092 -1102 -722 -1122 -1132 -548 -157 38 235 636 635 -794 18 14 -404 630 211 -842 -217 -222 -653 -874 -237 622 -898 -688 -257 -702 175 -938 -723 -1402 -62 -1196 157 -758 380 378 -317 -786 -94 -800 -1277 -578 601 -590 599 118 -1090 596 352 -626 -1122 -392 -397 -1642 -1403 -1662 85 586 -1439 -686 -1457 -1466 -190 64 -198 -202 -1772 -472 -477 310 573 -226 304 -1038 -238 28 25 -1610 -800 -806 -1637 -542 -270 560 -1115 -562 -1129 -1136 -1709 554 -872 -1450 -597 -26 549 -2062 -908 -914 -334 -44 -1227 -1826 -1241 -1844 -1255 -362 -1269 -672 -980 -1290 -992 -1916 531 -1318 -1325 218 -2272 -722 -1666 -2302 208 -2006 -1381 -752 200 -1722 -125 -2060 -777 -1754 -787 -140 -1451 182 -2452 508 -2141 174 -1826 -2168 -2177 -506 501 -852 -1535 -522 -1549 -2240 152 -538 -887 146 -1591 -2294 -1954 -1262 -1619 -1626 -221 -1286 -227 482 -947 -236 -2034 -602 -245 -610 -1340 -1710 -2812 -626 -263 -2106 -2114 468 467 -278 92 -1406 -1412 -666 461 460 -678 -1822 457 74 -311 -698 -1087 -706 -1484 -2654 -1107 -1892 -1117 -730 -2699 -738 -1532 -1538 -2735 -1550 -359 -1962 -3172 -2378 -3192 434 -377 -2816 431 -3242 -2843 18 -3272 -2870 -3292 -2888 423 -1658 -2081 -1252 -2095 -422 -2109 -3382 -2546 -434 -862 -2144 -3432 -1730 -3023 -3462 -1317 -458 -1327 -464 -2642 -2214 -3532 -3542 -479 -1362 -3572 -3140 -1820 -2714 -2722 -1838 -3632 -954 -2754 -2312 -966 -3230 -521 -2340 -527 -1898 381 -1910 -2375 -2842 -1006 -1010 -1477 -1018 373 -2424 -96 -3374 -3383 -1982 -1988 -2466 -2000 -2480 -3912 -1066 -2024 -118 -1557 -1082 -124 -3982 355 -3034 -4012 -3050 -2084 -2090 -1607 -2102 347 -3098 -148 -3114 -152 342 -2144 -2150 -659 -1162 -2669 -668 -4192 -3698 -4212 -174 -3725 -1702 -689 -1202 -3250 -4282 -701 -1732 -3282 -194 -2264 -716 -2276 -722 -204 -3860 315 -1258 -2312 -214 -2851 310 -2336 -222 -2348 -1290 -1294 -1298 -1837 -3450 -2921 -1852 -4552 -4562 -1867 -2956 295 -250 -2432 -4076 -1897 290 -4103 -262 -1366 -266 -4692 -3040 -4157 -3610 -1390 -3626 -2516 -282 -3650 -1410 -4792 -4238 -1987 -3124 -2564 -2570 -2007 -2012 -4301 -2022 -4892 -3180 -4912 -2042 -316 -3208 -4952 -2062 -2648 -908 -4409 -1498 -2087 -2678 -336 -4454 -929 -2702 -3890 -346 245 244 -3327 -2738 -953 -5142 -4553 -362 -965 -366 -5192 -1578 -5212 -2192 -1590 -4634 -3425 228 -995 -2834 -2227 -2846 -2852 -4706 -396 220 -5352 -5362 -404 -2272 -2277 -1034 -4162 212 -2297 -5442 -2307 -2312 -4210 206 -2960 -4868 203 -434 -1073 -438 -4913 -4282 -3649 -5582 195 -5602 -4322 -4330 -3044 -3050 -3705 -5662 -2417 -1770 185 -4394 183 -5722 -4418 -3768 -1798 -1142 -3789 -2472 -2477 -4474 -2487 172 -1830 -1834 -1838 -502 -1846 -5210 -1854 -3880 -1187
