-177301450
3119
1000000000 999999906 999999850 999999790 999999644 999999995 999999670 999999377 999999744 999999757 999999620 999999065 999999784 999998752 999998964 999998890 999999744 999999116 999999820 999999012 999999300 999998929 999998592 999999448 999998896 999999075 999997998 999998893 999999020 999997100 999997990 999996931 999998624 999998746 999998096 999997270 999999820 999996892 999998594 999996763 999999520 999997212 999999454 999999183 999997316 999997660 999996918 999996381 999999616 999998334 999998600 999998317 999998128 999998569 999996652 999997415 999998544 999994357 999994200 999994631 999997060 999998475 999999070 999994834 999996288 999993825 999998746 999998392 999999660 999998689 999993280 999996734 999993808 999996861 999993710 999998650 999996884 999998383 999997660 999995497 999995600 999999595 999995408 999993443 999996052 999991755 999996130 999999826 999996304 999992969 999999550 999997998 999993376 999991165 999993138 999996960 999994048 999998060 999997942 999998218 999999700 999998081 999999694 999998146 999998440 999994330 999994382 999996897 999998488 999990626 999997910 999991675 999993504 999994350 999990310 999997700 999995708 999998362 999991740 999988219 999992680 999991409 999994876 999995080 999990452 999997500 999989920 999994920 999993600 999996259 999995320 999996594 999995248 999997872 999987404 999991630 999996464 999997534 999996550 999989853 999999440 999987451 999997160 999985700 999989632 999989125 999998686 999999853 999987864 999997169 999985900 999995017 999996808 999987454 999987526 999996125 999997348 999996546 999985148 999999841 999984320 999993882 999995788 999989079 999995408 999987790 999997842 999983300 999994960 999986649 999986230 999997093 999995356 999997751 999996172 999984250 999983984 999983362 999992880 999985322 999997840 999987873 999999818 999996523 999984176 999982610 999997024 999991211 999987592 999985069 999990500 999992169 999984832 999988227 999992628 999984790 999987652 999980891 999998416 999993433 999991600 999981106 999992324 999984978 999983272 999984830 999994850 999987994 999991264 999989759 999986350 999981643 999989612 999990415 999992510 999992690 999994600 999995443 999997820 999997591 999993840 999996464 999991342 999982383 999984096 999979750 999992090 999996822 999985636 999990382 999996780 999984061 999993040 999981127 999998596 999997885 999978524 999988861 999995002 999982314 999980560 999990601 999986448 999984691 999979504 999978685 999987946 999981228 999993304 999982072 999981250 999983936 999987400 999999747 999974854 999997195 999977728 999989720 999990970 999975136 999980760 999975988 999980088 999987113 999992080 999983040 999977922 999997330 999980704 999977135 999990550 999973713 999980416 999990445 999997260 999991475 999984544 999978394 999989714 999996931 999986000 999978925 999971800 999983020 999971884 999998290 999982840 999979049 999973792 999984105 999981440 999997963 999983064 999997070 999973246 999974630 999986384 999976240 999989570 999974585 999973600 999985552 999994262 999993334 999979936 999995730 999989902 999974212 999977824 999995056 999979540 999994713 999992200 999987167 999973938 999978580 999985148 999983199 999969154 999987240 999974400 999974320 999975206 999975775 999984772 999981150 999977506 999968608 999998032 999979273 999982510 999994704 999998672 999992008 999999332 999980570 999968752 999976410 999979720 999981016 999989120 999974766 999970930 999986966 999986928 999976885 999978548 999967382 999972856 999995812 999967450 999991576 999984512 999966818 999980884 999975860 999971520 999983221 999974940 999985281 999994960 999983755 999982262 999996007 999994904 999965690 999985726 999965502 999966144 999997786 999995560 999988128 999986236 999966057 999969332 999973750 999977064 999977757 999968626 999994694 999975300 999987427 999990450 999981999 999983488 999970355 999997298 999970201 999965080 999992609 999968800 999975367 999985888 999966988 999964146 999979855 999980200 999998015 999992836 999975661 999988000 999971128 999975076 999964536 999995152 999971245 999959400 999996744 999992656 999984458 999963510 999995890 999999176 999989675 999959014 999988380 999993344 999982903 999995402 999992039 999989920 999966741 999963286 999997039 999962264 999972800 999972736 999991887 999982880 999976405 999961730 999987501 999971056 999970556 999960506 999971290 999957272 999965040 999989050 999970148 999974480 999994708 999957568 999960130 999970252 999976415 999977700 999995083 999996864 999963182 999959500 999977450 999982824 999986410 999984564 999963145 999959416 999975322 999969772 999964198 999976080 999968652 999978748 999975461 999966128 999994885 999983690 999956569 999970048 999984054 999953470 999984928 999958936 999956011 999976300 999987650 999980484 999958978 999996176 999990899 999952480 999965368 999968670 999956530 999977252 999996605 999992710 999985877 999979016 999986308 999969130 999976923 999982780 999996549 999962456 999986140 999999008 999960737 999975598 999954092 999977500 999967936 999989458 999952215 999955648 999983840 999952436 999982255 999976632 999993383 999981130 999995912 999998976 999992305 999958880 999988155 999994840 999965878 999957006 999950176 999967240 999964051 999963982 999957637 999976944 999963775 999981064 999976285 999983632 999978840 999974030 999966547 999986700 999981878 999949270 999991440 999956584 999996241 999988702 999987603 999956260 999954015 999947968 999985339 999974976 999994005 999960142 999990154 999947392 999966511 999989000 999992286 999998344 999954101 999982826 999959485 999945512 999949870 999962056 999985466 999947920 999994951 999955040 999964531 999995488 999951975 999962644 999986959 999994320 999947083 999979480 999965740 999998856 999991978 999971874 999966075 999983296 999961341 999949714 999982630 999957080 999957587 999991270 999947530 999943352 999951445 999999414 999948344 999992944 999974084 999941590 999996454 999960336 999990512 999979210 999941690 999946360 999994030 999949170 999958669 999993400 999962738 999992174 999972865 999954700 999977010 999981214 999978755 999956224 999953716 999972550 999967006 999979192 999965059 999962546 999967405 999945176 999979022 999951178 999956670 999993180 999968329 999968900 999944553 999993760 999965000 999964318 999956737 999974880 999954083 999984250 999969712 999956392 999969616 999989856 999962535 999937672 999952862 999971928 999936100 999974400 999945515 999947356 999936343 999981324 999967105 999995478 999974767 999952696 999973391 999986350 999992839 999985656 999962779 999998038 999939740 999990160 999963208 999969074 999984184 999973600 999992068 999978154 999967513 999965472 999996675 999951382 999996665 999979292 999936445 999962480 999945649 999958336 999934046 999942710 999998650 999939160 999940424 999959320 999977593 999934040 999977527 999972720 999958337 999957592 999989040 999997256 999940918 999969040 999969684 999987580 999994472 999992388 999989605 999947950 999954130 999997216 999989545 999955328 999995806 999948900 999957940 999962794 999969068 999985216 999993655 999962582 999948389 999995752 999992910 999990060 999998578 999981488 999965776 999962872 999968540 999931980 999999283 999999282 999960455 999971200 999965392 999940796 999989155 999999276 999930400 999986932 999944748 999938120 999991981 999945250 999945175 999956812 999951622 999930270 999976480 999970560 999987471 999979336 999934229 999965220 999959986 999961416 999939817 999968752 999991060 999967922 999991783 999976064 999991012 999945250 999984980 999968416 999946537 999983412 999938090 999940276 999990159 999978018 999968122 999955160 999946730 999937516 999932856 999931240 999974755 999986978 999985427 999944704 999924638 999997690 999936007 999930520 999973718 999960526 999933350 999975944 999932401 999955654 999993768 999989860 999945330 999995308 999962416 999954528 999964675 999981136 999929957 999955872 999995266 999998420 999939093 999935056 999988898 999948390 999999205 999932340 999956165 999994414 999972834 999924000 999955945 999995188 999971895 999938092 999963775 999950028 999925756 999936168 999965213 999995950 999980536 999979700 999963415 999964998 999933170 999971440 999987745 999993456 999918919 999920460 999972907 999997534 999986009 999932432 999932350 999941354 999928878 999948664 999944457 999975930 999986704 999947584 999989171 999954964 999958250 999918072 999990793 999985754 999958050 999958840 999948699 999986528 999995785 999941764 999930710 999972082 999935628 999989824 999928684 999994050 999975321 999980404 999955644 999945344 999917920 999931520 999981146 999951952 999934716 999997420 999990529 999976726 999932686 999970624 999989620 999966226 999985261 999927956 999992179 999967810 999921610 999933728 999986905 999997378 999944875 999930796 999971059 999928004 999954292 999994720 999998238 999930322 999998234 999926628 999919465 999953042 999945006 999935176 999989332 999912780 999953668 999993756 999998214 999978544 999918555 999971328 999957841 999997306 999943363 999989200 999988287 999911604 999987358 999909600 999985520 999940204 999919277 999947336 999953641 999958140 999922565 999958960 999922395 999981720 999957910 999919392 999995415 999922888 999964159 999980680 999929083 999940070 999970464 999955648 999954675 999955552 999918424 999912768 999952621 999980470 999910624 999996272 999940288 999999066 999952315 999960688 999927851 999998124 999962440 999954880 999933189 999989638 999954736 999996224 999925345 999988648 999907194 999928900 999952550 999922100 999927724 999968584 999954256 999977104 999951295 999945508 999960763 999955932 999995205 999907840 999912549 999944204 999981703 999929628 999926660 999933346 999953584 999973864 999949612 999946650 999936885 999978616 999993189 999925976 999967825 999969744 999938449 999947188 999927554 999957860 999937216 999995090 999973459 999964576 999945825 999958588 999955585 999950600 999952528 999944560 999960360 999966272 999931483 999976144 999953235 999914344 999914258 999992016 999935065 999972000 999993994 999901804 999987964 999956828 999981910 999935616 999935552 999958672 999968721 999990910 999972703 999923088 999959480 999931048 999905605 999984760 999937963 999949100 999997962 999990820 999959160 999916196 999897700 999990784 999907750 999904582 999906543 999942432 999938260 999980430 999899993 999987616 999902898 999995864 999986545 999990676 999976149 999996886 999971947 999978160 999969811 999916640 999924904 999958240 999973875 999907952 999996859 999973800 999932864 999996850 999972674 999986324 999918919 999955732 999907160 999987328 999985202 999936520 999965053 999913080 999966048 999904420 999930905 999910624 999995740 999971218 999939181 999904948 999899514 999970040 999904681 999973200 999901284 999902266 999939800 999901008 999949381 999909448 999966551 999947080 999993514 999974032 999991336 999995664 999932730 999995656 999921736 999944512 999991288 999958580 999961815 999914824 999922397 999944206 999998905 999951776 999992321 999919846 999943951 999958200 999947152 999958124 999907348 999908368 999910495 999965714 999923617 999963436 999916825 999908980 999950005 999937728 999998887 999948756 999959860 999930808 999899470 999959752 999958597 999910400 999975338 999916972 999922513 999966280 999905500 999889652 999913221 999901864 999977420 999940110 999992083 999918496 999947882 999990928 999922820 999968192 999976123 999972688 999920270 999930460 999898451 999901788 999959995 999973688 999963360 999918634 999966737 999918492 999990808 999991950 999930940 999898624 999915831 999903064 999952645 999932952 999947935 999971050 999916552 999988400 999996517 999967464 999946502 999890584 999934760 999991838 999996499 999939264 999960254 999911080 999955502 999892176 999985924 999936604 999896600 999907096 999907017 999991754 999969346 999983480 999903158 999913714 999968059 999983424 999986965 999946630 999985756 999947728 999960763 999902420 999955933 999916560 999928420 999948658 999903205 999979668 999944938 999989218 999882498 999938800 999893111 999888214 999915790 999937392 999993975 999992764 999966204 999984296 999918997 999985480 999956404 999978184 999889617 999959938 999956260 999889344 999978094 999924484 999924422 999921920 999936508 999984114 999915613 999984088 999886075 999952186 999948466 999902988 999902909 999990160 999945836 999911296 999885331 999911152 999961715 999980224 999904751 999894770 999900880 999962800 999982626 999988822 999927906 999889284 999953935 999956390 999927674 999980032 999957534 999932500 999899920 999911108 999987470 999974920 999904620 999956040 999964804 999959744 999937050 999948340 999886510 999914184 999939376 999917840 999982290 999991138 999888504 999956888 999984772 999968250 999902133 999952936 999901979 999885340 999978325 999881332 999996169 999964216 999901517 999892480 999956446 999932054 999938416 999984592 999994860 999965278 999958816 999947192 999925238 999909700 999919958 999900516 999968968 999890010 999979280 999987040 999970169 999913034 999994804 999876500 999954465 999911464 999914002 999947840 999909955 999905968 999920273 999998692 999907061 999921400 999879388 999952768 999879204 999902764 999869815 999893404 999996049 999943326 999974939 999918160 999887715 999933900 999895483 999919236 999972175 999872704 999972133 999926960 999948169 999890940 999870893 999874792 999953345 999893280 999923905 999933200 999930476 999975916 999994644 999973200 999918199 999954372 999977169 999932800 999932750 999903088 999876076 999919120 999875892 999944650 999985139 999987832 999924232 999876786 999937670 999960676 999976931 999972840 999887203 999906160 999896564 999871972 999997274 999903156 999892165 999963118 999991798 999919288 999973989 999983560 999914998 999880636 999960183 999935422 999967000 999995872 999892594 999973818 999892438 999964120 999968237 999973742 999914254 999962632 999905820 999975052 999979195 999956972 999952774 999927720 999987481 999952672 999862093 999887086 999942805 999864588 999932944 999903538 999900671 999876800 999974782 999934106 999994388 999976132 999859500 999983128 999997186 999894400 999926732 999913990 999881476 999867272 999991522 999865670 999881140 999888136 999878138 999984402 999910603 999903440 999890583 999907570 999876199 999971520 999992875 999942960 999947201 999914320 999887109 999932790 999888382 999934128 999862432 999882412 999975605 999896608 999863485 999918034 999964025 999886240 999988472 999886082 999949495 999872928 999904630 999984094 999930544 999884160 999881182 999886900 999902783 999885292 999877948 999976736 999981085 999863136 999899467 999967924 999922673 999954740 999945943 999975146 999872719 999904840 999951655 999879788 999895843 999916324 999922143 999983830 999938218 999913152 999921931 999907138 999994100 999893728 999893656 999861068 999992605 999946720 999988152 999962950 999973306 999900572 999882685 999893008 999962825 999875008 999895770 999885270 999877738 999938828 999971633 999856576 999959635 999932680 999877246 999911618 999955030 999896500 999993996 999933912 999921844 999981952 999855520 999990964 999933692 999849200 999933604 999888260 999944093 999862408 999934941 999989402 999889405 999865076 999987864 999965086 999960506 999857120 999902656 999975648 999952787 999899416 999896300 999914544 999940447 999931240 999886854 999949510 999984690 999888164 999932548 999937106 999963160 999978496 999966186 999883112 999939979 999967660 999910622 999964534 999938280 999933608 999932020 999927338 999975248 999978328 999953530 999936450 999924001 999877392 999970493 999864802 999947130 999947096 999852085 999981304 999918932 999917320 999862632 999881288 999903094 999957772 999945225 999929530 999924784 999913760 999876049 999844570 999916737 999880528 999943372 999867784 999894475 999894408 999865955 999856402 999992105 999881500 999878263 999944630 999938263 999852688 999942940 999960350 999900019 999884076 999858579 999961840 999934769 999871048 999995221 999869292 999987240 999923392 999936120 999888140 999952030 999867200 999903940 999911890 999924659 999956692 999974320 999998394 999918043 999927640 999921159 999974240 999903340 999943580 999870960 999853126 999941860 999898192 999924001 999877032 999881813 999970840 999985411 999914034 999913981 999913928 999866750 999887806 999847062 999884412 999853390 999991850 999887461 999838432 999846498 999852940 999960760 999995092 999852670 999914824 999913133 999968840 999968821 999963876 999944138 999852040 999963810 999902886 999901180 999886288 999846643 999836650 999960376 999872796 999900820 999928878 999885805 999978472 999872411 999995026 999868939 999975100 999865459 999898618 999936806 999905152 999933400 999978342 999988331 999859888 999836438 999834670 999839584 999946496 999958175 999867754 999892800 999904468 999882610 999850658 999911013 999845440 999957975 999904126 999893971 999898960 999924175 999900526 999956138 999843016 999913861 999964510 999949270 999972928 999974605 999952568 999915250 999852448 999882907 999949060 999896361 999904800 999921754 999933622 999873978 999914800 999853370 999899346 999863440 999964132 999902587 999873460 999991445 999830512 999938332 999850882 999909105 999831832 999936471 999984538 999926083 999920880 999963859 999879460 999829423 999887940 999834400 999982740 999913650 999863488 999844390 999866790 999925567 999916864 999935879 999856078 999932335 999838552 999850618 999993048 999904355 999993040 999987813 999860640 999979084 999963376 999977315 999994762 999877710 999982520 999973765 999972000 999963229 999978976 999989482 999952642 999875395 999866544 999908636 999992968 999929640 999912000 999908428 999855516 999922428 999865936 999929400 999858720 999962893 999870936 999856711 999895570 999900824 999994684 999936172 999975164 999959175 999950272 999827631 999832868 999962641 999900320 999919855 999903772 999953642 999919720 999833995 999980354 999967834 999826564 999966009 999953460 999933733 999980288 999996414 999894154 999883325 999906608 999935308 999881332 999865075 999985600 999891940 999846830 999852154 999998196 999882675 999823012 999929527 999853552 999884224 999900450 999824333 999914836 999862212 999996372 999865690 999921912 999945490 999923644 999859937 999943580 999949012 999989068 999939841 999978112 999906925 999846616 999950671 999930536 999961591 999835300 999976197 999888248 999890020 999911968 999844025 999818236 999950401 999863988 999946669 999937440 999931883 999874744 999859932 999885672 999977860 999872626 999900262 999927928 999994453 999961150 999937066 999925920 999981470 999879490 999883135 999936896 999896008 999962840 999990705 999895840 999931143 999892004 999934795 999858336 999945915 999860050 999988798 999930884 999813100 999876580 999928902 999908272 999953175 999902552 999928750 999990620 999823562 999823468 999857196 999889080 999834472 999981180 999838062 999870004 999896325 999917016 999913198 999867840 999994333 999869590 999977308 999818368 999916708 999829540 999810500 999954496 999874798 999888018 999901252 999868900 999872633 999942940 999942910 999881952 999899035 999811306 999864603 999927496 999822463 999889220 999910183 999929256 999912002 999867934 999848715 999927192 999873478 999980820 999965458 999928960 999953896 999852006 999976924 999942280 999998075 999843994 999924847 999967224 999965278 999992280 999878347 999980680 999998067 999854950 999996130 999947728 999833418 999982558 999926318 999895240 999930124 999821336 999992228 999813376 999821060 999846266 999840346 999910392 999986357 999844000 999925862 999982432 999935551 999839772 999806455 999855256 999814085 999933428 999902050 999862800 999939209 999941140 999807626 999856628 999882100 999874176 999948858 999842560 999812945 999812850 999842320 999915204 999921080 999911170 999966425 999841920 999960460 999930770 999906987 999996040 999974247 999900900 999956374 999988096 999837230 999940420 999823157 999908552 999834913 999906470 999834747 999880480 999966119 999962114 999896260 999890220 999958063 999856144 999808096 999944000 999931966 999975976 999981973 999829660 999961905 999811436 999997993 999983936 999873433 999839200 999806944 999967808 999806752 999848950 999931490 999889120 999901167 999987892 999923278 999848500 999917139 999967648 999813884 999951424 999939250 999890596 999839867 999890488 999807245 999967520 999979690 999937008 999995934 999863722 999912495 999867660 999983704 999991848 999938830 999932680 999912237 999930572 999953011 999993868 999826175 999973402 999842381 999870976 999895501 999963100 999930266 999805060 999897350 999891138 999862315 999985608 999985601 999831244 999983528 999909360 999989695 999993814 999958740 999917440 999882295 999911162 999816037 999813880 999842756 999848890 999801184 999890184 999850744 999875560 999937750 999902428 999929382 999993766 999941788 999935520 999870978 999906310 999981253 999795768 999966640 999887356 999916520 999991648 999885105 999987460 999811810 999933056 999976977 999807352 999958100 999870048 999958060 999974824 999895050 999844600 999924364 999989490 999989485 999861136 999970530 999993682 999835654 999801848 999791209 999879730 999877562 999841600 999928158 999824538 999818110 999809560 999870863 999832678 999925835 999910960 999790021 999959682 999957540 999949024 999842750 999812912 999972349 999789328 999833938 999846640 999927546 999901928 999818695 999976526 999901790 999961552 999970082 999995724 999922996 999786000 999790182 999787942 999877849 999920672 999944230 999948496 999815358 999823864 999933381 999791450 999793504 999817080 999913880 999872914 999948280 999872796 999842539 999892100 999976251 999982720 999930848 999991352 999807493 999872324 999915565 999898198 999934990 999817888 999919747 999832910 999863227 999921808 999791392 999882604 999828175 999788928 999930336 999915058 999997821 999910620 999893131 999821076 999796981 999849304 999855790 999820748 999912520 999964992 999914629 999787570 999859776 999793952 999892543 999923210 999934150 999927532 999890150 999828556 999982408 999934000 999808513 999962566 999982376 999892004 999874315 999838962 999889650 999980128 999971283 999933700 999980101 999884976 999869433 999805168 999858240 999873688 999842593 999784854 999904583 999786880 999844530 999917786 999782146 999819856 999848700 999786304 999971049 999873004 999906382 999921950 999933070 999823672 999939709 999814578 999959770 999832300 999874728 999879148 999890289 999849920 999843130 999952918 999811588 999930436 999941630 999788876 999970789 999775200 999982008 999979750 999862689 999988740 999921145 999927872 999812835 999916528 999993229 999945808 999927712 999893780 999871123 999954760 999990948 999941136 999997735 999864040 999863980 999827632 999988655 999834290 999811507 999781888 999920445 999997726 999772500 999908960 999979507 999865598 999804006 999890560 999892793 999915566 999926944 999817280 999782925 999830836 999821614 999807808 999913018 999935880 999977090 999823516 999798216 999908240 999876070 999853056 999818537 999873610 999790791 999917200 999832027 999820444 999944728 999993088 999960815 999861640 999949246 999838440 999808353 999870640 999865962 999789608 999789517 999851904 999775445 999930520 999863297 999925824 999895645 999948960 999772542 999890866 999879204 999925632 999932575 999946502 999832456 999920848 999792719 999825250 999990676 999829764 999976670 999848290 999792185 999803776 999815377 999950902 999978949 999861940 999948498 999800930 999812560 999828888 999964825 999892084 999868568 999910776 999929530 999929500 999952980 999927088 999941175 999790494 999978805 999922252 999776085 999886816 999851383 999933920 999884311 999820488 999777878 999983452 999848640 999914824 999794071 999895808 999824694 999883870 999852998 999836332 999805414 999774470 999969125 999831304 999945329 999890612 999816817 999928600 999995238 999883282 999816509 999806896 999821125 999804348 999916455 999990448 999966554 999897230 999784810 999992824 999763093 999897058 999901805 999868220 999901723 999880100 999882449 999906400 999853539 999803036 999875044 999985576 999968735 999961504 999857987 999759200 999826552 999821660 999840874 999905932 999893828 999804466 999765745 999792224 999787304 999879100 999835508 999818500 999794215 999762644 999789199 999840016 999847225 999946628 999842245 999934444 999815396 999866350 999817675 999982976 999863752 999909942 999863640 999795376 999892772 999978058 999763417 999765760 999995118 999816850 999777687 999858248 999899755 999818996 999887438 999921664 999818774 999813800 999796567 999762156 999874897 999958282 999916530 999948424 999864865 999795986 999963115 999771220 999810503 999911368 999958129 999923616 999820055 999975340 999958061 999782816 999841984 999869090 999799849 999990112 999752700 999945572 999821800 999831632 999779547 999970264 999779369 999796640 999771748 999754282 999855986 999893188 999840960 999898074 999987565 999783544 999855638 999877990 999865486 999952652 999778123 999783022 999830340 999985024 999980024 999750200 999752599 999890000 999839936 999982486 999814778 999864784 999799600 999854652 999937325 999892156 999894622 999944780 999904582 999949760 999811525 999834076 999816405 999911940 999755851 999947122 999977329 999858880 999984874 999831026 999765361 999765268 999967175 999878752 999951987 999886240 999848260 999764710 999817768 999987340 999913878 999982262 999903670 999911240 999781818 999794422 999989844 999873000 999964426 999776304 999956769 999923680 999961825 999821780 999847180 999867504 999806276 999966850 999887756 999826464 999959152 999931042 999938680 999979552 999959088 999803034 999769690 999767040 999861706 999756610 999748826 999743600 999758890 999892228 999876784 999843352 999938344 999827810 999776323 999868828 999935675 999930502 999819750 999992272 999958768 999814384 999871050 999754900 999852883 999919958 999741700 999829456 999767350 999945694 999811149 999927536 999873139 999774670 999930043 999779680 999847013 999929962 999852085 999919524 999771464 999802552 999818070 999963600 999890758 999960970 999893277 999765640 999893195 999960910 999846187 999976528 999947820 999759880 999892949 999796264 999783121 999754284 999803875 999798568 999942426 999819358 999879526 999876860 999908265 999766642 999782291 999808448 999942250 999976366 999897547 999826552 999897469 999800120 999886867 999913144 999760397 999831424 999928855 999913012 999757396 999817978 999920830 999807280 999836258 999978864 999989428 999857224 999960325 999907390 999817357 999870248 999891391 999992050 999925772 999878008 999880615 999885878 999962830 999861888 999851208 999853810 999949479 999829760 999824374 999997338 999941414 999749584 999858755 999845372 999778639 999810572 999973310 999863830 999978632 999901136 999778141 999965238 999732500 999884932 999890243 999785760 999914272 999949080 999868631 999796168 999782677 999873852 999906025 999795864 999903268 999814528 999841349 999741760 999905815 999981156 999951526 999938038 999840995 999846328 999921787 999762576 999792177 999792100 999827136 999894622 999781057 999818832 999832290 999929644 999997293 999794192 999997291 999962060 999962046 999796600 999937601 999875156 999826240 999842472 999779923 999915742 999934744 999902080 999798646 999972780 999803944 999863800 999806525 999986370 999735481 999751752 999882653 999896260 999907146 999896184 999849685 999953522 999822225 999830368 999863150 999931550 999750751 999778060 999876655 999947902 999807990 999956096 999747460 999785812 999884626 999906568 999835060 999895500 999906466 999733056 999994494 999854038 999741030 999873224 999964159 999920018 999919989 999746080 999801208 999864662 999933688 999894968 999914285 999889360 999911456 999806240 999822784 999922440 999728442 999886348 999803117 999733696 999950050 999888960 999805610 999722200 999933304 999980540 999930475 999744056 999997217 999782848 999913665 999802194 999841141 999838296 999810348 999882820 999793466 999832480 999723493 999946914 999991615 999804280 999804210 999759372 999876844 999798400 999851547 999845890 999980379 999913076 999977560 999904596 999744563 999766936 999988764 999955040 999895993 999974692 999876228 999912766 999743835 999794432 999890137 999839374 999782937 999796960 999971790 999796816 999870142 999819264 999805075 999957610 999881266 999728512 999850063 999915100 999872605 999798928 999895179 999931984 999892270 999872380 999917727 999957430 999753007 999860840 999965908 999769798 999778246 999951652 999792315 999846316 999863344 999937344 999732194 999837550 999714900 999731912 999768907 999723162 999954320 999734392 999822866 999714200 999817024 999937080 999994278 999773902 999979959 999979952 999727825 999888226 999787842 999954112 999959834 999727350 999965548 999876504 999873588 999807442 999830375 999726780 999758332 999715078 999824381 999717760 999942380 999809788 999726115 999809656 999887485 999809524 999849876 999971120 999904663 999711000 999893033 999881428 999797490 999759798 999907360 999875472 999718991 999846406 999843454 999965200 999799831 999793958 999883880 999962248 999962235 999845982 999709300 999883680 999991273 999802120 999871916 999965056 999976696 999717342 999801780 999854200 999894988 999906624 999789832 999962040 999897765 999900652 999909387 999894736 999763075 999877108 999730716 999973648 999912130 999979490 999885691 999747848 999973603 999906112 999900210 999750440 999765040 999797278 999817782 999867700 999776484 999770524 999755731 999735040 999970550 999820294 999714141 999716992 999708049 999707950 999755067 999979336 999704700 999760726 999793150 999982264 999710214 999982252 999772157 999810560 999917092 999774888 999727404 999881440 999836925 999988136 999830881 999869408 999798108 999756460 999795001 999705772 999833512 999797768 999916700 999946432 999949391 999752826 999716995 999901660 999782387 999883702 999856816 999719504 999889555 999988056 999728183 999841636 999973099 999721930 999874378 999736704 999982042 999721558 999793345 999769308 999724276 999739174 999850050 999874000 999699900 999792862 999711712 999870828 999705510 999978958 999951888 999957888 999873622 999723080 999879560 999722896 999915636 999981916 999981910 999776816 999837082 999960766 999719233 999864100 999851971 999737086 999776298 999773200 999818500 999833570 999872866 999833460 999760709 999918190 999715086 999860528 999939340 999799756 999763270 999723724 999744892 999829872 999808543 999735520 999768884 999860068 999930011 999948252 999795985 999875114 999945154 999765304 999957314 999902400 999701002 999697852 999838191 999890056 999926680 999706624 999779896 999923550 999914348 999816400 999745937 999963256 999761086 999776328 999963220 999957076 999837449 999855804 999944758 999766680 999920154 999855616 999781817 999867818 999981550 999701628 999898459 999793774 999802944 999732040 999756601 999713374 999870514 999734776 999753200 999901248 999737605 999854864 999771414 999901120 999839268 999962896 999870094 999879334 999777160 999857584 999910187 999860590 999838852 999826400 999817041 999823186 999730039 999956544 999965845 999956516 999928539 999916084 999804133 999866270 999996889 999853736 999903497 999722854 999781950 999781880 999772459 999962584
