-999776882
7108
1000000000 999999915 999999832 999999826 999999732 999999655 999999694 999999482 999999560 999999181 999999970 999999879 999999448 999999870 999999818 999999385 999998944 999999881 999998830 999998879 999998840 999998446 999997844 999998643 999999304 999999825 999999402 999998839 999998656 999999768 999998530 999998884 999998496 999998614 999999694 999996885 999999424 999998002 999998404 999999337 999997320 999998442 999995968 999997592 999996788 999996805 999999034 999999342 999997264 999995590 999996650 999998317 999999688 999997191 999996112 999995380 999995016 999996580 999994780 999995516 999994000 999996645 999995722 999994960 999998656 999995190 999999868 999994573 999998300 999997378 999999440 999996805 999994240 999996642 999995042 999994750 999996580 999997382 999994540 999998499 999992080 999999919 999996146 999998340 999996304 999993115 999997592 999997738 999992696 999992524 999994240 999992629 999993928 999999814 999993326 999998670 999997312 999997284 999993924 999995248 999996300 999993435 999990718 999998970 999999896 999993070 999997668 999997646 999994816 999994332 999997800 999998224 999995296 999998192 999989398 999989420 999995476 999996022 999992212 999999048 999990400 999996128 999996218 999995449 999991072 999999000 999998740 999988062 999999744 999989164 999997530 999994629 999998284 999998803 999999732 999993250 999989392 999988218 999995032 999993328 999993980 999993796 999999574 999986272 999994960 999990865 999997372 999986917 999986088 999991954 999989650 999989128 999997416 999989902 999998614 999999380 999997036 999998273 999986412 999994276 999993600 999985188 999984124 999998859 999984748 999993235 999985226 999999833 999987232 999990874 999990990 999995383 999997420 999988409 999984340 999982850 999998064 999984424 999992168 999982279 999996400 999993665 999995632 999981700 999983992 999998150 999999256 999983170 999997368 999984691 999988600 999992169 999982144 999990736 999986808 999987325 999985300 999983058 999993466 999983682 999985000 999993367 999987072 999989038 999993676 999987700 999997940 999989029 999995424 999998119 999993490 999997046 999982828 999995314 999980740 999987530 999994600 999986112 999985394 999985546 999981520 999981436 999996448 999994202 999985216 999978625 999997288 999988423 999983128 999991527 999991260 999997690 999996984 999996738 999986896 999977910 999984188 999983647 999986910 999993786 999982720 999980479 999998064 999994897 999982188 999977950 999994342 999998518 999982888 999995269 999978500 999995984 999991936 999987856 999994412 999998470 999981312 999988692 999988390 999996115 999996620 999998956 999982446 999980801 999986536 999990195 999979252 999997330 999980436 999986819 999990820 999991870 999999728 999980344 999972600 999982950 999983716 999978394 999999444 999996094 999999440 999975553 999972082 999984152 999996592 999991165 999993994 999984215 999998272 999995376 999978250 999986614 999974304 999982127 999996178 999988495 999978688 999977725 999989868 999974884 999993400 999974114 999997584 999974548 999991792 999998475 999990514 999992939 999974436 999991966 999972410 999979163 999972544 999996870 999997488 999987400 999978828 999990173 999995866 999968738 999990720 999977530 999990340 999967700 999981532 999993500 999988916 999993460 999978680 999982892 999990760 999977823 999997344 999989344 999971944 999967505 999994960 999987868 999973974 999977287 999983340 999998977 999967510 999984908 999972136 999972745 999978548 999973281 999965548 999977315 999972350 999979993 999968320 999994705 999971680 999980475 999983624 999987862 999980668 999984563 999994960 999979062 999984072 999989473 999982892 999963865 999989752 999989724 999991904 999976015 999964480 999997032 999991816 999982842 999998130 999974500 999999624 999994722 999987904 999993557 999984800 999986284 999998090 999990042 999976576 999969970 999974524 999993034 999979048 999967713 999972700 999993353 999995688 999965023 999965328 999980645 999964360 999985708 999960598 999964489 999976400 999971930 999973468 999963730 999966468 999970030 999983760 999967033 999977560 999961145 999977040 999967120 999987640 999978937 999963568 999966800 999972128 999999166 999985788 999976117 999960100 999973898 999985230 999967429 999966504 999974925 999996592 999975661 999987588 999966967 999992690 999986208 999976240 999964927 999991320 999969115 999989100 999983831 999970216 999960490 999985480 999974422 999966408 999990254 999971584 999999555 999983498 999987931 999974016 999987428 999964900 999966175 999991864 999974179 999964588 999999090 999992248 999983548 999997710 999993115 999954920 999965425 999979210 999996296 999985152 999985585 999993010 999957036 999967708 999981709 999988720 999997174 999983952 999972093 999999526 999992875 999994764 999980443 999985660 999985151 999991360 999990380 999975900 999967156 999987900 999984480 999976672 999978572 999984384 999992176 999954920 999994108 999988684 999980280 999966902 999972775 999984624 999953779 999984562 999994511 999979000 999980962 999964358 999971832 999974296 999976265 999986338 999979213 999987808 999988293 999996940 999990291 999971328 999970759 999982010 999990730 999998968 999978286 999994820 999996367 999984400 999948942 999974944 999999477 999987948 999981100 999994214 999948354 999948784 999986775 999998410 999962299 999953184 999953629 999971698 999958805 999990888 999965632 999969872 999977362 999971920 999985393 999990244 999978823 999983136 999975475 999987442 999979761 999949584 999972001 999984050 999993388 999982888 999975115 999955126 999946165 999972200 999952655 999967078 999951926 999954080 999982048 999965156 999962842 999998308 999980225 999945098 999971650 999986368 999947652 999981190 999985154 999983984 999974215 999948340 999975275 999991936 999988460 999997110 999963523 999984340 999983151 999969736 999949862 999987152 999981865 999953706 999975346 999968836 999948757 999993510 999975178 999975136 999973908 999983962 999949425 999960068 999980896 999949768 999980233 999942400 999954324 999983746 999992161 999983088 999985480 999955762 999969650 999952576 999953716 999982310 999965784 999938800 999995096 999948424 999994465 999956880 999999383 999974662 999952956 999977060 999987580 999947752 999997508 999953200 999940000 999953676 999976801 999985556 999960373 999972910 999955830 999938696 999949360 999952450 999942850 999943396 999938848 999997448 999977635 999980160 999954489 999958270 999971708 999976816 999958720 999990310 999978649 999950104 999971444 999994800 999942712 999953056 999959514 999998038 999980350 999992128 999975034 999985524 999980889 999993400 999942493 999976830 999981436 999997344 999954780 999942724 999982658 999951904 999949156 999997990 999991948 999956320 999991251 999952146 999982450 999943892 999973597 999951862 999966729 999957160 999968674 999972038 999969948 999932968 999958215 999954038 999997939 999999312 999982775 999999310 999984798 999961940 999975052 999970158 999974285 999984688 999995121 999948348 999974137 999964300 999955837 999971218 999981722 999940160 999958405 999935048 999984446 999982300 999934063 999930420 999950230 999965824 999940821 999953590 999971400 999953460 999931885 999953330 999959017 999962560 999973323 999994946 999968188 999952216 999994925 999928126 999966558 999984712 999998542 999964230 999977339 999982432 999974345 999997064 999927970 999957312 999929985 999980074 999962311 999960040 999988885 999990354 999962850 999950152 999988080 999946288 999949204 999995512 999932590 999941500 999934663 999951872 999958585 999942696 999924500 999985636 999950795 999994694 999978748 999965040 999967277 999996952 999950405 999970968 999939565 999933358 999998466 999958528 999953860 999993070 999966076 999962172 999949755 999929566 999931800 999929384 999937063 999947096 999972735 999992980 999929710 999955426 999964765 999967072 999937200 999981136 999961437 999977148 999934513 999936800 999965196 999952480 999929423 999922982 999935605 999993632 999973699 999996010 999981623 999928000 999923104 999996792 999937366 999971860 999954115 999962924 999933019 999930512 999988674 999926290 999953773 999978076 999986992 999992674 999965770 999992656 999985294 999975460 999994267 999997540 999933499 999966298 999990124 999925840 999965350 999934746 999961131 999962740 999961037 999980910 999978394 999986688 999956684 999943288 999973280 999964888 999973216 999943016 999979025 999979000 999988226 999990738 999982297 999989028 999964510 999999154 999945792 999936400 999926986 999978750 999964258 999987220 999958203 999916308 999994015 999948640 999992287 999993136 999932139 999930340 999927676 999965520 999980151 999960256 999974915 999922926 999965320 999939240 999999131 999973030 999967773 999951168 999930160 999916970 999979875 999978100 999959658 999925370 999934075 999987680 999974451 999984124 999962031 999950496 999973450 999980508 999971616 999928072 999956439 999937700 999911791 999966996 999949992 999967816 999956145 999930112 999998206 999937140 999942464 999921700 999918910 999954900 999924148 999939432 999914930 999940204 999921998 999962772 999978184 999992720 999914366 999989968 999984479 999968010 999985360 999995420 999993581 999975214 999939346 999914440 999977896 999912410 999949235 999959344 999997225 999949996 999916570 999957312 999971201 999938620 999998138 999938488 999946819 999917808 999980365 999912952 999926914 999958728 999928636 999956760 999946363 999967972 999935876 999942416 999906445 999985810 999911929 999906148 999925978 999995250 999977176 999967632 999918995 999965656 999922645 999980880 999904300 999946352 999978902 999938560 999922159 999924002 999958591 999913240 999904465 999969088 999949716 999984512 999928294 999938890 999953392 999942652 999932863 999922080 999989275 999915088 999954081 999915892 999947134 999914740 999933292 999986252 999966578 999938008 999917260 999935910 999974338 999939732 999955495 999935650 999935585 999911712 999991063 999902588 999954230 999951196 999910270 999957086 999967033 999906000 999945946 999956914 999920763 999962852 999964825 999919520 999982881 999931456 999963676 999950510 999973714 999970652 999914908 999988846 999949250 999956312 999918640 999978622 999913385 999957160 999986727 999955032 999918160 999964160 999977450 999998974 999988703 999970188 999928999 999989700 999924737 999977296 999928723 999920382 999959635 999931624 999944002 999940834 999917919 999927200 999959401 999899968 999915517 999941536 999959245 999952930 999961261 999927688 999989510 999989500 999903308 999994740 999936820 999935706 999931425 999949312 999976746 999896316 999953404 999990460 999961804 999967078 999967047 999947864 999994675 999947766 999935980 999913492 999941205 999982880 999904681 999902448 999983905 999942004 999933350 999978480 999952612 999927774 999938497 999913600 999939464 999977278 999957763 999937128 999943580 999941356 999939128 999895552 999915058 999944410 999995636 999904996 999968303 999919044 999923350 999932048 999955023 999906670 999908783 999998900 999902011 999982368 999963601 999909472 999902760 999995576 999893728 999967868 999939005 999920080 999985557 999939952 999949915 999900854 999898535 999895096 999910640 999894908 999926146 999965280 999901352 999947266 999931497 999961784 999939250 999925684 999969571 999937960 999984194 999920900 999986428 999915100 999936552 999941032 999975030 999973872 999948835 999900994 999944189 999976060 999979462 999915492 999927991 999959960 999892370 999959890 999930033 999916196 999990808 999990800 999932091 999940096 999927361 999997692 999923770 999923704 999905126 999991894 999907280 999954760 999973297 999987218 999975577 999970900 999906800 999955692 999887968 999974304 999966099 999929800 999930911 999887488 999974194 999890818 999911875 999888280 999982345 999898692 999892711 999997640 999998819 999982270 999907726 999957376 999951415 999928840 999891983 999913276 999940550 999982150 999970225 999948744 999951087 999885376 999962955 999984452 999980848 999978436 999972423 999988000 999909925 999912254 999984361 999898864 999943365 999981910 999904647 999922688 999917788 999961280 999991523 999909100 999998787 999949012 999979345 999886912 999913593 999959806 999964649 999886540 999958486 999954786 999886261 999877600 999947325 999887208 999943558 999917724 999889390 999980320 999998769 999914992 999885331 999916088 999965420 999883816 999943098 999965336 999998761 999877240 999954083 999880768 999956495 999904212 999980080 999968850 999983789 999970048 999897582 999963750 999901171 999929888 999994988 999885886 999946035 999979904 999881842 999910682 999913129 999952120 999954604 999954568 999926746 999949440 999967110 999970882 999980995 999946744 999956854 999984760 999907217 999982192 999966902 999955410 999886525 999873676 999900394 999913096 999985931 999883520 999988471 999875646 999898643 999943504 999925470 999958848 999935650 999918856 999958752 999978070 999952233 999947028 999915955 999913302 999944315 999915760 999936447 999885776 999916864 999871300 999958368 999949222 999919214 999877424 999889075 999983022 999888905 999933292 999950258 999912230 999912163 999943584 999977679 999896194 999902690 999985524 999935467 999881380 999973620 999994720 999915456 999965628 999952372 999949688 999996025 999970828 999948247 999977424 999918931 999945470 999928126 999886780 999980005 999943972 999878515 999922512 999921117 999995986 999939745 999949080 999896743 999895324 999951652 999895168 999874915 999878860 999892240 999925860 999908268 999935200 999908132 999951328 999932350 999874078 999943090 999953896 999998643 999899508 999971461 999877600 999985029 999895126 999863700 999931800 999990445 999957654 999952155 999932968 999995893 999971230 999872497 999986280 999956064 999975268 999983500 999895424 999995869 999968306 999881406 999964120 999995857 999925372 999962659 999904504 999950140 999940402 999994452 999983344 999981943 999968030 999938796 999994432 999945673 999874540 999944200 999870172 999976251 999980428 999990207 999913200 999904732 999883634 999890566 999939628 999953635 999908610 999863521 999892992 999943640 999888610 999882887 999985880 999933589 999949096 999926420 999960352 999956073 999930518 999879385 999933260 999910477 999862066 999880468 999880384 999997150 999918718 999920088 999948592 999988568 999902760 999915571 999952744 999939814 999936904 999899550 999873632 999992815 999953984 999951074 999981280 999874633 999864452 999906205 999893144 999914745 999878536 999878452 999866784 999886978 999881100 999869410 999859156 999893931 999988368 999949075 999954864 999919865 999862948 999883280 999893420 999943021 999925438 999913683 999994144 999900380 999936962 999997066 999926600 999873666 999910330 999924979 999944064 999932242 999917456 999855450 999870112 999893656 999864024 999906823 999936360 999900773 999967396 999851700 999933220 999997030 999860316 999944981 999943456 999865990 999912090 999995527 999910480 999959689 999952192 999899835 999854888 999989521 999922104 999952032 999911500 999945964 999953438 999864730 999926304 999965385 999891568 999889989 999948728 999993964 999944130 999870054 999931960 999972766 999884936 999916675 999945424 999898361 999927136 999943797 999922480 999913303 999974126 999916235 999951232 999890200 999951168 999873259 999908320 999883796 999928090 999854555 999897356 999874294 999941708 999992325 999967744 999984630 999961550 999919972 999921460 999946065 999862762 999976855 999936696 999955195 999867044 999987624 999928792 999914805 999950400 999910042 999897568 999855571 999877234 999908255 999985996 999850528 999904962 999850336 999907960 999843900 999962512 999904657 999928056 999846630 999959284 999946722 999943552 999871342 999998430 999974864 999856948 999943372 999848896 999937000 999878648 999903803 999949504 999976315 999854640 999946246 999914572 999920850 999995248 999887465 999944490 999985717 999966652 999985699 999965020 999971362 999880600 999961768 999880450 999915465 999969676 999974448 999886542 999868882 999884800 999950369 999859024 999945498 999898948 999887650 999858672 999961432 999879400 999916332 999925940 999921061 999875876 999843539 999872494 999938630 999862640 999859321 999883504 999860766 999870400 999982169 999837800 999952933 999873328 999920375 999874798 999915396 999965812 999926695 999841890 999933129 999903712 999864461 999985294 999900265 999841308 999983630 999873874 999891826 999863880 999995077 999911332 999958925 999893140 999950650 999937452 999838594 999853328 999995053 999976900 999902591 999942180 999981817 999968574 999925525 999981784 999935377 999956892 999844054 999875500 999961797 999845434 999851993 999846912 999938395 999943356 999939988 999951628 999953268 999839680 999888043 999869584 999931407 999881146 999872700 999969832 999839008 999949660 999869038 999837040 999937803 999878896 999840115 999877068 999929230 999893782 999917337 999880152 999851368 999964510 999961107 999883252 999851016 999866174 999996610 999832096 999877816 999870952 999950729 999899700 999959176 999858734 999853542 999931840 999887470 999892522 999866854 999972672 999885497 999933310 999957225 999866464 999916063 999981146 999893670 999921064 999919301 999835072 999896860 999901960 999874367 999939730 999836315 999886216 999931000 999837756 999860113 999911872 999936027 999918690 999866713 999935916 999899486 999908098 999949685 999934032 999904465 999899196 999907833 999940840 999843310 999940772 999864046 999860480 999979060 999912700 999867228 999947560 999973765 999989500 999835406 999924664 999868525 999871958 999856090 999892884 999901608 999982420 999887424 999829280 999970063 999952426 999908324 999902980 999950580 999987638 999946990 999996464 999830176 999904420 999851236 999945068 999946810 999955650 999842025 999959152 999834739 999838202 999960862 999992880 999873549 999939412 999944727 999903664 999991075 999848190 999907076 999940996 999937385 999853220 999969553 999862016 999921108 999939004 999965895 999892240 999947887 999821998 999980211 999859600 999890139 999958554 999834124 999985568 999974730 999882610 999967474 999987344 999849853 999942080 999838821 999882220 999951049 999869392 999822130 999949152 999943673 999845470 999958163 999868960 999919876 999914366 999925257 999972640 999941600 999861224 999974422 999967096 999908550 999888370 999864506 999926720 999829531 999977992 999893570 999928396 999950401 999937508 999838168 999860160 999889540 999887638 999874676 999933616 999955720 999815400 999881792 999975976 999987057 999822400 999918556 999935180 999909203 999988876 999953625 999849664 999990715 999897810 999838267 999946060 999858564 999936692 999972055 999975768 999897425 999882442 999884246 999844956 999861694 999869100 999928902 999915760 999880128 999983134 999895000 999975612 999958706 999943660 999977452 999842080 999917236 999832502 999902084 999954784 999932140 999845348 999913198 999898048 999943330 999918730 999990545 999911076 999911029 999863632 999956415 999835048 999886180 999848160 999899353 999815700 999823207 999969568 999870596 999815312 999893320 999876110 999929441 999958024 999847280 999826190 999868141 999973232 999919654 999955978 999869780 999814148 999917569 999984656 999842642 999998080 999934686 999928886 999919234 999986532 999976900 999824734 999861256 999816840 999965278 999974910 999918898 999826120 999851159 999955518 999827785 999951600 999903150 999831394 999984488 999835100 999815605 999862118 999916451 999970840 999828840 999834590 999873445 999812992 999873315 999814750 999939519 999896544 999908209 999869082 999894430 999837652 999970645 999845318 999933394 999917680 999923521 999811648 999927369 999952864 999927295 999876142 999870178 999978352 999803100 999925140 999954667 999903372 999824403 999903274 999964450 999899224 999893242 999847694 999974273 999855460 999859349 999964324 999859207 999948416 999849140 999896728 999948338 999890660 999930385 999844780 999860630 999808768 999830595 999808576 999806485 999950100 999848228 999814186 999820090 999856000 999819910 999853854 999853781 999851704 999923810 999911736 999931762 999921688 999867406 999967840 999833087 999879280 999921493 999820754 999995970 999993952 999919320 999852686 999915202 999953540 999898950 999989890 999993931 999987856 999850150 999809556 999961487 999809368 999922898 999965490 999859861 999965456 999971538 999914572 999957265 999965388 999883891 999898100 999981649 999804160 999997959 999897900 999989785 999858964 999838445 999938620 999842381 999875072 999983608 999836000 999874889 999924076 999973311 999993838 999915745 999794400 999973259 999925912 999917640 999932020 999967024 999956698 999865905 999882352 999843060 999898766 999894583 999844900 999861377 999975160 999844675 999821808 999958540 999827858 999852675 999867136 999877457 999856618 999916840 999945920 999810629 999856342 999818779 999974992 999902005 999910302 999977043 999801640 999834969 999870420 999805537 999841008 999840932 999970684 999987430 999884720 999811270 999827964 999901347 999979000 999899152 999920124 999953734 999800120 999938955 999901018 999823012 999993676 999797536 999791110 999993667 999890176 999849977 999862590 999974620 999839184 999972479 999898336 999847432 999798600 999974548 999896022 999925695 999921412 999825750 999972362 999870253 999948928 999893550 999904150 999897712 999867816 999859222 999844218 999895385 999829120 999839725 999937998 999856687 999798840 999798746 999907894 999903565 999802752 999811240 999871240 999838975 999899044 999858166 999832300 999922564 999821384 999868667 999821218 999948280 999823208 999933133 999876994 999840234 999846640 999894111 999913520 999924295 999902620 999893915 999948016 999928489 999969648 999826480 999824230 999967435 999865336 999817468 999865212 999973900 999930368 999936867 999836650 999854007 999960760 999967285 999838532 999923595 999842752 999914785 999951908 999814105 999873096 999855526 999997810 999818147 999995616 999828946 999850808 999839765 999989020 999973636 999837348 999784498 999881200 999988995 999936142 999845790 999821476 999949285 999876464 999852131 999849856 999832116 999807730 999873973 999794284 999909267 999807382 999831660 999853744 999787168 999780418 999798071 999984460 999926707 999997778 999777700 999997776 999955500 999795208 999944325 999962124 999843970 999877350 999897374 999841528 999859321 999836918 999812260 999883728 999890387 999903766 999912679 999959680 999852094 999798220 999775700 999793552 999939385 999898930 999959554 999856128 999793092 999822250 999783904 999927936 999837784 999860252 999905290 999774400 999817183 999920970 999862201 999805640 999990956 999957022 999975107 999966040 999968290 999825518 999775567 999848044 999818480 999993190 999938683 999781888 999949994 999843094 999968150 999881648 999813286 999820038 999947583 999835840 999835768 999990872 999972604 999819564 999844620 999972568 999860493 999922208 999798568 999775580 999958762 999869356 999993121 999990824 999832465 999997704 999937981 999983914 999894246 999774600 999981592 999785914 999772003 999829504 999836345 999875476 999916948 999803820 999831443 999960730 999974579 999872840 999902854 999949092 999946755 999807772 999803055 999972184 999904921 999890960 999923407 999988390 999937279 999962816 999862825 999834854 999860380 999864976 999920814 999848550 999981352 999906720 999885683 999985996 999971980 999827136 999936901 999796594 999971932 999992980 999995318 999981264 999789130 999927336 999981240 999875662 999950713 999964780 999793288 999802600 999828377 999957664 999971764 999915256 999924640 999842148 999797298 999867952 999808921 999955160 999848896 999955122 999860583 999881800 999943240 999891164 999841411 999947904 999848384 999819880 999852998 999924096 999971524 999905040 999938250 999869320 999966722 999778846 999895324 999866720 999957142 999911866 999980936 999837888 999949915 999980912 999966582 999799408 999775434 999921130 999858931 999988040 999930603 999983242 999772475 999904160 999769888 999971224 999904040 999952000 999759900 999985588 999807760 999759600 999918230 999761806 999800219 999843480 999768736 999848170 999758900 999896284 999867285 999843090 999985510 999859872 999949243 999987910 999772614 999905620 999927370 999774754 999893388 999970912 999815700 999776808 999910201 999798476 999934417 999873640 999871157 999900288 999836989 999829620 999961040 999841660 999997563 999926860 999775612 999902400 999834012 999868132 999831433 999792260 999792175 999921728 999875203 999919216 999826121 999980400 999933823 999916632 999965658 999919018 999997545 999921408 999788698 999877100 999842624 999805660 999926170 999812888 999960592 999970432 999980280 999938350 999810041 999834644 999901240 999940720 999757842 999883816 999893661 999987630 999814375 999888580 999784501 999886012 999801680 999935520 999826330 999759246 999955306 999875800 999893145 999942822 999813475 999795984 999910396 999810760 999920288 999977572 999845434 999812950 999782935 999972544 999787755 999965028 999990004 999875000 999762405 999777322 999857329 999792168 999867235 999967422 999837045 999944824 999942293 999909640 999799120 999794016 999994974 999909496 999761075 999776076 999786055 999977338 999748100 999818560 999906723 999836070 999793114 999813224 999772750 999881278 999795313 999891296 999989884 999772300 999908884 999878464 999931609 999941718 999977185 999779368 999819873 999964468 999784185 999977140 999824671 999936450 999964398 999989824 999977095 999837056 999808975 999765584 999783335 999992350 999959184 999971928 999803419 999805896 999910575 999859420 999966759 999746758 999864373 999994880 999912926 999987190 999792397 999900004 999769150 999838342 999887052 999874168 999784204 999861220 999902302 999889404 999987135 999776062 999930475 999912416 999837649 999829852 999762732 999778120 999814168 999935450 999770113 999863048 999894015 999961210 999880998 999860248 999950809 999797980 999849722 999935200 999987035 999808044 999940315 999748188 999919493 999885688 999922030 999740000 999890758 999817860 999825599 999880216 999890590 999882730 999893113 999757456 999846069 999835570 999971279 999921640 999817090 999754284 999803875 999905824 999777555 999994764 999748576 999858520 999947580 999826948 999847866 999876672 999931750 999936976 999826618 999918532 999871179 999850090 999757948 999781544 999749865 999984196 999812915 999870836 999984178 999873376 999941942 999778240 999735900 999738442 999939211 999920680 999738145 999833302 999790887 999965576 999957616 999830400 999854195 999992044 999976123 999989384 999880525 999941568 999933575 999747490 999978728 999880300 999832357 999747110 999778971 999968032 999978680 999861368 999943993 999877272 999749114 999983980 999770294 999831664 999751411 999994652 999922425 999796624 999780486 999823252 999860692 999758800 999949061 999962452 999793409 999871168 999857695 999766318 999846841 999852160 999811770 999981170 999905815 999843864 999833034 999970366 999894895 999927208 999751876 999743690 999851555 999951400 999945980 999916238 999889177 999832352 999813355 999951292 999972930 999948548 999975619 999777780 999886138 999856264 999807377 999744884 999837100 999755560 999866867 999956512 999940182 999828640 999785041 999738688 999823005 999964588 999901900 999792824 999910009 999765392 999787138 999817090 999923532 999825152 999972670 999756674 999950770 999997264 999898731 999906908 999758968 999909580 999983554 999989032 999986285 999873776 999868240 999807780 999881879 999815884 999895538 999906500 999823936 999760576 999741218 999820990 999980715 999807080 999903505 999732474 999942061 999911680 999997239 999834280 999975133 999881148 999955760 999831274 999977864 999894816 999739714 999941830 999839282 999850312 999786479 999908458 999864025 999972240 999941683 999766648 999852713 999877680 999794206 999991654 999952689 999721600 999779985 999913634 999899668 999902420 999740623 999986050 999980463 999731968 999966484 999843536 999890995 999821056 999728691 999949636 999874045 999874000 999957985 999801058 999865456 999957940 999991585 999898984 999772633 999811864 999817415 999783630 999884749 999974692 999876228 999859300 999833915 999791616 999983098 999974638 999819584 999746200 999816635 999762952 999909664 999810792 999920900 999974566 999790802 999872740 999878353 999719830 999872605 999730960 999929175 999886640 999934795 999994328 999727648 999727552 999823982 999858000 999957385 999911898 999815205 999820828 999761020 999957310 999837721 999945888 999903134 999800500 999826089 999786100 999937234 999871570 999877235 999957160 999931432 999757070 999854191 999782640 999911309 999997138 999785275 999977088 999742150 999721998 999931192 999833656 999994262 999933990 999919612 999787472 999893699 999770080 999951125 999991372 999882043 999850344 999910751 999907840 999968309 999763676 999821254 999812540 999968265 999904762 999849876 999812280 999843994 999852610 999739810 999916132 999759881 999956590 999774190 999840720 999724785 999875386 999950717 999797000 999892663 999973882 999817111 999941920 999741455 999857606 999956395 999735372 999793461 999761380 999796230 999860224 999810655 999828074 999801780 999766720 999711217 999760724 999804427 999880280 999745873 999967858 999772006 999923976 999812800 999859552 999976584 999727696 999929704 999991210 999730348 999803556 999920809 999774082 999885535 999841456 999955945 999767898 999970610 999982360 999938239 999988232 999791047 999720320 999920485 999893944 999932219 999852600 999708049 999932150 999881960 999784504 999778525 999805036 999985225 999899496 999837365 999920134 999792870 999804640 999804574 999866710 999943703 999718420 999786520 999724162 999741871 999723976 999741697 999780220 999821740 999830596 999940540 999964312 999782825 999934528 999869012 999827276 999773596 999901660 999746615 999707764 999913493 999823944 999835825 999743204 999743118 999704188 999763869 999919270 999778666 999727728 999817427 999982036 999919135 999790280 999892108 999832112 999754082 999817000 999912971 999933956 999798799 999912884 999747580 999897796 999903776 999804480 999963892 999726090 999780197 999912652 999819220 999900538 999734680 999731576 999852167 999891352 999924525 999821820 999960727 999706866 999857919 999960688 999836650 999869882 999854704 999963664 999748593 999721240 999884822 999912072 999772525 999866504 999924125 999702472 999823854 999927088 999951376 999957440 999768884 999920908 999838721 999716908 999744220 999731952 999905543 999743968 999996951 999908500 999758971 999969480 999835138 999874786 999969450 999969440 999709585 999724780 999694100 999776620 999739815 999984690 999920362 999748752 999767060 999889624 999840516 999868076 999748342 999748260 999877160 999870976 999843277 999760228 999932350 999926176 999916921 999846100 999929183 999950720 999935299 999892130 999787273 999904396 999706925 999716088 999944434 999740608 999848639 999762070 999916543 999972172 999969070 999715352 999777160 999795664 999863732 999919452 999807862 999885300 999801536 999937960 999847953 999990688 999736075 999959622 999990679 999757576 999735735 999965790 999720010 999800832 999940853 999953290 999937700 999881592 999759991 999694436 999787908 999900160 999940701 999881364 999725176 999784444 999740625 999874960 999824888 999871752 999924904 999715170 999881022 999940492 999696099 999896578 999689635 999915328 999761588 999874480 999786548 999905800 999855514 999987432 999889995 999933976 999745255 999685400 999745093 999993704 999763825 999987400 999914923 999952720 999924328 999968460 999905350 999731740 999924232 999987368 999924184 999684000 999993678 999835576 999702678 999806996 999794275 999892356 999920825 999695872 999911268 999736890 999739978 999923872 999857215 999806386 999955550 999996824 999726778 999809320 999780649 999866440 999885484 999824990 999844033 999853536 999961780 999818398 999891642 999910736 999764014 999687380 999881933 999751024 999862701 999958478 999900955 999718752 999910484 999731368 999827254 999792000 999715111 999974384 999897504 999942328 999820520 999967940 999720991 999865264 999929402 999980740 999762386 999710920 999971083 999951790 999778165 999954976 999732989 999774740 999922744 999755280 999880823 999948448 999916202 999722736 999787150 999825796 999970957 999812776 999825634 999699610 999767368 999861024 999757525 999757450 999786490 999692580 999954682 999728008 999912547 999802360 999941662 999870320 999951355 999918900 999987020 999701368 999886355 999694688 999779068 999827750 999824446 999713824 999804820 999755950 999889330 999752544 999993486 999729586 999980446 999872860 999722815 999755350 999725908 999712768 999732270 999849764 999800713 999751632 999731942 999754750 999869160 999996728 999996727 999973808 999826425 999934480 999823042 999852490 999721285 999937680 999707991 999917950 999711096 999678168 999924445 999868560 999937547 999825736 999796082 999960520 999828868 999848568 999841936 999815536 999917625 999818720 999676894 999835100 999752575 999891100 999755726 999983490 999689518 999705944 999748820 999709072 999685835 999765132 999695572 999986760 999748364 999993376 999907236 999920464 999963535 999887256 999973464 999714652 999744437 999923640 999980074 999867120 999916925 999966760 999930175 999890242 999836977 999687168 999996671 999680320 999783485 999810076 999706696 999686604 999743205 999959968 999913238 999946592 999976627 999933200 999856337 999859636 999779362 999749200 999889615 999792548 999866120 999809164 999785664 999738700 999738622 999872624 999986588 999936274 999745020 999815420 999738154 999694422 999670818 999996640 999986556 999667162 999754501 999993272 999942795 999983170 999885522 999858544 999912406 999764100 999737062 999979768 999824604 999973008 999993250 999719792 999996623 999949330 999706027 999837760 999932380 999925596 999725977 999840952 999796900 999942438 999688396 999667976 999813605 999783040 999684637 999867712 999698023 999837088 999789510 999989812 999823356 999976214 999966010 999694000 999870762 999965980 999748178 999911496 999853585 999904632 999938674 999802336 999679554 999662410 999901081 999979528 999959044 999962446 999829250 999818952 999685636 999921386 999842726 999969220 999996579 999709130 999914425 999760320 999736275 999938332 999931460 999873164 999921133 999691300 999711796 999886744 999821484 999890112 999917560 999701068 999989689 999859042 999924342 999879600 999858919 999741850 999731446 999783028 999776075 999662292 999824203 999965520 999665447 999962050 999982745 999806688 999661606 999841116 999854890 999775360 999910118 999709528 999910066 999733580 999657361 999844210 999986148 999941112 999844075 999857894 999750376 999986128 999906337 999895900 999805624 999656272 999767309 999701236 999812350 999867912 999798334 999926962 999923462 999993040 999825950 999853756 999892027 999989548 999780445 999975598 999714066 999972096 999808105 999780130 999937162 999909208 999916168 999671564 999870685 999688856 999772695 999667690 999870537 999650000 999992998 999807390 999929940 999737200 999751145 999884302 999656314 999659724 999947365 999842050 999684010 999838448 999718960 999722394 999676620 999922648 999964830 999869834 999753670 999866240 999683110 999841510 999929540 999830848 999820225 999668556 999686097 999809488 999961181 999696420 999646900 999837528 999901076 999795028 999660640 999904528 999893890 999663890 999833667 999787600 999681310 999961038 999759076 999858240 999900740 999929080 999957436 999783572 999648649 999939650 999904123 999758464 999761949 999843624 999758260 999807976 999751010 999768730 999864758 999690280 999864682 999739974 999935866 999846748 999661325 999793172 999882289 999950048 999768015 999800080 999842876 999835688 999849934 999857040 999842700 999649552 999728148 999903394 999717259 999978520 999846017 999931942 999688279 999770624 999795655 999931866 999702279 999878008 999852851 999666130 999694765 999938936 999719746 999777172 999769920 999942464 999946045 999791316 999640100 999859600 999920778 999830706 999697348 999845028 999729625 999992788 999837685 999743832 999823159 999909750 999664177 999794116 999851867 999985544 999707185 999902368 999732342 999746740 999822669 999829860 999829813 999963780 999815227 999713704 999887625 999771562 999648181 999873020 999709680 999989110 999760354 999912832 999723892 999789228 999916395 999894556 999858157 999752616 999796216 999854400 999643182 999759628 999799635 999850596 999715690 999883328 999876002 999678976 999697133 999934300 999901423 999912352 999652965 999689410 999751460 999707520 999718411 999967078 999784119 999674260 999849899 999897464 999769231 999871760 999849735 999780040 999871655 999699224 999933958 999966970 999871515 999985312 999889810 999731798 999650875 999988972 999919106 999716794 999801334 999676160 999771778 999904268 999867412 999845272 999952095 999642458 999756658 999631200 999900397 999929890 999844978 999937236 999789499 999741420 999889150 999911296 999733816 999792912 999674488 999774300 999655807 999781582 999785226 999951848 999677665 999799876 999766459 999903592 999669899 999729170 999636322 999729024 999977722 999962860 999747380 999821632 999806716 999825254 999836364 999843760 999906975 999854842 999862249 999676012 999884525 999985096 999996273 999630928 999873214 999675490 999794795 999992536 999839481 999973862 999760960 999787048 999865468 999637414 999756965 999846660 999640864 999842836 999659387 999696736 999977530 999835176 999895084 999681420 999820048 999880000 999669912 999744864 999917434 999729712 999755925 999954928 999793365 999838406 999857158 999676640 999943585 999977428 999650041 999740284 999992470 999920914 999841786 999732472 999984924 999826580 999962290 999656748 999649111 999852814 999652700 999799872 999728056 999784654 999777039 999988660 999629462 999814682 999742756 999697280 999825890 999746338 999806863 999810600 999977266 999621000 999681556 999943120 999681388 999791330 999647065 999935468 999867105 999817696 999665688 999939200 999627502 999809900 999923940 999737524 999726040 999714550 999836299 999817216 999756224 999992380 999939024 999885640 999809350 999839812 999771100 999874072 999751895 999896914 999965629 999782260 999709604 999988534 999877664 999782032 999785800 999942610 999823958 999800944 999900446 999854460 999908056 999781576 999927173 999808300 999716210 999658596 999900238 999623876 999738948 999973120 999842519 999873214 999727147 999757828 999823130 999623092 999726863 999772968 999934567 999822900 999718877 999988444 999903675 999892088 999749425 999953728 999965287 999672070 999644972 999695060 999667954 999776004 999996137 999613600 999833805 999911082 999651970 999651880 999628576 999794890 999841289 999697984 999701779 999860536 999759750 999918604 999957353 999856514 999639253 999837040 999829236 999755434 999801967 999933972 999821290 999797928 999665718 999758944 999891108 999716030 999677047 999961080 999867638 999680692 999859780 999894808 999610300 999695956 999641292 999691900 999828356 999691742 999754111 999863360 999839895 999960940 999660091 999898392 999878821 999683290 999737963 999679216 999733916 999863010 999831655 999866856 999902075 999866788 999780536 999843200 999878449 999909794 999956847 999654688 999890100 999862590 999607300 999685760 999984284 999634510 999913518 999811264 999634231 999889848 999685200 999830752 999614174 999936992 999684880 999779360 999739894 999869914 999869881 999917176 999644950 999794808 999707922 999861820 999897326 999703750 999877519 999608752 999889316 999833932 999988135 999885276 999992086 999663570 999996041 999655480 999710847 999900950 999980185 999861260 999770030 999952408 999861155 999706368 999841240 999904720 999650552 999642520 999817242 999697976 999956275 999610352 999650024 999745408 999936336 999777120 999709387 999848684 999928306 999912352 999868495 999812658 999740845 999772684 999824484 999724690 999824396 999776448 999832294 999796306 999904120 999940060 999880090 999700150 999608098 999832000 999887972 999731866 999699775 999715716 999835795 999947922 999967944 999727456 999823604 999639100 999823516 999654968 999731129 999927748 999931745 999763056 999630436 999803118 999614176 999959800 999879370 999702372 999738505 999601624 999951700 999830908 999987919 999867076 999625303 999673570 999923411 999612928 999979835 999963694 999741760 999705372 999923297 999608314 999846518 999935360 999991918 999616010 999902968 999854416 999947415 999684412 999830026 999902848 999651786 999991900 999805552 999797400 999752767 999935136 999914845 999651184 999642984 999967536 999975646 999922860 999833499 999959380 999918740 999865888 999731710 999780436 999849521 999605404 999865723 999641840 999938935 999625376 999820788 999812596 999678075 999694300 999698302 999902128 999665522 999844960 999791869 999710178 999828514 999955076 999722220 999779356 999607648 999816040 999860974 999701430 999599082 999746296 999877210 999815770 999946765 999836160 999950836 999893452 999590100 999672000 999663718 999930266 999917940 999749656 999708545 999700262 999601621 999654928 999757569 999856150 999724563 999860192 999835480 999884808 999658455 999995884 999608885 999884696 999724027 999971160 999703288 999661996 999934032 999863908 999971125 999884472 999797777 999946336 999818324 999785240 999876070 999607460 999619764 999793300 999979325 999933824 999859342 999908964 999888247 999801280 999859206 999834320 999825994 999801088 999970985 999647590 999900472 999904596 999987553 999676300 999651316 999725968 999750820 999617832 999962605 999625960 999825406 999995842 999846117 999746240 999758662 999725308 999875110 999937540 999983340 999595898 999837487 999908304 999683156 999883240 999699688 999870668 999707890 999924868 999732800 999628336 999853805 999887194 999724186 999594540 999694787 999690532 999941438 999891216 999903745 999974884 999606422 999882736 999970677 999782120 999844933 999903584 999597472 999865792 999907710 999966432 999802741 999756516 999928617 999781600 999852965 999773092 999836083 999995796 999991590 999680344 999642405 999747520 999600145 999818970 999802083 999852580 999620830 999827226 999747100 999725960 999675291 999683650 999848116 999611760 999869149 999649574 999983108 999662080 999991550 999780248 999843601 999923896 999957710 999860410 999716523 999801096 999754486 999762896 999695080 999762784 999855942 999855908 999877069 999766800 999821878 999927886 999834523 999991512 999639175 999617860 999728192 999847072 999927767 999587750 999787450 999829920 999974482 999770284 999936175 999893600 999970201 999846712 999974446 999748660 999646337 999961642 999761272 999978680 999769690 999628858 999731179 999628684 999829240 999739530 999829160 999991456 999598338 999666628 999910225 999598056 999875967 999863104 999897304 999674720 999738859 999618902 999773001 999755812 999618635 999815702 999781363 999982848 999755527 999806950 999738249 999652348 999892675 999879768 999948460 999875416 999909763 999815186 999789349 999918300 999840863 999660142 999961273 999758976 999642685 999754558 999698510 999784600 999836258 999849150 999879292 999780088 999969809 999797242 999991370 999784200 999818686 999939548 999840197 999969760 999619752 999783900 999584992 999835688 999727525 999775048 999969711 999800912 999865801 999774840 999987007 999636112 999731354 999726958 999882955 999575072 999848205 999661636 999574778 999995660 999856747 999691718 999843652 999960904 999691505 999913080 999778303 999908692 999843436 999969550 999856417 999869440 999730114 999708282 999603695 999904168 999986929 999947704 999917179 999564000 999934585 999598696 999712042 999925812 999602785 999912680 999572034 999799072 999593683 999667880 999851386 999934420 999886302 999820666 999763750 999724312 999982492 999684784 999794187 999724060 999592567 999802810 999636211 999627360 999579040 999956140 999951743 999925404 999626935 999723430 999749713 999696952 999626595 999731966 999569290 999771408 999938442 999766906 999802045 999898800 999898777 999727076 999960373 999788608 999810585 999713610 999651847 999651768 999669325 999889750 999885314 999986764 999717568 999558600 999584990 999686464 999673142 999938148 999845335 999792260 999898317 999743524 999685967 999823040 999951325 999920332 999849482 999991144 999658967 999915830 999796174 999796128 999964536 999866980 999631895 999964512 999991126 999676026 999596051 999684760 999773509 999888950 999831166 999702252 999844425 999582076 999782097 999688640 999715264 999897650 999728489 999817468 999657119 999621410 999955450 999928704 999656811 999696856 999732460 999678880 999839404 999620730 999808091 999799120 999745495 999557866 999937462 999915108 999709515 999991060 999982116 999861368 999588484 999637606 999914975 999901528 999964184 999767144 999668554 999758080 999982076 999627994 999955170 999784768 999977575 999991028 999847442 999798040 999591501 999959590 999721558 999631656 999923619 999860686 999748280 999856128 999896569 999572690 999721062 999946000 999891976 999563306 999585724 999765792 999612570 999918892 999580849 999963936 999594190 999824110 999769939 999742816 999566752 999819440 999959365 999986452 999864490 999796690 999633961 999932200 999941227 999638240 999968339 999877852 999624425 999615290 999606151 999701152 999737318 999592300 999787043 999823252 999732553 999691688 999564640 999564544 999786761 999850246 999786667 999745760 999759327 999618472 999754678 999909120 999986365 999972724 999909060 999904492 999567845 999972700 999708736 999963584 999612995 999544600 999858795 999940772 999822277 999995442 999895143 999708160 999553022 999762776 999589330 999657700 999949785 999799096 999963464 999762464 999620773 999689240 999995429 999693676 999652452 999743856 999588250 999730016 999917614 999624604 999638259 999720620 999661006 999789228 999940421 999871648 999867035 999876178 999637627 999591668 999747605 999775090 999866861 999793360 999738199 999834616 999568070 999669088 999549494 999935628 999701065 999816000 999935586 999848134 999829689 999585640 999898690 999880244 999875611 999760384 999562145 999603540 999893947 999603368 999940031 999635494 999723100 999870752 999769150 999949202 999648956 999769000 999810539 999926048 999611668 999810416 999879750 999551278 999949103 999967604 999634309 999921290 999819391 999902728 999986101 999596842 999981460 999874828 999684684 999615046 999958249 999638080 999972154 999930370 999804994 999911764 999842070 999558630 999930295 999590976 999920967 999827950 999581410 999581320 999660331 999878996 999739320 999678736 999906860 999930130 999874207 999953400 999547883 999888112 999953370 999934704 999888040 999995334 999593971 999659236 999981324 999733810 999546913 999789760 999901867 999803692 999691450 999738144 999925168 999607048 999737976 999925120 999756588 999672260 999864193 999911004 999915670 999882850 999957817 999817168 999953110 999624800 999873343 999934312 999544779 999699584 999530500 999793376 999802726 999807382 999779147 999656900 999586312 999779006 999873019 999590752 999684765 999849408 999792892 999872884 999835185 999816310 999901069 999877488 999853897 999844438 999981140 999933976 999976415 999839588 999537538 999584640 999853649 999952780 999848864 999598460 999938575 999744796 999749469 999962176 999654783 999910130 999990538 999910092 999947937 999550270 999900565 999682688 999947893 999810480 999933654 999886240 999559087 999577962 999981028 999919352 999928825 999814906 999976265 999544192 999990502 999753000 999748197 999838432 999653031 999909674 999747985 999586228 999557599 999795406 999719219 999861960 999861931 999785710 999676116 999704632 999966645 999804594 999637708 999828352 999728167 999647020 999527671 999575292 999727939 999914068 999933150 999985672 999942676 999546090 999550774 999708420 999784855 999679606 999631709 999751232 999554995 999775058 999966491 999549928 999554623 999760500 999616720 999664560 999793901 999630862 999923280 999956836 999669007 999971212 999553693 999947200 999827164 999764702 999851107 999682936 999620405 999990388 999798106 999802872 999826876 999692160 999740206 999951880 999951870 999947046 999980740 999585824 999913294 999951820 999686765 999677060 999575752 999527444 999705797 999575488 999879375 999792482 999546262 999942064 999951710 999797140 999666661 999980672 999893674 999893652 999748580 999816232 999622714 999791966 999656431 999849960 999830565 999917686 999598031 999966092 999874030 999709240 999810967 999941824 999985453 999975750 999898129 999995148 999713673 999902920 999645585 999849464 999562870 999713378 999650152 999757000 999722923 999859002 999751987 999732480 999586475 999956206 999634975 999659240 999868537 999615270 999912322 999751528 999595541 999839158 999619750 999605044 999624471 999975610 999819477 999765760 999975595 999731490 999916989 999785104 999716670 999584690 999760537 999960896 999574657 999980440 999545137 999603748 999887461 999701466 999955945 999985312 999720871 999813876 999627676 999666800 999848069 999553918 999681305 999740088 999509500 999739982 999666324 999622084 999523827 999587560 999523633 999557920 999955783 999660934 999960680 999626384 999877075 999793444 999724536 999591640 999827765 999729290 999758773 999537144 999689725 999699514 999753650 999650112 999600751 999802800 999699209 999935884 999768149 999970396 999945715 999970384 999664284 999674092 999748111 999916020 999639307 999767726 999915969 999525376 999782420 999891188 999831802 999515096 999945561 999703000 999589067 999588984 999975235 999707714 999836485 999831496 999895903 999553780 999796681 999588320 999613042 999960304 999970222 999707124 999935455 999846054 999577805 999711856 999532914 999915510 999960232 999935364 999920432 999761248 999960200 999557136 999885529 999581848 999661428 999721120 999965133 999820648 999551530 999546456 999646065 999705826 999990026 999905228 999980044 999650700 999680576 999755392 999850210 999730324 999965035 999870104 999595243 999725110 999580084 999690000 999549910 999944978 999984991 999559648 999814815 999879856 999684559 999954928 999859748 999959920 999599120 999704292 999724285 999749300 999533605 999653896 999769218 999829388 999678784 999789160 999507942 999758944 999814149 999939712 999648250 999668284 999532489 999522340 999683173 999587540 999758512 999849040 999718152 999647620 999501535 999974820 999672595 999712834 999994961 999914320 999536228 999934454 999889054 999505688 999878920 999853666 999576052 999676928 999949510 999626300 999994949 999580684 999838304 999767516 999519775 999610688 999565098 999742042 999848230 999514240 999979756 999559606 999934181 999969616 999979740 999559258 999949330 999533744 999797240 999579190 999518255 999675392 999964489 999974630 999624450 999700516 999532916 999944142 999517495 999725680 999791679 999522292 999730601 999705128 999577945 999715184 999735476 999501376 999796440 999720050 999786178 999959264 999663862 999505882 999658635 999836928 999898060 999663532 999541090 999597100 999648031 999729594 999872425 999683552 999550760 999969364 999611868 999622008 999775204 999974450 999918224 999810856 999585847 999718730 999514075 999774896 999718565 999877168 999518814 999580160 999585199 999692680 999902663 999533716 999738625 999928236 999635983 999835904 999994871 999953830 999543341 999774192 999948670 999640620 999666225 999897280 999856164 999568408 999933193 999660760 999655553 999696622 999511415 999758232 999943405 999855912 999922795 999495496 999938212 999660100 999587920 999747552 999747503 999489754 999623685 999948440 999546184 999613150 999613075 999664600 999938068 999974190 999912229 999814096 999617790 999808858 999565972 999617568 999715705 999870750 999648372 999632788 999487873 999891346 999503200 999523808 999917168 999482200 999865346 999994820 999740950 999787538 999771948 999647488 999865190 999740700 999854764 999486388 999621203 999709360 999942899 999631368 999745543 999994806 999792200 999646672 999651801 999875248 999911617 999594400 999916784 999703486 999646196 999479600 999703315 999822996 999661545 999619816 999953119 999932270 999770716 999906184 999890527 999984358 999947850 999478400 999535687 999775626 999519852 999822520 999801602 999723234 999623944 999775368 999848475 999947740 999655018 999837932 999916336 999958160 999544903 999832576 999701719 999565578 999931945 999743436 999890023 999811432 999989522 999942360 999523069 999958064 999968542 999743044 999769220 999963278 999658945 999506688 999601076 999931750 999837219 999501060 999942217 999516632 999479755 999910648 999716122 999752874 999815935 999942140 999673818 999810568 999747376 999815760 999868375 999662976 999810388 999578560 999884082 999667990 999984187 999852384 999767988 999493696 999625475 999984172 999609502 999688598 999957768 999894400 999524710 999677798 999957736 999788640 999957720 999746272 999957704 999962984 999989422 999883620 999724868 999793612 999687713 999655890 999581695 999909968 999602725 999560266 999989402 999496500 999522910 999851544 999581063 999575680 999957560 999474706 999506449 999718676 999490336 999846010 999782249 999628160 999649342 999590822 999734250 999819256 999968098 999744736 999611713 999968080 999590283 999984034 999611421 999941436 999611275 999494030 999648418 999605728 999813485 999856090 999968014 999573440 999626690 999535942 999599875 999605136 999508996 999754452 999567541 999716980 999861134 999727558 999727507 999722112 999513605 999738046 999866325 999925128 999834181 999962550 999497006 999909016 999801939 999769778 999684055 999967864 999850004 999555286 999501613 999555120 999522871 999576402 999597775 999495784 999721020 999651210 999581374 999914112 999731550 999763720 999629401 999769004 999935524 999811910 999747375 999768832 999623610 999628918 999682639 999488900 999596425 999682462 999596275 999558512 999973075 999596050 999784520 999929956 999622770 999504120 999784360 999638736 999584739 999487570 999530635 999460400 999924442 999800274 999730050 999665200 999773158 999918970 999967582 999897324 999735155 999918910 999540405 999572768 999918865 999594250 999626641 999491272 999631916 999593950 999664270 999599216 999637061 999707428 999886201 999468840 999842791 999609616 999962039 999712528 999549725 999712422 999994573 999484340 999967426 999701350 999929397 999847904 999885907 999967396 999608680 999641224 999896697 999738976 999771562 999630080 999689863 999804088 999787723 999580812 999667855 999760376 999814802 999651328 999613121 999640300 999651136 999929124 999536495 999514594 999656335 999890880 999612553 999929046 999912656 999677860 999868936 999470186 999633979 999989072 999502685 999934408 999967198 999529752 999781240 999808550 999491197 999885088 999775607 999983578 999704350 999676916 999654949 999501502 999835630 999517760 999484786 999830058 999884857 999649024 999588625 999681812 999632371 999549984 999994511 999829810 999610139 999939588 999450700 999450600 999884605 999989008 999648192 999532670 999884521 999829500 999966994 999614860 999697335 999741312 999565105 999548508 999796241 999680536 999823712 999526140 999785071 999647232 999608577 999647104 999966910 999779360 999851041 999453718 999701974 999475600 999867496 999508542 999558160 999502840 999767950 999950266 999784447 999878384 999629557 999900460 999579644 999507652 999546294 999994466 999833950 999501760 999501670 999595726 999573497 999551260 999650917 999451342 999645248 999462232 999722750 999600688 999916795 999805820 999556080 999511600 999844572 999750160 999861175 999455708 999772245 999927772 999577668 999544244 999961087 999755360 999933268 999566164 999666220 999554880 999643840 999877548 999638145 999688192 999771671 999671370 999621172 999520808 999487284 999855076 999972125 999860600 999955384 999458934 999536943 999536860 999905123 999771138 999754348 999715216 999676070 999793318 999726237 999932944 999988822 999692550 999552720 999871384 999451886 999938466 999474070 999781756 999815299 999524170 999725649 999753600 999445501 999787124 999949573 999646948 999971975 999792578 999786934 999809328 999702723 999865360 999685784 999893372 999618316 999657546 999691175 999960688 999747235 999640448 999651622 999662800 999865096 999735766 999758211 999617568 999876250 999707448 999758039 999960604 999622857 999859250 999769129 999735296 999583158 999532378 999684440 999802740 999633595 999836498 999808274 999921040 999689745 999672764 999751708 999582344 999666945 999751576 999587769 999638528 999440749 999836150 999994349 999785224 999903899 999666414 999598495 999813352 999620981 999971710 999541621 999796240 999456544 999603660 999881077 999932032 999807390 999903678 999710983 999489880 999988662 999824230 999563333 999574600 999852502 999778714 999528975 999750256 999931876 999977288 999613828 999642160 999477348 999590896 999874974 999965896 999710065 999607666 999903321 999948808 999943110 999766710 999578866 999544640 999481937 999544480 999504535 999692416 999789211 999618234 999549779 999675100 999697847 999914470 999674929 999617832 999629175 999457930 999777427 999823052 999526153 999754470 999743005 999817216 999754341 999708586 999885700 999719916 999908528 999513970 999782678 999897040 999553762 999948502 999713850 999788212 999977100 999662166 999513205 999730784 999530222 999805180 999971345 999581564 999598690 999569950 999690310 999724672 999684465 999770480 999684355 999615420 999448864 999753094 999942570 999833424 999873610 999919556 999620698 999574648 999908016 999672250 999551422 999488072 999936717 999631744 999982735 999884880 999602767 999890598 999781158 999516160 999988478 999976952 999481330 999907776 999475385 999890446 999740485 999521256 999838468 999959610 999688366 999463204 999509295 999445696 999699700 999815168 999688042 999988444 999520343 999895960 999589549 999953744 999942170 999427384 999554555 999652840 999884260 999548536 999438467 999583120 999565675 999878368 999843589 999982618 999866715 999930448 999704353 999982606 999466492 999884000 999883980 999425602 999744668 999721408 999483355 999773566 999692229 999465664 999976764 999988380 999680395 999465296 999813984 999517438 999924405 999592880 999947647 999959274 999563575 999970900 999778802 999510952 999994177 999726272 999976700 999417400 999953384 999481308 999702721 999632710 999574337 999871696 999463364 999544948 999842455 999719872 999498018 999562150 999684694 999579520 999602812 999725426 999696164 999935716 999801270 999924002 999929836 999695904 999918114 999912250 999988298 999964888 999707350 999970730 999654555 999806752 999472870 999742248 999830089 999894520 999665923 999724486 999577864 999718528 999677425 999788824 999870926 999700732 999882620 999988260 999859096 999682912 999565398 999729796 999800250 999623936 999741412 999800148 999523801 999876520 999847094 999682372 999676435 999411600 999841105 999505576 999599684 999805696 999564214 999422780 999687777 999452044 999770173 999599208 999463555 999775952 999752326 999941020 999734545 999828900 999740356 999917372 999557275 999515872 999468550 999958658 999604231 999621888 999692732 999645400 999810848 999769432 999580177 999686558 999467650 999929008 999603561 999615330 999520561 999798720 999413821 999686134 999846002 999840052 999792625 999602958 999525840 999863656 999804343 999887330 999650071 999531372 999519427 999460006 999774470 999548864 999590347 999465580 999513002 999964360 999762360 999548408 999583990 999429376 999928660 999922702 999488558 999744236 999672805 999994050 999720303 999547648 999630914 999565358 999404500 999809408 999630666 999916588 999499444 999874840 999469471 999910570 999898629 999833008 999648065 999504822 999552475 999886608 999862713 999898510 999617856 999892504 999755107 999898442 999904400 999862552 999695173 999683166 999443953 999778740 999497596 999641080 999575207 999880320 999569080 999646826 999754533 999748504 999880220 999550750 999982027 999748336 999958049 999952048 999646295 999628248 999532234 999892036 999490085 999442000 999459910 999783928 999435718 999471648 999891910 999921922 999495412 999627504 999543316 999873790 999927868 999488980 999458830 999975944 999801505 999542784 999524657 999825478 999506442 999789300 999578530 999421888 999590436 999536152 999662600 999517920 999469624 999879440 999523709 999776890 999969845 999505376 999891406 999637960 999716355 999824956 999710224 999879240 999474607 999547000 999601294 999450178 999625334 999431864 999836785 999667470 999806496 999606880 999842726 999479700 999757960 999878960 999776039 999509626 999527710 999503408 999800119 999503244 999769758 999921220 999733316 999709024 999963622 999769568 999478410 999447994 999854392 999684464 999860413 999532610 999963574 999483880 999580963 999574820 999787375 999854176 999653611 999702178 999501522 999975680 999762841 999951344 999653269 999513280 999714005 999793076 999811303 999598192 999993911 999445810 999537084 999421260 999421165 999390600 999993905 999585472 999536628 999469474 999853624 999725500 999975596 999847450 999676541 999615448 999884005 999523732 999609152 999566332 999792294 999841140 999627229 999590496 999559864 999865492 999993885 999706432 999785905 999822578 999951048 999596080 999540925 999626558 999724465 999742792 999387500 999705952 999901968 999920336 999626131 999509600 999711843 999828304 999472562 999858918 999846625 999693200 999398574 999447580 999594826 999772820 999435028 999490214 999907855 999723520 999422370 999422276 999778708 999741784 999508080 999827800 999895433 999784680 999661585 999704608 999963070 999919972 999969215 999679784 999858343 999494880 999427027 999439258 999919881 999488388 999975340 999938340 999469638 999987664 999987662 999784050 999685279 999679056 999839502 999573994 999635675 999993824 999660265 999623142 999388279 999808420 999554968 999412710 999808327 999851584 999393870 999987628 999795829 999758668 999616282 999510990 999411855 999510832 999616034 999634554 999640690 999609652 999671559 999919426 999894617 999659000 999528724 999826344 999534775 999379600 999689750 999422842 999751720 999410240 999701968 999993790 999559019 999652128 999950296 999869506 999583595 999434344 999813490 999931602 999819649 999645460 999726276 999552016 999558167 999477184 999396175 999987548 999775828 999383428 999445619 999781950 999894073 999488976 999488894 999644662 999894005 999432524 999476092 999713052 999494641 999681760 999819011 999981274 999463102 999962536 999712730 999931294 999437770 999562640 999637558 999950000 999937490 999881212 999831169 999924952 999756055 999849856 999687150 999511876 999624460 999918620 999724516 999524088 999480171 999918568 999473740 999567646 999573844 999542436 999630129 999667690 999924748 999717760 999880813 999479258 999673700 999422608 999510394 999434980 999585586 999711120 999824132 999786412 999868057 999666948 999861730 999660556 999930843 999540976 999842775 999767270 999547048 999534392 999515439 999578302 999861510 999389288 999678853 999798464 999571668 999439300 999678649 999798336 999558790 999451552 999684750 999987388 999987386 999842300 999722404 999621400 999962134 999892696 999842175 999810580 999722140 999526300 999658882 999500878 999418652 999772480 999823012 999374122 999848248 999645856 999810250 999683700 999550783 999867112 999784814 999702490 999550499 999797376 999626353 999600958 999955655 999847936 999632454 999670424 999378778 999898560 999778065 999543376 999619420 999574952 999847720 999771544 999847672 999720688 999574617 999434850 999847576 999625232 999618820 999993646 999491600 999993644 999516868 999434138 999987282 999777400 999739199 999471954 999732754 999414512 999847240 999401596 999567044 999738912 999586015 999611430 999522175 999426520 999515652 999840650 999604750 999725832 999821444 999827794 999738461 999515120 999463996 999731956 999846808 999380752 999553050 999501892 999495427 999891404 999431379 999987220 999699623 999578128 999872140 999744240 999705830 999494716 999558607 999424180 999827227 999929600 999513524 999558262 999711865 999718224 999942355 999532362 999397742 999532216 999551370 999916670 999929479 999378036 999756306 999467638 999563780 999512384 999813907 999467306 999621279 999499240 999505583 999633946 999511852 999524624 999820100 999781516 999794336 999704312 999453535 999787810 999742760 999581920 999691216 999556054 999967825 999414324 999967815 999671662 999884098 999755280 999581335 999729436 999664964 999845344 999929105 999568118 999387535 999484160 999980653 999742000 999916137 999464484 999393418 999567582 999780530 999586816 999554467 999405864 999638296 999851420 999470198 999573508 999967685 999418240 999702610 999696098 999902995 999851236 999741240 999618270 999805870 999462824 999598674 999896416 999870500 999922288 999851029 999676100 999475201 999488080 999896304 999902770 999487843 999526668 999591445 999909196 999747007 999831312 999980533 999928610 999668959 999915604 999350700 999668806 999584320 999688192 999590689 999636112 999883018 999545000 999947992 999512350 999544790 999557728 999473095 999486026 999544510 999427296 999960946 999882820 999960934 999759056 999635272 999622188 999648190 999745876 999439538 999771870 999908734 999837000 999589177 999504328 999889109 999582464 999928225 999849902 999791136 999667072 999536441 999973880 999484051 999575420 999751746 999973864 999444525 999575160 999496651 999555416 999882298 999659920 999581376 999365426 999941113 999784048 999712020 999639970 999639915 999862492 999738040 999882100 999737960 999429976 999908258 999750948 999855790 999350956 999645922 999685216 999383454 999553920 999901585 999908132 999350263 999553648 999665185 999343400 999632248 999980296 999730671 999947440 999526888 999533388 999612193 999973704 999809325 999736960 999388339 999460604 999355258 999526240 999874961 999802540 999769595 999591792 999571975 999650942 999538910 999861652 999901165 999360770 999723178 999571520 999967035 999571390 999755985 999795524 999670150 999439170 999802030 999564400 999650147 999557666 999980191 999947168 999392340 999478126 999861253 999729072 999907474 999484420 999537230 999365248 999556929 999847878 999338500 999735360 999430938 999543358 999834525 999364480 999337900 999668900 999960262 999622432 999556125 999741586 999768055 999562552 999370245 999986740 999648557 999701560 999980101 999728006 999688155 999535480 999907082 999900430 999588382 999900400 999814052 999780814 999528347 999740884 999867100 999980062 999461593 999747376 999474729 999687450 999820423 999753876 999807063 999427756 999873555 999647232 999720406 999360832 999766935 999960040 999560374 999400420 999960022 999813408 999866700 999646702 999913329 999719944 999653212 999353010 999386268 999546304 999886559 999946608 999706300 999499300 999345654 999572608 999752877 999639280 999746122 999405302 999866340 999786112 999759340 999986628 999705772 999337888 999712373 999565150 999826034 999752396 999364165 999765710 999785760 999511192 999778999 999758872 999732040 999685100 999825774 999597880 999899455 999959776 999704980 999993294 999349421 999751804 999751767 999429650 999953023 999523448 999832175 999771724 999610530 999408992 999590263 999704408 999496075 999328000 999482483 999455518 999657127 999583112 999724275 999582988 999508929 999441576 999461680 999616390 999333631 999710524 999400763 999393940 999757540 999710352 999979789 999602458 999791091 999865200 999575317 999460640 999763995 999480712 999878590 999359130 999460240 999345444 999331849 999736750 999507177 999729920 999446254 999810888 999513640 999993244 999864860 999743196 999756676 999499760 999641667 999891808 999465723 999398004 999722635 999397826 999492475 999343504 999675088 999891680 999458320 999810384 999796810 999525820 999505425 999681528 999986446 999877996 999959326 999681340 999783008 999735502 999511624 999715072 999762525 999606412 999674224 999626660 999837064 999402480 999327691 999402304 999707901 999721446 999524350 999612628 999959218 999796060 999789231 999809600 999551134 999326602 999326503 999673408 999870705 999319400 999911509 999645984 999380381 999700360 999863780 999516348 999672976 999604788 999863700 999468352 999665967 999938638 999502213 999829500 999645308 999624790 999413222 999822576 999324325 999945392 999699612 999781504 999692695 999494580 999378379 999583248 999337199 999665134 999952155 999432612 999917956 999480312 999753796 999452800 999822134 999856318 999363601 999466168 999602990 999924694 999500169 999917824 999534268 999773950 999383410 999773884 999794410 999876628 999712090 999609208 999712006 999657100 999615896 999368880 999938251 999595142 999533316 999869584 999361555 999327132 999903862 999601656 999608467 999471010 999766386 999780096 999573874 999374466 999470625 999972496 999422332 999807416 999429043 999848640 999903666 999745366 999786627 999896740 999869185 999690130 999827825 999621160 999455769 999875980 999393592 999779456 999751852 999407116 999627670 999365568 999365476 999593018 999413585 999372100 999475524 999351212 999986194 999516720 999620225 999592546 999392184 999323016 999620005 999592310 999820314 999993088 999951609 999695784 999571270 999778688 999598814 999771706 999571022 999425640 999896185 999473928 999411545 999543016 999321350 999847628 999418132 999930720 999833704 999507970 999868311 999320664 999792010 999507686 999341175 999951448 999424229 999729418 999743257 999861200 999347546 999736204 999590363 999423648 999833320 999347076 999694332 999617860 999895765 999332800 999937441 999972192 999534149 999638392 999596610 999853924 999853903 999394654 999318018 999784240 999603223 999533546 999693628 999519484 999414940 999993034 999728287 999958192 999540046 999393610 999428378 999714148 999574647 999944208 999832600 999651200 999462771 999630166 999532407 999462540 999476425 999839414 999539122 999553024 999853315 999979042 999846286 999783372 999322067 999468760 999769297 999328768 999769231 999503426 999979015 999860080 999818078 999601114 999923011 999727000 999831976 999327808 999523796 999530732 999432595 999334430 999677678 999901888 999362181 999551360 999691516 999831712 999298700 999964930 999508950 999607104 999431623 999536812 999754335 999452440 999543635 999529526 999564574 999950832 999908675 999508180 999529191 999522096 999782101 999922670 999550016 999845296 999374063 999620164 999810055 999753740 999584817 999725518 999936649 999781760 999887344 999725362 999528119 999647800 999943640 999513826 999725167 999612360 999788530 999703900 999534634 999802544 999499237 999358086 999393270 999809488 999738891 999400070 999809407 999767020 999858780 999795202 999668039 999526712 999463060 999611370 999406372 999455764 999575860 999498030 999434320 999801984 999299773 999639226 999540125 999674504 999971692 999299278 999801788 999624760 999617626 999985836 999383779 999589128 999567815 999503980 999617302 999879504 999801508 999425710 999780179 999985816 999609885 999822650 999992905 999836792 999581277 999886432 999559862 999758600 999346708 999375024 999801116 999410368 999687380 999729972 999680185
