84
437272858 -856291486 -540024552 315240032 570868621 -38674223 -1319260477 -1457609936 1690583578 1365031427 1818978131 1582045039 585471088 -1015557830 -1849374721 -938387504 392627681 1682689305 729148831 -853987230 1473779290 -1956269310 -50331841 -1093134962 180849309 -1198065250 -719822963 -1338687156 -1678062696 574967692 -1437954679 605956690 1744880375 323522595 381413886 -892813531 -93325467 1788839750 -15325771 -266540409 -661703744 -1819811992 1921920339 1059026335 -1165459269 1039512977 1439879942 -759273611 -319984287 -314802981 146058137 783634720 1956552226 -1085362560 -913638661 -1960953256 1363190099 920111248 1514059380 -160930870 318990640 -419242100 837219615 93216777 1341909560 1534869262 -1787649613 1123318506 116726122 -1888945006 -600848450 116837142 -872095785 -170261153 -1658237888 -1481902212 1857447892 430766286 761101719 -188594875 -1951626979 -1896916040 -1861771957 -944725599
