72
564732205 -1682701210 -1409737551 753418123 1648949141 -180771073 296135793 1762364843 104548701 1637681985 -1900071167 -609773177 -339229177 1679566951 186889502 -164662521 -1007618602 1898278045 -176097277 -29393276 -1848963136 209437430 -837135323 882200450 1970123726 -1414498066 -940089238 1793403604 -1850843410 -1106939718 -550523784 665993669 1634594410 1741630721 993535164 89135665 -434905771 -1829175136 112263284 -690506823 -869403634 729952424 1181897423 302620464 1873512684 841703517 311235098 -481777382 648321702 781034263 382012578 1419213778 663166593 807902794 -1477910197 305221266 -1001138872 -1436550318 1126416620 407461120 504908977 1358897735 398245556 -1806484836 -1159200718 1144499893 -113453724 452806522 185162165 -1224013659 1088850661 1306653454
