69
1979727594 -827214410 -127735876 -1907885185 -943503348 475366626 -1426977382 1675125884 -1610341727 -1698153336 -395261078 1182492426 -809506127 294487078 1617035145 -1157300669 -1866295804 -13758677 81826329 -757106865 423970516 901262066 -29219950 -1686072563 1175445653 -414805531 1953280444 524778632 -255076898 -427325100 -617361504 -147162069 -1989691694 4085432 688693435 772099545 1600319648 1422436843 -738474482 -770575223 829549721 107879897 -526672303 -1376185143 899357772 -888743487 -800463726 -796385294 1668515644 -1724310597 421156857 801482046 -1434856829 -141579113 467445457 68911000 1044734922 789223368 228325619 1111917670 1421498072 270788536 1267634832 1106133532 -42665435 185606768 -281430332 -16047496 90989130
