58
1223518638 -799679 -1161787879 -628055755 676518293 -528387453 638975911 -1828202038 1126228929 -547093317 436257691 727604663 -1573599408 -1718500461 -681758253 452263751 8620072 419688962 330118573 1682258191 1652515475 -1392542494 366135054 -716443744 -1977531365 279770734 1528320431 1316110700 778112984 -1504667269 946519662 -1834505603 -1751095234 1138691260 -58033686 -912492383 641203859 1925826070 -1847273439 -100415011 1539841812 182939339 -1347659672 -1170994671 1436288542 873895683 1586125811 -26212949 1679008245 1812140210 601413286 1248405496 916936993 -1514183938 425478831 -440461280 -1561379555 341795258
