99
1392765975 -1645706319 -955350882 -776279887 -1706476373 -1162652843 -939075301 489610467 1960062332 -100242796 -439268289 1879601403 -253319221 497247940 -1196267127 954185878 -262950962 112680243 708224756 1779126963 -1499938745 -293155283 702588001 564282126 197266889 -860495131 -995055546 -831885769 -667840014 826465135 1906648960 171746820 1088935224 -1546697615 -1983257392 -762662398 934285614 -214612188 -61075671 -374745252 -1103760810 834163701 -1341966747 313425849 463711825 -1583949867 957819607 -191961900 211119827 135847681 -1729594297 404455909 1712066462 -326003296 -632150108 770602987 326614689 705092005 -1478507602 -247315743 -812618022 -1833193189 1760772410 -1212276667 1364947129 -69238313 -1148954141 487813841 -378510001 351654840 -360370906 -295261301 -1868797250 14228513 1339316366 -586612813 -1804920452 -315388286 -883353765 -498668360 1537365790 1256411977 -664893840 -477644896 799232746 1372783703 1434527733 1785670046 1394031238 1921074496 -694024895 -669254188 -261251482 391467765 -1062649933 -562767403 1861021708 -1306806721 1423487243
