92
1058070804 1895417931 1815601683 1434033474 -991549889 -1363155010 -929833633 -342710089 276753184 -1672354873 66021608 120254431 -1582904646 -240654817 -476307033 938956179 -1767746904 737589242 -534497279 -1743780338 991062510 -1890349038 -1963790836 -983374725 546286196 1753186258 -1666395184 -779358532 -208699821 61073704 -1132929009 143195847 736170434 1605261509 352979417 1624077240 -440843930 1748835504 -677950417 -1113780750 1302690450 -759436409 1705254713 -1131097812 -623094604 856599039 -343679669 -964343930 525198592 1876840081 692706767 -1323647169 754444678 -1673778868 -526098979 1747670714 3424045 1514081231 -9907300 1198030848 -1946621694 1169023222 -747635260 -1380272629 -663810669 -1969878564 1675264324 -1030225054 422261500 395525516 744977220 1242050808 876325662 -1959059286 353113822 -1870085672 289680842 -443699051 -1347552839 733617447 992603943 -1064790056 1855516197 -13944162 1313118243 -378235343 1102716803 -354452549 -898008884 1505017165 1989433169 1665503537
