78
1780039448 -1570015827 1085868694 -1929715299 -421534059 430805993 -1996503325 -660928688 894152035 1417688594 -1963105094 -1830839861 -286541769 -631240076 -1064700744 724466510 -1174187351 98272911 -181676665 -866354907 -1035954251 689075826 -656580331 1564954722 1772976677 1388380178 74332846 -659626764 1744309513 -1320301280 603474828 1454425692 949726515 -1107672197 401990795 1097100176 824074799 -229677922 -524392675 1189703627 -1684952089 -1808159206 1991823167 -196284627 866120025 -878069858 1446356646 -663023987 162603080 1345209940 -59818955 592865091 201049830 997061129 -1965617224 1307715305 -306733208 -755129179 -1994782620 -278613274 1598641181 1784886028 -1695495375 -1347908308 196249034 463498756 -18448271 -1113176789 1845926628 822766407 538477498 -965702557 -1272960124 -113918205 369914986 1250909429 619662371 -969134403
