180
1245587529 1794717734 -1340525571 589497114 241891137 79094448 -1674445532 -669870724 1107685954 -969348400 -1121191098 -246325767 -380131648 922180665 883086006 -1395554664 926867553 1646304683 194708182 1300895549 1436557598 731263807 52451152 -296671303 -1399805711 -212781040 51835636 -1648609784 -1340336047 236287856 -1656229837 -1035946791 -1463674983 -1507471554 628983618 -374660525 835626697 -440586525 -855700337 -1967111484 54169177 -1319569606 308499176 305693421 1527156346 1564769552 -1030093661 -1653449091 -217939479 316260041 79377767 1250106728 -1159671261 -395324665 -1679954725 -84623439 -1726769314 -909591628 -1859347191 1807986166 -1080008780 1560100779 1601134428 176371306 1432354031 -952091739 1098362523 1054338056 -982123502 511621434 1927048854 -595305936 -846579798 -1876599241 -1927480005 -731355568 -1611217236 -1954987574 -1142417116 -748953720 -777003579 714569131 1178051689 114388282 -1440243188 313351985 -889150536 -1631886272 -935376398 785468256 299476205 1204138094 -197530025 -1790155210 -1123521702 -1526945147 609699016 1281452398 1487392525 -149561376 -103913908 -693295697 -640475633 -1227831407 -988997819 878110210 131535490 -540990407 1013452407 1792233709 -1997843784 -566646835 -475469046 -746905645 -851782461 -495950430 -1845228762 878476267 1264224904 -1023342201 -1484026982 -1630159791 -573486005 1441371130 -561666641 -1740721912 1193884673 -260967321 650996580 1786974190 -1936352875 -904530327 -1552884139 1683736945 -812659510 86621512 1674480737 -419517446 238802436 -674603329 551919186 871235765 -1641559811 -1772785238 -898063593 839916053 1755788536 -1211970169 -1879744144 722323716 -365803643 -1004635517 961408744 309990308 -1403187029 800977430 1013282294 1962920793 940116976 1130706858 975312993 1391776242 -673799776 1262787019 558530048 130262052 -368022651 12235645 -1501980054 906208497 145970530 -1352723072 -258616734 1699476620 -474705894 -467238798 -445316495 575355606 577503896 -946622957
