156
143147749 -1409981333 1586295562 1769177680 -1840807208 -19506935 -689567502 1792724102 -965469661 -782769265 899007122 996190236 434050098 -1540443493 -694492535 1078542681 -1844848649 -996534002 -1113238956 -995249353 -955038434 -364704653 -675847584 -497165180 361127652 -1731052236 108071427 1028852118 -925942155 -1284038226 712111602 -480965864 688323847 -1782785899 213496647 244602628 -901525093 -1857313123 -1799941854 296325656 -557384726 -1671057591 -844187767 224698778 1947494992 87581127 1374378648 643073251 -1387881793 -1917289099 -1756500098 -1465029563 1272228435 1096210138 -308206505 1477630599 767506425 374641439 -1769670656 395174397 1549530666 -235827491 -578317963 206378575 664218427 566709980 1918498498 -479999301 -132303918 -223149337 1004212626 1573470431 1235261595 785128789 -592357720 1749660125 -1149541066 -582590174 -686820162 -1044233169 1691981316 -90655445 -660727562 305282345 -482538018 1636190604 1610337687 519773356 -75128294 -466570280 1660716055 793567236 970131788 -725017589 -696083214 -1250307964 -1212496890 -974775397 731728317 -1708931528 -112373167 257230063 -1529620211 -551211458 -1381783814 -326150993 563334090 49826147 -742991036 1956536118 -993439555 -1566927056 897792636 -1032247633 -1854469863 346379684 1451980561 -1124748699 -9671139 839778109 -273141848 -575814842 737182869 -42497779 1668435256 382435230 292944530 600819000 -522279268 -1436646517 -330228658 -1975893549 694235754 -354539002 1953799134 47595226 -1976923537 -1268785166 -1721806980 -1597876240 -803319937 1522633018 786831806 1242315755 -1624705846 -1490650308 -1150958712 -458786476 -1966942548 152753007 286899185 403459926 -8861368 1035584736 372093141 113457000
