174
969589214 1243783298 -1656168594 -1060748656 -1655469575 -259670877 -550146279 -335388657 1272658652 -1127717924 1663603883 -29997610 -1056998113 1194525367 -63400285 -1315291683 -1315676151 1998449186 -1884871763 1822934821 483200661 376133846 1474297951 482932804 -269784428 -258291682 1165301992 -887292553 1840991049 664764226 -360972316 -1738174135 164942656 -1717363405 -1251721529 -828364201 1971542138 786172926 -404715968 -687964811 765542096 1944287699 -1168787683 -1996542771 1084358313 1238486720 1871477390 74490350 -912224546 1322691099 428317144 -1139392357 794729399 1969588970 -82966279 673142342 1276293788 1427120946 -1230556186 1913021847 -1278609225 461818149 1681601847 1001168725 1733467399 -1115437313 276222729 -1838762056 1975842731 287491425 -1766332746 1578126595 603357103 322395084 -1005818804 1717968498 1672158663 1344644069 -410333995 174057763 -1346030471 1151197015 679394207 104047974 -1468985600 -1579338933 1423397185 765266912 -868237517 -86867908 -1842170561 1356105610 258225780 -1695052150 -1135214598 -1599523809 -711463762 1442349558 905635551 1966639208 1439096550 1506673955 853381505 107035163 1707059278 -1089117505 372179583 -346822021 -404626250 916625950 -1247868294 1470344841 -1559778672 -1915749209 -251367506 523311393 -1368367607 -898456014 -358726994 1313951487 1507968571 1661129299 1477792144 242881526 632119869 -950845709 514445374 1162908888 -864289084 -445343118 34228159 1866673053 -614724734 -56362487 -348552829 -1435003868 954286962 -1863923883 -300641068 -1509336724 316027298 -1975868307 470318746 -1277606912 -412826625 -80128608 -569773742 -927891558 -393114535 -546445967 514050680 1849760604 -856240337 -1330306980 1031383820 -263532111 622191188 1148048633 625086036 -520936248 1967259496 365514147 1274472716 -1894476259 -682732736 -891207486 -260258196 -33780401 -537168005 -659364868 1819603936 -1700733999 -113902668 -562503394
