191
410788587 -1038540514 761553019 157447653 1161524983 -857026182 628135400 -722422261 -1832179187 1986655642 -218207823 1748029679 -1264216085 -1602231679 1164832975 -804545504 -5754810 1855878488 474040490 1384653434 -64319756 1077422336 -547099417 -1987737478 365008918 1593035486 -1231259792 -732450246 1084156767 -636371669 -788096483 -172404601 -1158141173 894005272 887460085 1926689580 282171167 1836601752 -1928748660 522218218 -1833087174 61481579 -471070087 492563626 1233463947 1212382192 129138767 1052159416 -838857802 -1632258032 594329968 -1629971862 1765930272 1568580719 -639712073 -517423266 1607925315 590909107 -401122065 -1806546352 -91526249 -838975286 -1395416131 515682161 89255666 -1010598929 1055814597 615956047 -1593411600 -272843988 -544719862 -676613026 -1131558390 1872285174 -900249367 -1714303577 1143517971 1484602466 -1533401017 -1656490768 -1121370622 1604486993 -1578880250 258685146 -648096061 -1164472547 -187720189 1042090048 302926354 -880966523 -883267321 -652776504 251217810 1021734861 1638107064 1599406412 -1630299273 -366032378 -560893178 -394220342 16235952 -839729053 1928210273 -795051767 -423643168 -1843634570 -1757373616 -91095904 -1098933237 288540352 -372013033 -1722305216 1235555517 89679491 639719647 -1694162986 -975357226 1510802452 1474981221 923981779 -896688430 792739257 909030481 -1792998110 1773550652 1054413554 596178024 -725707994 56126122 -1258799422 1673848922 1902982747 917095856 1533102831 -812775207 64973709 -163823441 1636675224 203020794 780104716 1010348558 -329959294 1973894908 -1424475554 -851184978 1958630858 -1095482255 -411431869 -1214146970 948015389 -73424493 296405460 1331166603 490408669 628632892 -1862733229 -1797277098 94790735 1775557691 47779395 -594190836 239108636 -788656241 1647616241 -652197767 191392732 1988909447 528934682 1528573361 1529010845 1944023507 -1734277216 -1744615286 -716730462 -1062835059 -1906567513 -429346897 1581061557 110812940 -1124086773 -748660777 -1671933063 94569997 -1978545526 -8860092 413622637 1101396629 1596281115 -129558045 705077687 633803862
