191
755839484 607836572 432003855 -1874322747 1206976168 1661624675 -605101843 517329726 -1367626480 1121910869 -1580432838 1435082223 -737065154 717438683 -1701170862 -1701211493 212873580 94129338 1478131866 1003053490 949944853 -204070094 -1361646115 -1264933570 -1847293919 425262666 -1775463114 -1408348755 641212374 173357718 1422924052 -97454133 239154280 1378800299 1177740376 439540683 1209315235 -1409722847 -849141100 -21308923 -410972408 933094852 -1002417628 -588361794 -1483976090 -1874975689 -92898844 1407643884 -1296757235 -1368334101 -1889165211 418886646 -1537175555 1747051607 -380755929 -1063834100 1179910148 -832502622 1935318559 -1305539718 -1074435127 -1652677486 -1600773543 -1242736096 944126892 1121846434 646936048 -959003356 1581203419 43890785 9852494 -74131912 1724784125 420632942 630055572 1907560636 -842682477 -1198978573 -1317522297 -1077890103 1096785798 1140245072 403762982 794151671 -519028065 -1397805090 1346359376 1829231391 -1231344852 -297006138 661501270 -446759590 -1956933286 -620098453 -1821545051 432222429 -801542188 -332025012 1043845864 515974842 -661833095 1186196170 -1346546964 -1824772171 391443722 -450825639 1734853863 397331762 387087396 -1671247170 654142410 -118054236 -5921639 -1078050221 468897534 -1052424839 -700206450 -275802168 -402169406 -713795141 -1374526139 1962483822 773951793 -1135486953 36155744 1573713272 761703847 646083137 -368229804 1651883949 1602184706 -316068608 -618634521 -61246659 -1122832968 -1930287642 1368595911 532856734 -1245323429 -974757353 -1969592684 1641524733 -1641178181 -684879029 -73614448 -1151386086 339819965 -1816690904 -1901955950 -1087026121 1532632231 -1348991386 1720615756 91020071 759519100 -1200987828 -195359947 319352115 1189033304 -1271577112 1113523725 -1737168537 1984640692 967777250 413189063 -957924672 -1050994571 -1048097519 -1496025479 -1432180335 -809732229 -1509831821 -1985784943 292593526 257338107 1018998430 -156401202 1546662630 1108885653 -1661043467 -240485709 625854926 523609318 1147562678 841447577 769169968 1418094890 229925427 -807572838 -986313663 329444225
