184
1378056695 605828440 1823517805 18950779 -594723885 -1371041687 436410984 956437926 -1941034624 -463266053 136890184 -1751964965 1307246440 1372944754 -1085346440 -264749691 651019240 -590538552 371975484 -1967032513 -1958984352 -955913851 333452916 -801968340 -1844622331 -1617681940 1477391920 -794053538 1063977255 1197556944 -1513407412 46688765 -651990705 -183263819 -572960897 -1750881816 -1800559161 906002308 -663089596 730880892 763400894 -1958461296 1298353889 1164914528 930304174 1466102412 -765202664 -122621499 1778718814 -1498350567 -636034192 -703313481 -116219710 -165036958 -1676532357 -972444805 991260813 376366685 -1728580335 -783976708 551396947 352689057 873240846 338265094 -1504888961 1986532420 938350872 -349533034 -1170128545 265380643 -1038887683 147829167 -229621869 324996992 1953043604 -951528033 -1598894692 -1613470862 -1469515006 1689799708 -722238231 -864605588 -567978907 -202769462 -996079306 178464076 863979052 -1817222342 1032876297 -1057386675 21315613 175849571 1668511903 -33026770 -1192828187 -823000927 -1239072382 -19087977 1501858831 1306238295 1211437997 438397697 552294135 1075534119 343972581 1379776801 1197380045 -1316749474 -1414318955 421744407 546372326 -1441453632 -452150371 1042474753 1766076654 -1588315283 -1200114101 726309287 407564364 -1951747091 496644518 770365845 1607703628 1452570223 183155590 -934286741 1706572209 -291206646 1957838393 -1525146641 647872134 -482873417 713409965 1732895549 -1265865450 -495198494 -1726352661 -533453620 1978926572 1734426742 -112836535 -514399949 -776742680 -884710862 206533818 1602761818 -1026911416 955632230 -1069808939 1288998517 1949697446 -803852391 -1262503025 365604420 496788950 -94303347 1018798784 -1640644749 319946018 -361443209 458677015 1231644789 958212545 704375205 -886577916 -1766847528 1290643375 14902108 974784650 -1350964810 -493385633 -618410223 416689142 -321370980 724713804 1275528917 696491142 -521203758 -806155810 479852128 -807896722 -1766617749 803285431 408322841
