163
612266508 -618992910 265846626 -718408172 -941632236 1252316570 -629630016 -796949843 -1700561247 -1083473202 -1161424251 1034536975 -1759322522 -1779110624 462233200 513465937 -1209409385 -669751789 -98028646 560316419 -413283430 -272911892 1419813657 1503171270 1977295154 -755778166 179966537 33984562 967229385 1839530562 -668014960 1701909099 21000293 -1037548268 -1582499699 -817760393 1971333545 905533110 500211610 -857303265 451290276 836612300 -481958465 -258208765 1965681491 -1257165193 405647193 1568032907 -982669328 211946887 729611176 836829099 -1695895398 7324326 369209604 -1210149632 456988105 357550000 155880201 255061614 1905901380 255985570 1294463874 1380338823 550498172 86525885 -448259819 1508275484 -1510931761 1187850840 1691133516 -1855267507 -1647560070 -583196148 -1894141570 1617182032 1217126920 325213519 -443571692 1040223891 1575347612 66589988 1164850835 1398449571 1522383730 1046393460 1772421154 618362971 503723483 651594612 -1174297822 -607522964 -1850584117 867748942 1522787165 -1182071472 1036306168 -380615103 -157850833 51368551 901320678 1276158357 -1203658508 396893961 -1241841386 189472408 1057767997 1975557919 424066495 1904856477 -929424483 -1149045788 -1034365242 -645186745 1679129608 912866084 -740909106 -58994740 -938581198 -1906366271 795110315 601354638 -1317395432 1653339401 -536970964 778333287 697476665 134964829 -928746807 -1749880481 1394138790 285569424 1208306686 953895022 -292145226 773651183 899612586 992870587 -1946827153 -1007062806 -1273015435 -757303783 -1283357259 1219931918 334546094 -1675782391 393840376 -1990505617 1993550138 -485500125 1487158179 390614607 -1970003584 1114180411 -290264084 101987465 -1676942532 1639487148 -1751988743 650122294 1703497531 352409968 -1905929586
