117
1879933086 -645523779 117434381 -1506623086 -1964947597 -943771203 -1298039796 -624272949 1787938539 631767497 -34288707 1771774163 -115353985 -182865576 -779808752 817207966 -1826164070 340035088 -535121397 1334363759 819023563 -438900949 -958357600 -1446254483 -94601713 -1581437781 -1561743680 -1124191649 -1283871197 856095371 1682231021 -1760813959 1721167552 1600524551 53227289 -1405704429 -1107903337 -750191777 -1291152349 1966931885 1662030285 1752393522 1559358943 378841249 -1849508387 -1044385973 144471244 1550696626 738688884 -411395260 1536255280 1027936884 -1641808257 824126765 1863682412 -788609289 -991167812 1032001406 1316242264 -1148182282 1823575845 -864711233 -268001682 1855597546 1577198103 426212921 667626367 -1297160416 689186802 1579850715 -1709830512 -680995954 1804457761 1753500576 -28497002 -1866874605 -530901135 492410169 -1561997198 30561506 -644651031 -1420927425 -767176286 -409961964 -701426458 1307794441 1423816679 589768870 1265803749 372302085 1486830072 -1688464026 1997894227 1466130143 786735413 370777237 -1572565063 599934667 -1184949133 1419480434 724695578 1094276473 1452931729 -1191284228 805781420 -730556354 -189548285 -1535346279 1165874543 -1452964510 -842296791 -49021789 -934130695 -1622741948 -609263073 1553233988 1006107477
