161
1499395370 743967303 -1519558105 259900683 -999079659 452528936 -455856405 -397107781 -1646515639 404556375 222983323 -545255490 99295689 1189405234 -1551925647 638517033 -574362437 1506647694 1827937952 1669747900 1739499191 -1752396546 -1196242300 -529659233 1547612475 1374340116 -16367561 -1105708372 1491921607 1790515363 260907275 78382006 -1218922482 1867655940 -268488257 467583243 550276635 100328916 1276256621 1770441721 -1921162273 1265750038 925500608 1581166931 -301726041 -1427607293 -1086762217 -276053060 1586751683 -182340011 -1308918736 -330455729 1743371480 -1379684776 1012350011 48295085 -738141392 143327790 -1406153839 596805633 -1667982389 1970594321 -133471720 -872029668 1033829124 693198262 664953697 -1358854054 271129622 1982116639 1417985630 -412819428 -1858128023 1350725932 -264909946 -10664732 -4573381 -1932713997 -1039260634 -899540423 -1291730729 -1086798893 1972302136 -1887039449 -299925198 -1229361569 -304777596 704427026 501691266 -1122816273 1646736291 -495589174 -312606704 1754748324 -743782283 -103289696 1268181940 -1943437760 1606270057 -901688400 1353641421 956814846 -1045716093 -846569513 -1417645785 -1931338551 981028124 1807670085 -990826190 606781083 1093790785 -728487953 194738145 -1181231937 1463994496 -1130781182 715738351 1495461656 -758741649 719617854 -997686468 -163995639 -832159380 -1552994512 -109794483 -1375127866 -290829005 596033304 -1791356487 -471716040 1166613644 -229396761 -568541096 -1296534442 -570404597 1494340283 -32230927 1567531336 956237810 1272836786 43771453 1708213224 -1344128736 1112813137 -198287559 -1806976625 496561122 1381782394 -405652041 1558565528 128342873 402639424 961365065 -209363911 -35323789 -972099188 -1762246509 -994464572 -283176018 1121639203 -1146187094
