476 725
-998585485 -995930823 -991022832 -990827995 -990564730 -989581265 -987547533 -983739463 -978686518 -972126491 -960860120 -960841076 -959623498 -956772830 -949239687 -946381268 -940192387 -934440398 -925622092 -910988175 -910904659 -910460578 -909753154 -898676407 -892222322 -881207530 -877335954 -874254445 -864457439 -854567725 -850621307 -849963807 -849228164 -848541349 -845473604 -839505758 -831570672 -821485853 -820756065 -809226063 -808987588 -804491186 -799800906 -795601851 -783992642 -783611643 -782842482 -780798476 -780739041 -779998387 -768440491 -767867911 -766660757 -764844415 -762878382 -762180948 -756765065 -749012608 -747272806 -742278369 -739969259 -739429078 -737261233 -734709299 -733341881 -720157898 -719673369 -708314896 -707129467 -706106898 -699931462 -694020417 -692015045 -684515710 -679770312 -670500133 -668876326 -668168519 -664902632 -654048130 -652822292 -651615637 -643454317 -643079766 -642611280 -640213509 -639929166 -638101030 -634829138 -628735005 -628728978 -611187572 -609427535 -592804403 -591814763 -589770327 -581790481 -579857204 -579721031 -578493591 -574868328 -573766940 -571222506 -569820601 -567476113 -566437997 -565665893 -561877327 -561683391 -560335233 -549169667 -543290675 -542795999 -534753634 -534363692 -530569267 -525063122 -520707882 -510936207 -508577205 -508330887 -493098108 -489244330 -486331958 -465838487 -454229464 -446870860 -443132255 -438734998 -435869117 -425499972 -420978199 -417107172 -414378328 -408565678 -398811952 -390955906 -390385253 -389825191 -369037090 -367375622 -364369664 -361693252 -357363974 -350369292 -333499186 -331926349 -330777241 -317839983 -300372083 -296074748 -293502593 -288329119 -284848248 -283195276 -281342401 -277907836 -275340186 -274008842 -273639150 -256921513 -241573930 -231136879 -224221043 -222739885 -219093931 -217602829 -216468945 -211556349 -209041826 -197956148 -188341008 -185778201 -185640834 -184581521 -183861746 -182267243 -180666327 -176191451 -167869706 -167859786 -142379034 -134231102 -133758850 -124245266 -121313992 -120629378 -117790042 -110071529 -105573181 -104912806 -103698713 -102638556 -96879713 -93436585 -80023576 -75026348 -72964275 -69970056 -67555780 -51638473 -47338339 -47198297 -47156371 -47154899 -44312660 -43050804 -36263733 -34331838 -32707756 -25397577 -25322399 -20797606 -19264525 -12627489 -9753159 -9671898 -8450024 -4094722 -1991709 925272 6966928 9105961 10519019 11554795 13358741 17325107 21309345 33279002 43312773 48551249 50336850 54639449 55893525 56454776 59829687 63920951 71712802 91142592 92617804 93121539 96176399 99235289 99280286 101709025 102314678 102410805 112381771 118878103 119611417 120770312 121150636 121537580 126018645 132887892 135588866 142309048 145050304 146426206 147271105 148291364 155669265 158290910 158662729 162896074 166856222 174587825 174889893 181353124 181828329 184222479 184232857 187813618 189624406 192172075 215281172 215554459 219289297 222868531 222876346 224506418 225074138 227104220 228573114 243405496 245399458 246591497 248200267 249102350 250820386 250930250 251062892 255444673 277057814 278151859 279437922 293780445 300296396 308281810 313907146 321844275 327900187 329615337 331622729 341488434 345694685 346564007 346730481 347301606 348483886 353448031 359114791 361462426 361866270 366182822 367622446 369066894 387049711 389229280 393398115 397262046 410525631 412246116 414788998 416506111 419959606 421819581 422397146 423905824 428193600 429218391 431811644 437150880 440584334 443466923 445289568 452702547 472184540 478240043 480998552 481455020 482584112 484205617 490129823 493275620 501252754 506014991 512262138 514344238 519722908 520522262 527274668 535239024 535637566 538674449 542440613 546935489 549647414 555939621 558992966 562739830 563703716 565100677 567734983 569288094 569828750 570212860 572407528 582190321 586704825 593084070 594001336 597451281 597518218 597707375 600435396 601840653 604896779 605417111 620411202 621631900 626995704 630153370 632349207 633980453 634568905 634621170 636054835 640758595 649887783 650024520 656858406 657929122 660280987 661112389 663207366 667652203 668603039 669537903 678391664 688449184 691836447 692129669 692329797 700068683 701356762 702616004 703064598 709946536 725698128 726523212 727442247 728767324 731797427 735386942 747772253 749220033 751311394 754151772 756280437 757191966 759418466 762729281 764380305 765104189 767489855 774800945 780560321 784333613 786878824 791320931 791540185 792849205 799939691 800768531 808205331 817422945 823610036 834223007 834420132 837442731 840095772 852542913 856125187 861925485 864452360 864656518 865754669 871665787 872503903 877741341 882896355 891082954 891473147 898610198 907307421 907899520 911004704 914695035 928142184 931161209 938318433 940891120 945989828 951035689 952218875 956137026 960514106 966725062 968139495 972113251 977358310 981516334 987946216 994587072 999100522
-998585497
-998585517
-998585486
-998585584
-998585578
-998585568
-998585523
-998585493
-998585542
-998585568
-998585515
-998585494
-998585553
-998585570
-998585570
-998585563
-998585581
-998585552
-998585506
-998585540
-998585552
-998585582
-998585572
-998585573
-998585561
-998585536
-998585502
-998585537
-998585513
-998585500
-998585584
-998585521
-998585580
-998585572
-998585530
-998585504
-998585507
-998585490
-998585543
-998585543
-998585521
-998585577
-998585539
-998585562
-998585564
-998585510
-998585573
-998585552
-998585522
-998585531
-998585566
-998585491
-998585526
-998585506
-998585498
-998585578
-998585523
-998585520
-998585579
-998585510
-998585534
-998585487
-998585500
-998585500
-998585534
-998585497
-998585582
-998585494
-998585572
-998585510
-998585494
-998585579
-998585544
-998585575
-998585574
-998585486
-998585569
-998585583
-998585500
-998585537
-998585532
-998585566
-998585526
-998585555
-998585554
-998585553
-998585513
-998585513
-998585515
-998585549
-998585584
-998585497
-998585563
-998585533
-998585555
-998585575
-998585538
-998585520
-998585518
-998585576
-998585500
-998585522
-998585569
-998585508
-998585575
-998585515
-998585487
-998585493
-998585493
-998585525
-998585532
-998585582
-998585524
-998585499
-998585507
-998585515
-998585557
-998585496
-998585503
-998585575
-998585497
-998585505
-998585522
-998585516
-998585497
-998585527
-998585580
-998585531
-998585495
-998585520
-998585561
-998585572
-998585508
-998585486
-998585520
-998585488
-998585555
-998585540
-998585581
-998585504
-998585501
-998585498
-998585570
-998585540
-998585498
-998585555
-998585548
-998585538
-998585504
-998585529
-998585567
-998585573
-998585506
-998585509
-998585517
-998585516
-998585548
-998585502
-998585529
-998585505
-998585565
-998585501
-998585571
-998585523
-998585584
-998585529
-998585585
-998585488
-998585506
-998585539
-998585553
-998585544
-998585527
-998585554
-998585541
-998585515
-998585585
-998585573
-998585569
-998585511
-998585508
-998585495
-998585583
-998585577
-998585496
-998585551
-998585550
-998585511
-998585546
-998585498
-998585496
-998585520
-998585535
-998585536
-998585507
-998585513
-998585552
-998585505
-998585494
-998585518
-998585522
-998585568
-998585534
-998585512
-998585538
-998585496
-998585584
-998585514
-998585566
-998585567
-998585519
-998585559
-998585527
-998585494
-998585585
-998585578
-998585515
-998585531
-998585551
-998585552
-998585537
-998585502
-998585539
-998585515
-998585527
-998585530
-998585565
-998585557
-998585499
-998585509
-998585498
-998585551
-998585585
-998585513
-998585548
-998585556
-998585532
-998585534
-998585488
-998585570
-998585553
-998585495
-998585561
-998585486
-998585513
-998585491
-998585529
-998585490
-998585489
-998585500
-998585514
-998585567
-998585492
-998585498
-998585575
-998585519
-998585525
-998585520
-998585551
-998585531
-998585559
-998585531
-998585538
-998585508
-998585508
-998585541
-998585492
-998585560
-998585515
-998585510
-998585499
-998585549
-998585492
-998585554
-998585492
-998585504
-998585518
-998585538
-998585582
-998585520
-998585534
-998585558
-998585578
-998585574
-998585557
-998585543
-998585542
-998585486
-998585546
-998585549
-998585570
-998585523
-998585502
-998585506
-998585575
-998585509
-998585537
-998585566
-998585530
-998585543
-998585511
-998585580
-998585540
-998585522
-998585526
-998585490
-998585537
-998585570
-998585539
-998585493
-998585529
-998585510
-998585492
-998585543
-998585547
-998585563
-998585564
-998585566
-998585568
-998585495
-998585557
-998585520
-998585570
-998585560
-998585524
-998585527
-998585507
-998585548
-998585527
-998585558
-998585556
-998585547
-998585491
-998585544
-998585547
-998585526
-998585557
-998585578
-998585520
-998585492
-998585487
-998585496
-998585497
-998585495
-998585506
-998585561
-998585557
-998585529
-998585527
-998585557
-998585560
-998585572
-998585521
-998585525
-998585531
-998585534
-998585498
-998585486
-998585491
-998585539
-998585527
-998585507
-998585502
-998585571
-998585559
-998585503
-998585541
-998585498
-998585543
-998585490
-998585549
-998585529
-998585507
-998585556
-998585506
-998585549
-998585486
-998585543
-998585574
-998585584
-998585491
-998585499
-998585487
-998585532
-998585520
-998585551
-998585573
-998585547
-998585489
-998585534
-998585555
-998585531
-998585569
-998585510
-998585506
-998585543
-998585497
-998585565
-998585520
-998585521
-998585575
-998585583
-998585542
-998585550
-998585537
-998585517
-998585567
-998585499
-998585522
-998585569
-998585572
-998585552
-998585584
-998585510
-998585491
-998585500
-998585572
-998585502
-998585574
-998585565
-998585557
-998585486
-998585552
-998585556
-998585538
-998585584
-998585563
-998585504
-998585492
-998585568
-998585514
-998585506
-998585529
-998585524
-998585564
-998585530
-998585553
-998585493
-998585529
-998585509
-998585537
-998585548
-998585492
-998585560
-998585490
-998585558
-998585531
-998585502
-998585568
-998585525
-998585554
-998585527
-998585525
-998585584
-998585576
-998585505
-998585496
-998585523
-998585519
-998585528
-998585579
-998585487
-998585536
-998585530
-998585561
-998585558
-998585566
-998585513
-998585552
-998585570
-998585512
-998585537
-998585567
-998585543
-998585568
-998585516
-998585554
-998585547
-998585525
-998585556
-998585559
-998585511
-998585577
-998585496
-998585549
-998585523
-998585490
-998585559
-998585489
-998585567
-998585557
-998585517
-998585570
-998585571
-998585566
-998585508
-998585530
-998585565
-998585509
-998585549
-998585578
-998585576
-998585551
-998585570
-998585522
-998585493
-998585492
-998585544
-998585555
-998585570
-998585575
-998585545
-998585575
-998585495
-998585511
-998585490
-998585581
-998585512
-998585585
-998585546
-998585560
-998585494
-998585577
-998585514
-998585498
-998585511
-998585498
-998585538
-998585570
-998585502
-998585536
-998585511
-998585508
-998585562
-998585510
-998585540
-998585492
-998585577
-998585552
-998585569
-998585506
-998585577
-998585506
-998585487
-998585499
-998585497
-998585505
-998585514
-998585517
-998585540
-998585566
-998585563
-998585512
-998585510
-998585494
-998585570
-998585543
-998585544
-998585557
-998585553
-998585578
-998585527
-998585530
-998585542
-998585495
-998585496
-998585534
-998585541
-998585545
-998585520
-998585550
-998585575
-998585492
-998585526
-998585517
-998585558
-998585567
-998585526
-998585566
-998585560
-998585557
-998585548
-998585571
-998585537
-998585537
-998585495
-998585497
-998585556
-998585540
-998585568
-998585506
-998585559
-998585539
-998585535
-998585553
-998585530
-998585499
-998585491
-998585537
-998585492
-998585536
-998585503
-998585528
-998585504
-998585534
-998585530
-998585518
-998585559
-998585567
-998585559
-998585561
-998585494
-998585520
-998585575
-998585552
-998585532
-998585503
-998585554
-998585562
-998585489
-998585532
-998585545
-998585545
-998585489
-998585574
-998585582
-998585509
-998585556
-998585513
-998585561
-998585492
-998585527
-998585535
-998585491
-998585574
-998585501
-998585582
-998585573
-998585551
-998585521
-998585489
-998585584
-998585526
-998585559
-998585517
-998585585
-998585516
-998585503
-998585505
-998585576
-998585487
-998585508
-998585504
-998585559
-998585548
-998585508
-998585518
-998585572
-998585501
-998585534
-998585501
-998585569
-998585549
-998585533
-998585516
-998585534
-998585544
-998585542
-998585569
-998585578
-998585490
-998585517
-998585489
-998585499
-998585519
-998585568
-998585576
-998585571
-998585540
-998585540
-998585525
-998585569
-998585494
-998585561
-998585546
-998585487
-998585553
-998585575
-998585573
-998585523
-998585499
-998585565
-998585517
-998585517
-998585563
-998585499
-998585572
-998585562
-998585533
-998585574
-998585498
-998585553
-998585518
-998585555
-998585539
-998585580
-998585502
-998585533
-998585572
-998585574
-998585539
-998585563
-998585582
-998585561
-998585565
-998585521
-998585531
-998585499
-998585518
-998585523
-998585566
-998585577
-998585555
-998585519
-998585584
