848 958
-997114360 -996615331 -996248339 -995254160 -994992676 -993532237 -989316054 -983787844 -982655581 -970339656 -967714073 -963217747 -950562364 -949819782 -947414670 -946885935 -939171200 -939151338 -935469536 -933708597 -931288265 -929476488 -927351305 -925500888 -923759961 -922762507 -922573061 -914175628 -910660962 -910244823 -910220130 -906925372 -900691186 -900204615 -898463073 -896465178 -893542337 -884380445 -878210204 -877819112 -874683793 -874224386 -873038830 -871404544 -859881251 -854630242 -854542183 -849404128 -847344505 -844863689 -842328686 -836989516 -834483295 -834104376 -833163879 -831927975 -829059893 -828644650 -827140277 -826555306 -822876175 -820764032 -819783547 -816504135 -814943484 -814584730 -814348022 -813340550 -807113218 -805360050 -804583245 -801609286 -800245915 -799067512 -798734661 -794127286 -790087548 -789986887 -789126923 -789109583 -788625051 -786990161 -784239469 -768102595 -767572471 -767540263 -766283076 -762588222 -759876634 -757543804 -757174335 -755600612 -752201097 -749709510 -748328102 -744855936 -744461276 -740186171 -738570588 -736334558 -731788007 -728304298 -727846811 -724388546 -722827045 -713772589 -708486003 -706511445 -698749164 -698251272 -697755382 -696991613 -694364173 -691504644 -683261964 -683231702 -680554665 -679903015 -679366092 -678708978 -677991593 -671662447 -666983232 -666537266 -666500135 -662290256 -662048570 -656516072 -653507204 -652172750 -649573967 -647553944 -647033738 -646857632 -642238768 -641457168 -638927063 -638217000 -637599517 -634437401 -633669345 -632125665 -631982432 -630997652 -630734250 -627471913 -627253367 -627077264 -625623100 -624631780 -620420708 -618596345 -611900229 -608137848 -607757308 -602969278 -600763900 -597835977 -593445300 -590589195 -590586417 -586008507 -585638015 -585070925 -584354385 -584264216 -578654469 -566662800 -566608114 -564166515 -562485379 -561204210 -557876268 -557455880 -555322498 -553830054 -553460003 -552913695 -552808382 -549422583 -546948281 -546886642 -545715494 -542031193 -540653341 -532945447 -532773914 -531266980 -528304787 -521752800 -518179214 -516102874 -513059313 -508041337 -504683834 -502480642 -497988118 -496869485 -495955724 -491959267 -491024068 -483500391 -482762072 -480235972 -479709011 -477339037 -474979148 -474374478 -473812152 -472189914 -469552914 -467857110 -462391078 -458927371 -458656199 -458059390 -457175934 -456587327 -455609113 -454874283 -452311575 -451468294 -445045538 -440586361 -438083195 -437650789 -431411082 -430926101 -420730426 -420573396 -419863762 -418784548 -416565812 -415897591 -414114090 -409046606 -407038018 -406408802 -402234611 -399765849 -399603140 -397770658 -396441996 -393307734 -391724508 -388679713 -386708061 -385263635 -381465138 -376478394 -371700309 -369118772 -367611800 -364585037 -359850877 -357497756 -355948667 -354342605 -349930072 -348926730 -338672216 -336558820 -335879578 -332840745 -331468091 -327237063 -325887777 -323781661 -321660223 -321418483 -317134103 -315238703 -314789151 -313466321 -312932024 -309189086 -309109593 -307623446 -307296280 -305907106 -305423090 -304538561 -303211851 -298904052 -297522164 -290391060 -288025401 -280686872 -274328080 -272636176 -267905097 -264332657 -264063629 -260974417 -260078261 -258429275 -255391445 -254873189 -252721590 -252684398 -252671016 -251142023 -250890456 -250378042 -246039838 -238163687 -235011401 -234541911 -233834303 -232349002 -223444084 -221036980 -212340373 -211449603 -209926975 -202385026 -201163495 -200347889 -193143747 -187938563 -187471013 -185860554 -185829032 -185632603 -183449840 -182996520 -181773877 -181196376 -175526488 -173432209 -172741317 -170107363 -160772818 -154709967 -154325653 -154036216 -149787486 -147341080 -145839905 -144343687 -141219671 -140851664 -139460786 -139055102 -134293050 -133394580 -130275003 -129008768 -128805586 -128483522 -123650672 -123455964 -118025492 -117971913 -111307879 -111224898 -109535119 -109171898 -107758907 -106062442 -103807168 -98969628 -97822554 -96380333 -90769600 -89284579 -84065344 -82029002 -81677317 -78256531 -77435363 -73983903 -73215973 -70213923 -67882667 -65289523 -61481348 -59492888 -59474455 -57868517 -56547120 -56201473 -54066249 -52510082 -51651298 -49223931 -48848887 -47804487 -47754950 -46490611 -43582182 -42053986 -36983904 -35038779 -33555766 -32587708 -29268738 -27978355 -27623147 -25331611 -22862136 -19283649 -16123292 -16098068 -12983945 -12132465 -11792539 -7219811 -5276014 6859087 11633353 15783461 16087834 16338398 20790480 20952696 22497966 23093381 24735539 25646136 30112139 30183450 30941569 31110405 31302981 38408679 42695271 45349132 45846868 46667170 48184069 56072332 56565392 61029948 66218478 67303825 69157960 70005008 72515444 73913007 75023848 75039823 77949043 78632097 82916002 83794088 87758108 87909377 88803584 91480310 97151716 97503155 99771079 100703603 101507198 105080993 107570022 107934555 110735107 114933425 121401058 122824352 123549232 124739773 130325628 133572691 134666578 142781966 142887581 143729175 145533642 148860049 150882420 151845399 153430822 153591468 161305360 162192770 163418005 163585403 165094281 165828955 168221183 172417603 173578862 174540078 174939930 175519509 178841631 178886778 180095710 181654185 185789294 185904349 186968379 187805940 192849918 195342119 196240547 196262965 197919763 198307300 199335110 203053410 205281044 205792416 206821722 210638495 211300643 211936066 213960773 223217908 224530033 224891704 226267911 229421034 232748836 233733498 234071646 237469975 239213629 239963051 243461256 243479745 245564944 245917074 248906110 249767372 251373070 252782393 254652917 255507037 257537227 257886404 260554452 260832630 262453975 264362341 268693756 270435377 271189629 274773832 277046949 281017516 281071244 288659928 291401223 293114917 296691499 298869370 300284946 300452750 300574223 301721085 301808331 307670315 309016830 312286279 314275115 317382517 318276169 320898617 322606854 322964244 323694809 325528088 327559718 328341912 330096476 330410322 330983763 332236363 340291528 343965739 346015858 348859482 355824463 355913477 356187838 357629023 359913379 360759863 360980933 361425734 367621223 370730386 373291948 373952606 374372860 376070403 376515996 381204000 383368976 385349180 388974295 389044300 389741454 390466222 390532207 392104960 393234720 396873807 397657345 408192752 410185573 410672466 411342501 412911156 418538983 418779943 419772367 422009749 426437822 430362477 432767048 433568190 434315844 438871405 439131078 440185380 441949460 442400094 444818677 446023416 446331047 447203390 448069256 454923949 457754139 459818833 460307577 461335773 466501252 471190126 471356683 471468217 471613851 473177068 476184888 476373522 477117489 483808788 489196858 500241846 503378560 505469224 509027229 511593092 512407968 514793105 517737491 518893455 518943852 519611366 521452981 522517003 535538990 541788442 545318719 552322007 553213640 559288198 560654788 566113607 566754525 570747642 576080118 580805558 581138908 581464476 582356531 583927400 587784196 588897741 593243028 594971314 597825390 605706394 606355123 606632711 607730851 607775459 608651343 611849898 612151867 612449897 612939195 614749485 618214529 619420857 620307289 620686100 621490157 623032005 623191129 623576122 624997178 626202911 626497099 628599762 630192885 634053761 634784702 636679500 639790328 647285464 647848587 650074869 650745087 652648816 653934176 656551568 661808735 662700823 673937340 679485361 680614592 681313206 681417128 693014504 695150090 700757659 700958673 705844440 707257139 708829001 709093941 710977669 714531269 719649727 734470842 739359761 739696421 746075524 746782034 747985102 748316561 748738904 749459446 752279485 758169498 760676455 764803997 766219435 766700533 767226124 768134526 772808455 776346380 778982320 782392549 782413223 784668091 788639136 790340288 799614241 800171798 800566524 801226611 801658044 805864318 807046325 807249434 807949438 808542006 809565328 812073784 812766245 822103344 824223409 826873035 826882300 827332619 827898521 828121768 828772229 829827410 831296340 831866489 834182505 836434676 836451722 838776249 840171278 841815606 842896353 842968229 844220213 846506362 847858048 847966754 848564145 849571572 854829526 855421594 856390942 858363268 859660844 860016706 861315159 861787942 863399759 867424842 868322035 870401627 880382093 882818792 885656680 886664978 889249349 894705543 897208803 900445756 903807175 904711302 908616960 909399261 909515428 917058845 919961175 920856407 921277878 921394427 924151507 924776003 927829714 931318189 935102600 935345165 935989739 938678488 943615313 953074363 958611860 963158156 963316608 963338074 970514756 971715770 974341747 974433925 976649890 976763346 979071394 979562934 985481723 988016000 989717791
-997114443
-997114428
-997114446
-997114432
-997114445
-997114434
-997114460
-997114455
-997114386
-997114410
-997114444
-997114444
-997114365
-997114399
-997114392
-997114453
-997114457
-997114397
-997114428
-997114391
-997114403
-997114422
-997114387
-997114410
-997114361
-997114387
-997114402
-997114392
-997114426
-997114431
-997114431
-997114401
-997114401
-997114419
-997114434
-997114421
-997114366
-997114437
-997114397
-997114370
-997114383
-997114419
-997114368
-997114456
-997114408
-997114434
-997114372
-997114418
-997114407
-997114401
-997114407
-997114364
-997114393
-997114396
-997114398
-997114395
-997114380
-997114372
-997114454
-997114384
-997114441
-997114443
-997114439
-997114410
-997114411
-997114423
-997114424
-997114444
-997114404
-997114405
-997114391
-997114397
-997114389
-997114454
-997114455
-997114452
-997114385
-997114390
-997114427
-997114439
-997114448
-997114371
-997114389
-997114378
-997114447
-997114434
-997114386
-997114410
-997114400
-997114423
-997114424
-997114374
-997114418
-997114368
-997114418
-997114411
-997114442
-997114385
-997114447
-997114441
-997114367
-997114424
-997114439
-997114371
-997114445
-997114447
-997114364
-997114426
-997114382
-997114452
-997114459
-997114428
-997114425
-997114425
-997114451
-997114392
-997114365
-997114401
-997114405
-997114372
-997114426
-997114414
-997114459
-997114440
-997114382
-997114411
-997114368
-997114399
-997114377
-997114391
-997114427
-997114450
-997114409
-997114417
-997114378
-997114395
-997114459
-997114459
-997114393
-997114453
-997114432
-997114411
-997114407
-997114456
-997114441
-997114442
-997114421
-997114372
-997114428
-997114444
-997114369
-997114426
-997114361
-997114458
-997114380
-997114389
-997114435
-997114437
-997114460
-997114442
-997114398
-997114374
-997114447
-997114426
-997114444
-997114431
-997114417
-997114404
-997114372
-997114433
-997114414
-997114440
-997114406
-997114384
-997114384
-997114427
-997114390
-997114435
-997114374
-997114445
-997114429
-997114403
-997114368
-997114370
-997114414
-997114373
-997114361
-997114453
-997114450
-997114440
-997114374
-997114365
-997114393
-997114378
-997114460
-997114367
-997114394
-997114431
-997114397
-997114386
-997114390
-997114405
-997114454
-997114438
-997114450
-997114377
-997114417
-997114405
-997114381
-997114380
-997114402
-997114406
-997114366
-997114372
-997114411
-997114459
-997114448
-997114427
-997114450
-997114420
-997114441
-997114415
-997114415
-997114371
-997114449
-997114392
-997114399
-997114437
-997114365
-997114366
-997114427
-997114367
-997114387
-997114454
-997114427
-997114408
-997114438
-997114431
-997114379
-997114436
-997114414
-997114411
-997114408
-997114367
-997114369
-997114409
-997114437
-997114416
-997114451
-997114408
-997114434
-997114430
-997114439
-997114407
-997114412
-997114422
-997114376
-997114367
-997114409
-997114414
-997114450
-997114447
-997114362
-997114458
-997114365
-997114412
-997114415
-997114395
-997114423
-997114424
-997114420
-997114420
-997114368
-997114429
-997114367
-997114382
-997114423
-997114400
-997114380
-997114437
-997114456
-997114427
-997114447
-997114368
-997114363
-997114426
-997114404
-997114423
-997114382
-997114454
-997114398
-997114363
-997114402
-997114430
-997114384
-997114445
-997114369
-997114414
-997114369
-997114375
-997114386
-997114368
-997114370
-997114422
-997114367
-997114394
-997114384
-997114391
-997114436
-997114397
-997114389
-997114444
-997114424
-997114444
-997114386
-997114436
-997114376
-997114459
-997114404
-997114396
-997114407
-997114398
-997114373
-997114396
-997114450
-997114402
-997114451
-997114445
-997114366
-997114392
-997114377
-997114429
-997114409
-997114419
-997114386
-997114383
-997114378
-997114446
-997114370
-997114398
-997114442
-997114390
-997114425
-997114457
-997114453
-997114386
-997114434
-997114451
-997114414
-997114421
-997114421
-997114430
-997114458
-997114448
-997114435
-997114367
-997114417
-997114385
-997114457
-997114453
-997114457
-997114458
-997114413
-997114382
-997114442
-997114388
-997114398
-997114371
-997114450
-997114394
-997114416
-997114454
-997114436
-997114449
-997114414
-997114400
-997114392
-997114424
-997114450
-997114382
-997114406
-997114381
-997114411
-997114449
-997114390
-997114445
-997114438
-997114395
-997114430
-997114412
-997114399
-997114405
-997114457
-997114457
-997114397
-997114454
-997114409
-997114393
-997114368
-997114406
-997114444
-997114456
-997114371
-997114376
-997114421
-997114401
-997114440
-997114447
-997114389
-997114370
-997114370
-997114379
-997114375
-997114434
-997114432
-997114414
-997114410
-997114409
-997114376
-997114377
-997114431
-997114401
-997114427
-997114446
-997114380
-997114435
-997114411
-997114373
-997114390
-997114436
-997114388
-997114428
-997114425
-997114422
-997114452
-997114460
-997114392
-997114366
-997114396
-997114425
-997114372
-997114364
-997114417
-997114427
-997114412
-997114441
-997114368
-997114436
-997114436
-997114390
-997114396
-997114446
-997114417
-997114423
-997114403
-997114364
-997114363
-997114395
-997114370
-997114413
-997114385
-997114391
-997114426
-997114438
-997114387
-997114441
-997114410
-997114432
-997114443
-997114426
-997114403
-997114407
-997114428
-997114407
-997114374
-997114398
-997114375
-997114426
-997114398
-997114426
-997114454
-997114440
-997114401
-997114412
-997114368
-997114453
-997114368
-997114362
-997114383
-997114413
-997114453
-997114414
-997114392
-997114383
-997114432
-997114373
-997114390
-997114441
-997114384
-997114362
-997114384
-997114397
-997114368
-997114381
-997114384
-997114377
-997114433
-997114418
-997114426
-997114379
-997114444
-997114410
-997114404
-997114390
-997114419
-997114404
-997114379
-997114363
-997114440
-997114441
-997114426
-997114388
-997114361
-997114367
-997114369
-997114415
-997114395
-997114396
-997114418
-997114458
-997114446
-997114456
-997114409
-997114432
-997114380
-997114459
-997114459
-997114455
-997114394
-997114392
-997114420
-997114429
-997114400
-997114377
-997114450
-997114383
-997114437
-997114372
-997114393
-997114363
-997114366
-997114379
-997114434
-997114411
-997114369
-997114446
-997114379
-997114457
-997114458
-997114398
-997114376
-997114438
-997114451
-997114455
-997114386
-997114361
-997114440
-997114366
-997114381
-997114424
-997114383
-997114368
-997114423
-997114398
-997114400
-997114448
-997114417
-997114402
-997114416
-997114394
-997114453
-997114393
-997114452
-997114457
-997114446
-997114386
-997114449
-997114419
-997114444
-997114414
-997114393
-997114387
-997114443
-997114379
-997114368
-997114396
-997114432
-997114396
-997114366
-997114392
-997114418
-997114433
-997114454
-997114373
-997114440
-997114377
-997114378
-997114379
-997114424
-997114380
-997114439
-997114363
-997114446
-997114368
-997114422
-997114455
-997114414
-997114423
-997114436
-997114380
-997114388
-997114371
-997114460
-997114440
-997114446
-997114436
-997114455
-997114418
-997114368
-997114389
-997114374
-997114438
-997114412
-997114426
-997114429
-997114362
-997114417
-997114404
-997114456
-997114408
-997114458
-997114371
-997114379
-997114374
-997114436
-997114449
-997114429
-997114433
-997114391
-997114371
-997114386
-997114398
-997114373
-997114403
-997114395
-997114417
-997114361
-997114457
-997114456
-997114374
-997114417
-997114457
-997114408
-997114436
-997114385
-997114450
-997114424
-997114402
-997114394
-997114372
-997114390
-997114426
-997114421
-997114369
-997114393
-997114381
-997114447
-997114391
-997114416
-997114447
-997114410
-997114382
-997114452
-997114367
-997114367
-997114364
-997114449
-997114407
-997114411
-997114448
-997114438
-997114381
-997114372
-997114400
-997114422
-997114389
-997114446
-997114406
-997114450
-997114386
-997114438
-997114418
-997114401
-997114368
-997114374
-997114394
-997114442
-997114458
-997114429
-997114449
-997114451
-997114414
-997114415
-997114412
-997114431
-997114449
-997114398
-997114410
-997114422
-997114401
-997114458
-997114395
-997114394
-997114389
-997114378
-997114423
-997114397
-997114413
-997114374
-997114432
-997114397
-997114436
-997114427
-997114423
-997114451
-997114460
-997114373
-997114416
-997114448
-997114433
-997114388
-997114456
-997114385
-997114380
-997114443
-997114454
-997114437
-997114419
-997114400
-997114451
-997114433
-997114399
-997114393
-997114437
-997114362
-997114443
-997114440
-997114423
-997114441
-997114429
-997114444
-997114381
-997114455
-997114363
-997114453
-997114369
-997114442
-997114378
-997114390
-997114449
-997114433
-997114388
-997114441
-997114416
-997114426
-997114375
-997114370
-997114429
-997114456
-997114379
-997114449
-997114374
-997114417
-997114460
-997114364
-997114409
-997114388
-997114389
-997114394
-997114414
-997114446
-997114363
-997114424
-997114428
-997114447
-997114395
-997114393
-997114369
-997114427
-997114424
-997114391
-997114361
-997114455
-997114366
-997114391
-997114430
-997114453
-997114417
-997114431
-997114447
-997114404
-997114407
-997114445
-997114380
-997114383
-997114404
-997114409
-997114376
-997114421
-997114386
-997114373
-997114365
-997114433
-997114450
-997114371
-997114427
-997114371
-997114436
-997114456
-997114392
-997114381
-997114428
-997114456
-997114433
-997114388
-997114413
-997114388
-997114393
-997114401
-997114449
-997114371
-997114414
-997114421
-997114425
-997114373
-997114445
-997114400
-997114421
-997114392
-997114415
-997114440
-997114407
-997114419
-997114405
-997114452
-997114384
-997114412
-997114384
-997114393
-997114392
-997114440
-997114442
-997114395
-997114460
-997114453
-997114404
-997114366
-997114375
-997114372
-997114382
-997114379
-997114380
-997114446
-997114445
-997114432
-997114397
-997114370
-997114369
-997114432
-997114456
-997114436
-997114392
-997114429
-997114365
-997114371
-997114428
-997114432
-997114436
-997114368
-997114456
-997114383
-997114366
-997114436
-997114438
-997114414
-997114380
-997114457
-997114371
-997114414
-997114382
-997114433
-997114405
-997114420
-997114388
-997114446
-997114402
-997114394
-997114377
-997114391
-997114361
-997114423
-997114390
-997114411
-997114459
-997114377
-997114383
-997114405
-997114389
-997114375
-997114380
-997114458
-997114405
-997114459
-997114362
-997114411
-997114382
-997114372
-997114408
-997114424
-997114376
-997114366
-997114429
-997114383
-997114420
-997114400
-997114388
-997114459
-997114451
-997114448
-997114371
-997114411
-997114370
-997114451
-997114381
-997114375
-997114401
-997114419
-997114439
-997114377
-997114361
-997114395
-997114458
-997114438
-997114377
-997114425
-997114391
-997114366
-997114437
