184 785
-998420024 -994978394 -971741528 -964667913 -925819426 -922477459 -921654597 -919997912 -919811658 -898696843 -884085881 -871207048 -868705517 -851076121 -843457504 -837170866 -830180073 -811445558 -779809756 -776631218 -772435511 -762135355 -749432651 -729110617 -710312263 -700183230 -695642718 -684814884 -681123179 -677830198 -669768826 -669064110 -649319903 -639407462 -637080077 -634476201 -592170161 -557494984 -531677654 -503210471 -483772367 -478369442 -460784747 -458670574 -454110925 -434335139 -432273844 -426584910 -423065369 -404036209 -400561531 -386562404 -362410673 -359098086 -330596718 -320689161 -310789862 -298095761 -283831639 -277578459 -215452789 -212814355 -210856288 -187322406 -186565058 -164450388 -156047324 -154878482 -154798342 -132889857 -127199733 -126758465 -121810352 -111708671 -108343371 -37948707 -36181633 -32857986 -26683184 -25686680 -22841760 -21664131 -10778707 -10188255 -8056225 -3827796 6190231 25071897 62267806 83320764 87457363 91955356 92622133 96665421 96821402 96843453 101396152 102463327 107926147 136364125 136937924 142957767 143570861 144579009 164211251 165762239 171718612 214245929 230628721 252036299 278073652 286104503 316208048 328824619 337650311 358093402 363348022 371309578 380003380 396958705 434752197 449725776 453470425 455939009 464517390 466263791 474914758 492292050 504070587 506098551 506721259 521053224 523625332 562985021 597191254 602283337 614204198 634871194 646822653 653417927 684397538 687827749 698433283 710037989 710039802 718812189 727871458 754924021 760411351 773308577 776228019 780087891 781395561 782639378 786006766 790383618 791137969 796713280 799161833 799569827 823178318 832144381 836619523 841426330 846903766 856683049 863721056 864055117 865846024 878833740 878879677 885186615 887260492 888123242 893135192 899323004 900706524 912646499 912831562 930978169 959261705 977062387 985241360 991286011
-998420070
-998420096
-998420035
-998420112
-998420081
-998420079
-998420088
-998420117
-998420091
-998420119
-998420055
-998420110
-998420035
-998420041
-998420087
-998420026
-998420094
-998420111
-998420116
-998420030
-998420121
-998420055
-998420119
-998420084
-998420119
-998420108
-998420118
-998420103
-998420071
-998420063
-998420097
-998420075
-998420117
-998420094
-998420064
-998420032
-998420106
-998420034
-998420031
-998420029
-998420075
-998420033
-998420098
-998420052
-998420073
-998420101
-998420028
-998420092
-998420088
-998420032
-998420045
-998420037
-998420078
-998420067
-998420084
-998420070
-998420058
-998420112
-998420099
-998420118
-998420116
-998420103
-998420060
-998420030
-998420062
-998420026
-998420064
-998420054
-998420110
-998420096
-998420043
-998420080
-998420031
-998420044
-998420097
-998420088
-998420037
-998420067
-998420040
-998420093
-998420045
-998420091
-998420078
-998420056
-998420105
-998420044
-998420107
-998420104
-998420063
-998420083
-998420098
-998420089
-998420080
-998420092
-998420051
-998420056
-998420058
-998420092
-998420056
-998420065
-998420075
-998420098
-998420068
-998420100
-998420041
-998420039
-998420102
-998420109
-998420057
-998420059
-998420061
-998420053
-998420029
-998420044
-998420027
-998420099
-998420097
-998420028
-998420060
-998420110
-998420098
-998420106
-998420048
-998420084
-998420025
-998420041
-998420027
-998420036
-998420082
-998420095
-998420101
-998420031
-998420090
-998420065
-998420104
-998420118
-998420124
-998420087
-998420029
-998420099
-998420110
-998420030
-998420114
-998420122
-998420083
-998420092
-998420089
-998420042
-998420124
-998420047
-998420066
-998420094
-998420063
-998420072
-998420118
-998420029
-998420034
-998420076
-998420049
-998420032
-998420095
-998420092
-998420087
-998420040
-998420059
-998420064
-998420096
-998420070
-998420121
-998420029
-998420115
-998420051
-998420082
-998420084
-998420026
-998420042
-998420073
-998420030
-998420111
-998420115
-998420039
-998420042
-998420064
-998420093
-998420118
-998420075
-998420044
-998420100
-998420054
-998420035
-998420075
-998420116
-998420115
-998420055
-998420076
-998420122
-998420064
-998420034
-998420074
-998420049
-998420076
-998420105
-998420031
-998420079
-998420102
-998420030
-998420090
-998420041
-998420079
-998420063
-998420090
-998420028
-998420097
-998420039
-998420057
-998420042
-998420085
-998420104
-998420085
-998420048
-998420033
-998420098
-998420089
-998420071
-998420060
-998420026
-998420123
-998420105
-998420118
-998420043
-998420055
-998420095
-998420058
-998420071
-998420038
-998420101
-998420078
-998420099
-998420027
-998420051
-998420086
-998420113
-998420098
-998420085
-998420077
-998420085
-998420070
-998420052
-998420075
-998420118
-998420033
-998420119
-998420055
-998420090
-998420052
-998420069
-998420037
-998420056
-998420067
-998420052
-998420107
-998420098
-998420055
-998420108
-998420097
-998420049
-998420065
-998420085
-998420122
-998420048
-998420110
-998420086
-998420089
-998420120
-998420081
-998420073
-998420060
-998420093
-998420087
-998420062
-998420109
-998420118
-998420120
-998420118
-998420091
-998420116
-998420065
-998420120
-998420111
-998420040
-998420043
-998420048
-998420095
-998420055
-998420028
-998420093
-998420055
-998420072
-998420051
-998420091
-998420039
-998420115
-998420106
-998420063
-998420115
-998420039
-998420030
-998420098
-998420061
-998420070
-998420104
-998420111
-998420032
-998420049
-998420082
-998420030
-998420046
-998420076
-998420055
-998420083
-998420102
-998420119
-998420047
-998420039
-998420025
-998420031
-998420055
-998420031
-998420027
-998420111
-998420069
-998420034
-998420123
-998420056
-998420097
-998420082
-998420121
-998420107
-998420071
-998420077
-998420121
-998420060
-998420088
-998420100
-998420028
-998420046
-998420074
-998420078
-998420076
-998420041
-998420084
-998420060
-998420114
-998420113
-998420112
-998420038
-998420039
-998420098
-998420056
-998420045
-998420091
-998420055
-998420041
-998420075
-998420113
-998420112
-998420086
-998420108
-998420047
-998420051
-998420056
-998420109
-998420072
-998420046
-998420040
-998420046
-998420123
-998420082
-998420073
-998420048
-998420104
-998420087
-998420038
-998420099
-998420109
-998420100
-998420066
-998420062
-998420093
-998420094
-998420032
-998420100
-998420066
-998420109
-998420082
-998420123
-998420046
-998420031
-998420106
-998420124
-998420059
-998420101
-998420097
-998420069
-998420033
-998420072
-998420095
-998420101
-998420089
-998420121
-998420048
-998420074
-998420034
-998420067
-998420112
-998420064
-998420065
-998420076
-998420120
-998420091
-998420036
-998420052
-998420114
-998420051
-998420093
-998420097
-998420074
-998420051
-998420056
-998420038
-998420071
-998420035
-998420097
-998420115
-998420077
-998420084
-998420112
-998420103
-998420072
-998420098
-998420059
-998420081
-998420081
-998420057
-998420035
-998420045
-998420079
-998420084
-998420080
-998420114
-998420083
-998420060
-998420093
-998420061
-998420035
-998420069
-998420058
-998420070
-998420030
-998420114
-998420041
-998420092
-998420029
-998420095
-998420045
-998420055
-998420048
-998420044
-998420072
-998420025
-998420122
-998420066
-998420067
-998420096
-998420106
-998420121
-998420051
-998420028
-998420030
-998420056
-998420073
-998420108
-998420047
-998420030
-998420063
-998420107
-998420109
-998420106
-998420104
-998420031
-998420061
-998420073
-998420091
-998420055
-998420121
-998420069
-998420027
-998420029
-998420059
-998420105
-998420078
-998420048
-998420123
-998420047
-998420085
-998420077
-998420051
-998420107
-998420087
-998420081
-998420075
-998420044
-998420124
-998420107
-998420087
-998420116
-998420033
-998420086
-998420043
-998420034
-998420107
-998420100
-998420074
-998420030
-998420092
-998420033
-998420122
-998420042
-998420123
-998420069
-998420054
-998420044
-998420067
-998420044
-998420088
-998420063
-998420059
-998420079
-998420081
-998420076
-998420078
-998420119
-998420088
-998420079
-998420057
-998420053
-998420027
-998420120
-998420106
-998420107
-998420064
-998420071
-998420121
-998420115
-998420035
-998420098
-998420090
-998420122
-998420059
-998420106
-998420078
-998420098
-998420032
-998420103
-998420076
-998420059
-998420064
-998420053
-998420104
-998420080
-998420120
-998420063
-998420037
-998420095
-998420088
-998420053
-998420124
-998420077
-998420109
-998420029
-998420114
-998420053
-998420058
-998420041
-998420121
-998420079
-998420113
-998420090
-998420077
-998420025
-998420116
-998420029
-998420060
-998420054
-998420095
-998420034
-998420075
-998420109
-998420096
-998420080
-998420048
-998420028
-998420090
-998420067
-998420027
-998420039
-998420047
-998420087
-998420092
-998420062
-998420028
-998420053
-998420078
-998420086
-998420048
-998420105
-998420055
-998420082
-998420085
-998420075
-998420041
-998420108
-998420054
-998420083
-998420060
-998420084
-998420120
-998420098
-998420057
-998420082
-998420093
-998420042
-998420115
-998420084
-998420112
-998420101
-998420116
-998420078
-998420040
-998420085
-998420072
-998420096
-998420037
-998420104
-998420028
-998420027
-998420092
-998420107
-998420109
-998420121
-998420121
-998420101
-998420069
-998420045
-998420090
-998420120
-998420070
-998420043
-998420027
-998420073
-998420097
-998420051
-998420075
-998420105
-998420060
-998420070
-998420105
-998420027
-998420077
-998420041
-998420059
-998420061
-998420034
-998420093
-998420107
-998420086
-998420106
-998420029
-998420040
-998420066
-998420044
-998420057
-998420096
-998420114
-998420051
-998420077
-998420100
-998420100
-998420028
-998420089
-998420093
-998420079
-998420047
-998420082
-998420112
-998420078
-998420067
-998420109
-998420043
-998420049
-998420123
-998420042
-998420104
-998420120
-998420026
-998420066
-998420116
-998420105
-998420026
-998420082
-998420045
-998420117
-998420105
-998420033
-998420091
-998420085
-998420110
-998420039
-998420080
-998420036
-998420040
-998420055
-998420030
-998420124
-998420034
-998420083
-998420122
-998420121
-998420100
-998420102
-998420025
-998420096
-998420116
-998420119
-998420122
-998420032
-998420053
-998420094
-998420055
-998420029
-998420055
-998420056
-998420096
-998420057
-998420094
-998420072
-998420091
-998420120
-998420077
-998420095
-998420089
-998420037
-998420109
-998420058
-998420077
-998420029
-998420121
-998420051
-998420109
-998420065
-998420066
-998420100
-998420036
-998420075
-998420029
-998420045
-998420102
-998420096
-998420075
-998420058
-998420082
-998420078
-998420054
-998420096
-998420093
-998420028
-998420089
-998420057
-998420088
-998420055
-998420103
-998420029
-998420064
-998420092
-998420064
