274 52
-997420018 -987521268 -987449142 -987335625 -975085881 -968834508 -958744841 -955649424 -944176275 -938680918 -936015683 -928496777 -923574505 -919696036 -919563744 -919181822 -916435546 -905207611 -901243891 -893663768 -884475678 -874893668 -870690711 -869927301 -860003668 -855352667 -849525572 -838819746 -835342535 -830708864 -825185673 -823544520 -819933688 -815045845 -810736852 -806646847 -786568551 -784015553 -765155633 -761371149 -756709943 -754886432 -754115265 -735469695 -724683490 -714838633 -710037050 -705754191 -705752171 -698680125 -697019707 -693082245 -684695513 -673385959 -666224053 -664571740 -654315459 -653803065 -640702765 -640483783 -629580084 -626920334 -619776921 -617896881 -609191854 -608138355 -604040122 -594750951 -593207854 -592276865 -579034743 -574994801 -566861183 -563702854 -561482862 -548157436 -514634046 -511404756 -508967629 -508954467 -501573880 -485859043 -466093308 -463130371 -458049551 -435966249 -434389419 -421595180 -391799214 -382220058 -373996724 -373136039 -357175718 -349851821 -348931212 -332557727 -323642774 -323039169 -311534924 -309245339 -308423757 -302988762 -288006375 -281584111 -272693287 -265292680 -262439160 -251551409 -250324831 -247678425 -231996514 -230494906 -222876544 -220252445 -215282517 -210992402 -209998326 -198501173 -198317200 -198271184 -191283793 -188729732 -172552246 -152037475 -150944654 -135448878 -124252138 -123707372 -121699635 -110588842 -110450347 -76282553 -69691738 -66340470 -65475770 -60586804 -49902810 -47022580 -36681289 -19967715 -14318655 -8614862 -3251347 11708169 28828543 50284100 69464883 69979289 70133418 73203069 79450506 95614472 104634837 120159999 134335940 137713603 137897756 140237215 149118501 177290489 178284895 189282855 189759774 190024638 200856842 205846942 205938441 209540402 212083492 212433343 226226137 227605262 229094954 238761973 247256055 260608026 268518804 280127241 283228462 283531148 283585682 284114640 285236693 288489395 290417264 292270149 299594521 309340196 312997715 314974631 325023177 332384963 343682624 355968980 359747194 360005039 380675240 409610069 414676522 419779181 426518231 431683888 435160980 448074694 450850963 456718190 464601413 467867021 482648205 492257820 497759727 503756518 504371606 509024012 512404527 541590915 556322597 558597380 560150322 567119855 573648891 586179985 601472164 606418599 607520559 611378388 626036248 629345250 638664404 640634886 648713332 654711282 659905368 667903465 700368000 706002095 707599103 714196347 714517578 726209412 731799491 739848996 742424350 743408078 751741100 770662924 779119700 782887908 790715488 800185164 811116113 817871579 831089787 832664078 834563436 838767013 845533188 852043862 856391945 876518462 881670263 887945679 914353928 920839683 921565803 923092404 947135796 959288085 965424693 973042509 973382253 991762038 991765461 993292165
-997420030
-997420029
-997420020
-997420082
-997420079
-997420023
-997420042
-997420105
-997420075
-997420082
-997420037
-997420081
-997420107
-997420026
-997420055
-997420064
-997420092
-997420078
-997420025
-997420115
-997420056
-997420061
-997420065
-997420115
-997420090
-997420090
-997420050
-997420070
-997420077
-997420022
-997420091
-997420057
-997420104
-997420051
-997420034
-997420076
-997420083
-997420030
-997420098
-997420025
-997420047
-997420034
-997420039
-997420025
-997420033
-997420052
-997420051
-997420042
-997420029
-997420023
-997420078
-997420107
