701 706
-993209775 -991139047 -990316890 -988286311 -987218220 -985390848 -983103953 -981053564 -978515468 -976736910 -974250213 -971383763 -970399807 -962267701 -957147181 -956463171 -955940975 -945554710 -944532155 -942088103 -941694783 -940519851 -940282554 -939695217 -937124767 -936555606 -935016476 -933945259 -925797576 -925263231 -924456409 -918631702 -912644406 -909022203 -908339663 -908167502 -905165028 -903502953 -899947556 -897347481 -897020871 -889499827 -888511911 -883941017 -879643807 -876834410 -874404984 -871371099 -869061187 -867586962 -866658857 -866026333 -863103037 -860187175 -850314390 -846478483 -844617918 -843622008 -843260765 -835190309 -829320458 -826814680 -824982859 -822926195 -820878697 -818382664 -818083195 -813502865 -813381231 -808119943 -806894215 -806891863 -806193695 -805899136 -804014058 -799765937 -798931503 -795205394 -792464251 -788129094 -787561381 -784621110 -782742486 -777619524 -776591217 -776443048 -771757218 -771659029 -771140428 -765564470 -764007728 -762109807 -760945498 -759909406 -759752169 -754860215 -752454344 -745977842 -745205238 -744372517 -743402086 -739701134 -737442135 -732840994 -732820107 -728314564 -724402384 -719945125 -719145769 -717716238 -713171549 -705205912 -702197803 -694245317 -694022491 -690720276 -689797625 -688710127 -685408877 -682659398 -681598047 -679198117 -676975674 -675831973 -669118630 -669065671 -668270438 -667801039 -667075087 -662771795 -657033511 -655532528 -652197998 -650574545 -648717991 -645256251 -645128295 -642935760 -639701910 -629621423 -628247059 -628145429 -627057044 -626776379 -625863655 -624015767 -618493896 -617813410 -616999104 -616022747 -615651384 -612073186 -611747524 -611663115 -610984234 -603518883 -602179191 -599464086 -598827718 -597918975 -591522646 -590667709 -590407075 -589017438 -588071364 -587977971 -584186433 -580348121 -573181430 -569711770 -568997720 -566416254 -564411354 -563573057 -563413432 -562036567 -558609907 -558273587 -552856179 -545189799 -544946877 -540583733 -528920385 -528719312 -527007859 -514699121 -498878865 -495756522 -495074937 -492075973 -487820991 -484626421 -483764829 -483690755 -480644894 -478984365 -471924874 -471118398 -470173950 -467251732 -465037332 -459335983 -450726221 -448813263 -444915295 -442009027 -436330784 -434088007 -433011201 -431642238 -429650866 -427069082 -426853494 -424633531 -421046728 -419810690 -419256036 -417944041 -414949302 -414613308 -409674123 -408499567 -404997689 -404101238 -400973787 -398796184 -398642848 -390408834 -389918948 -384413625 -379344814 -374655908 -374092886 -370508490 -365157559 -360611343 -356670925 -352630553 -352047755 -351954475 -350930206 -349966654 -347027892 -346551671 -343552037 -339986813 -337234438 -334530310 -332383165 -328877774 -324740849 -317787149 -317586941 -314682777 -312475113 -308819002 -308513526 -307296532 -305564656 -305068042 -304346729 -303372927 -301827461 -299554076 -295123178 -293371465 -293218520 -287891524 -284438372 -284338044 -280156801 -279562878 -275366237 -271357058 -259675538 -259252860 -257091198 -254530731 -250540891 -249942060 -244963878 -239524399 -237527474 -236844844 -234366499 -233342973 -233320264 -228654403 -226878040 -226548960 -224879647 -222885714 -219500503 -218491437 -217023738 -213303580 -212221009 -205979237 -199873217 -197624827 -196819504 -196704228 -195602463 -194702943 -192737966 -189656162 -187829681 -187390739 -174433967 -174008715 -173483621 -168903821 -168519011 -165458162 -155812367 -152599468 -148709116 -143060048 -137532395 -130445448 -125044757 -124226292 -117686411 -114856644 -112989181 -110148099 -102924117 -102677264 -100876372 -93537843 -92789980 -91733074 -90720192 -89629520 -88031670 -87298931 -85495430 -78949908 -73009123 -70722328 -65622475 -63748492 -63187895 -60927551 -58468070 -57151153 -56452007 -54120984 -54047683 -46527518 -42597537 -39944048 -37339200 -37077480 -29555700 -28567880 -28533913 -26915154 -23599031 -23443840 -22953690 -21719357 -19600302 -16290292 -13548792 -13340571 -12379159 -12012889 -10739999 -10045111 -3527296 1428288 3708160 7717770 8985464 11167123 12813277 13406649 14661696 14731607 15342936 15473027 24208109 24932531 26310211 29148329 29535651 32046022 34855923 42613031 43764417 44838086 47673317 48820366 53612096 61849398 67237517 70825585 71341456 78832986 79352432 80276747 84485685 86743685 87507010 88363035 94023897 94623559 104884574 118284131 122861798 123503314 123598332 126739576 132242123 134450261 134899213 135588979 137749586 148749811 152791253 154442994 160589484 172265413 172568618 177327392 182191693 186096125 190768540 192930402 194845284 196997374 199265286 200151666 201852039 202930757 209735442 210759246 211303663 212521151 216530111 217888012 218118933 226830755 227087811 227196774 230312686 233098690 236865795 238161465 238401079 240087830 242732571 246443829 251174948 253514792 255422535 260389474 264869639 265685255 266561266 266670208 273601124 279219761 279964894 283557261 283571372 287403158 289029344 289913624 291774966 292244278 298709246 301789754 313271279 318072230 320578906 325182977 332522566 335921119 336895488 341051948 344903055 345675298 347172627 350517563 352218072 354602588 354874460 356294828 359148913 360353057 362761494 363299833 364534459 367170743 371243444 371556271 374567180 378564577 379896352 380837837 382008012 382144732 389562443 392612259 399922731 401638064 405409124 407376993 421906236 422180456 427634416 430474058 430672039 432627380 435634671 438761856 439530462 441391559 451849131 451905493 457023443 457611518 459590460 461444203 461593068 464654456 469138430 469157776 469384540 469806671 470627494 471911202 471924623 479306567 482676007 485792820 485986473 498152228 498331704 500013312 504413228 508065435 509477924 509604960 514246006 514933009 516482476 517542706 517665542 530724040 531804921 533466884 533600939 533970672 539507441 542067414 543519158 548755433 549562297 551014328 553284706 557654952 559208199 566312903 567274386 572495138 576294125 576812564 581013875 581102942 582895231 583701264 589743589 594442089 595946140 601303106 603889120 607186980 608040897 610528390 618961637 620005673 620576041 623061230 626707417 635044859 637162421 646018618 649318569 652022856 656701627 658200674 658370291 659411032 662611077 677449078 682402892 684056745 687368899 688042751 693140283 694262913 694549847 698480794 702426031 706331506 706422439 708280632 708306233 709533654 710107842 715089122 717043547 717429525 718958884 722070137 730106427 737833880 747595755 753925387 754987317 768478820 771446749 778776767 784424120 786999843 788226361 794657257 796967916 797821572 800116859 801981681 803694864 806035515 814716486 818541412 821629005 823144787 838233531 852325535 854227897 860639117 864470154 865447704 867662240 867845182 868062670 868758115 869197083 874022604 877011659 883324069 887275798 889181196 892097367 899102790 901898571 907600525 910012591 910188858 910975355 913068644 913723489 914438091 917859640 920206131 920280308 922414606 929960991 932109069 932653760 934173493 935159054 939363194 940503852 947242467 948869467 949374678 951193417 954131272 954742924 955475958 956591934 965579210 966136891 968001992 968320679 976518575 981417977 981423112 982244772 984857253 985495617 985862785 988149063 994667433 995071975 997727384 998671948
-993209786
-993209832
-993209818
-993209792
-993209871
-993209841
-993209851
-993209797
-993209843
-993209869
-993209784
-993209841
-993209869
-993209810
-993209813
-993209866
-993209847
-993209852
-993209839
-993209870
-993209845
-993209868
-993209789
-993209850
-993209819
-993209791
-993209843
-993209853
-993209865
-993209846
-993209875
-993209810
-993209796
-993209819
-993209870
-993209844
-993209860
-993209833
-993209811
-993209806
-993209816
-993209851
-993209871
-993209781
-993209778
-993209868
-993209793
-993209848
-993209808
-993209794
-993209810
-993209818
-993209834
-993209811
-993209785
-993209804
-993209825
-993209862
-993209821
-993209828
-993209846
-993209811
-993209843
-993209825
-993209802
-993209850
-993209792
-993209867
-993209785
-993209834
-993209865
-993209815
-993209812
-993209860
-993209816
-993209860
-993209799
-993209805
-993209875
-993209871
-993209807
-993209843
-993209784
-993209858
-993209865
-993209840
-993209834
-993209783
-993209834
-993209835
-993209866
-993209823
-993209852
-993209795
-993209785
-993209811
-993209796
-993209820
-993209844
-993209847
-993209807
-993209868
-993209824
-993209864
-993209780
-993209871
-993209853
-993209869
-993209786
-993209824
-993209779
-993209807
-993209838
-993209844
-993209805
-993209831
-993209811
-993209786
-993209822
-993209782
-993209824
-993209820
-993209789
-993209825
-993209802
-993209856
-993209802
-993209799
-993209805
-993209846
-993209836
-993209855
-993209806
-993209857
-993209855
-993209875
-993209789
-993209832
-993209795
-993209847
-993209868
-993209846
-993209809
-993209850
-993209785
-993209874
-993209867
-993209849
-993209821
-993209870
-993209791
-993209819
-993209827
-993209814
-993209791
-993209841
-993209870
-993209783
-993209791
-993209831
-993209839
-993209863
-993209808
-993209864
-993209869
-993209835
-993209777
-993209845
-993209850
-993209873
-993209829
-993209875
-993209792
-993209851
-993209807
-993209854
-993209831
-993209789
-993209818
-993209845
-993209795
-993209814
-993209809
-993209827
-993209862
-993209838
-993209776
-993209778
-993209789
-993209778
-993209793
-993209846
-993209825
-993209829
-993209777
-993209864
-993209874
-993209857
-993209810
-993209788
-993209830
-993209800
-993209834
-993209777
-993209854
-993209856
-993209834
-993209853
-993209787
-993209837
-993209791
-993209785
-993209803
-993209815
-993209832
-993209846
-993209861
-993209869
-993209857
-993209861
-993209787
-993209789
-993209860
-993209785
-993209809
-993209868
-993209802
-993209859
-993209782
-993209868
-993209852
-993209786
-993209787
-993209841
-993209863
-993209831
-993209789
-993209870
-993209872
-993209856
-993209814
-993209783
-993209868
-993209856
-993209778
-993209831
-993209799
-993209791
-993209836
-993209780
-993209803
-993209840
-993209822
-993209823
-993209791
-993209822
-993209818
-993209803
-993209858
-993209784
-993209799
-993209863
-993209869
-993209820
-993209813
-993209808
-993209807
-993209851
-993209874
-993209837
-993209869
-993209845
-993209857
-993209853
-993209873
-993209783
-993209787
-993209847
-993209823
-993209813
-993209804
-993209848
-993209868
-993209830
-993209810
-993209821
-993209810
-993209827
-993209806
-993209813
-993209875
-993209860
-993209818
-993209788
-993209822
-993209831
-993209872
-993209827
-993209849
-993209812
-993209835
-993209863
-993209850
-993209800
-993209872
-993209825
-993209827
-993209847
-993209776
-993209783
-993209844
-993209866
-993209838
-993209836
-993209874
-993209798
-993209798
-993209867
-993209820
-993209786
-993209845
-993209875
-993209854
-993209821
-993209832
-993209829
-993209861
-993209810
-993209827
-993209819
-993209855
-993209798
-993209812
-993209811
-993209796
-993209845
-993209867
-993209869
-993209839
-993209782
-993209807
-993209807
-993209780
-993209871
-993209851
-993209818
-993209799
-993209787
-993209777
-993209824
-993209779
-993209863
-993209860
-993209839
-993209864
-993209826
-993209835
-993209797
-993209798
-993209871
-993209866
-993209815
-993209821
-993209872
-993209844
-993209808
-993209855
-993209778
-993209856
-993209808
-993209871
-993209807
-993209798
-993209838
-993209803
-993209873
-993209845
-993209874
-993209826
-993209874
-993209846
-993209817
-993209826
-993209807
-993209860
-993209790
-993209842
-993209819
-993209827
-993209817
-993209839
-993209853
-993209812
-993209868
-993209804
-993209870
-993209792
-993209778
-993209833
-993209784
-993209859
-993209790
-993209874
-993209860
-993209799
-993209840
-993209847
-993209822
-993209777
-993209840
-993209783
-993209779
-993209817
-993209803
-993209840
-993209784
-993209810
-993209795
-993209832
-993209829
-993209821
-993209844
-993209793
-993209832
-993209798
-993209844
-993209841
-993209792
-993209866
-993209805
-993209807
-993209869
-993209815
-993209783
-993209796
-993209854
-993209842
-993209789
-993209812
-993209786
-993209823
-993209799
-993209834
-993209838
-993209816
-993209788
-993209845
-993209822
-993209858
-993209816
-993209847
-993209863
-993209833
-993209786
-993209777
-993209854
-993209812
-993209786
-993209811
-993209865
-993209807
-993209795
-993209830
-993209814
-993209780
-993209844
-993209875
-993209828
-993209849
-993209859
-993209871
-993209856
-993209873
-993209869
-993209831
-993209831
-993209834
-993209809
-993209833
-993209804
-993209857
-993209804
-993209805
-993209844
-993209825
-993209870
-993209816
-993209811
-993209829
-993209875
-993209870
-993209812
-993209827
-993209824
-993209827
-993209866
-993209874
-993209803
-993209870
-993209827
-993209793
-993209852
-993209779
-993209818
-993209858
-993209839
-993209797
-993209850
-993209857
-993209830
-993209834
-993209798
-993209795
-993209848
-993209867
-993209780
-993209875
-993209797
-993209854
-993209793
-993209786
-993209795
-993209849
-993209820
-993209868
-993209847
-993209831
-993209809
-993209812
-993209783
-993209852
-993209844
-993209821
-993209788
-993209780
-993209814
-993209834
-993209849
-993209801
-993209838
-993209827
-993209869
-993209787
-993209859
-993209874
-993209851
-993209782
-993209862
-993209868
-993209873
-993209794
-993209864
-993209870
-993209817
-993209816
-993209804
-993209826
-993209860
-993209837
-993209785
-993209844
-993209804
-993209827
-993209793
-993209797
-993209809
-993209780
-993209806
-993209821
-993209845
-993209861
-993209833
-993209868
-993209830
-993209844
-993209847
-993209812
-993209849
-993209873
-993209867
-993209796
-993209807
-993209783
-993209801
-993209874
-993209845
-993209866
-993209792
-993209791
-993209798
-993209791
-993209827
-993209807
-993209820
-993209795
-993209821
-993209791
-993209833
-993209849
-993209833
-993209830
-993209808
-993209860
-993209829
-993209782
-993209865
-993209860
-993209846
-993209790
-993209869
-993209865
-993209845
-993209857
-993209858
-993209850
-993209782
-993209854
-993209778
-993209854
-993209863
-993209814
-993209776
-993209865
-993209790
-993209820
-993209834
-993209805
-993209854
-993209807
-993209839
-993209829
-993209874
-993209824
-993209865
-993209806
-993209871
-993209779
-993209814
-993209853
-993209853
-993209781
-993209859
-993209856
-993209792
-993209777
-993209844
-993209836
-993209805
-993209851
-993209832
-993209848
-993209794
-993209793
-993209821
-993209784
-993209787
-993209868
-993209852
-993209796
-993209861
-993209814
-993209781
-993209797
-993209854
-993209866
-993209838
-993209862
-993209790
-993209823
-993209776
-993209872
-993209794
-993209873
-993209784
-993209805
-993209858
-993209843
-993209786
-993209861
-993209804
-993209829
-993209789
-993209831
-993209791
-993209841
-993209801
-993209874
-993209852
-993209859
-993209875
-993209799
-993209866
-993209843
-993209788
-993209857
-993209863
-993209842
-993209778
-993209869
-993209789
-993209794
-993209807
-993209807
-993209798
-993209844
-993209838
