819 309
-999917066 -999147013 -989774155 -986929435 -979276412 -970357003 -968595482 -967085297 -964090073 -963893198 -960572756 -959107494 -957749250 -955749866 -954487196 -952060881 -950207224 -949662074 -949099066 -948103934 -945439287 -944967068 -943987603 -937001708 -934731449 -934556538 -934251345 -933649975 -933325061 -933288151 -933218951 -933005357 -928169884 -927529337 -926768059 -924389500 -922801206 -920523806 -919736156 -915540574 -914480397 -911922386 -911428315 -908406512 -907863947 -907319541 -904550529 -904499302 -903785174 -903586601 -897044065 -895756526 -893779718 -891071987 -889931559 -889519766 -889297260 -884607101 -883923568 -878799681 -875840938 -875460839 -872945734 -871574081 -870427612 -869777814 -862987930 -862056780 -857366473 -854860419 -849619922 -847713103 -846664876 -845575746 -845571774 -845567058 -844508806 -841263356 -840558717 -839756150 -832115821 -831376334 -827535480 -824713843 -823428460 -821150364 -817899965 -815307834 -809426756 -808978110 -808189011 -805905791 -801562172 -801561525 -798270875 -794987245 -794965095 -792047112 -788725359 -785926143 -779005660 -777440497 -776842706 -772891403 -769914170 -768244172 -767740522 -766192239 -764328857 -763146795 -762630009 -752216836 -750733013 -750230691 -747409731 -736351279 -734536664 -729915640 -726488239 -725378412 -724958126 -721810455 -711193291 -710778794 -709674580 -708072211 -705235458 -696379260 -695666162 -693699894 -693121605 -689972939 -682674781 -682169948 -676256803 -676039272 -656995972 -654784920 -651164880 -650013131 -647585513 -646669584 -644092635 -642712815 -638589859 -637618900 -632779360 -624955003 -621234708 -621233013 -620495245 -612273681 -610199332 -608528518 -603771104 -603614219 -602906386 -602600481 -597691471 -597554146 -596814181 -596358825 -595965748 -593552781 -588976849 -572395742 -561289898 -557993162 -557680090 -551094803 -550101341 -542453324 -538964315 -538626314 -537929241 -534891852 -527211209 -525978825 -525789899 -522347043 -522271868 -521203007 -518027388 -506824897 -506392606 -506160402 -505281937 -500197618 -496006197 -495036381 -494838080 -494561245 -493349000 -489188921 -486591689 -486487362 -486193779 -484910203 -484784535 -482742079 -479850290 -478934102 -467756004 -453550575 -450961756 -448570936 -448442723 -447700865 -447410122 -447150426 -446179998 -436395484 -432912846 -430119191 -429086027 -425038899 -424157526 -422192174 -420986774 -416242091 -416133580 -414494174 -407276876 -404498069 -403169272 -402664529 -400060126 -395925782 -391346573 -391114055 -382794891 -382654830 -382148274 -380018732 -378782839 -375210409 -373597803 -372291809 -372002406 -370672646 -370545574 -369364136 -365392630 -358747896 -354782617 -354220046 -346813798 -345939018 -345337167 -343047300 -337713327 -337141541 -334708518 -326435225 -323519828 -321719457 -320937100 -308730559 -307446421 -306278191 -302239060 -301580502 -300320279 -300015124 -299588120 -297411019 -297335021 -295652057 -294854355 -291554127 -286812855 -283665929 -281218979 -278139434 -277978066 -274170488 -273119624 -268282298 -265731191 -265030411 -263283023 -260391326 -259941181 -255656815 -255364006 -255313654 -254620574 -252235516 -251017616 -248082587 -245718470 -245028153 -244942081 -242088553 -238620666 -237108411 -236615440 -236291565 -235735855 -234149417 -230700421 -228774193 -223126014 -222892575 -222540828 -215791782 -215684574 -212770317 -211986818 -204743727 -203828584 -199341461 -199182338 -198240211 -196347805 -194678861 -192229693 -183541233 -182465536 -180332633 -179430261 -177980905 -177483158 -174364394 -172541892 -168519231 -163928808 -161813315 -160491231 -155046346 -153678101 -150884896 -149703939 -143154584 -137086421 -135301112 -134375992 -130206051 -128709376 -118616472 -118543908 -118176655 -115248233 -113840686 -113687033 -108341823 -106128071 -100107359 -98511850 -98281497 -96998133 -96567383 -90180090 -89272346 -87455867 -82473523 -80349665 -76109526 -74642059 -70139993 -69142858 -63439499 -59834438 -59253516 -58207138 -58059883 -57645252 -55545564 -53477827 -51735477 -51173375 -48041795 -48037555 -44467665 -42307532 -41760197 -39020497 -38220600 -35300658 -34719322 -23611523 -22739494 -20511484 -12799332 -12722444 -9437244 -6966600 -5932279 -3874334 -3425632 2981712 4213880 9656498 12150775 20197260 22073761 22100256 22251578 23077240 23606151 23730383 25172794 25557104 27044043 29774969 32120005 32559844 32991988 34725065 35198598 35861439 38643969 40588880 42417266 44114598 48258932 49822150 53834930 66607518 68483379 71667906 74574244 76158976 76230610 78057540 80530350 81629241 81974366 82159382 82534252 85937664 87389514 90525603 94093141 96536566 96751493 104977688 105032316 106140010 107204095 108871721 109632293 112541556 114196259 114924601 115669424 115674069 116519357 120753101 122014297 124148582 124324849 124360603 126962415 128769796 134339958 136597349 136960241 147398995 157393585 161576519 161720603 162217948 164733157 165324144 169037744 174499422 175007852 175737626 178012455 178395894 179351878 179469215 181145041 191219050 202948614 203104082 203344867 205417450 207833626 208983470 211227610 215150533 218289094 221382935 224721324 226051280 228847544 230608329 231694207 235222594 248047848 250050098 256632316 260869349 262582577 265709234 267036792 271207378 275861747 285256290 286365525 286366123 291374137 295631007 298964095 301047952 301397519 303438276 303565669 307435741 311814478 314137274 315665817 316363732 316806436 317424014 318824105 320167797 321888368 322721421 325743754 326248130 329510062 330495418 332230029 335371441 340580719 350109969 350121207 352521570 354601069 358374484 361768507 365115902 365450726 366028567 366686164 367113880 368838542 371110572 371384627 372294039 375046456 377198541 378675098 378713680 379542294 380884880 383155384 387882557 388176643 391269264 393232875 393582621 394590023 395455845 396294730 402053606 403058153 404268010 412591476 413634075 414474077 419345990 422087818 424624624 424807180 432839154 436905458 440587936 442289108 442701483 444790589 447301959 450472282 454536547 455841701 458956016 459186823 460210610 461004506 465918654 470613507 470797069 476523356 479882714 479934918 480972777 481581890 481841866 490101467 491605241 491957611 494467389 501103957 501279745 501375093 507195194 514739333 516943946 517431542 526456168 528186123 528704399 529925462 534066256 534978538 536244276 536746090 537130408 540033088 541311365 543579420 545856305 549556297 549605085 550777407 551850771 552597519 555046054 555127838 556887831 557383941 564677774 564781542 566148934 572536707 573629027 574845721 580021636 580457095 585281698 588785649 590231477 590879376 591760485 595425475 598383077 601425349 606649720 612676421 612918595 614477259 619192646 620265600 623019679 624157988 628114749 630817477 631283472 636378842 638781208 642618511 642778966 644676702 647427026 648730423 653084907 653717352 654829400 655808763 657317892 659524191 660855108 662023725 667471741 668515498 668674531 669348983 673490385 674183407 674285441 678377102 679018511 680818277 683796591 689169162 692094798 692367319 692372965 699609672 701168865 704667470 705644815 706365922 708989020 713356005 714858140 719793286 722867240 726502246 730476048 730974242 738693068 742931118 743144389 743620007 746297057 747232292 750683470 750693137 750708094 754218699 760260035 764141257 764799529 767917076 768029672 771282428 773251727 773335246 779134529 780559578 786300411 787363707 787416323 788276437 789572670 790608440 792586587 794096215 795767082 804493581 806287846 807406730 810680775 813505073 814452232 816480836 817205373 818655869 818992257 819831320 821045794 821998558 823182598 826447421 832505131 832634897 833748175 834156839 838095912 839120197 841992136 842957340 851230163 853130329 853530445 855841891 860129407 861123039 861625021 868763927 871101762 875065470 875547877 876007477 878171503 878576200 878716377 885134664 889462810 890472220 893612315 895146588 895845221 897434233 903860263 904124718 904410824 904717162 906701245 908542537 913514184 916589533 917241410 924574515 928396543 928792420 928938338 930462558 930498798 932159528 932235202 935018345 939512084 939667818 940209201 941456389 945111607 947390153 950615670 954416239 956469095 957848872 958438265 959821020 959908778 960371552 960415286 965528639 966139684 967322295 968523141 969095159 969231549 969630362 972503653 972891372 977440513 978532403 982411480 984362422 984397460 990555561 991882390 995135823 996334244
996334286
996334287
996334315
996334265
996334327
996334312
996334275
996334254
996334343
996334256
996334312
996334252
996334307
996334331
996334252
996334300
996334282
996334258
996334263
996334260
996334278
996334288
996334334
996334261
996334272
996334280
996334316
996334328
996334294
996334334
996334281
996334333
996334252
996334256
996334276
996334318
996334299
996334266
996334340
996334297
996334342
996334340
996334292
996334326
996334271
996334284
996334319
996334326
996334258
996334277
996334303
996334245
996334325
996334250
996334303
996334278
996334301
996334256
996334341
996334246
996334274
996334314
996334331
996334321
996334336
996334299
996334274
996334274
996334323
996334262
996334328
996334267
996334293
996334322
996334273
996334290
996334338
996334275
996334328
996334307
996334256
996334306
996334286
996334265
996334327
996334343
996334317
996334278
996334327
996334323
996334268
996334262
996334303
996334311
996334259
996334280
996334293
996334261
996334339
996334317
996334307
996334277
996334291
996334283
996334317
996334304
996334269
996334270
996334263
996334271
996334301
996334323
996334247
996334284
996334270
996334283
996334258
996334299
996334318
996334320
996334309
996334257
996334330
996334323
996334329
996334269
996334287
996334274
996334293
996334302
996334325
996334250
996334329
996334265
996334278
996334322
996334338
996334329
996334283
996334270
996334259
996334262
996334264
996334288
996334258
996334249
996334263
996334254
996334274
996334280
996334311
996334311
996334308
996334317
996334275
996334328
996334284
996334297
996334335
996334270
996334262
996334315
996334331
996334246
996334255
996334320
996334258
996334297
996334300
996334250
996334341
996334264
996334272
996334315
996334259
996334336
996334268
996334264
996334323
996334273
996334289
996334255
996334339
996334250
996334317
996334340
996334319
996334266
996334251
996334294
996334300
996334295
996334326
996334261
996334273
996334249
996334318
996334268
996334276
996334334
996334321
996334278
996334295
996334310
996334328
996334266
996334338
996334246
996334332
996334260
996334273
996334288
996334275
996334326
996334296
996334259
996334326
996334259
996334258
996334288
996334298
996334320
996334315
996334256
996334318
996334255
996334343
996334303
996334331
996334258
996334311
996334256
996334314
996334267
996334263
996334311
996334259
996334327
996334326
996334284
996334266
996334336
996334289
996334283
996334303
996334308
996334318
996334261
996334291
996334257
996334334
996334324
996334332
996334270
996334282
996334276
996334288
996334250
996334328
996334339
996334316
996334333
996334255
996334271
996334342
996334248
996334275
996334315
996334281
996334299
996334325
996334294
996334334
996334263
996334274
996334281
996334261
996334323
996334245
996334331
996334283
996334258
996334252
996334315
996334269
996334340
996334263
996334251
996334316
996334264
996334295
996334308
996334249
996334324
996334331
996334340
996334307
996334250
996334326
996334262
996334304
996334295
996334321
996334288
996334302
996334324
996334305
996334336
996334249
