936 175
-997953140 -997815447 -995504939 -995383464 -992100324 -991088391 -990571603 -988517746 -987056797 -986842502 -982090342 -979935505 -976755905 -974054868 -971780016 -969236235 -968903402 -968250940 -967337868 -966645527 -965026404 -964033578 -963975145 -963952403 -961737868 -961064652 -960735252 -950081895 -948584166 -947548578 -947405231 -946493617 -944443480 -942742154 -942514588 -942356133 -940629414 -940503939 -937295082 -936107364 -935338407 -934801006 -934567794 -934252969 -933181179 -929605451 -922356642 -915602885 -915254095 -913627281 -912545047 -912277779 -911635113 -908605369 -904687572 -902076115 -901002204 -900887304 -899840431 -898656217 -898032849 -895985234 -895548977 -895255393 -892604375 -892404728 -891801993 -891796407 -889893971 -888288394 -887810199 -887713043 -887667004 -886169618 -883781093 -883472547 -881802741 -878893367 -878760826 -878455802 -877250153 -877207785 -877033374 -874292226 -872836350 -870739492 -870621162 -869472907 -867581212 -866271027 -865434876 -864471645 -862984914 -861548342 -859769053 -859506827 -858182248 -856460475 -855478721 -853297053 -852721611 -851381113 -849054473 -844810438 -844557400 -841830341 -833715289 -833095710 -830784683 -828841224 -820980798 -818642462 -816721882 -816656796 -812227037 -811647162 -809701735 -808823104 -808536461 -808301230 -807183234 -800211626 -797755203 -794356158 -786670085 -786464859 -785790594 -785527631 -777920144 -774985136 -769585322 -769290718 -767605790 -767025377 -765580437 -764631562 -758518386 -756785225 -754482682 -754361843 -753801565 -753259869 -750365546 -749880156 -747741837 -741192070 -741102248 -740913698 -737150425 -736276547 -733696736 -732371603 -730843473 -727888247 -725765224 -722135564 -719684119 -719527236 -719243218 -714407722 -714062496 -713051258 -707770289 -707437572 -706943756 -706832700 -706196160 -705076478 -702507287 -702493983 -700894758 -698990299 -695903706 -692782505 -692345699 -690725333 -689504639 -679158272 -673024080 -672296116 -672242423 -671062913 -670682166 -666175522 -665634283 -664574693 -660448125 -658321514 -657125927 -657027978 -656811306 -654543093 -651618405 -646615521 -645867930 -643474846 -638885371 -637474467 -636600142 -634156495 -631673605 -629307834 -623891470 -621854279 -618848904 -615345823 -614298137 -610995054 -610828341 -608170750 -608043139 -607895394 -606647202 -604577866 -601632409 -600307967 -597607942 -595409525 -589516304 -583591457 -578124583 -572802528 -571865612 -561782191 -559527097 -557190829 -550375522 -548388879 -546855219 -546171285 -542455152 -535306925 -535224397 -532339755 -525362458 -524344078 -523601413 -523572611 -515823533 -513143865 -511833903 -508611480 -507028273 -505259949 -504058986 -503021971 -502323888 -501919759 -498848437 -496050122 -493250855 -490462769 -483456096 -481450392 -478739688 -468953043 -468278705 -459747623 -458687063 -454911296 -453235456 -453176225 -451237517 -442397279 -437843544 -432023662 -428842783 -427594978 -424723162 -421296839 -419201365 -417203169 -414868679 -414239141 -410802931 -409667495 -406991737 -406366202 -401879693 -399579365 -398217423 -398184566 -398179001 -397093910 -393727907 -391682767 -390943943 -390116117 -386389583 -385769663 -384019650 -382198744 -381493509 -381368069 -377912389 -377877564 -375705770 -370977923 -366132008 -364925428 -364315081 -358014598 -357194048 -355144713 -355130571 -354564533 -351639905 -349313454 -349247218 -348884112 -348628596 -347173797 -347135588 -346558174 -346476433 -345890163 -345051962 -344344750 -340149581 -340142329 -335628631 -335419171 -333174401 -332518723 -330330683 -329914110 -326275302 -324349359 -320036466 -316153579 -315727231 -315469807 -312025743 -309768993 -306112535 -300551536 -299820299 -296903381 -293042587 -292449889 -289960766 -288624244 -283990823 -282495341 -281065703 -280200989 -277796356 -273665412 -270634967 -266836941 -266461339 -255960298 -251673906 -244330098 -242152339 -241624772 -237956608 -235973150 -235940454 -235873015 -235444721 -235229858 -234537850 -233280082 -233036477 -232294392 -216438399 -209232723 -208769413 -201774419 -201702921 -199305089 -197349964 -196652229 -195221354 -194195753 -192526711 -192375095 -190529597 -186701893 -185813592 -180948993 -180343380 -179677176 -179132696 -175949661 -173652231 -173169702 -171477247 -166574944 -165367887 -164278575 -161508727 -161269625 -161032323 -157605237 -156292045 -154723577 -148903562 -147169778 -145609841 -143196388 -139471283 -138779797 -134783920 -133495533 -129604003 -122556374 -122151385 -121542453 -119911339 -115437866 -103483722 -102645061 -102604945 -101729599 -101622820 -101263526 -100832443 -99921461 -97184839 -91800114 -89501539 -88933117 -88187491 -85691005 -81275308 -79748644 -78470746 -75532558 -71668806 -68160810 -67205653 -66442851 -66436527 -64866595 -62031910 -61342268 -60102379 -54869501 -54028472 -53978823 -53524313 -51383909 -50883016 -50511471 -49680382 -48033373 -45728011 -42824916 -41170828 -39213539 -37666741 -37468997 -35858228 -31012234 -30571662 -29722519 -28245943 -27660448 -26863593 -20039086 -19967409 -19751738 -19557356 -19518428 -18054870 -17090104 -13513804 -12663500 -10717776 -8628776 -4439267 160047 976252 4002848 8088459 10484698 13727989 20484404 23921903 25305453 26144509 26484778 29266742 30261243 37138104 38434123 40073621 41709591 43641079 45146671 49765847 51783951 54866675 62493776 70097157 70280458 78299961 81982925 84492393 85507144 87790314 93652050 93740160 96837146 102072538 103454810 107496480 109271761 111393751 115705931 116845496 127149732 128388308 137724481 137736550 139892784 140381687 145820456 148198208 149909256 150453484 150687359 154613621 155521391 155922041 159443664 159466778 161308010 165526795 165577250 166569372 168368570 169458803 177959835 180309701 180631230 181253598 181661525 187077420 188464982 191448730 193280444 204787285 206110368 208662447 208903641 209554916 215521096 220582716 221106946 221163331 223715586 226032717 226092936 227328032 228543265 237736765 238226112 243096821 244731760 246353173 252863154 253942380 254795423 254847696 255679386 256404025 262436588 264347229 264988269 269135928 272402556 274570138 275950132 277726476 278793000 279117845 279997362 280839268 281102557 281361795 281793232 282505600 286641565 286827192 291139075 293049772 294122664 294851383 298271325 298340595 305978177 306038251 307329368 307611764 307724644 311498649 315304527 324698215 326057642 336862012 337077070 337322038 338085814 338501184 341368752 344182268 344477389 345529461 357942884 363646758 367008206 367083299 374497809 378141355 378488955 381201418 384749260 384819467 387378077 387618248 389672630 391826030 396774949 397448101 398718725 404194218 407243003 414753021 416236598 416456516 417473492 420012554 425062051 426227831 427295108 427709086 428738428 431686935 432864131 438706016 439719718 447006426 447226138 448101026 452607330 454882243 455500449 455978556 456152247 456956449 461240416 466276475 466512711 469397608 472252339 479024092 479339673 479369790 479635208 482799359 485019277 487371386 487559068 490230483 490853638 491408580 493528720 496973324 497001000 498889907 502251110 503883188 504649813 505607563 506611867 506756868 507230613 510071899 510879934 511711701 513411642 516175692 516686097 517511943 519870199 520103657 523239911 524621775 525629810 527272137 528923872 531013610 531280209 532407309 532475321 534169413 534899790 537519875 540457550 542684730 545418161 545489688 549894102 550267434 551268398 556178719 559137500 559845465 565827885 574569004 579551912 580579471 582270165 583137857 586929490 587861769 588175215 588440823 589280139 590935087 593399385 596097389 596653048 597657684 599293822 601618049 602417728 605704566 611103507 611666764 615472554 615631793 615726284 618144600 619735448 621267784 622907425 623942398 627966397 629279443 629404089 634249383 636098589 636102556 636882006 638404982 639768184 641524125 643265490 644010760 645462756 647889663 651902908 652111567 654142824 655306859 655930025 658592181 662440284 663017543 665070713 665339423 666747785 669133954 669196081 669857267 673763773 673874050 675202640 679026225 679161287 680764995 681275943 682237388 682796790 687538918 692221108 692983783 695669490 696314324 699916461 700135898 708012912 708189668 709455439 713882490 715205548 722053945 726403752 728673585 735298500 741157549 742130652 742546310 743136771 743663538 744463161 745509131 745792628 746537972 753400049 755839880 756036273 756868731 757039577 758716137 761991404 762991271 763483670 765675488 766439186 771082353 773182520 773825725 774858739 775491463 777064218 778657226 780906875 782718413 783746216 783757274 784405603 785800912 787230736 788397520 791723725 791784793 792176353 792719776 793148159 794948336 795628226 796302353 803493199 804481620 804768192 805882554 806328367 811531493 811918711 812322679 812813609 813825717 819171899 820310718 820426400 821093272 821604289 823298126 824791982 824816640 825603124 830930975 831008118 835826548 840785670 846461354 847271542 852737224 852753907 852913517 854894871 855125678 855218148 861344138 864367570 866455638 869741196 873480855 874196934 874491339 877259657 881343506 881476982 884939729 886755365 886776034 887163347 889813665 892011869 893479667 894543908 895527322 896790670 897258490 899961039 900183720 901370746 906839658 917037024 918928340 919623722 923128929 924624658 931637767 932530349 934906203 937513167 938523049 940392264 940711521 946337362 948973511 949631672 950416590 954672607 956979613 957213639 960823309 961244333 965309262 968008144 968323870 968349927 972520045 973468184 974620855 977914537 980767674 982678302 983662133 986514625 989526416 989814192 990053399 990115099 990131507 991577780 992834996 995599017 997747322 998726948
998727030
998727030
998727026
998726969
998727001
998726973
998726952
998726997
998726973
998727001
998726990
998726957
998726977
998726990
998726953
998726987
998726973
998726987
998726951
998726986
998726975
998726977
998726986
998727016
998727025
998727037
998727041
998727025
998727023
998727012
998727023
998726984
998727017
998727038
998726990
998726951
998727036
998726984
998726958
998727047
998727039
998727026
998727030
998726950
998727009
998726971
998727026
998726954
998727007
998726964
998727006
998727032
998727037
998727003
998726964
998726972
998727009
998727017
998726959
998726998
998727041
998726960
998726949
998727001
998726985
998726958
998727007
998727019
998726974
998726995
998727012
998727042
998726992
998727025
998726953
998726975
998726982
998727023
998727038
998727017
998727045
998727044
998726960
998726980
998727018
998727023
998726959
998727001
998727030
998726996
998726987
998726988
998727035
998726967
998726979
998727046
998727038
998726966
998727028
998727042
998726955
998727028
998727019
998727033
998726972
998727047
998727010
998726954
998727010
998727001
998726951
998726968
998726949
998727043
998726958
998727033
998727013
998727022
998726987
998727033
998727029
998726982
998726971
998726959
998726991
998727014
998726950
998726968
998726977
998727021
998727028
998726962
998726963
998726960
998727028
998726997
998727044
998726957
998727040
998727030
998726977
998726987
998727020
998726996
998726984
998726951
998726999
998727011
998727033
998726970
998726984
998726962
998726990
998726967
998726970
998727003
998726952
998726963
998727038
998727018
998726970
998726953
998726977
998726953
998727042
998726953
998726958
998726960
998726972
998726982
998726969
998726964
998726962
998727002
998726991
