347 97
-995216308 -982556556 -979950769 -973616076 -972757274 -972005017 -970787752 -967801939 -966172893 -964758243 -960980011 -960341039 -955773599 -951389183 -950657950 -933589844 -925208241 -914933803 -905887760 -898452640 -898028964 -897373387 -895888843 -894576293 -878259115 -868910357 -863313581 -855770927 -851105099 -845870270 -835884888 -831677647 -829974807 -813334407 -811417818 -810010416 -807888585 -804822106 -793808381 -762271228 -750824746 -748668851 -746047083 -745895991 -744231935 -739119572 -728323990 -716793243 -715347368 -700389795 -692053821 -691574152 -690740910 -688011867 -674653597 -672995739 -670997330 -653850698 -645539210 -643266044 -638717155 -631200959 -627501645 -622798502 -619754153 -619712599 -608417450 -603683540 -577199723 -576120643 -575642525 -552181761 -540679543 -539634480 -534697445 -527178521 -526412792 -521336666 -512097372 -504583776 -490424162 -490411477 -488664736 -482730683 -473896524 -471549800 -470512388 -464285226 -464177155 -451870270 -448035949 -444280393 -437313792 -437247760 -426842439 -423786459 -420352770 -418174622 -413035469 -404711829 -400784607 -374203456 -373667890 -369992067 -356482471 -355546972 -354387559 -354214953 -352356466 -347879056 -338246356 -321717966 -321290257 -316215964 -315512696 -302203582 -299163802 -298400876 -294286374 -282598940 -240979352 -238509338 -235599478 -232822988 -231383454 -229100039 -227102136 -225615445 -210522018 -208385400 -203567405 -193793937 -192079635 -188302162 -168960738 -141479184 -139202624 -137594611 -131375777 -122292881 -117218701 -116383361 -113807903 -110502162 -94765046 -79780596 -71384239 -58557658 -43207014 -23730860 -23432207 -13271643 -2449547 2771831 3729412 19083409 27297344 42177225 49014630 49605540 51596588 65617774 85419943 85539473 95529752 96133363 104938490 105178519 113698261 123003106 124886867 129977853 132239493 132838388 136511669 145251532 147744893 155370155 160159666 166859353 167120205 168312594 172893442 183923918 185799726 188220641 195910644 198071185 206454472 206807088 210759058 217734136 221190752 221723923 225995563 230731988 240242537 242098843 243203811 250026387 258345298 263728697 270712065 281561675 287313047 304667011 307469459 311428750 311466957 323070938 325877142 330715445 338069592 345982251 349297837 350215607 352128453 357831941 360691202 366636980 369305260 376031352 393776746 400736796 417108503 420577385 423053210 441896587 444993714 449640573 455484458 464540095 476057130 477909556 481209530 505898532 506047465 506458141 519541659 529176088 539568985 540673910 542331371 546810039 546884032 552113802 553950261 554811373 556203186 557226310 558606665 568961208 571628739 574433230 579693419 579932457 580572916 592353817 593470131 593734574 602145108 614772589 619553559 622393233 637833283 643858616 646365323 660507572 666384489 667263896 677316326 681749560 682750876 687068145 695860858 699666637 701198865 702921055 705924062 707254367 709341975 714354741 715211954 715597639 717851215 723522018 723729616 726324810 736317023 738304089 748316976 750320035 755009446 755698977 760668267 762025285 763575391 766885454 774949973 779725517 782853062 788098264 790161881 793800242 810260767 812598993 816515271 820798589 841775315 843090401 844150375 861480633 863144517 863899573 866776811 868119983 880184298 882061794 883155938 895089898 901613082 907773138 908597174 912579351 920060761 920746075 927431919 931200068 931890892 941853599 942158232 944189915 950890881 960896781 961547400 964957670 967740006 968171400 968915720 970773469 976354585 977747396 983472681 984184415 985896198 988052208 990094374
990094380
990094400
990094407
990094430
990094376
990094463
990094471
990094393
990094430
990094379
990094376
990094456
990094457
990094444
990094465
990094386
990094473
990094398
990094453
990094414
990094390
990094428
990094456
990094431
990094378
990094385
990094404
990094417
990094450
990094468
990094422
990094473
990094399
990094458
990094474
990094404
990094407
990094443
990094423
990094425
990094383
990094429
990094437
990094442
990094459
990094395
990094474
990094410
990094428
990094393
990094405
990094424
990094455
990094410
990094458
990094385
990094426
990094393
990094422
990094382
990094407
990094415
990094385
990094439
990094393
990094445
990094471
990094387
990094429
990094419
990094463
990094396
990094382
990094375
990094449
990094465
990094380
990094386
990094452
990094447
990094470
990094423
990094441
990094399
990094409
990094436
990094404
990094407
990094388
990094464
990094474
990094465
990094379
990094388
990094463
990094430
990094404
