411 831
-997388744 -995839722 -983759626 -966708255 -956759098 -951194111 -938219239 -937985232 -937864932 -937824199 -935132929 -934714066 -934594626 -929927550 -922758586 -922361437 -899244235 -895847425 -893438407 -891023931 -888519434 -885821904 -885821764 -885691673 -881744538 -872214975 -869191741 -867951096 -867711406 -864572398 -858697135 -855747327 -850717012 -845458944 -844612233 -842879430 -842258445 -841704376 -839184850 -826797299 -826401428 -821693758 -816799157 -813825970 -810716222 -798938527 -798676775 -794106115 -793781507 -788699985 -782661903 -778223459 -771635706 -758605631 -756587138 -747853873 -723493139 -722910111 -722742589 -714123983 -711436425 -708132591 -700707063 -693727809 -691481746 -690408153 -690196557 -679610909 -672995547 -670933852 -665025743 -664115637 -663415859 -640246998 -637033239 -631880933 -630611702 -629208743 -623500401 -619084036 -617328473 -610542540 -604699736 -600201685 -599328576 -572155371 -548546471 -546219930 -543758619 -528843469 -525617312 -515989650 -514437457 -514153751 -506765519 -504397297 -503831562 -502560863 -501916509 -493462007 -486465664 -471446033 -471252772 -465219372 -463601777 -427853020 -426059428 -420446673 -414795128 -411902241 -407715572 -399593360 -397586512 -392467811 -391657598 -381764347 -380960339 -376557995 -364486609 -361645856 -357705973 -354838487 -351697972 -342747121 -338056774 -333697068 -332566436 -326132924 -310217529 -304681634 -300571168 -299574602 -296395892 -294242194 -292945423 -290677278 -282563481 -281987370 -277221355 -275243439 -267666731 -261234291 -249848467 -247202514 -245794334 -245363053 -242763038 -241229625 -239002232 -234256678 -227504041 -223491193 -221176886 -220414681 -213694937 -203259389 -200385336 -194780094 -188127742 -183660506 -179258369 -176166752 -173753794 -173285347 -168482227 -165888835 -163823596 -157783955 -154426093 -145257257 -143003598 -133241680 -132005844 -128715900 -122500929 -122427501 -121793121 -108394736 -105713623 -98972808 -96274965 -83674989 -83027464 -78087626 -75575814 -75374255 -68966594 -66925486 -62596856 -52791608 -46885623 -43303072 -43115321 -36384440 -35006360 -32686223 -28883459 -28869108 -23640792 -11592943 -5466798 -3858391 -857960 -217284 2183843 4655581 5399745 8268834 8793463 8803131 11982570 13114806 23925028 26161425 34747014 35227336 47135099 48245090 48554468 50631439 52414499 56379751 60084955 61714516 63999820 66156176 74088195 90408293 91207131 96031058 98496108 99653101 100182973 107973219 116634081 116991692 122140031 123055498 135424031 138279968 144205601 144793508 152496092 155426126 161666571 162729176 163820455 172460098 176843443 179426071 181082455 181707105 191768976 193504097 194196132 198322755 200138760 200408767 208029654 209302354 209451336 214725851 217315795 229112029 236036147 242251127 244835426 249158174 271872652 272943301 279384312 282873069 288878559 292121745 293657777 294467058 299982509 306896868 310179371 310273019 311325290 315829353 316580494 322612984 326210677 326465954 326932546 332142893 366456289 369490026 378646782 379310896 383689821 396282503 399150381 402089220 408295730 412505730 418722426 420902720 424664833 427252100 429702425 442732818 449732106 453749687 469052596 471596105 472628603 473218746 476076672 479554734 488349214 492341315 495442441 508442153 515594551 523643341 525595457 527021564 529770040 535048337 535087372 542602423 544225014 550660740 554302560 555654517 556022024 556946053 559610662 566610691 568275603 568499839 569612852 572241075 576805703 586427359 591855764 592938088 600618793 606104129 610512472 629386648 632481738 638900214 639022540 640717821 658493139 658793565 661139645 665805051 669970136 675466975 675674719 678181099 681200325 688384509 689936101 694824587 695125739 705747033 708773249 713742284 720910318 727762761 734931524 738143033 741385168 748706951 769273497 775849255 781022856 781246792 786346001 786780637 789920072 802004328 803240928 803475990 803504762 805867572 806033752 818735397 820875124 833865381 843418249 846308952 853373813 853479244 862414225 869293595 874860726 877392659 888831495 895435221 910718141 920849530 922945390 939294283 942505683 948369395 957393661 958156776 969188672 970485985 977994512 987934371 994657139 994885411 996344219
996344279
996344291
996344234
996344258
996344269
996344254
996344296
996344294
996344284
996344234
996344257
996344300
996344229
996344237
996344222
996344256
996344307
996344314
996344281
996344297
996344229
996344295
996344258
996344284
996344255
996344231
996344315
996344318
996344233
996344278
996344247
996344239
996344275
996344284
996344313
996344246
996344257
996344228
996344303
996344307
996344220
996344264
996344236
996344226
996344264
996344229
996344298
996344275
996344266
996344306
996344238
996344310
996344309
996344264
996344310
996344279
996344289
996344244
996344312
996344298
996344292
996344319
996344236
996344259
996344258
996344271
996344268
996344305
996344264
996344285
996344281
996344232
996344254
996344263
996344295
996344297
996344315
996344242
996344256
996344317
996344223
996344275
996344279
996344271
996344268
996344294
996344278
996344262
996344234
996344319
996344281
996344265
996344270
996344272
996344283
996344297
996344229
996344284
996344230
996344248
996344298
996344233
996344273
996344261
996344296
996344247
996344268
996344319
996344296
996344292
996344307
996344238
996344315
996344228
996344269
996344309
996344242
996344269
996344316
996344271
996344262
996344290
996344250
996344232
996344226
996344269
996344253
996344312
996344270
996344241
996344295
996344301
996344299
996344301
996344310
996344226
996344242
996344256
996344287
996344249
996344253
996344288
996344261
996344269
996344242
996344315
996344262
996344227
996344271
996344273
996344300
996344253
996344278
996344251
996344252
996344278
996344282
996344251
996344282
996344255
996344261
996344234
996344255
996344258
996344319
996344279
996344250
996344306
996344238
996344288
996344278
996344229
996344246
996344307
996344257
996344255
996344250
996344224
996344253
996344248
996344263
996344304
996344243
996344243
996344283
996344261
996344221
996344319
996344299
996344287
996344284
996344277
996344317
996344315
996344302
996344220
996344236
996344274
996344236
996344261
996344277
996344252
996344272
996344262
996344245
996344247
996344283
996344291
996344315
996344316
996344286
996344253
996344255
996344253
996344308
996344265
996344270
996344275
996344241
996344266
996344220
996344240
996344275
996344236
996344289
996344307
996344246
996344252
996344263
996344318
996344288
996344268
996344266
996344276
996344260
996344297
996344288
996344228
996344283
996344305
996344285
996344287
996344227
996344272
996344299
996344293
996344282
996344310
996344281
996344256
996344289
996344267
996344220
996344247
996344312
996344262
996344227
996344288
996344293
996344297
996344318
996344276
996344283
996344289
996344298
996344251
996344302
996344234
996344263
996344248
996344305
996344239
996344227
996344282
996344285
996344312
996344299
996344281
996344245
996344277
996344225
996344221
996344239
996344281
996344290
996344245
996344259
996344238
996344304
996344279
996344298
996344318
996344268
996344239
996344269
996344273
996344292
996344281
996344220
996344319
996344234
996344279
996344311
996344261
996344308
996344285
996344251
996344318
996344225
996344308
996344231
996344285
996344305
996344316
996344261
996344250
996344270
996344227
996344239
996344257
996344259
996344235
996344271
996344263
996344231
996344296
996344228
996344260
996344240
996344243
996344287
996344311
996344232
996344316
996344258
996344262
996344304
996344282
996344288
996344250
996344302
996344289
996344233
996344303
996344263
996344288
996344256
996344272
996344225
996344270
996344282
996344232
996344292
996344264
996344319
996344243
996344273
996344303
996344247
996344290
996344242
996344233
996344268
996344241
996344268
996344258
996344225
996344253
996344222
996344267
996344303
996344265
996344306
996344307
996344291
996344290
996344246
996344319
996344305
996344294
996344254
996344311
996344305
996344227
996344291
996344307
996344232
996344220
996344270
996344267
996344237
996344261
996344258
996344230
996344317
996344234
996344257
996344301
996344304
996344250
996344268
996344256
996344227
996344300
996344315
996344251
996344319
996344220
996344287
996344270
996344252
996344247
996344312
996344301
996344316
996344270
996344279
996344240
996344244
996344281
996344246
996344257
996344286
996344319
996344282
996344245
996344228
996344227
996344300
996344249
996344252
996344232
996344280
996344289
996344301
996344278
996344244
996344315
996344289
996344308
996344302
996344267
996344277
996344223
996344276
996344309
996344229
996344301
996344230
996344302
996344233
996344305
996344318
996344247
996344281
996344247
996344311
996344315
996344248
996344225
996344280
996344296
996344263
996344262
996344278
996344255
996344285
996344311
996344268
996344289
996344298
996344232
996344303
996344302
996344290
996344298
996344281
996344301
996344241
996344307
996344255
996344221
996344319
996344269
996344319
996344275
996344233
996344260
996344298
996344247
996344316
996344295
996344256
996344228
996344276
996344317
996344241
996344277
996344251
996344273
996344257
996344310
996344223
996344268
996344295
996344235
996344253
996344237
996344243
996344246
996344221
996344317
996344298
996344282
996344224
996344307
996344262
996344250
996344272
996344268
996344227
996344224
996344299
996344319
996344250
996344285
996344285
996344229
996344250
996344294
996344272
996344283
996344247
996344232
996344298
996344282
996344259
996344285
996344299
996344254
996344305
996344240
996344264
996344289
996344257
996344265
996344272
996344299
996344319
996344257
996344270
996344287
996344236
996344241
996344235
996344262
996344290
996344230
996344309
996344314
996344306
996344313
996344228
996344264
996344272
996344247
996344284
996344253
996344248
996344227
996344286
996344234
996344223
996344268
996344315
996344314
996344305
996344229
996344273
996344302
996344315
996344220
996344279
996344231
996344233
996344220
996344297
996344299
996344278
996344230
996344293
996344304
996344230
996344263
996344280
996344261
996344249
996344220
996344268
996344298
996344252
996344224
996344291
996344241
996344223
996344254
996344300
996344260
996344273
996344235
996344295
996344249
996344242
996344232
996344262
996344264
996344257
996344231
996344237
996344291
996344223
996344291
996344280
996344238
996344309
996344238
996344287
996344275
996344261
996344291
996344270
996344227
996344238
996344255
996344312
996344289
996344240
996344317
996344236
996344233
996344250
996344272
996344270
996344248
996344302
996344263
996344277
996344261
996344283
996344278
996344308
996344223
996344292
996344230
996344277
996344257
996344298
996344265
996344253
996344311
996344224
996344271
996344241
996344315
996344221
996344299
996344304
996344311
996344276
996344221
996344297
996344257
996344312
996344229
996344309
996344238
996344296
996344222
996344237
996344254
996344255
996344300
996344295
996344236
996344235
996344236
996344251
996344264
996344220
996344276
996344249
996344253
996344315
996344287
996344253
996344256
996344319
996344283
996344259
996344304
996344254
996344291
996344290
996344247
996344227
996344252
996344285
996344264
996344287
996344225
996344297
996344240
996344268
996344267
996344279
996344227
996344319
996344316
996344276
996344277
996344253
996344284
996344262
996344258
996344252
996344274
996344237
996344263
996344314
996344284
996344223
996344234
996344308
996344280
996344237
996344302
996344246
996344227
996344278
996344292
996344290
996344303
996344310
996344286
996344309
996344303
996344313
996344295
996344299
996344226
996344303
996344275
996344241
996344265
996344306
996344308
996344265
996344304
996344235
996344246
996344225
996344280
996344257
996344237
996344225
996344282
996344242
996344292
996344229
996344246
996344238
996344295
996344261
996344315
996344270
996344277
996344242
996344249
996344258
996344317
996344300
996344250
996344258
996344225
996344255
996344310
996344241
996344244
996344292
996344232
996344282
996344288
996344222
996344295
996344318
996344223
996344227
996344318
996344299
996344264
996344292
996344247
996344248
996344239
996344314
996344222
996344293
996344263
996344247
996344247
996344317
996344274
996344307
996344310
996344315
996344298
996344312
996344223
996344267
996344300
996344271
996344258
996344276
996344238
996344268
996344254
996344233
996344248
996344314
996344230
996344308
