944 428
-991098044 -988112949 -986615990 -983759466 -978814587 -974707301 -972916981 -972684580 -972499358 -966442377 -965591330 -963338255 -958889173 -954911058 -954512277 -950796367 -948037645 -940778375 -940093938 -938382296 -937950757 -934919855 -932472023 -931975471 -930445565 -929816684 -927431382 -927013106 -925810475 -923689867 -922493215 -919112512 -917818351 -917261946 -912976310 -904113465 -903539768 -901834972 -900575270 -900516358 -899465085 -899276878 -898327393 -897726557 -895461941 -892590819 -889928585 -888045786 -884308980 -884078993 -882324799 -882289231 -876680238 -871384168 -870892796 -870646733 -869499804 -867414513 -863734362 -857646225 -856889102 -851321409 -849492609 -845741862 -843144123 -841913273 -838391877 -838067488 -834795494 -834254458 -832758924 -828555417 -827358864 -825266831 -824872440 -824111864 -814373258 -813156798 -812697788 -812152893 -811657962 -810844228 -807841001 -807164420 -806837869 -805002838 -804843701 -803789895 -796560879 -792703406 -792398902 -792310121 -790651449 -790245463 -789436543 -789407186 -788253504 -787203665 -783654343 -778270736 -770138192 -768606149 -766968974 -766330645 -765114358 -764355600 -763917020 -755962770 -755581049 -755506074 -754968259 -751165993 -749603042 -745636437 -737459354 -733270798 -732030396 -727864824 -727648607 -726866701 -720655681 -719631632 -717859342 -716132731 -713060121 -711593043 -710008471 -708361178 -707849224 -706162027 -699086630 -697595309 -696074713 -695683668 -693637484 -692801452 -690787701 -687411473 -685955822 -684078024 -684002654 -680403216 -677063336 -676467090 -675506138 -668806941 -661223038 -660329880 -653380356 -645170668 -645085108 -644810336 -642397502 -638650483 -635509032 -635023106 -632957924 -626481168 -625903097 -624645871 -623205076 -621528801 -618571918 -617973026 -613961918 -610408954 -597001789 -596429845 -595227672 -593271340 -592629709 -586112852 -585703155 -585452919 -584071924 -579065055 -576579196 -571028783 -569301222 -565831254 -563863524 -562911529 -562046383 -559659316 -549799788 -548158016 -547835301 -545293381 -543758454 -542279509 -537817635 -536468484 -535500631 -534018137 -527915861 -522764225 -521985978 -520156322 -517148697 -515459621 -513111800 -511003283 -504469636 -501259386 -500508595 -500247026 -499775982 -499188071 -496187716 -494775027 -491722463 -490974154 -485266963 -481418363 -476595275 -475411949 -475351287 -469254030 -468837653 -468400389 -465713090 -455882094 -455753257 -455410312 -452317575 -452114854 -451543536 -450757480 -450213250 -450198488 -444415443 -444203778 -438984609 -435166059 -433857189 -431601639 -430339014 -429132658 -425524311 -423935037 -423655454 -423444053 -419234795 -419097469 -418026647 -416028457 -415347912 -414209770 -411088913 -409421868 -409320214 -408558198 -403986269 -399166178 -396082649 -394595066 -392624266 -388564541 -388071154 -387938007 -385246006 -384071146 -379519543 -376886204 -375754699 -375629879 -370457289 -365641206 -365117415 -362745184 -357793156 -355018278 -352318520 -345898713 -342094230 -341955676 -338860612 -338761138 -338696773 -336696454 -335708093 -335104248 -333041179 -332570616 -328571444 -325702998 -324692239 -323221556 -323093490 -322355203 -319550119 -318170823 -317573146 -313969673 -312030637 -310298960 -309799006 -307510806 -304491370 -301891642 -301891211 -299508018 -298955334 -296983986 -295353871 -293773481 -293264318 -291167195 -289774774 -288882453 -288174031 -287746843 -286208024 -282907623 -279621944 -278637564 -278590363 -275014026 -270239993 -269414089 -267267791 -267255206 -266443030 -260788048 -258056571 -255220079 -254686321 -253171275 -251128186 -249289924 -248896983 -248167454 -247615030 -247610718 -245366594 -243009459 -242462677 -242075999 -237295318 -234870961 -226644935 -224537051 -217191737 -216055860 -213705449 -212552134 -209503101 -209208771 -207622548 -205634585 -205601264 -202988149 -199851422 -198638201 -197269256 -193075154 -192698558 -189355625 -186362497 -183730522 -183359508 -181616686 -180438168 -175673553 -175042322 -174877988 -173249906 -171264707 -170022938 -168969461 -166744184 -165602204 -164044389 -163069638 -162545413 -155698042 -153578060 -152904896 -148682677 -147360560 -144947862 -142033930 -135678149 -134418907 -134018829 -132900079 -132044183 -126570145 -124091745 -123878059 -121482643 -121275035 -117332437 -111367383 -109362141 -107724921 -105035386 -103228594 -102826170 -102086597 -101104167 -99176421 -94492600 -93457645 -92731422 -92093691 -90945325 -90421647 -88497170 -87910325 -87652735 -87242818 -85862490 -84498495 -83734027 -78071285 -77956457 -75544857 -73970259 -71926104 -71670683 -71192633 -71088643 -68027953 -66507133 -65434578 -59401677 -57504104 -51920511 -45598070 -44548474 -44242913 -37049422 -34909209 -31167102 -29221920 -26145285 -23735510 -21404428 -20383360 -19931099 -18259979 -16011541 -15981121 -14609124 -13801274 -12967797 -10042387 -8478652 -6831391 -6029054 -5719617 -5622730 -5005432 -1564682 -790067 1437358 1518543 3127416 6735948 10028836 10984722 11105383 12299107 15705677 17418311 18824586 18979399 19230727 19477517 21281386 21742732 22121052 23084406 23436821 23569629 24511591 26675900 28082432 32034870 33146232 33177886 34255000 34592371 36342785 36856746 39025086 43069901 43384701 44701071 45685861 50848199 51081567 53958325 60909855 63415797 65873119 66984893 67876562 68850755 72171046 73872639 74174265 76466889 81739414 82021268 82197158 82371254 82705988 83635771 85423748 85653244 87237526 91726540 93565501 94140159 94298756 94586622 95362332 95782779 98893265 100699718 102093564 102586534 103667100 104856436 104890458 109334329 110462134 112312494 113043891 113980211 113980758 116824262 118128915 120268342 123388928 123653576 123851430 124441985 127810357 129267428 131632881 134083916 135583921 138896107 141564542 147539630 150623326 151598835 152233470 153984010 156043599 156692698 157032812 165371966 166110024 167663043 168517705 168632609 172673487 177802973 179568935 180310491 181456147 182735669 189739371 189790361 189972918 197932046 198760922 204897534 208819365 209486874 209888084 211543366 211645592 211921542 213496090 217256441 217637589 220438849 222022804 224636188 225379927 226463567 234171466 234528150 234947197 237235739 237292951 238992802 241044555 244163508 245310353 245635726 249680684 250504119 251579203 254631658 255794421 259164623 259202677 259373892 259504635 260181108 265700561 266112720 275425381 280644283 281790781 287581661 287894267 288433570 289323400 290524962 296065010 296777597 300053400 300150544 302832948 304297271 311014748 311839078 312312396 312851571 312977607 313400593 313995122 320147304 325648881 328465528 329415652 330692528 331963255 334745268 335947200 339789729 340264124 340369995 341927114 342016069 343494687 348490494 351317590 352031115 352320481 353504635 355292188 358168099 362432729 364894529 374264392 375712720 376964295 377400276 379104068 383349263 384482747 384745704 385231660 393094622 394646976 395789205 400854660 401041059 401468560 401596234 405668451 406921242 409801892 411998330 414391702 426721425 427122276 430544407 432899824 434254262 436707858 437725019 439671059 443275218 443363524 444001123 446317720 448598781 450696687 451743217 455468353 455855144 456159553 456527158 457503512 459314726 465786712 467688458 468104466 472108658 473579886 474204730 475768757 476870587 476874569 480914608 481156565 481966546 483158008 487750069 489167452 490007913 496030694 502621045 503001032 505502539 506732725 513949296 513988063 523844147 526461921 527892043 528291390 533298996 534908995 535281242 539252786 541157019 543292660 545846847 547020632 548263928 550752925 552645098 554573495 555480357 558891160 560041889 561704465 561990365 563161144 563820981 564453248 565386489 566399851 566885665 566931846 569182654 571685807 574276203 575765273 576950537 579221740 579546326 580743562 581636158 583795342 587469028 588885038 590541862 593222296 598035074 601002271 601211419 601579380 601857585 602346790 604393882 605353434 605951159 605989606 607357768 610233638 610391101 610615524 611095730 613623628 620626231 621324909 623161481 623706905 624896563 625351190 632877581 635906021 636864365 642262320 643881506 646703972 647885650 654978268 658303546 659391885 659807517 660031508 661671623 662393887 665595988 666339276 667099169 674811815 675111831 678664318 679108923 679355149 688163050 688937517 689800804 693444834 694026175 697264717 698218693 699056590 701011377 702056699 704616255 705038114 706096141 713406992 715993919 717960086 720218058 722214587 723489448 724787827 725614963 725970693 726672520 743471795 747907557 750108110 752161901 757303233 764767873 765621804 765840812 766865010 768454618 768716952 772516388 773042105 776684550 777257925 778022842 780572126 783527885 784386847 784581846 790310021 794047960 794662179 795036106 795517118 797896045 798267876 801216829 803268888 804432136 805809307 807763465 809784501 813606818 814343476 814498622 826874717 829490053 830131744 830929668 831225967 831249008 832597885 834021824 834729157 835229830 836445700 839110121 840752964 843467452 844203585 856880476 857411766 859852814 869744091 871051432 872367443 874013142 874168026 874674085 874753318 877171289 877426829 877800806 879345423 879769972 883955849 886655885 887717890 893575269 894594737 894882216 902369035 902518024 904674583 907360185 907967781 911858129 913360749 916210866 918147159 918474353 918751985 920076768 921665326 927321346 928162835 928548876 933736851 934798014 935705383 937864798 939441474 940306958 942778983 944551674 944767179 953138569 955626930 962814890 964864611 966722772 967361235 969907509 972173168 973337272 977466534 979860550 980261674 982819297 983048895 983598985 986386924 988045691 988532174 989279013 993520499 999397793
999397866
999397872
999397868
999397849
999397883
999397840
999397800
999397825
999397876
999397866
999397814
999397811
999397872
999397868
999397799
999397857
999397885
999397843
999397812
999397881
999397864
999397850
999397863
999397884
999397871
999397862
999397820
999397886
999397814
999397831
999397833
999397860
999397838
999397879
999397849
999397845
999397812
999397821
999397823
999397833
999397838
999397872
999397870
999397804
999397800
999397816
999397800
999397807
999397840
999397874
999397815
999397855
999397892
999397882
999397837
999397881
999397821
999397853
999397836
999397888
999397832
999397884
999397870
999397803
999397819
999397815
999397797
999397804
999397862
999397883
999397820
999397806
999397891
999397871
999397809
999397811
999397855
999397811
999397804
999397888
999397893
999397888
999397794
999397823
999397803
999397821
999397841
999397794
999397808
999397852
999397799
999397881
999397843
999397872
999397872
999397845
999397817
999397884
999397844
999397857
999397818
999397841
999397854
999397832
999397823
999397840
999397808
999397847
999397843
999397803
999397884
999397801
999397812
999397832
999397826
999397866
999397812
999397815
999397807
999397824
999397826
999397861
999397880
999397838
999397851
999397868
999397879
999397826
999397804
999397826
999397801
999397843
999397884
999397869
999397878
999397830
999397853
999397841
999397865
999397865
999397805
999397889
999397860
999397823
999397843
999397840
999397856
999397856
999397796
999397803
999397837
999397843
999397835
999397880
999397794
999397840
999397861
999397796
999397864
999397828
999397834
999397870
999397892
999397867
999397851
999397819
999397880
999397859
999397824
999397876
999397846
999397875
999397823
999397878
999397814
999397847
999397800
999397832
999397860
999397813
999397856
999397836
999397891
999397834
999397815
999397892
999397878
999397873
999397805
999397814
999397807
999397835
999397859
999397885
999397802
999397794
999397845
999397862
999397861
999397853
999397884
999397821
999397829
999397864
999397846
999397863
999397826
999397836
999397807
999397801
999397892
999397860
999397837
999397884
999397862
999397878
999397871
999397841
999397831
999397818
999397836
999397841
999397821
999397797
999397827
999397810
999397884
999397821
999397847
999397874
999397848
999397841
999397805
999397809
999397799
999397808
999397807
999397802
999397890
999397840
999397797
999397796
999397794
999397873
999397861
999397799
999397888
999397860
999397879
999397844
999397806
999397854
999397811
999397804
999397855
999397806
999397827
999397851
999397888
999397822
999397882
999397795
999397826
999397799
999397872
999397889
999397801
999397885
999397877
999397891
999397850
999397888
999397844
999397845
999397813
999397818
999397814
999397826
999397836
999397885
999397851
999397885
999397868
999397851
999397808
999397888
999397873
999397830
999397841
999397823
999397850
999397891
999397835
999397857
999397882
999397864
999397806
999397801
999397890
999397888
999397893
999397838
999397858
999397812
999397888
999397816
999397814
999397890
999397832
999397815
999397877
999397868
999397880
999397889
999397883
999397801
999397880
999397814
999397873
999397848
999397893
999397827
999397847
999397795
999397809
999397834
999397826
999397841
999397796
999397847
999397796
999397839
999397868
999397806
999397840
999397805
999397879
999397863
999397811
999397872
999397860
999397826
999397869
999397833
999397837
999397824
999397864
999397828
999397857
999397805
999397841
999397852
999397835
999397879
999397877
999397817
999397888
999397803
999397884
999397840
999397807
999397879
999397836
999397868
999397832
999397892
999397836
999397802
999397825
999397818
999397832
999397856
999397827
999397826
999397882
999397833
999397847
999397815
999397859
999397821
999397818
999397853
999397892
999397827
999397885
999397868
999397815
999397838
999397875
999397857
999397857
999397796
999397872
999397824
999397884
999397884
999397839
999397891
999397798
999397879
999397886
999397837
999397884
999397821
999397835
999397800
999397822
999397825
999397810
999397830
999397860
999397831
999397863
999397824
999397885
999397864
999397866
999397854
999397801
999397858
999397889
999397820
999397893
999397838
999397813
999397836
999397798
999397803
