19020 29245
-999878885 -999827301 -999803647 -999601150 -999564974 -999428472 -999346210 -999326688 -999278457 -999244441 -999213452 -998868285 -998814082 -998793862 -998777434 -998752886 -998711498 -998676320 -998597134 -998497986 -998200105 -998127382 -998126626 -998008878 -997958689 -997852993 -997681437 -997678349 -997646673 -997510481 -997337101 -997079389 -997066905 -997001698 -996994558 -996975151 -996944225 -996914073 -996855385 -996493503 -996085795 -996000103 -995861854 -995770576 -995727521 -995677891 -995625965 -995397975 -995334712 -995322406 -995274605 -995246309 -995212804 -995207613 -995203991 -995073919 -995008685 -994969015 -994886613 -994791963 -994725201 -994709129 -994554158 -994509554 -994443901 -994415997 -994304210 -994263319 -994258891 -994171023 -994160089 -994115216 -994065482 -993914282 -993887779 -993695013 -993605237 -993588606 -993124348 -992985937 -992963789 -992895144 -992756185 -992624127 -992507758 -992458909 -992354855 -992051596 -992039849 -992017145 -992008290 -991794419 -991647178 -991614028 -991542823 -991480831 -991348989 -991253955 -991189510 -991053075 -990945469 -990852376 -990835808 -990564402 -990439679 -990377797 -990271639 -990191155 -990154921 -990084105 -989980701 -989952735 -989904627 -989708427 -989461797 -989435000 -989391584 -989326703 -989294194 -989020740 -988957313 -988902642 -988870405 -988664126 -988571370 -988388243 -988308497 -988144316 -988010353 -987924185 -987810248 -987682888 -987642458 -987570433 -987539751 -987402303 -987350812 -987338910 -987228928 -986933069 -986890384 -986848206 -986749891 -986663504 -986304218 -985988702 -985966057 -985840361 -985754848 -985599031 -985339790 -985329483 -985290272 -985219777 -985174955 -985036055 -984988850 -984929391 -984848437 -984757733 -984481175 -984375363 -984288249 -984257151 -983411908 -983345920 -983314159 -983172281 -983112621 -983089875 -983058085 -982852635 -982828120 -982759067 -982750355 -982749251 -982637614 -982530738 -982292608 -982267572 -982265897 -982237811 -982191003 -982189148 -981975499 -981896815 -981794367 -981749887 -981651708 -981628967 -981333027 -981120141 -981100662 -981054622 -981043245 -980882003 -980656601 -980647186 -980629751 -980435837 -980167177 -980117277 -979951087 -979760504 -979732225 -979721263 -979686949 -979630276 -979617267 -979515541 -979135168 -979092568 -978988668 -978920006 -978359953 -978277210 -978191306 -978155531 -978133881 -977989256 -977612830 -977557535 -977528288 -977154381 -977135480 -977100038 -977039027 -976867005 -976717790 -976589560 -976415846 -976321302 -976304430 -975984716 -975851025 -975772398 -975579569 -975502863 -975447140 -975374309 -975334002 -975315020 -975223187 -975168838 -974929246 -974820525 -974643310 -974529082 -974417791 -974228388 -974125062 -974089153 -973841242 -973605971 -973370825 -973291609 -972532127 -972500542 -972264970 -972117465 -971656530 -971637957 -971636738 -971518658 -971018941 -970972109 -970970652 -970945992 -970944815 -970720083 -970589287 -970555840 -970509582 -970229884 -970142892 -970099499 -970017689 -970008294 -969987365 -969969063 -969935010 -969750779 -969543886 -969146594 -969073669 -969022613 -968995924 -968959287 -968850061 -968778835 -968736722 -968652821 -968548839 -968494251 -968394072 -968120221 -967983202 -967864610 -967788216 -967719298 -967657041 -967602567 -967459828 -967348286 -967167313 -967100791 -967092606 -967054569 -967035592 -966964445 -966905238 -966805762 -966536425 -966451829 -966449623 -966400959 -966120661 -966095437 -965807693 -965756776 -965657418 -965645656 -965280519 -965216332 -965186692 -965072890 -965030220 -965005721 -964734489 -964723887 -964701672 -964693687 -964572251 -964420398 -964387938 -963962789 -963490977 -963187018 -963177971 -963098033 -963047342 -962976459 -962921793 -962897592 -962869201 -962846334 -962728584 -962577649 -962511468 -962273345 -962242890 -962139160 -961988381 -961865242 -961861862 -961699222 -961560478 -961393205 -961392575 -961302486 -961254532 -961239984 -961214717 -961154577 -961082261 -960914332 -960905618 -960764656 -960615702 -960580718 -960349190 -960221149 -960211369 -960200633 -960093218 -960074034 -959953900 -959912060 -959899683 -959707713 -959612635 -959534963 -959432706 -959004764 -958939271 -958930105 -958599676 -958590423 -958556252 -958511051 -958444183 -958323792 -958286692 -958225690 -958163834 -958161585 -957866716 -957864728 -957468908 -957457498 -957400469 -957298356 -957276516 -957188760 -957146061 -956974750 -956916454 -956884782 -956853670 -956839900 -956761497 -956759251 -956538024 -956520144 -956386555 -956314846 -956123885 -956012601 -955885932 -955858255 -955769552 -955734090 -955689450 -955576169 -955549521 -955502033 -955457392 -955279222 -955213454 -955068574 -955050380 -955017500 -954963655 -954850014 -954754449 -954695335 -954644659 -954328714 -954146096 -953978598 -953971854 -953924754 -953889187 -953760715 -953748429 -953600648 -953548458 -953506375 -953305652 -953299877 -953173338 -952880654 -952572178 -952329778 -952327185 -952285387 -952244602 -952233763 -952017373 -951962381 -951852250 -951639407 -951441394 -951425381 -951273129 -951242225 -951239067 -951190090 -951061751 -951047984 -950958304 -950936901 -950915418 -950735139 -950676953 -950414324 -950098880 -949763464 -949751551 -949695792 -949678425 -949667389 -949341480 -949190999 -949004796 -948822767 -948718738 -948681253 -948657102 -948567802 -948407519 -948337846 -948242207 -948212075 -948063989 -947888079 -947724312 -947590569 -947477088 -947090457 -947089781 -947085287 -947047366 -947003333 -946947809 -946837095 -946836442 -946589933 -946563904 -946477846 -946216795 -946183496 -946171607 -946101913 -945955060 -945909842 -945751304 -945381250 -945331536 -945280882 -945058835 -945009901 -944838751 -944814785 -944739892 -944685008 -944635518 -944538876 -944528339 -944495012 -944270418 -944225177 -944174547 -943962398 -943546330 -943517440 -943511125 -943258529 -943151449 -943108382 -943058596 -942884370 -942791530 -942683014 -942599289 -942496805 -942390254 -942247373 -942120662 -941822834 -941819979 -941743389 -941627866 -941491147 -941429673 -941067078 -941000777 -940877547 -940805998 -940791592 -940782806 -940773240 -940727326 -940710640 -940597526 -940593729 -940486270 -940413089 -940259269 -940194289 -940097431 -940022494 -939844710 -939703250 -939696470 -939463734 -939408152 -939404789 -939394054 -939347004 -939329684 -939174334 -939124234 -938684835 -938626448 -938422529 -938398063 -938332179 -938289751 -938048208 -937894364 -937805885 -937760413 -937730458 -937618476 -937570034 -937536024 -937386682 -937270789 -937124775 -937068595 -936983847 -936929496 -936749085 -936481768 -936430099 -936429419 -936338653 -936299430 -936275222 -936255156 -936120699 -935976689 -935971333 -935921365 -935750659 -935420759 -935400529 -935358812 -935186479 -934949272 -934860267 -934810126 -934802691 -934752489 -934699064 -934695105 -934581297 -934575578 -934469833 -934255249 -934083545 -934066159 -934028593 -933951245 -933901909 -933808796 -933566931 -933498808 -933493820 -933374351 -933358359 -933258524 -933224148 -933188159 -932879045 -932694499 -932673632 -932401005 -932347430 -932177252 -932170718 -932169705 -932128265 -932125351 -932096448 -931982339 -931855399 -931710929 -931660633 -931504669 -931433052 -931408930 -931364330 -931305917 -931051671 -931034634 -930585577 -930520806 -930454621 -930444863 -930315209 -930139204 -930118907 -930079294 -929768647 -929740219 -929727712 -929685421 -929630956 -929619045 -929614097 -929612037 -929462721 -929319706 -929293156 -929190455 -929067962 -928891076 -928880336 -928869757 -928860693 -928837393 -928777182 -928757444 -928732315 -928611744 -928589177 -928551907 -928527738 -928450434 -928327632 -928283321 -928127303 -928110830 -928016270 -927871109 -927623569 -927515725 -927363524 -927287611 -927124892 -927002835 -926818281 -926806750 -926723867 -926606266 -926604052 -926576844 -926535229 -926483931 -926396453 -926236377 -926147082 -926004350 -925752971 -925539783 -925532790 -925337059 -925306880 -925251373 -925245211 -925079232 -924841637 -924402843 -924154867 -924076200 -923971009 -923942513 -923484293 -923308727 -923282378 -923222035 -923141766 -923122457 -923044905 -923023741 -922953859 -922905951 -922901790 -922843240 -922702985 -922691466 -922656346 -922538273 -922504555 -922423196 -921953802 -921941897 -921923653 -921629418 -921339155 -921117874 -921105778 -920839161 -920829163 -920633558 -920370734 -920019511 -920001261 -919881258 -919765011 -919720460 -919674522 -919555559 -919552089 -919467418 -919432765 -919399336 -919386272 -919220428 -919158326 -918948838 -918732365 -918693782 -918565197 -918501188 -918483745 -918314478 -918311712 -918224215 -918149618 -918023618 -917973695 -917943511 -917907707 -917769208 -917763956 -917487276 -917433607 -917338581 -917287223 -917158221 -916996802 -916987179 -916977260 -916935691 -916697416 -916656596 -916625356 -916555423 -916044113 -916015984 -916005934 -915899160 -915859685 -915576940 -915524273 -915425498 -915356796 -915263475 -915136913 -914839745 -914751216 -914613186 -914599151 -914539364 -914502895 -914290875 -914263680 -914168757 -914166166 -914018136 -913992657 -913557035 -913470396 -913311112 -913248670 -913204282 -913167532 -913068595 -912970726 -912910792 -912678466 -912518067 -912452701 -912442910 -912248971 -912072174 -911999685 -911877210 -911824283 -911466976 -911417411 -911243079 -911228058 -911206955 -911132636 -911105639 -910959278 -910921240 -910724882 -910672844 -910455609 -910402990 -910268734 -910195850 -910149241 -909985666 -909849407 -909811468 -909600074 -909484048 -909352731 -909025111 -908977146 -908956984 -908941888 -908779774 -908769500 -908737366 -908481521 -908435777 -908295276 -908281388 -908241827 -908227342 -908128678 -907959867 -907936693 -907776084 -907633337 -907505646 -907458427 -907312668 -907155775 -906981818 -906863339 -906805580 -906696316 -906540684 -906446382 -906346985 -906333775 -906289679 -906217322 -906071939 -906060389 -905950971 -905833169 -905660375 -905619133 -905515191 -905395412 -905350721 -905271497 -905191426 -905146056 -904898748 -904870369 -904870064 -904664975 -904443950 -904413181 -904075448 -904004791 -904004372 -903808578 -903708183 -903597673 -903574613 -903563942 -903296360 -903247495 -903242543 -903211840 -902957381 -902917563 -902841756 -902744864 -902718005 -902716474 -902684059 -902623210 -902562401 -902434675 -902247701 -902117703 -902003360 -901967711 -901776069 -901759237 -901513488 -901442973 -901143636 -901055004 -900999551 -900995474 -900968268 -900949089 -900938981 -900925766 -900740439 -900730997 -900649440 -900552413 -900524983 -900475314 -900234699 -900134849 -900132754 -900109275 -899996466 -899650259 -899256107 -899243893 -898963202 -898760597 -898363436 -898139637 -897853257 -897848845 -897765575 -897615583 -897579951 -897522481 -897497833 -897497016 -897373641 -897322092 -897307459 -896988571 -896727223 -896690483 -896608869 -896556461 -896344696 -896036447 -895934821 -895871355 -895488640 -895462903 -895206349 -895161860 -895136487 -894844631 -894838872 -894735273 -894670598 -894525683 -894354507 -894353504 -894119675 -894063138 -894022935 -894016420 -893989860 -893949026 -893835222 -893825340 -893740113 -893663933 -893413273 -893330415 -893305137 -893284309 -893257146 -893201656 -893171031 -893015935 -892995917 -892974948 -892932757 -892877213 -892829935 -892708021 -892636493 -892476199 -892463161 -892370979 -892247961 -892069949 -892050160 -892034210 -891927030 -891735240 -891693584 -891532847 -891423867 -891260288 -891237366 -891229213 -891096556 -891011376 -890943251 -890615107 -890597632 -890396826 -890388936 -890296837 -890219887 -890198920 -890090607 -889988352 -889966219 -889694334 -889588107 -889533531 -889386366 -889253945 -889187736 -889107855 -888690063 -888301197 -888118798 -887894203 -887813087 -887778769 -887617433 -887601236 -887318376 -887197963 -886941598 -886824733 -886747308 -886621665 -886439248 -886269230 -886225603 -886209863 -886194464 -886090448 -885762736 -885745940 -885722234 -885582796 -885569233 -885494923 -885475101 -885467386 -885451621 -885291589 -885209047 -885177340 -885100646 -884946180 -884944303 -884686283 -884606399 -884581246 -884573560 -884572135 -884536737 -884475649 -883948632 -883896797 -883785897 -883643742 -883633906 -883575384 -883555940 -883403367 -882857348 -882784734 -882770705 -882763305 -882754303 -882737665 -882704371 -882494376 -882491279 -882345451 -882343382 -882318081 -882283410 -882079022 -882076010 -881709465 -881342340 -881245042 -880780730 -880655160 -880650628 -880496592 -880447093 -880287405 -880224760 -880032918 -879945812 -879856898 -879662321 -879626905 -879611526 -879603153 -879520879 -879402819 -879319707 -879145239 -879138877 -879128576 -879100817 -878929554 -878906016 -878841959 -878801386 -878710939 -878702077 -878464675 -877751437 -877323684 -877284299 -877189436 -877070753 -876984927 -876757335 -876726027 -876642743 -876583029 -876224128 -876224064 -876022437 -876009235 -875992608 -875880991 -875849861 -875804327 -875784217 -875480078 -875436082 -875412939 -875391731 -875299452 -875272679 -875219026 -875175585 -875078218 -874990017 -874896671 -874759701 -874716118 -874700654 -874284707 -874040576 -873773397 -873682807 -873597823 -873526502 -873502861 -873468494 -873325807 -873137424 -872951265 -872676447 -872534665 -872389357 -872349399 -872335888 -872177160 -871897225 -871576394 -871498945 -871460736 -871451644 -871313319 -871093102 -871081801 -871059561 -871040486 -870993117 -870949454 -870774917 -870757134 -870749481 -870745837 -870652160 -870640954 -870582914 -870514543 -870484112 -870361848 -870287405 -870181815 -870042353 -870003643 -869984682 -869968787 -869963293 -869911617 -869823939 -869791931 -869677494 -869401698 -869319730 -869262529 -869205592 -869176543 -869078376 -869014792 -868982116 -868925403 -868725190 -868632216 -868410978 -868021067 -868010331 -867994365 -867969453 -867966171 -867933434 -867913613 -867908792 -867754205 -867660989 -867567699 -867429788 -867364820 -867248810 -867187064 -867012435 -866971585 -866914783 -866853211 -866824101 -866697398 -866657252 -866596473 -866520536 -866482787 -866430500 -866409039 -866183962 -866151811 -866121656 -866074868 -865968899 -865915283 -865894691 -865886732 -865700789 -865659281 -865554580 -865542385 -865527707 -865459837 -865347995 -865288501 -865287292 -865200543 -865184204 -864915804 -864732681 -864524757 -864408950 -864242822 -864149623 -864106697 -864101913 -864089842 -863831289 -863647077 -863547247 -863471114 -863387177 -863213868 -863034457 -862998664 -862757991 -862672247 -862632647 -862475312 -862322855 -861926163 -861843771 -861806702 -861743642 -861630842 -861564661 -861543807 -861514351 -861502386 -860845815 -860715836 -860654146 -860646493 -860630315 -860533124 -860358709 -860173718 -859943655 -859817852 -859664773 -859659528 -859602607 -859518054 -859308091 -859285556 -859154319 -859036710 -858680583 -858631840 -858604803 -858479892 -858301021 -858283514 -858282550 -858204579 -858164999 -858153182 -857934126 -857921499 -857810919 -857752447 -857705814 -857635835 -857619350 -857583865 -857451041 -857433259 -857395704 -857368889 -857262577 -857244493 -857217055 -857175259 -857115304 -857080310 -857042867 -856998753 -856553415 -856453149 -856424793 -856382679 -856354706 -856196763 -856155596 -856149688 -856116425 -856106956 -855997142 -855931871 -855897849 -855732225 -855695003 -855668592 -855619291 -855358538 -855055417 -854976905 -854946146 -854933905 -854851256 -854755051 -854690313 -854675286 -854642571 -854641082 -854501946 -854403203 -854366311 -854286956 -854202953 -854111990 -854020062 -854019864 -853917809 -853757922 -853637094 -853591946 -853313514 -853176199 -853152591 -853019176 -852924663 -852642629 -852597844 -852591128 -852467524 -852394132 -852252922 -852083721 -852021713 -851977884 -851971773 -851896388 -851859718 -851510532 -851496760 -851449293 -851388839 -851368489 -851229463 -850983663 -850835071 -850760736 -850540559 -850450168 -850353045 -850349600 -850323856 -850315532 -850128044 -849977032 -849621843 -849453468 -849449423 -849427436 -849098902 -849069028 -848906768 -848893310 -848881391 -848875543 -848825855 -848759889 -848675097 -848604534 -848392206 -848266979 -848175175 -848064792 -847922768 -847790716 -847542533 -847374762 -847280308 -847278270 -847139567 -847028960 -847014352 -846911876 -846872699 -846638676 -846528535 -846488172 -846442674 -846327580 -846196553 -846163885 -846066091 -845970489 -845810299 -845764567 -845753450 -845704540 -845461507 -845352451 -845241306 -845059942 -845001072 -844970707 -844852844 -844840985 -844799790 -844774379 -844672490 -844591929 -844475199 -844426297 -844313329 -844309702 -844292928 -844244445 -844238635 -844009603 -843868809 -843834658 -843777465 -843762830 -842980233 -842653660 -842601802 -842575517 -842399340 -842348952 -842093305 -841918058 -841865212 -841709902 -841438759 -841233143 -841215500 -841163673 -841109798 -841081368 -840965452 -840952153 -840797948 -840149179 -840016319 -839841404 -839748932 -839526301 -839088627 -838900751 -838787836 -838587894 -838320445 -838090973 -838074900 -838057303 -838029363 -837946157 -837729061 -837708035 -837706919 -837327823 -837324827 -837272857 -837199308 -837113605 -837037779 -837018512 -836965419 -836804479 -836745472 -836593501 -836518747 -836458984 -836271347 -836114999 -836036717 -835919537 -835877921 -835877376 -835820954 -835486276 -835446357 -835374443 -835016303 -834926289 -834911744 -834880236 -834867606 -834813351 -834676808 -834646679 -834622151 -834531364 -834513010 -834387283 -834347356 -834345750 -833824820 -833813169 -833727437 -833667093 -833613472 -833600694 -833175618 -832931124 -832924721 -832856978 -832749141 -832724843 -832614290 -832522289 -832395630 -832281107 -832280251 -832208048 -831939398 -831923980 -831912655 -831696128 -831674160 -831540753 -831423755 -831393329 -831333097 -831156913 -831075538 -830903187 -830661503 -830533447 -830440636 -830411745 -830341518 -830270172 -830264264 -830235750 -830088069 -829962759 -829866126 -829779579 -829655064 -829475030 -829373955 -829307774 -829193779 -829051155 -828604179 -828602181 -828464372 -828444324 -828393875 -828331739 -827872051 -827378386 -827357762 -827224351 -827075448 -826959260 -826911349 -826872458 -826828273 -826825231 -826806593 -826733216 -826287867 -826212369 -826143948 -825918393 -825404831 -825327531 -825069538 -824783249 -824507213 -824495330 -824170534 -824144127 -824103227 -823985512 -823581480 -823552331 -823455170 -823307451 -823169190 -823140629 -822986619 -822969800 -822961757 -822678333 -822539192 -822372266 -822356395 -822235552 -822114238 -821768248 -821566455 -821222670 -821095013 -821055715 -821000552 -820747958 -820663244 -820651985 -820585840 -820525133 -820517110 -820465783 -820443785 -820430142 -820413135 -820406574 -820321168 -820243942 -820058072 -819988603 -819982964 -819862757 -819662243 -819406690 -819062430 -818944536 -818706403 -818649889 -818538938 -818537486 -818532708 -818197788 -818162288 -818068632 -817745337 -817629993 -817612583 -817532740 -817510644 -817458266 -817190933 -816996664 -816698273 -816679940 -816673411 -816545712 -816542473 -816421956 -816162431 -816037283 -815982243 -815900661 -815890614 -815888240 -815819800 -815801763 -815800673 -815622962 -815603792 -815457848 -815367619 -815317574 -815254664 -815097502 -814980207 -814897109 -814891822 -814848031 -814808253 -814780787 -814762273 -814634233 -814629923 -814609082 -814317525 -814297200 -814284072 -814106495 -814013769 -813973759 -813797362 -813772128 -813770145 -813562604 -813559389 -813237955 -813217456 -813157226 -813148437 -813102200 -813057841 -813057549 -813033162 -813014583 -812996067 -812992007 -812239312 -812197060 -812146669 -812127451 -812092637 -812053186 -812046441 -811873853 -811865838 -811806906 -811654067 -811612107 -811576869 -811462899 -811385402 -811275241 -811259020 -811181131 -811176813 -811121410 -810904958 -810894043 -810835655 -810729516 -810552095 -810471734 -810402800 -810391540 -810382853 -810298681 -810272193 -809980786 -809891215 -809859112 -809700702 -809565462 -809532428 -809387911 -808983346 -808897203 -808883070 -808802289 -808712563 -808712348 -808589294 -808434327 -808293748 -808269997 -808250764 -808066965 -807830709 -807544942 -807371222 -807367407 -807363900 -807318399 -807251894 -807220240 -806957951 -806917761 -806784964 -806595302 -806582639 -806155805 -806142751 -806093237 -806050222 -806041046 -805965270 -805909651 -805889982 -805871839 -805816356 -805801323 -805396462 -805372832 -805209725 -804940077 -804917524 -804852503 -804741247 -804537415 -804517091 -804463338 -804406372 -804348712 -804311942 -804211519 -804210138 -804209452 -804028465 -803751842 -803607254 -803567495 -803502827 -803362553 -803251871 -802937696 -802627281 -802559582 -802519548 -802408713 -802331509 -802248198 -801878465 -801785880 -801771659 -801754972 -801721497 -801643668 -801587705 -801470998 -801267418 -801073404 -801031172 -800959340 -800878289 -800762223 -800698007 -800690524 -800635571 -800368874 -800363914 -800179658 -800165907 -800118823 -800096106 -800036020 -799904191 -799877827 -799857242 -799806183 -799758309 -799756773 -799752190 -799711446 -799543102 -799466912 -799417789 -799250684 -799175880 -799093282 -798798199 -798718968 -798663663 -798211784 -797919167 -797599879 -797591405 -797463386 -797450087 -797420569 -797361427 -797328791 -797283101 -797149168 -797139568 -797010328 -797002150 -796982503 -796894883 -796849790 -796676846 -796636165 -796253151 -796201076 -796160078 -795887313 -795729176 -795601910 -795574813 -795502320 -795460748 -795450192 -795295529 -795278471 -795202926 -795190032 -795189681 -794980641 -794926655 -794865086 -794820643 -794678942 -794590457 -794395837 -794156994 -794156555 -794033336 -793974212 -793971387 -793734928 -793708020 -793610712 -793278795 -793230482 -793100391 -792854047 -792622406 -792405200 -792342271 -792181084 -792111256 -792109599 -792066237 -791862988 -791831895 -791756088 -791561439 -791380138 -791313824 -791245181 -791222800 -791205362 -790965825 -790889496 -790783708 -790770092 -790726780 -790604977 -790377633 -790374497 -790333024 -790298325 -790245538 -790198619 -790055879 -789907427 -789863929 -789840328 -789797921 -789790797 -789678119 -789137051 -789037434 -789024678 -789018878 -788776304 -788748619 -788633280 -788422284 -788298910 -788217654 -788189656 -788026545 -787921023 -787827631 -787763249 -787723680 -787678047 -787558652 -787467967 -787380509 -787367593 -787357606 -787345035 -787210100 -787158004 -787086740 -786980741 -786854189 -786778445 -786614464 -786532174 -786306405 -786114858 -785965122 -785888891 -785841185 -785826045 -785747056 -785735921 -785689099 -785579203 -785464566 -785353381 -785322142 -785320621 -785016069 -784907248 -784885730 -784809103 -784594697 -784321248 -784265739 -784207449 -783648806 -783543364 -783514698 -783430526 -783391657 -783281717 -783135481 -783131085 -783106724 -783092171 -783073676 -783065515 -783020913 -782979000 -782932848 -782839627 -782751210 -782555291 -782444370 -782365544 -782321138 -782100857 -782020591 -781878374 -781713256 -781486692 -781456417 -781429807 -781370258 -781312416 -781311717 -781298680 -781028434 -781010432 -781003657 -780965816 -780869084 -780843626 -780778421 -780766405 -780766386 -780748990 -780652435 -780594162 -780415867 -780223224 -780138773 -780130618 -780125778 -779937612 -779684946 -779606007 -779574957 -779530886 -779481446 -779286694 -778964242 -778920132 -778906271 -778807301 -778707041 -778668577 -778431042 -778338849 -778332845 -778222843 -778154660 -778101676 -778012472 -777742709 -777711273 -777678700 -777669847 -777460960 -777286919 -777257143 -777163704 -777113776 -776697757 -776661909 -776649639 -776597030 -776584592 -776537383 -776486497 -776438919 -776206879 -776139142 -775928237 -775867122 -775860690 -775844501 -775832981 -775823988 -775795500 -775525276 -775524011 -775269721 -775079554 -774908680 -774674700 -774603679 -774590823 -774558936 -774458010 -774025274 -773617597 -773353974 -773253832 -773239445 -773150324 -772932884 -772822695 -772625081 -772608894 -772496263 -772467499 -772458964 -772414686 -772383000 -772379991 -772284809 -772217082 -772157056 -772088886 -771984478 -771875626 -771827271 -771773220 -771567380 -771467560 -771415240 -771394063 -771081468 -771061191 -770834141 -770782618 -770718304 -770597757 -770228569 -770142151 -770093052 -769997706 -769990160 -769909385 -769816992 -769499035 -769390898 -769366682 -769337516 -769140735 -768969821 -768729373 -768692462 -768655011 -768624616 -768541142 -768332861 -768315977 -768069627 -767866515 -767809191 -767689578 -767607691 -767389941 -767341869 -767304865 -767287945 -767175428 -767078115 -767017471 -766968656 -765870790 -765730301 -765630169 -765553092 -764976108 -764880020 -764879233 -764844975 -764642126 -764558714 -764496512 -764366215 -764093051 -763920399 -763640877 -763436540 -763377725 -763338784 -763311792 -763157480 -763099795 -762980212 -762847841 -762784904 -762774477 -762756898 -762755531 -762404464 -762381891 -762344647 -762324452 -762237521 -762206956 -762160353 -761693260 -761619123 -761592458 -761492486 -761484575 -761298093 -761291349 -761095123 -761046819 -760691709 -760490896 -760408644 -760332498 -760233557 -760073221 -760009290 -759888962 -759677240 -759667694 -759663713 -759631395 -759600882 -759540112 -759494600 -759239661 -759155523 -759092476 -758933350 -758931167 -758865823 -758634514 -758502376 -758456100 -758431318 -758348909 -758294058 -758285196 -758227448 -758146879 -758131749 -758083449 -758044567 -758007031 -757891012 -757619426 -757556364 -757536077 -757501216 -756972038 -756902842 -756723442 -756604539 -756581580 -756512272 -756228846 -756227416 -756142228 -756049858 -755880856 -755734913 -755598769 -755539629 -755455989 -755451684 -755359357 -755350824 -755275194 -755123901 -754900903 -754889476 -754858512 -754760852 -754512915 -754435617 -754347572 -754282820 -754221476 -754137788 -754118096 -753958065 -753776202 -753700664 -753676786 -753643845 -753625721 -753499656 -753388563 -753382239 -753379904 -753346950 -753332134 -753254903 -753169916 -753154587 -753085963 -753039016 -752993912 -752680861 -752664493 -752592808 -752541925 -752347497 -752280613 -752139291 -751897225 -751839194 -751658306 -751634542 -751509227 -751483653 -751229463 -751191857 -751172596 -751074294 -751059705 -750988791 -750467004 -750455919 -750288783 -750273378 -750040997 -749847912 -749807112 -749782291 -749711807 -749623767 -749586186 -749524124 -749390901 -749350885 -749294402 -749250885 -749187905 -749164313 -748887140 -748817039 -748776057 -748737511 -748722374 -748638365 -748629905 -748449109 -748345289 -748323301 -748241475 -748227382 -748225798 -747990862 -747817078 -747746714 -747729693 -747579472 -747439149 -747432634 -747279172 -747261213 -747150714 -747103465 -747023350 -746667458 -746648482 -746633013 -746557339 -746181733 -745793224 -745752768 -745673608 -745632602 -745354694 -745098236 -745088605 -745025510 -744786787 -744304143 -744178710 -744114165 -743705782 -743605325 -743582889 -743263993 -743211241 -743177199 -743130300 -743121566 -743004913 -741960989 -741933504 -741705667 -741629142 -741623992 -741565397 -741506719 -741486976 -741306095 -741230771 -741009915 -740991792 -740981777 -740844562 -740540511 -740351928 -740013590 -739874040 -739662336 -739527765 -739493207 -739341909 -739257258 -739071096 -738985490 -738949167 -738750810 -738671501 -738382919 -738244898 -738190547 -738134173 -738120601 -738051681 -738029350 -738026352 -737832383 -737827846 -737721709 -737623072 -737554811 -737521507 -737502015 -737346141 -737194526 -736996916 -736919326 -736880439 -736804714 -736786881 -736772621 -736663448 -736600241 -736354973 -736325613 -736213672 -735950227 -735792396 -735747023 -735740236 -735667901 -735659035 -735488420 -735382262 -735373693 -735356044 -735251776 -735237201 -735096039 -735013173 -734906004 -734801163 -734599285 -734592356 -734589621 -734511014 -734422441 -734197847 -734124560 -733996572 -733982160 -733881614 -733657557 -733603447 -733430954 -733279341 -733216722 -733203459 -733132390 -733106993 -733091189 -733052368 -732993948 -732904765 -732786152 -732758307 -732680338 -732614791 -732600792 -732545413 -732251402 -732240284 -732037169 -732026348 -731939699 -731908667 -731701818 -731694769 -731678810 -731471968 -731412568 -730978380 -730489168 -730475429 -730467610 -730439864 -730415561 -730174349 -730146082 -729808733 -729677178 -729577268 -729497623 -729453374 -729433462 -729162336 -728929116 -728877683 -728822906 -728732661 -728610870 -728578506 -728273853 -728227189 -728188217 -728186565 -728122535 -728106731 -727934076 -727844070 -727814943 -727737515 -727573651 -727520671 -727432853 -727115706 -727010551 -726971308 -726904241 -726887507 -726764706 -726555386 -726476982 -726116628 -726043623 -725937943 -725789879 -725743105 -725691414 -725613303 -725559591 -725238741 -724715820 -724677377 -724540795 -724369571 -724305340 -724300450 -724216099 -724204085 -723878162 -723806988 -723804938 -723804291 -723686597 -723607483 -723440166 -723245969 -723216459 -723102286 -723026592 -722951327 -722868062 -722642118 -722450280 -722369971 -722363117 -722296109 -722258522 -722163212 -722106726 -722102636 -722031663 -721646456 -721546104 -721473189 -721470296 -721363129 -721311726 -721121764 -721100727 -720885592 -720736900 -720640094 -720568210 -720403312 -720376258 -720314873 -720295016 -720156246 -720124638 -720118239 -719799637 -719724942 -719533657 -719403743 -719373724 -719362565 -719239078 -719143045 -719042910 -718978090 -718833141 -718811291 -718806035 -718624583 -718576205 -718475534 -718427211 -718411794 -718374495 -718372967 -718335987 -718255861 -718196231 -718071572 -717900808 -717865155 -717676853 -717560236 -717558193 -717518469 -717283213 -717236959 -716915255 -716801428 -716564115 -716432709 -716407923 -716376603 -716282007 -716205610 -715946258 -715935219 -715806288 -715711152 -715590951 -715501392 -715492623 -715389623 -715292439 -715222627 -715161050 -715134427 -715027127 -714999440 -714943353 -714878459 -714746157 -714656675 -714165328 -714104340 -713945247 -713844789 -713707356 -713522794 -713301911 -713291985 -713278374 -713103709 -712769628 -712740206 -712675623 -712637397 -712545218 -712370687 -712093305 -711945955 -711924840 -711867870 -711835998 -711722659 -711704069 -711642581 -711508611 -711431221 -711305000 -711043183 -711022013 -711008706 -710991243 -710922181 -710876230 -710629488 -710600586 -710538816 -710326255 -709933064 -709926516 -709822547 -709816824 -709750660 -709672054 -709474006 -709452371 -709122940 -709018308 -708819700 -708783421 -708551017 -708507543 -708487047 -708205691 -708157396 -708143092 -707719048 -707674208 -707510331 -707405746 -707314106 -706957376 -706944608 -706944383 -706847518 -706825141 -706624527 -706351469 -706270169 -705884894 -705516352 -705501231 -705354841 -705298821 -705297578 -705277849 -705145037 -705120504 -705036626 -704669369 -704607392 -704551371 -704460674 -704441765 -704074253 -703911170 -703874304 -703580298 -703417689 -703305662 -703263070 -703076544 -702882890 -702877875 -702870816 -702863023 -702825613 -702790877 -702639411 -702630871 -702349446 -702287620 -702280693 -702078247 -701981499 -701695350 -701638382 -701528723 -701492510 -701488034 -701453881 -701448821 -701185275 -701177526 -701096795 -701005611 -700977794 -700922789 -700363749 -700307729 -700158251 -699891726 -699858190 -699710636 -699578662 -699422300 -699237849 -699233016 -699116582 -699078901 -698868345 -698757716 -698736056 -698713729 -698696586 -698360964 -698248828 -698178325 -698177768 -698097760 -698015852 -697573136 -697488791 -697288110 -697205013 -697181724 -696940099 -696487690 -696452136 -696427853 -696399787 -696327836 -696201934 -696126635 -695867697 -695845450 -695747643 -695661913 -695659262 -695554628 -695542504 -695188398 -695067791 -694942530 -694854896 -694829914 -694823164 -694745144 -694733710 -694666630 -694625929 -694566874 -694490260 -694156766 -694082155 -694048394 -693979589 -693880167 -693869203 -693774637 -693751512 -693729152 -693715247 -693655448 -693509683 -693347972 -693334347 -693306550 -693071758 -692915448 -692865972 -692803953 -692794154 -692400086 -691969912 -691942712 -691853720 -691797962 -691687912 -691574849 -691572944 -691509888 -691508879 -691395251 -690694548 -690613684 -690514401 -690472646 -690407535 -690378994 -690247796 -690246291 -690121236 -690067374 -689953079 -689928923 -689912351 -689793431 -689737893 -689736592 -689631391 -689521284 -689482102 -689426872 -689415696 -689270511 -689189180 -689137778 -689056899 -688874217 -688810339 -688648043 -688056974 -687992546 -687854105 -687840206 -687391214 -687383906 -687287412 -687276067 -687207292 -686983018 -686964797 -686837976 -686740147 -686552581 -686443498 -686413511 -686035681 -685996803 -685934018 -685832146 -685807370 -685802588 -685800223 -685674674 -685548248 -685542514 -685534472 -685232783 -684578282 -684566933 -684459643 -684287240 -684270036 -684114093 -684056780 -684034653 -684010503 -683844627 -683823987 -683575714 -683506669 -683351974 -683344956 -683215279 -683192193 -683022738 -683015626 -682831958 -682759961 -682726429 -682605313 -682589994 -682589028 -682503843 -682482425 -682415742 -682177081 -682007669 -681624319 -681508162 -681330885 -681177766 -680882021 -680782030 -680707978 -680647384 -680541555 -680461586 -680446475 -680440054 -680311671 -680247756 -680188233 -680129382 -680119325 -679854732 -679717742 -679681586 -679636062 -679531692 -679498400 -679442385 -679422940 -679195004 -679138060 -679033439 -679032769 -678955244 -678882734 -678835547 -678757473 -678721202 -678668328 -678336047 -678193822 -678112521 -677988582 -677984760 -677852193 -677729050 -677633049 -677545807 -677451989 -677292313 -676978657 -676656839 -676611080 -676579873 -676568614 -676271426 -676144861 -676129842 -676046695 -675989163 -675760825 -675638506 -675508029 -675251742 -675226130 -675186110 -675099060 -675084107 -675061731 -675023916 -674987332 -674870302 -674657893 -674632413 -674540473 -674456335 -674337351 -674266955 -674264640 -674156134 -674126653 -674088335 -674039604 -673946780 -673901908 -673777918 -673761585 -673659005 -673544663 -673411647 -673170529 -673143245 -673037269 -672947547 -672875712 -672807314 -672447093 -672444898 -672217619 -672165103 -672149492 -671810187 -671790072 -671786554 -671377887 -671291382 -671148254 -671145391 -671025994 -670949658 -670892127 -670622184 -670597050 -670580937 -670273495 -670269745 -670188271 -670163886 -670069437 -670005765 -669916875 -669876048 -669800651 -669798363 -669765236 -669757878 -669598240 -669508301 -669239741 -669211652 -668893570 -668857258 -668829474 -668689736 -668660672 -668297087 -668268644 -668257277 -668245330 -668232258 -668108824 -668036196 -667945328 -667942686 -667934087 -667744506 -667743332 -667655887 -667450725 -667377641 -667134127 -667086644 -666939790 -666865909 -666848630 -666626751 -666309556 -666267208 -665935423 -665899491 -665868405 -665834029 -665787743 -665615668 -665574335 -665495243 -665483791 -665364632 -665293538 -665241138 -665208391 -665202768 -665071002 -665069318 -664871871 -664762201 -664708102 -664655748 -664512929 -664507185 -664433790 -664430324 -664427682 -664343831 -664260388 -664194874 -664084199 -664062100 -664061593 -663864760 -663683707 -663510628 -663287563 -663279806 -663277791 -663138384 -663008572 -662823195 -662785466 -662717745 -662704046 -662625057 -662455664 -662272328 -662265498 -662209373 -662208403 -662146441 -662093293 -661954112 -661882392 -661763215 -661492765 -661474475 -661220166 -660955356 -660936533 -660845610 -660830061 -660309826 -660288865 -660272421 -660253146 -660219653 -660185270 -659902932 -659663649 -659576847 -659267736 -659249539 -659168637 -658994625 -658911995 -658910657 -658882003 -658774866 -658737001 -658713110 -658392664 -658283427 -658251413 -658231234 -658148874 -658131349 -657920759 -657914575 -657792414 -657279187 -657238152 -657113586 -656733572 -656632677 -656507602 -656123362 -656088395 -656066558 -655828972 -655730190 -655583579 -655445338 -655409692 -655398065 -655333836 -655285521 -655249008 -655240921 -655050938 -654789792 -654587552 -654462070 -654214944 -653896010 -653744588 -653716047 -653668814 -653638602 -653344727 -653289791 -653258711 -653255977 -653076572 -652858043 -652809980 -652791821 -652787465 -652773958 -652621903 -652584616 -652552019 -652537450 -652456639 -652371120 -652310680 -652180160 -652005880 -651973019 -651947848 -651793817 -651732679 -651626576 -651524429 -651386864 -651368857 -651258312 -651114361 -651076369 -651054191 -650967855 -650815926 -650738672 -650695391 -650665123 -650647364 -650507837 -650244899 -650188137 -649874871 -649757819 -649714858 -649664037 -649614414 -649484888 -649104505 -648998896 -648856692 -648603290 -648598277 -648578944 -648400904 -648400594 -648379469 -648141988 -648063725 -648051512 -647992686 -647767439 -647710727 -647684683 -647645535 -647589751 -647531251 -647512510 -647041181 -647004700 -646939657 -646901462 -646870037 -646662250 -646640818 -646583625 -646387200 -646386222 -646254578 -646176290 -646114131 -645924196 -645893559 -645852910 -645805593 -645791354 -645767210 -645758183 -645745247 -645583940 -645486641 -645453539 -645382499 -645259788 -645006931 -644693198 -644650529 -644644646 -644643106 -644232089 -643689399 -643507158 -643216621 -643153159 -643122132 -642751732 -642607133 -642409961 -642307407 -642300434 -642120404 -642100114 -642072985 -641912125 -641655696 -641638981 -641533808 -641474561 -641447644 -641408429 -641372146 -641341470 -640917524 -640680099 -640658027 -640609557 -640520043 -640400299 -640378679 -640322039 -640177720 -639921966 -639886299 -639689031 -639630326 -639547905 -639541586 -639468347 -639462843 -639347609 -639340247 -639302650 -639231400 -639213813 -638985952 -638854706 -638809561 -638780884 -638642488 -638470247 -638289290 -637668110 -637226133 -637133166 -636888796 -636856008 -636853458 -636759671 -636698981 -636637601 -636629939 -636595450 -636498580 -636406858 -636360385 -636167099 -635929725 -635921247 -635840401 -635772719 -635748990 -635562962 -635521053 -635495459 -635265199 -635256958 -634830690 -634824754 -634681366 -634462217 -634307654 -634245965 -634209081 -634188974 -634132908 -633908271 -633902767 -633691732 -633453798 -633426705 -633359353 -633280232 -632987109 -632941553 -632939908 -632786226 -632775712 -632752870 -632631517 -632624681 -632561095 -632389235 -632154887 -631949130 -631924266 -631835042 -631789265 -631627783 -631580532 -631495700 -631462916 -631378104 -631374047 -631359904 -631338957 -631297916 -630983532 -630968766 -630921749 -630904584 -630598209 -630586695 -630528679 -630436845 -630411387 -630395047 -630273166 -630201976 -630163076 -630110425 -630031611 -629894974 -629792205 -629565646 -629486387 -629460954 -629311850 -629111617 -629074216 -629056983 -629026330 -628987294 -628921151 -628818910 -628740617 -628703850 -628631382 -628629800 -628626020 -628476217 -628368714 -628355719 -628182055 -628129091 -628114666 -628078087 -628049647 -627902446 -627859584 -627852105 -627630680 -627618518 -627525625 -627477094 -627389818 -627355171 -627189189 -627180934 -626878650 -626864288 -626718212 -626664990 -626611958 -626594449 -626571524 -626546216 -626480716 -626343127 -626340180 -626329547 -626112370 -625907010 -625765377 -625658732 -625618752 -625404244 -625381659 -625182070 -625128026 -625084073 -625048983 -624999162 -624959957 -624863098 -624816148 -624550360 -624549058 -624513945 -624448211 -624434499 -624351090 -624119005 -623926236 -623736184 -623728999 -623699544 -623639041 -623594052 -623448903 -623105052 -623000523 -622924095 -622799822 -622749462 -622727991 -622679559 -622499721 -622469033 -622417511 -622387489 -622347724 -622241922 -622047881 -622020847 -621965133 -621889267 -621587335 -621292728 -621275841 -621073393 -621068677 -621019573 -621013118 -621005041 -620881577 -620858593 -620594201 -620581695 -620466748 -619965658 -619783952 -619657221 -619584646 -619536505 -619423346 -619335250 -619313657 -619267465 -619262187 -619190694 -619189141 -619183617 -619131180 -619031324 -618549755 -618543550 -618423431 -618359935 -618258391 -618176177 -618164287 -618065319 -618005215 -617947971 -617941713 -617577528 -617532771 -617480494 -617384861 -617290245 -617056395 -617047495 -616984593 -616557540 -616463245 -616380407 -616364903 -616350364 -616327797 -616208174 -615949286 -615889957 -615880006 -615678992 -615671918 -615641586 -615638216 -615490308 -615391935 -615341320 -615322639 -615311676 -615143248 -615089145 -614977353 -614940146 -614930257 -614929799 -614891374 -614695676 -614669104 -614464190 -614337095 -614260066 -613883163 -613832759 -613493523 -613392023 -613301077 -613278914 -613236535 -613181664 -612780754 -612760979 -612753658 -612746405 -612724825 -612664390 -612564164 -612501120 -612361405 -612309316 -612024323 -612021951 -611959996 -611886568 -611628462 -611536861 -611522991 -611518143 -611350032 -611237846 -611212285 -611091392 -610916198 -610889190 -610586220 -610457738 -610421847 -610419167 -610410203 -610262741 -610104878 -609872716 -609850884 -609658030 -609410302 -609389760 -609242415 -609125855 -608978609 -608852860 -608837364 -608782807 -608694343 -608635385 -608572891 -608517280 -608250290 -608203368 -608021170 -608006412 -607902918 -607724672 -607567554 -607472735 -607440296 -607164641 -606906311 -606886905 -606607069 -606595882 -606572326 -606563186 -606327047 -606304617 -606258237 -606106022 -606101419 -606063161 -605989404 -605936328 -605925319 -605696773 -605666635 -605573385 -605452231 -605430588 -605400184 -605239040 -605238941 -605150842 -605112859 -604953321 -604687924 -604633709 -604421677 -604363143 -604358167 -604343772 -604178908 -604172826 -604172283 -604103394 -604091023 -603587341 -603471590 -603361428 -603286773 -603218919 -603153798 -603119596 -603096453 -603083432 -603026868 -602994553 -602923117 -602881773 -602731877 -602537620 -602490313 -602441484 -602383033 -601967158 -601819596 -601569675 -601521756 -601515757 -601367847 -601362106 -601092856 -600877244 -600844320 -600802922 -600753401 -600632441 -600505905 -600470579 -600396455 -600354104 -600299262 -600130708 -600077118 -600074953 -600068253 -600014139 -599561269 -599515669 -599415365 -599395457 -599371610 -598792835 -598703236 -598448543 -598346819 -598227211 -598148808 -598092909 -597964156 -597802472 -597720566 -597410486 -597406769 -597396716 -597288201 -597144683 -597067115 -597016970 -596950287 -596808082 -596718267 -596460687 -596364437 -596335097 -596241209 -596175666 -595970456 -595925292 -595919534 -595825274 -595773877 -595570376 -595523661 -595311474 -595292136 -595227989 -595192697 -595192332 -594916888 -594914347 -594831389 -594692830 -594664914 -594570145 -594351692 -594344915 -594280587 -594227104 -594126101 -594078812 -594075103 -594049989 -594046277 -593772330 -593656005 -593400011 -593280517 -593224000 -593206585 -593110210 -593108504 -593018426 -592973622 -592859691 -592818825 -592800976 -592481861 -592350581 -592229204 -592139807 -592112523 -592000459 -591987388 -591951924 -591905647 -591883395 -591673988 -591645253 -591313515 -590960668 -590902017 -590889627 -590586914 -590575730 -590517609 -590486840 -590463940 -590440399 -590166106 -590059167 -589956750 -589947728 -589799381 -589475368 -589211794 -589198706 -589067825 -588591306 -588553670 -588419001 -588410038 -588396387 -588320083 -588302463 -588233575 -588198570 -588180736 -588154296 -587797486 -587612920 -587451174 -587282328 -587007340 -586913957 -586838625 -586810177 -586728925 -586715177 -586671990 -586663299 -586626614 -586515713 -586448365 -586391859 -586387012 -585981966 -585972643 -585966290 -585877522 -585743945 -585556608 -585505786 -585295389 -585284378 -585138648 -584984717 -584980711 -584875303 -584859298 -584674817 -584236860 -584186507 -584107750 -584054607 -584024192 -583919304 -583880939 -583755337 -583440394 -583150662 -583077282 -582984355 -582850386 -582731196 -582626822 -582614077 -582475652 -582464051 -582447229 -582359873 -582245858 -582188218 -582025661 -581978285 -581717489 -581450012 -581394913 -581254564 -581247082 -581031816 -580877155 -580852422 -580842871 -580809098 -580719346 -580667065 -580591586 -580478161 -580302712 -580241686 -580069978 -579937394 -579899520 -579782926 -579768766 -579751614 -579702747 -579680314 -579669886 -579486854 -579471124 -579301237 -579132615 -579125906 -579028161 -578981346 -578968118 -578963742 -578928097 -578832301 -578751899 -578709009 -578695719 -577836508 -577723333 -577565564 -577513625 -577371312 -577142884 -577065825 -576949068 -576605898 -576593350 -576589221 -576589056 -576467676 -576379447 -576087799 -576052951 -576019837 -575476879 -575439628 -575106090 -575034675 -574920012 -574777534 -574750227 -574692492 -574611743 -574518856 -574492018 -574460871 -574363116 -574338085 -573886188 -573342431 -573297051 -573236269 -572954773 -572826129 -572792870 -572708786 -572692521 -572585350 -572569784 -572467938 -572447181 -572323013 -572273718 -572267787 -572079642 -572068328 -572001057 -571947364 -571892128 -571820209 -571726244 -571676193 -571648085 -571508578 -571505667 -571458083 -571415925 -571400260 -571389831 -570957924 -570857901 -570689667 -570679149 -570647918 -570547194 -570505382 -570487932 -570367304 -570348834 -570334296 -570228444 -570149330 -570091641 -570020527 -570006480 -569672349 -569586451 -569527820 -569510897 -569487417 -569457876 -569403186 -569389515 -569352618 -569189089 -569160615 -569113587 -568873550 -568603526 -568368407 -568297941 -568089559 -568043215 -568021770 -567957416 -567894103 -567548942 -567527066 -567406265 -567178509 -567167311 -567116315 -567067855 -567054234 -566983443 -566839982 -566831417 -566820515 -566770813 -566750182 -566480530 -566440403 -566396262 -566322795 -566239896 -566200493 -566090036 -566051970 -565874765 -565806491 -565781158 -565719396 -565479298 -565454328 -565416532 -565348853 -565244346 -565198802 -565055194 -565008733 -564966759 -564635542 -564616791 -564612793 -564603484 -564576930 -564515303 -564299345 -564117460 -563844405 -563566393 -563428517 -563427694 -562825932 -562527854 -562385861 -562257842 -562155342 -562112152 -562106016 -562099692 -561910127 -561854772 -561852481 -561774160 -561714412 -561710421 -561667654 -561625576 -561542340 -561332306 -561291833 -561288710 -561273628 -561208300 -561035789 -560956376 -560806828 -560806406 -560788367 -560737117 -560689333 -560523108 -560502027 -560429737 -560308200 -560189976 -560151330 -560138692 -559868997 -559826875 -559822350 -559809431 -559706367 -559570857 -559560539 -559535817 -559433280 -559382087 -559331502 -559216613 -559159798 -559151414 -558884806 -558719737 -558719358 -558411490 -558410277 -558263693 -558135044 -558102422 -558025421 -557858662 -557846663 -557832176 -557806685 -557720560 -557577755 -557453539 -557148460 -556933474 -556806638 -556682927 -556483041 -556479381 -556474872 -556312708 -556245342 -556218571 -555809922 -555659065 -555590057 -555584451 -555438079 -555382626 -555374816 -555323148 -555191306 -555146337 -555120231 -555015840 -554921212 -554907442 -554751731 -554746461 -554571650 -554464948 -554294889 -554293971 -554194094 -554150847 -553996848 -553942764 -553917437 -553849091 -553655419 -553477027 -553457690 -553443620 -553353443 -553335244 -553270066 -552891064 -552521711 -552513938 -552402048 -552392528 -552296839 -552254979 -552056147 -552015465 -551974308 -551906954 -551719273 -551693693 -551651186 -551583500 -551552651 -551527584 -551502668 -551493841 -551071424 -551015585 -550988673 -550960381 -550958319 -550766399 -550716580 -550677791 -550598083 -550572041 -550280274 -550187896 -550147485 -549895658 -549876987 -549821171 -549790642 -549566300 -549432047 -549311864 -549217490 -549207011 -549035779 -549018289 -548966114 -548795963 -548749284 -548670063 -548538421 -548353301 -547798961 -547479529 -547411979 -547263379 -547187599 -546989901 -546941383 -546936309 -546922159 -546887218 -546774334 -546597317 -546581607 -546522719 -546516652 -546469502 -546380372 -546298907 -546292461 -546133322 -545928150 -545928044 -545916295 -545794429 -545760278 -545744154 -545666005 -545582353 -545550456 -545373869 -545348915 -545238863 -545221098 -545105571 -545077564 -544861885 -544553146 -544499372 -544367102 -544283152 -544239202 -544199633 -544115974 -543916123 -543826260 -543746363 -543588037 -543537861 -543491441 -543376103 -543254808 -543138824 -542901713 -542696301 -542684364 -542674291 -542535118 -542521168 -542473127 -542385943 -542332453 -541865707 -541731395 -541635329 -541605750 -541539222 -541310286 -541219978 -541087013 -541075639 -541002449 -540700497 -540492146 -540362903 -540343700 -540340751 -540170974 -540144830 -539997587 -539780464 -539700706 -539694174 -539674376 -539487614 -539455798 -539449134 -539357036 -539349456 -539257304 -538888321 -538568265 -538567997 -538512143 -538426699 -538314896 -538218999 -538129845 -537987041 -537825304 -537798778 -537468897 -537391852 -537341803 -537262555 -537144203 -537140107 -536542518 -536526287 -536322220 -536266471 -536247527 -536103327 -535910051 -535512003 -535377243 -535348649 -535319438 -535100041 -534922454 -534836971 -534684327 -534626474 -534519308 -534425111 -534252425 -534251456 -534232118 -534189651 -534138661 -533898527 -533818109 -533733307 -533731056 -533727934 -533696104 -533454935 -533435562 -533357499 -533348465 -533329966 -533119173 -533089449 -533025326 -532896679 -532786296 -532773340 -532763427 -532687544 -532538620 -532506200 -532488524 -532484379 -532252349 -532232777 -532225557 -532221768 -531950341 -531614196 -531527696 -531409576 -531330414 -531281211 -530539971 -530506808 -530491314 -530469175 -530407962 -530279229 -530139499 -530107383 -530085074 -530059431 -530056019 -529973548 -529843406 -529666549 -529510230 -529314174 -529282186 -529200719 -529035225 -529005927 -528760687 -528462100 -528389838 -528385958 -528364326 -528183481 -528094908 -528037641 -528031638 -528001711 -527959232 -527941383 -527928536 -527918537 -527912705 -527890376 -527822602 -527705496 -527521929 -527493332 -527426060 -527414158 -527403813 -527259263 -527240880 -527238617 -527130812 -527118439 -527097441 -527067661 -527048379 -527010652 -526787107 -526640107 -526484860 -526229453 -526209467 -526168423 -526064901 -525961975 -525890055 -525765863 -525672125 -525042738 -525012330 -524768428 -524642506 -524619634 -524399849 -524250560 -524160416 -524087606 -524020576 -523943007 -523941516 -523841137 -523732360 -523708409 -523461652 -523349846 -523313385 -523273075 -523256228 -523172397 -523085406 -523083038 -522933364 -522772828 -522715467 -522680986 -522465886 -522230378 -522037662 -522034902 -521513714 -521375884 -521358989 -521177406 -520909192 -520778129 -520712959 -520674552 -520321628 -520286249 -520261384 -520174418 -520141657 -520038002 -519884609 -519761599 -519499565 -519432880 -519426188 -519249692 -519192022 -519070568 -519019860 -518817615 -518811254 -518764896 -518569966 -518269015 -518175472 -518113401 -517680257 -517454734 -517252812 -517122046 -516886542 -516854455 -516719689 -516565555 -516482049 -516463099 -516424443 -516400944 -516332819 -516062377 -516025322 -515996703 -515905874 -515845500 -515842032 -515611972 -515541484 -515517914 -515450151 -515233878 -515188196 -515041632 -514965529 -514948719 -514938870 -514868414 -514828840 -514606744 -514554673 -514504088 -514403773 -514366586 -514289658 -514227155 -514197535 -514093841 -514082105 -514061797 -513992446 -513987877 -513895887 -513739768 -513559192 -513383144 -513326716 -513198132 -513109114 -513093414 -513023707 -512968192 -512859728 -512731971 -512699925 -512685672 -512640083 -512536971 -512337915 -512277150 -512267386 -511632472 -511180316 -511154777 -511154474 -511143472 -510941323 -510836198 -510659969 -510518623 -510274564 -510185879 -510093706 -509560921 -509494802 -509446551 -509395109 -509360339 -509189112 -509172019 -508947499 -508917142 -508685352 -508544501 -508543879 -508496126 -508425101 -508358606 -508240871 -508158329 -508151536 -508088937 -508030351 -507980227 -507908239 -507668406 -507470796 -507354117 -507317928 -507138608 -507080933 -507030103 -506966346 -506819771 -506594705 -506429335 -506306993 -506019388 -505970475 -505891217 -505883139 -505869388 -505814067 -505780311 -505740063 -505633653 -505338086 -505072972 -505060005 -504940114 -504919843 -504895430 -504882183 -504829786 -504825711 -504814254 -504652659 -504637961 -504616293 -504529506 -504287006 -504226225 -504058674 -503910603 -503862930 -503803032 -503595098 -503586928 -503476476 -503413182 -503150574 -503145090 -502940268 -502926185 -502879091 -502769768 -502731998 -502707512 -502586867 -502558587 -502527551 -502476815 -502469750 -502250988 -502240647 -502170619 -502105726 -502104205 -502082489 -502033007 -501824498 -501805202 -501702386 -501624234 -501405112 -501374837 -501341254 -501329004 -501191932 -501173057 -501120610 -501025921 -501018155 -500936777 -500894111 -500843948 -500807693 -500716076 -500640893 -500569517 -500566634 -500566565 -500554656 -500419366 -500292309 -500098020 -500050696 -500024078 -499853246 -499841637 -499661640 -499650222 -499587046 -499568853 -499368591 -499246733 -499217839 -499016387 -498971750 -498944850 -498595347 -498592517 -498517107 -498402982 -498396035 -498384435 -498232315 -498098470 -498084153 -497827386 -497780592 -497743773 -497722390 -497628172 -497492613 -497278772 -497193066 -496807260 -496691159 -496666254 -496663460 -496556214 -496519476 -496413908 -495875752 -495849556 -495735738 -495719273 -495655093 -495618070 -495575426 -495549101 -495297900 -495206716 -494587073 -494583456 -494342391 -494232364 -494116426 -494046483 -494011306 -493924348 -493803591 -493739209 -493682289 -493678684 -493565237 -493546772 -493500498 -493436221 -493418231 -493368655 -493135951 -493124813 -492923609 -492752460 -492579982 -492484692 -492409245 -492354895 -492298227 -491986752 -491942788 -491918269 -491873809 -491838542 -491818145 -491570211 -491477887 -491345546 -491316188 -491273087 -490957198 -490882704 -490861466 -490760740 -490580015 -489955958 -489481974 -489439603 -489431447 -489312394 -489288319 -489225091 -489210963 -489032634 -488982667 -488848471 -488712640 -488622716 -488600417 -488377032 -488331984 -488311585 -488228376 -488163177 -488133547 -488114112 -488091085 -487893865 -487835534 -487816025 -487809032 -487777192 -487706765 -487569186 -487430713 -487406797 -487155288 -487070940 -486939948 -486904459 -486750913 -486727563 -486696195 -486434496 -486302280 -486284806 -486219834 -486031239 -485864248 -485766510 -485723290 -485696105 -485658556 -485617297 -485535276 -485474319 -485378105 -485359701 -485319012 -485220301 -485148303 -485073025 -485024553 -484865482 -484835371 -484820068 -484594995 -484591205 -484576119 -484068073 -483959248 -483815537 -483807198 -483699378 -483693776 -483370038 -483276274 -483236227 -483153378 -482953329 -482889725 -482874128 -482865456 -482605933 -482588519 -482587587 -482531154 -482332540 -482259775 -482120067 -481912844 -481555595 -481218470 -481189392 -481171723 -481167221 -481110409 -481001275 -480862716 -480693251 -480517278 -480405589 -480228447 -480118465 -479809341 -479761713 -479675466 -479587895 -479462026 -479327591 -479299824 -479281418 -479272351 -479182218 -479132552 -478905561 -478736846 -478440176 -478423146 -478313326 -478278239 -478261316 -478238885 -478186731 -478161202 -478157250 -478033608 -477884905 -477798326 -477320865 -477248928 -477221210 -477146942 -477146061 -477144130 -477073357 -476999235 -476997952 -476932133 -476841616 -476816601 -476744041 -476434772 -476410304 -476401105 -476196521 -475923911 -475795923 -475699534 -475214813 -475146076 -475133294 -475079037 -474537714 -474497266 -474485029 -474459298 -474433554 -474392125 -474389719 -474100561 -474084211 -474072505 -474056786 -473855676 -473664856 -473649917 -473538202 -473475429 -473331696 -473245334 -473239023 -473213695 -473182225 -473020173 -472804800 -472697609 -472592387 -472443528 -472413063 -472255427 -472242865 -472217388 -471908253 -471857938 -471707541 -471660584 -471535402 -471498378 -471245204 -471174337 -471024610 -470854573 -470718614 -470536677 -470414350 -470193555 -470189404 -469998283 -469682121 -469646557 -469565650 -469554276 -469473679 -469418084 -469080043 -468998493 -468990828 -468636517 -468272128 -468092417 -468063276 -468033596 -467912800 -467883953 -467639156 -467475829 -467429351 -467344549 -467285201 -467148727 -467138342 -466879507 -466864367 -466848052 -466552505 -466523221 -466498527 -466412872 -466397730 -466397293 -466380243 -466358301 -466026106 -465731424 -465686451 -465631598 -465414688 -465288930 -465271933 -465225472 -465218215 -465090424 -465031330 -465006415 -464962774 -464882777 -464746140 -464698298 -464620235 -463934038 -463810660 -463710524 -463695610 -463689141 -463481954 -463451616 -463425532 -463269125 -463109382 -463086361 -463076689 -462947914 -462816422 -462623821 -462561877 -462426852 -462386231 -462264578 -462215985 -462210507 -462045488 -462039991 -461904548 -461874573 -461852407 -461847206 -461843688 -461574367 -461409171 -461407755 -461355645 -461175618 -461165940 -461130483 -461123678 -460854929 -460717032 -460646913 -460636184 -460635881 -460618667 -460603797 -460574049 -460342471 -460277869 -460123487 -459974949 -459734715 -459674173 -459363857 -459346499 -459294273 -459267052 -459215407 -459134382 -458990955 -458827062 -458811060 -458584441 -458561466 -458552537 -458493042 -458311959 -458309978 -458303002 -458158165 -458149129 -457961732 -457788037 -457627912 -457522360 -457327523 -457307259 -457258955 -457131126 -457073537 -457060373 -456884583 -456844193 -456749383 -456674685 -456565638 -456440603 -456313459 -456278727 -456153892 -456130108 -455986497 -455629301 -455487054 -455480747 -455363033 -455231921 -455184524 -455133493 -455042530 -454946741 -454840843 -454754898 -454682113 -454598299 -454550917 -454213923 -454196853 -454000736 -453976972 -453928282 -453657987 -453654656 -453539083 -453523181 -453295150 -453123120 -453070360 -452979980 -452584511 -452473273 -452285265 -452029552 -451890409 -451841282 -451821285 -451408542 -451098787 -451093739 -451081214 -451068557 -450976324 -450832129 -450682418 -450383294 -450376358 -450176116 -450162769 -449965086 -449836684 -449791234 -449699335 -449673002 -449654235 -449520773 -449511496 -449287304 -449156445 -449097649 -448892303 -448874627 -448703352 -448602094 -448565897 -448261438 -448106906 -447953029 -447725197 -447720396 -447709387 -447650093 -447481771 -447390257 -447370279 -447221164 -447180575 -446903858 -446674261 -446548010 -446540901 -446395955 -445997662 -445987432 -445630895 -445568305 -445564501 -445551799 -445418199 -445390000 -445284313 -445284260 -445181581 -445156404 -445039900 -444937429 -444832936 -444703834 -444596832 -444417478 -444313978 -444271978 -444001100 -443903210 -443885785 -443880921 -443775052 -443599201 -443518540 -443502785 -443477981 -443422399 -443377058 -443274307 -443245921 -442702604 -442519795 -442478405 -442420010 -442298713 -442208371 -442206383 -442047108 -441859566 -441593488 -441434369 -441227873 -441207215 -441183208 -441148636 -441106522 -441025564 -441001796 -440923039 -440918634 -440906536 -440884713 -440861528 -440533501 -440246651 -439977005 -439958673 -439943979 -439731554 -439568491 -439529898 -439456111 -439443484 -439416287 -439126183 -439016328 -439002945 -438981297 -438969957 -438961606 -438796129 -438628549 -438458577 -438424580 -438302639 -438155383 -438092791 -438012818 -437997709 -437802151 -437661441 -437517819 -437505002 -437330113 -437238350 -437193937 -437178911 -437158204 -437090182 -437071507 -436994489 -436814241 -436531982 -436460832 -436459450 -436319367 -436168155 -435872333 -435275034 -435224553 -435171615 -435149388 -435123260 -435120626 -434861817 -434828787 -434782618 -434763449 -434728430 -434668733 -434585345 -434515831 -434409929 -434388602 -434329105 -434319837 -434292543 -434285955 -434017363 -433844708 -433727757 -433483068 -433405974 -433365748 -433352456 -433139667 -433050532 -432846608 -432821243 -432754202 -432583949 -432419997 -432379540 -432246256 -431838041 -431713159 -431224319 -431157361 -431095456 -430760585 -430645438 -430452564 -430015359 -429909338 -429853681 -429744175 -429543033 -429526061 -429460721 -429404512 -429359126 -429078906 -428936294 -428875629 -428835294 -428817575 -428765096 -428677900 -428479993 -428418738 -428414631 -428342005 -428285206 -428227828 -427986251 -427712462 -427586481 -427520724 -427457354 -427450674 -427288077 -427122033 -427117664 -426984995 -426876858 -426754608 -426699372 -426632308 -426535765 -426507665 -426428614 -426010095 -425997890 -425977293 -425803218 -425694669 -425677874 -425477487 -425450155 -425188712 -425068728 -425015345 -424674469 -424139305 -423962492 -423840258 -423807917 -423715024 -423320194 -423178846 -422964384 -422926630 -422901670 -422677815 -422518430 -422261092 -422211169 -422171359 -422103223 -422086701 -422063960 -422011771 -421812262 -421777035 -421733120 -421409326 -421396985 -421382309 -421347800 -421242476 -421154317 -421138418 -421126249 -421126127 -420737094 -420683616 -420665712 -420542975 -420481675 -420348912 -420348391 -420320081 -420155570 -420063643 -419876672 -419867968 -419817894 -419809125 -419800878 -419689617 -419672692 -419596781 -419593137 -419566546 -419528926 -419465251 -419408637 -419371272 -419203051 -418980519 -418896255 -418835557 -418782924 -418743553 -418536861 -418464742 -418437215 -418313186 -418213980 -418117768 -418038023 -417904661 -417868271 -417753420 -417718475 -417603066 -417539952 -417430028 -417417438 -417413428 -417410458 -417315783 -417279653 -417131061 -417034502 -417026309 -416817971 -416674001 -416573909 -416551693 -416135358 -416104300 -416041564 -415958490 -415886664 -415872221 -415775937 -415730370 -415702840 -415602658 -415169606 -415092194 -415069973 -415038060 -414937906 -414528362 -414514360 -414421539 -414111704 -414087558 -414009228 -413990088 -413950104 -413863220 -413851605 -413732622 -413532860 -413375632 -413281767 -413260941 -413239498 -413150267 -413039178 -412797106 -412745129 -412659353 -412634091 -412581695 -412569042 -412562938 -412357294 -412111876 -412104422 -412052128 -412029999 -412018569 -411900713 -411886857 -411805875 -411579382 -411577391 -411476778 -411257684 -411214127 -411055832 -410782537 -410772160 -410294892 -410225562 -410143521 -410070624 -409894628 -409836370 -409699503 -409655986 -409557512 -409520463 -409447646 -409387261 -409369155 -409063874 -409062940 -409057752 -409024753 -408872981 -408239321 -408175022 -408154348 -408109269 -407915344 -407912979 -407811879 -407721349 -407718173 -407689497 -407559389 -407534827 -407415375 -407243339 -407155139 -406887453 -406711919 -406541609 -406339705 -406164240 -405899089 -405766875 -405577903 -405397515 -405306925 -405154918 -405028009 -404869871 -404772452 -404757693 -404700007 -404531761 -404527400 -404437813 -404241652 -404146297 -404055223 -403923865 -403816789 -403717965 -403655967 -403482336 -403427399 -403404393 -403264431 -403120193 -402996647 -402917816 -402795959 -402682066 -402607545 -402528788 -402507646 -402125533 -401999459 -401969064 -401921685 -401877860 -401691187 -401633258 -401593224 -401586191 -401512598 -401302579 -401290275 -401254948 -401200843 -401103814 -400992666 -400709537 -400687502 -400579217 -400567818 -400185418 -400115259 -400049851 -400001944 -399961759 -399932659 -399895638 -399882939 -399861994 -399512455 -399485435 -399411739 -399382718 -399351802 -399245262 -399220381 -399144536 -399075185 -399012791 -398912286 -398685112 -398164666 -397773824 -397717595 -397620577 -397523572 -397358067 -397169935 -397108482 -397005550 -396949401 -396885274 -396840261 -396831494 -396583724 -396559599 -396490233 -396486356 -396430178 -396392210 -396364868 -396345154 -396219863 -395915305 -395837128 -395817558 -395709122 -395642676 -395555846 -395218258 -395176114 -394879821 -394790837 -394772365 -394576704 -394540444 -394346652 -394292678 -394001418 -393963915 -393938060 -393907562 -393786006 -393713339 -393692486 -393581509 -393494097 -393373978 -393344758 -392907401 -392753139 -392668260 -392631816 -392615474 -392445239 -392134158 -391894132 -391881206 -391862510 -391823707 -391688755 -391625785 -391392023 -391312743 -391014508 -390884405 -390605817 -390260347 -390153960 -389956372 -389629956 -389296427 -389145546 -388969768 -388829126 -388734630 -388575830 -388573595 -388526467 -388504985 -388174633 -387966652 -387740339 -387695150 -387685711 -387631200 -387377538 -387185960 -387166224 -387025210 -386974149 -386827237 -386801911 -386779606 -386536591 -386485316 -386439391 -386031146 -385954707 -385765004 -385700845 -385692563 -385498195 -385424285 -385341173 -385187758 -385047438 -385013362 -384831530 -384793273 -384579721 -384568696 -384373859 -384226965 -384223159 -383870136 -383842339 -383769807 -383763694 -383736955 -383586488 -383524079 -383406970 -383347984 -383119879 -382783271 -382750283 -382742446 -382432472 -382170430 -382093465 -381944478 -381935925 -381858833 -381612353 -381215029 -381156732 -381116352 -381083515 -380915449 -380867995 -380815035 -380770807 -380738050 -380639442 -380608832 -380561868 -380457697 -380455552 -380427115 -380088070 -380037721 -379860507 -379782268 -379775617 -379622950 -379525521 -379500668 -379307529 -379247590 -379106332 -378963244 -378878025 -378808872 -378769680 -378536735 -378446998 -378358989 -378021680 -378019865 -377774171 -377658726 -377259958 -377085880 -377024560 -377023798 -376999731 -376987614 -376876786 -376835117 -376658765 -376579671 -376024382 -375997705 -375874768 -375834172 -375820084 -375221126 -374973441 -374677756 -374532178 -374443748 -374396926 -374250808 -374153881 -373915679 -373907462 -373801438 -373742800 -373668488 -373665463 -373584217 -373581359 -373471477 -373454015 -373337116 -373245149 -373146573 -372779532 -372762406 -372667493 -372638790 -372394169 -372081829 -372052785 -372050876 -371962508 -371876547 -371853025 -371784844 -371767940 -371729051 -371685340 -371527517 -371255543 -371144042 -371059306 -370930219 -370805990 -370732983 -370714555 -369989886 -369933405 -369891915 -369879977 -369759038 -369573552 -369364728 -369314651 -369198146 -369147407 -369073307 -369072141 -369049629 -369019509 -368936584 -368884027 -368722574 -368600872 -368535446 -368510608 -368034078 -367423270 -367421473 -367421438 -367261027 -367249003 -367127235 -366927856 -366886278 -366866348 -366837066 -366572017 -366509704 -366247402 -366103299 -366027534 -365896241 -365754533 -365754453 -365608695 -365582537 -365544971 -365540978 -365497021 -365264799 -365153207 -364954918 -364767393 -364680300 -364560038 -364299138 -364241872 -364150645 -364082660 -363996539 -363723849 -363470473 -363445840 -363393060 -363134615 -363060814 -363004386 -362984398 -362774861 -362494692 -362402580 -362149530 -361639955 -361471819 -361417483 -361367783 -361279452 -361143856 -361088715 -361081476 -361072771 -360852086 -360840612 -360835211 -360702048 -360682620 -360621723 -360605761 -360332439 -360259813 -360238322 -360145843 -360096441 -360070497 -359922205 -359735485 -359703217 -359695185 -359675045 -359606526 -359520214 -359429337 -359313951 -359143090 -359127185 -359000714 -358897903 -358838433 -358813887 -358723367 -358695756 -358655631 -358644008 -358611345 -358455213 -358408611 -358300985 -358280255 -358202298 -358156896 -358012277 -357754226 -357719897 -357636875 -357546436 -357531717 -357489045 -357445107 -357320790 -356727613 -356575948 -356531047 -356511155 -356433154 -356160311 -356141584 -356060759 -355968210 -355683397 -355680063 -355506999 -355175932 -354904732 -354578966 -354388557 -354382711 -354244133 -354241045 -354103827 -354059602 -354020981 -353924527 -353766874 -353691007 -353373571 -353332345 -353328735 -353219276 -353124089 -352829260 -352590454 -352583716 -352442004 -352383122 -352252474 -352150772 -351975293 -351928874 -351898550 -351889293 -351839671 -351714865 -351702859 -351517843 -351495722 -351494105 -351320988 -351180046 -351096847 -351073064 -351023028 -350887025 -350832833 -350765393 -350727174 -350523946 -350289806 -350131326 -349696774 -349686051 -349681705 -349595128 -349541046 -349493177 -349478191 -349394461 -349341182 -349210468 -349206871 -349059925 -348829903 -348827351 -348826501 -348682918 -348657132 -348575496 -348553968 -348357354 -347983172 -347936740 -347927658 -347731223 -347681486 -347627948 -347383706 -347369984 -347148094 -347089366 -347009647 -346849805 -346758186 -346727428 -346591640 -346582403 -346462886 -346428565 -346048164 -345896017 -345845519 -345800471 -345488949 -345378054 -345315634 -345308115 -345261319 -345008400 -344958930 -344870524 -344826021 -344781408 -344699336 -344695975 -344683154 -344679549 -344575839 -344521822 -344461685 -344104934 -343791371 -343759262 -343753340 -343681360 -343488043 -343342829 -343197656 -343135868 -342996164 -342825525 -342773311 -342729060 -342481025 -342404177 -342358200 -342068496 -342054006 -342012199 -341895622 -341832319 -341817057 -341763438 -341589534 -341534258 -341363414 -341325557 -341281494 -341240565 -341198380 -341111157 -341022341 -340885305 -340752388 -340588232 -340565647 -340482559 -340433110 -340294082 -339717746 -339661293 -339629989 -339431830 -339043318 -339025625 -339007594 -338233747 -338072450 -337965985 -337924454 -337886329 -337707749 -337627652 -337582443 -337581359 -337401444 -337282642 -337263533 -337017726 -336976488 -336926321 -336902291 -336881134 -336783110 -336551932 -336501965 -336378423 -336370334 -336351587 -336189094 -336151770 -336120818 -336001156 -335983445 -335876697 -335816461 -335643420 -335633976 -335516818 -335459266 -335372941 -335193905 -335077707 -334667988 -334562736 -334517623 -334488489 -334360523 -334344761 -334334819 -334278356 -334147494 -334128226 -334119056 -334093066 -333886051 -333787085 -333708232 -333699247 -333692886 -333665092 -333341892 -333243210 -333234068 -333131791 -332692258 -332687099 -332549629 -332452391 -332450921 -332432646 -332351619 -332292587 -332048029 -332000503 -331744356 -331370930 -331343507 -331248155 -331236861 -331202155 -331117647 -331048784 -331040264 -331039682 -330848838 -330826393 -330820579 -330791006 -330625428 -330517870 -330368115 -330354265 -330019081 -329965515 -329929224 -329468059 -329436095 -329265908 -329253100 -329220992 -329166207 -329142184 -329131322 -329017554 -328853989 -328828809 -328720060 -328691755 -328687909 -328341597 -328272147 -328184019 -327915617 -327887622 -327802514 -327674170 -327493146 -327456405 -327404391 -327304909 -327296380 -327284177 -327107724 -327088060 -326863330 -326851915 -326837955 -326808274 -326779020 -326733700 -326321910 -326018663 -325722481 -325541553 -325532156 -325516292 -325407757 -325394626 -325347652 -325206457 -325200241 -325174061 -325071610 -325010016 -324928999 -324885886 -324871706 -324866163 -324682653 -324546663 -324538482 -324530202 -324525428 -324383941 -324315702 -324303394 -324264601 -324102542 -323998669 -323947570 -323878594 -323753514 -323740534 -323671927 -323645327 -323591129 -323525771 -323520108 -323416585 -323406204 -323224287 -322698411 -322633218 -322587820 -322538829 -322370653 -322264787 -321994679 -321894693 -321617962 -321573727 -321533677 -321167335 -321031149 -320796796 -320717656 -320539284 -320424845 -319971606 -319916801 -319865175 -319839535 -319559829 -319470266 -319437510 -319434372 -319424997 -319133982 -318994871 -318866229 -318852182 -318759009 -318601909 -318346671 -318195470 -318182203 -318157289 -317909225 -317895736 -317722578 -317609501 -317540056 -317440345 -317283228 -317273487 -317261374 -317149696 -317102514 -317049705 -316997503 -316897063 -316846320 -316799359 -316705807 -316572967 -316392080 -316297351 -316077883 -315904585 -315862115 -315818388 -315817098 -315778946 -315729891 -315669703 -315629267 -315561321 -315408431 -315402788 -314843250 -314774211 -314625792 -314463828 -314429326 -314398392 -314366533 -314345888 -314322252 -314278353 -314237807 -313919238 -313875043 -313639280 -313590623 -313577379 -313524464 -313423682 -313213997 -313184141 -312672856 -312662232 -312614631 -312440378 -312351573 -312243122 -312086880 -311958515 -311818067 -311777441 -311350927 -311317984 -311275006 -311037465 -310687649 -310614552 -310517611 -310466936 -310303242 -310230973 -310189849 -309998058 -309993185 -309960629 -309676652 -309346279 -309342545 -309280669 -309220346 -309212196 -309055640 -308899498 -308645465 -308576225 -308530734 -308498983 -308365144 -308329206 -308175627 -308131432 -308098559 -308085407 -308038259 -307866041 -307478877 -307441092 -307313229 -307256919 -307194045 -307085974 -306810623 -306780551 -306520159 -306394772 -306319655 -306296584 -306180015 -306040274 -306008540 -305813795 -305729708 -305325312 -305026387 -304966666 -304963604 -304935747 -304810782 -304625614 -304580005 -304474122 -304345711 -304280979 -304146794 -304107276 -304062521 -304045542 -303989594 -303728529 -303396432 -303336299 -303305094 -303269461 -302958432 -302827301 -302694743 -302614640 -302610979 -302516754 -302490818 -302419837 -302253641 -302128214 -301860604 -301831075 -301704523 -301670091 -301659940 -301537304 -301498899 -301068220 -300987472 -300982753 -300541425 -300448085 -300304604 -300253472 -300021178 -299831334 -299712943 -299627022 -299506252 -299429807 -299365946 -299364251 -299348655 -299081322 -299064195 -298738302 -298646319 -298374105 -298305487 -298255337 -298234517 -298201144 -298187264 -298050125 -297899627 -297820830 -297616191 -297129795 -297021080 -297007169 -296827751 -296799515 -296766686 -296442339 -296388574 -296386073 -296334667 -296162805 -296030784 -295965634 -295787875 -295730852 -295730582 -295586424 -295521192 -295505133 -295492796 -295270026 -295212976 -295211913 -295125391 -295038910 -294985388 -294908093 -294896827 -294860746 -294829231 -294811477 -294782011 -294776074 -294342259 -294267058 -294229925 -294197713 -294032488 -293836323 -293759393 -293754048 -293728755 -293586505 -293505738 -293367999 -293309392 -293151337 -292968770 -292831646 -292684086 -292683049 -292489723 -292333757 -292290621 -291864947 -291838582 -291810310 -291763771 -291759998 -291665158 -291572008 -291490000 -291292253 -291230510 -291168643 -291073646 -291020485 -290522976 -290302487 -290283991 -290183064 -290092454 -290044181 -289971693 -289671232 -289641065 -289470551 -289448539 -289418368 -289391460 -289303391 -289148349 -288897725 -288808180 -288777807 -288719075 -288667596 -288556490 -288534654 -288485884 -288410214 -288382709 -288302988 -288247712 -288066205 -288046595 -287789707 -287708439 -287696807 -287663263 -287571294 -287534215 -287528420 -287515761 -287472445 -287450640 -287412030 -287395224 -287327628 -287234948 -287110473 -287101965 -286784723 -286710386 -286567064 -286517227 -286170058 -286126401 -285985452 -285641831 -285640588 -285388579 -285355028 -285335827 -285270809 -285105021 -284871009 -284862636 -284811840 -284790768 -284554800 -284343606 -284267094 -284255144 -284144131 -283874267 -283702199 -283643391 -283555157 -283373602 -283323843 -283299183 -282962560 -282415358 -282312250 -282149985 -281877130 -281837473 -281767362 -281722667 -281707323 -281478732 -281430707 -281426973 -281397647 -281340960 -281337971 -281309184 -280807467 -280771263 -280718080 -280635613 -280524248 -280489419 -280488423 -280461840 -280431129 -280078114 -279934491 -279812720 -279811570 -279722779 -279695312 -279596614 -279468796 -279462244 -279431163 -279123738 -278967011 -278895518 -278893341 -278852283 -278847945 -278758878 -278756169 -278641819 -278606144 -278471381 -278060450 -278034156 -277897421 -277875672 -277757945 -277515879 -277494790 -277256294 -277127767 -277034674 -276949950 -276943342 -276897974 -276482950 -276472949 -276442361 -276370554 -276363111 -276330526 -276299919 -276217702 -276124139 -276091217 -276036734 -275781245 -275740667 -275338120 -275147406 -275123491 -275096665 -275054073 -275026533 -274905850 -274687810 -274545567 -274501013 -274305350 -274230531 -274210749 -274159489 -274132813 -274055259 -274053485 -273836179 -273616360 -273431444 -273248705 -272864498 -272837226 -272824794 -272823168 -272751800 -272741263 -272686137 -272629428 -272245007 -272145341 -272066905 -272028951 -272015509 -271901079 -271775037 -271747595 -271591014 -271445463 -271389141 -271355491 -271272001 -270825372 -270628102 -270457173 -270336316 -270335668 -270236646 -270231355 -270213750 -270183904 -270171746 -269877077 -269600020 -269554015 -269423848 -269391495 -269336257 -268824659 -268778683 -268769848 -268758427 -268744496 -268667546 -268655310 -268597479 -268531372 -268508536 -268461411 -268260846 -268180311 -268092529 -268044814 -267916578 -267794714 -267493064 -267432538 -267373411 -267048847 -267016250 -266939273 -266613484 -266466707 -266432380 -266365529 -266316996 -266216834 -266214449 -266177720 -265970422 -265948949 -265796338 -265656116 -265559781 -265537393 -265430815 -265334731 -265270099 -264832943 -264826680 -264782611 -264767621 -264674613 -264620302 -264497916 -264192492 -264162995 -264106386 -263664666 -263427175 -263326259 -263293388 -263137963 -263127448 -263103253 -263003515 -262938535 -262720896 -262617923 -262468548 -262338559 -262331756 -262270786 -262160657 -262132371 -262132073 -261880696 -261692310 -261191348 -260711544 -260554485 -260432955 -260399637 -260062145 -259831180 -259628425 -259557019 -259486700 -259455768 -259446225 -259383132 -259311518 -259233186 -259171852 -259142442 -259081855 -258993082 -258854110 -258832883 -258797053 -258666107 -258494612 -258455454 -258419828 -258284205 -258234535 -258172881 -258075298 -258019604 -257995572 -257774095 -257577975 -257518130 -257481718 -257468962 -257459368 -257399117 -257342246 -257170939 -257100729 -257044349 -256968006 -256808866 -256695786 -256687575 -256681092 -256612802 -256551363 -256470232 -256300477 -256235092 -256051803 -255999857 -255968227 -255940770 -255633277 -255630194 -255609108 -255343206 -255342869 -255322544 -255246919 -255126802 -254884449 -254881920 -254861528 -254859340 -254717295 -254689699 -254576904 -254522019 -254454436 -254329527 -254199067 -254145496 -254142033 -254121529 -253734565 -253670998 -253293156 -253248691 -253214457 -252851026 -252684370 -252666275 -252466601 -252455949 -252431314 -252354144 -252286857 -252181645 -252057348 -251942685 -251939853 -251900708 -251820698 -251742916 -251665739 -251548955 -251536038 -251318677 -251035680 -250703117 -250207011 -250153006 -250137442 -250066118 -250013782 -249749727 -249614178 -249556543 -249504746 -249480467 -249437530 -249417076 -249130661 -248861028 -248801324 -248690892 -248627452 -248602186 -248539739 -248227484 -248224102 -248140894 -248079937 -247961797 -247886093 -247867615 -247777072 -247698453 -247573588 -247290023 -247243988 -247165803 -247156240 -247107211 -246778769 -246508630 -246417591 -246391681 -246309617 -246264889 -246136422 -246084630 -246062765 -245612732 -245612220 -245512802 -245153963 -244861338 -244845055 -244741778 -244730368 -244657264 -244356465 -244187188 -244159383 -244026384 -243974165 -243893684 -243887000 -243794945 -243780648 -243708481 -243645385 -243626751 -243460911 -243306133 -243119030 -243039116 -243018432 -243003560 -242976244 -242938735 -242909851 -242816927 -242793159 -242774072 -242473916 -242258012 -242190150 -241981631 -241881711 -241731492 -241615516 -241456432 -241185580 -241159978 -240685820 -240659933 -240628800 -240622417 -240474312 -240401156 -240184558 -239870107 -239574540 -239512361 -239442410 -239219259 -239061635 -239042536 -238994016 -238782256 -238743871 -238716955 -238711458 -238235970 -237939531 -237910835 -237883683 -237823688 -237693954 -237606461 -237503745 -237340178 -237223204 -237213287 -236894181 -236747225 -236730784 -236597739 -236445844 -236335974 -236072599 -235902324 -235830295 -235747620 -235548957 -235474281 -235386144 -235246400 -235184956 -235157555 -235136398 -234797693 -234781481 -234781357 -234531929 -234447166 -234370351 -234190816 -234144442 -233982161 -233727139 -233708295 -233693967 -233641039 -233623794 -233486694 -233427948 -233224410 -233020166 -232850217 -232588636 -232447021 -232413317 -232256240 -232174749 -232168880 -232158372 -232012534 -231969182 -231889342 -231690971 -231688769 -231653122 -231611026 -231606403 -231510560 -231452784 -231412780 -231364659 -231110536 -230865335 -230740696 -230676243 -230495143 -230463604 -230364878 -230346102 -230290440 -229829920 -229815728 -229790000 -229639775 -229329372 -228915431 -228786095 -228643707 -228513823 -228301370 -228300822 -228192610 -228069345 -227947493 -227766478 -227747381 -227656849 -227588384 -227371949 -227348273 -227331116 -227112827 -227017483 -226796051 -226536528 -226298437 -226124043 -225785380 -225778395 -225429629 -225300373 -225285746 -225184258 -225046567 -224833876 -224537295 -224484292 -224479845 -224424925 -224408970 -224325491 -224306222 -224236918 -224064423 -223992018 -223963935 -223932173 -223742980 -223578829 -223537492 -223456498 -223175361 -223154499 -223093243 -223069928 -223063193 -223062196 -222932681 -222766013 -222750361 -222717840 -222507556 -222157307 -221827602 -221740179 -221705336 -221610983 -221562667 -221557685 -221458491 -221285252 -221269777 -221161349 -220860179 -220847822 -220605416 -220568593 -220312134 -220157811 -219749279 -219657353 -219608961 -219321146 -219110818 -218970027 -218933575 -218921918 -218655976 -218565812 -218515581 -218512916 -218400176 -218272058 -217996553 -217820319 -217758075 -217371055 -217191480 -216659637 -216302803 -216140838 -216133331 -216083375 -216081437 -216077888 -215763771 -215658842 -215634571 -215566091 -215239584 -215172611 -215148135 -215128831 -215115943 -215093783 -215084381 -214815861 -214798958 -214669570 -214598720 -214493267 -214340455 -213990543 -213790289 -213778607 -213696083 -213621820 -213286384 -213269601 -213248909 -213124393 -213072247 -212815475 -212781615 -212764172 -212572773 -212563138 -212441759 -212361776 -212230933 -212204527 -212040382 -212014171 -211747171 -211704303 -211682901 -211645861 -211614959 -211567142 -211552317 -211530532 -211449178 -210973112 -210946599 -210926809 -210725090 -210602875 -210562548 -210464932 -210194089 -209878808 -209488527 -209484379 -209418830 -209364339 -209015378 -208820062 -208656370 -208561214 -208370410 -208344825 -208056239 -207933393 -207932245 -207849623 -207645719 -207504944 -207419717 -207248203 -207091489 -206993477 -206904232 -206879017 -206848914 -206795880 -206782119 -206589675 -206526980 -206378695 -206107439 -205834869 -205834642 -205525949 -205407992 -205396123 -205358890 -205271124 -205185891 -205163856 -205162175 -205074484 -205039817 -205030244 -205022099 -204991543 -204718173 -204418474 -204354874 -204241171 -203691323 -203527921 -203451729 -203219077 -203026252 -202635648 -202526989 -202464548 -202391875 -202337873 -202258337 -202237368 -202236524 -202218073 -202131975 -201851152 -201732736 -201484857 -201246208 -201032653 -200617705 -200580043 -200554379 -200486879 -200456994 -200410240 -200209978 -200014259 -199943278 -199880544 -199855028 -199589458 -199563940 -199538017 -199526770 -199444239 -199277675 -199204608 -199115900 -199002000 -198986157 -198960263 -198905876 -198873678 -198824454 -198698123 -198293469 -198289015 -197925181 -197902154 -197869439 -197832898 -197832776 -197748386 -197658605 -197547713 -197421601 -197391643 -197378444 -197013908 -197000843 -196688239 -196595361 -196458928 -196456748 -196343886 -196246542 -196202235 -196142894 -196094488 -196016586 -195990648 -195636156 -195577385 -195404316 -195386171 -195328189 -195145129 -195124585 -195109393 -195047924 -194966368 -194649890 -194579533 -194558649 -193942174 -193916020 -193601711 -193525233 -193518448 -193403865 -193395990 -193348469 -193246869 -193240812 -193006195 -193001504 -192923587 -192854599 -192713470 -192384795 -192352346 -192063741 -192023897 -192007860 -191846028 -191824345 -191800932 -191788631 -191648972 -191587399 -191135030 -191066773 -191052319 -190912159 -190744851 -190734479 -190661107 -190575749 -190533196 -189979778 -189969177 -189880016 -189786199 -189708959 -189688917 -189581097 -189407577 -189350422 -189285239 -189081774 -189073652 -188973293 -188758127 -188566749 -188509005 -188488111 -188443272 -188386520 -188118082 -187928750 -187853535 -187557041 -187425400 -187344575 -187291852 -187105608 -187076955 -187071418 -187032374 -186890688 -186890527 -186874354 -186815118 -186757048 -186728090 -186677679 -186491995 -186252306 -185871665 -185785853 -185668766 -185352436 -185314264 -185080774 -185006545 -184996808 -184969000 -184929817 -184848653 -184746179 -184734313 -184682985 -184597781 -184424160 -184402932 -184178128 -184071295 -184028102 -183614579 -183611047 -183534785 -183434694 -183425331 -183177824 -183070478 -182889979 -182771493 -182760640 -182407067 -182397726 -182277804 -182268829 -182247068 -182191508 -182147360 -182062757 -182001175 -181968686 -181920129 -181858234 -181762044 -181758769 -181738437 -181684907 -181569744 -181325079 -181322535 -181207956 -181151019 -180987942 -180967318 -180659039 -180583868 -180481814 -180384735 -180341830 -180251762 -180054516 -179960194 -179755644 -179710284 -179700780 -179522693 -179319139 -179200555 -179154524 -179150215 -179046399 -178960413 -178872249 -178870884 -178822727 -178703062 -178677125 -178668323 -178493089 -178375956 -178274335 -178134869 -178078238 -178066422 -177962153 -177957895 -177431969 -177330523 -177323276 -177302682 -177237032 -177041501 -176850755 -176814613 -176601154 -176528074 -176402096 -176159045 -176106761 -176073269 -175767439 -175764870 -175678880 -175424415 -175300641 -175152588 -175105633 -175020486 -174962414 -174730607 -174675983 -174609808 -174598559 -174495529 -174343610 -174287788 -174146527 -174026698 -173976538 -173971606 -173742364 -173460863 -173449413 -173394593 -173280506 -173228284 -173053010 -173051079 -172865261 -172856386 -172798116 -172750979 -172720656 -172681927 -172676280 -172351293 -172104468 -172080379 -171989453 -171934981 -171928772 -171919293 -171817316 -171813446 -171744282 -171541463 -171448104 -171154660 -171114598 -171047307 -171032652 -170948210 -170913413 -170891942 -170868843 -170857522 -170632013 -170552960 -170476721 -170222587 -170136586 -169888450 -169606153 -169578524 -169306278 -169157554 -169137309 -168845624 -168824477 -168795445 -168555783 -168518223 -168500677 -168404679 -168370079 -168303959 -168301776 -168273582 -168001359 -167866614 -167783419 -167676900 -167647105 -167499529 -167464702 -167224632 -167170441 -167067199 -166742266 -166689169 -166688394 -166637833 -166610545 -166476085 -166430061 -166367038 -166338691 -166250264 -166111195 -166096112 -166065005 -165900344 -165813303 -165623814 -165622192 -165545469 -165464872 -165313149 -165277255 -165135059 -165028828 -164701083 -164679147 -164624641 -164443164 -163996132 -163908136 -163850716 -163842872 -163809683 -163806109 -163793450 -163769924 -163550199 -163542007 -163392008 -163338973 -163283403 -163135968 -162933259 -162899459 -162833826 -162669666 -162574760 -162466434 -162397231 -162354013 -162273978 -162160759 -162152575 -162105012 -162070083 -161918401 -161780674 -161776112 -161689531 -161660338 -161627825 -161613542 -161583211 -161526824 -161318105 -161297142 -161038425 -161018492 -161000674 -160616229 -160538941 -160507877 -160483263 -160126256 -160087709 -160014711 -159951449 -159915956 -159737303 -159669782 -159642115 -159619283 -159564617 -159531575 -159422969 -159284785 -159234081 -158952611 -158910011 -158885525 -158842523 -158828048 -158814912 -158776487 -158529069 -158385863 -158319461 -158238054 -158228302 -158226977 -158028092 -157963081 -157960473 -157760153 -157587199 -157536142 -157137185 -157084272 -157035178 -156784233 -156728448 -156709601 -156662262 -156658721 -156479973 -156395911 -156377102 -156355611 -156098966 -156036579 -155886330 -155775823 -155462244 -155459686 -155432571 -155385763 -155245099 -155242270 -155218058 -155187878 -155077322 -154910443 -154878761 -154804592 -154767448 -154705895 -154661385 -154656796 -154405705 -154388007 -154298137 -154265208 -154246466 -154098602 -154029770 -153965528 -153881185 -153748611 -153650374 -153273302 -153191022 -153114294 -153060162 -152980067 -152809902 -152711701 -152628571 -152607624 -152395990 -152367452 -152348475 -152312216 -152219969 -152195764 -152183868 -152078607 -151757567 -151565224 -151422918 -151364355 -151231787 -151116962 -151082180 -150936267 -150898019 -150365715 -149908220 -149757176 -149727576 -149650211 -149472558 -149342045 -149176522 -149059227 -149048398 -148960948 -148840020 -148653557 -148566119 -148514415 -148459056 -148330074 -148313370 -148271451 -148090232 -148030581 -147629380 -147618706 -147462415 -147448567 -147379235 -147266280 -146972643 -146923469 -146905540 -146801732 -146788888 -146724839 -146549078 -146491926 -146224265 -146147203 -145923566 -145751972 -145488129 -145403757 -145296412 -145156522 -145149828 -144977735 -144677291 -144378977 -144367039 -144331075 -144319215 -144255475 -144065179 -144043972 -144007846 -143953839 -143728026 -143045056 -142906016 -142891784 -142836428 -142820224 -142783305 -142606073 -142601273 -142600412 -142530833 -142398836 -142332675 -142229660 -142172745 -142025203 -141728126 -141636957 -141610164 -141511935 -141467488 -141454890 -141417430 -141374449 -141278919 -141233570 -141229122 -140999872 -140989753 -140963668 -140948055 -140890408 -140866136 -140747070 -140736923 -140710752 -140669330 -140649479 -140643534 -140584969 -140534819 -140411454 -140240123 -140215505 -140187600 -139992233 -139678580 -139536980 -139420847 -139341650 -139154054 -139017583 -138789493 -138599892 -138432330 -138199851 -138167079 -137758197 -137514805 -137418516 -137381744 -137261190 -137202480 -137095335 -137085160 -137024672 -136900839 -136899865 -136873835 -136810792 -136769361 -136539073 -136480055 -136252734 -136089611 -136028927 -135915892 -135866442 -135864835 -135795372 -135785453 -135626027 -135468415 -135326392 -135290674 -135201291 -135186785 -135186095 -135079773 -135076437 -134870396 -134835956 -134777371 -134617027 -134601995 -134434589 -134423274 -134358540 -134274105 -134196074 -134166034 -134137578 -134126936 -134109076 -134105665 -134055727 -133997330 -133949418 -133882032 -133773916 -133747603 -133071126 -132991900 -132772592 -132699495 -132615610 -132580913 -132441352 -132399745 -132319611 -132256641 -132037080 -132016144 -131966231 -131881653 -131728224 -131712732 -131660002 -131614587 -131585880 -131424071 -131216647 -131031966 -130931522 -130868695 -130845275 -130786303 -130784452 -130673904 -130434051 -130416902 -130366635 -130167582 -130083358 -130023318 -129962970 -129850307 -129742483 -129735927 -129685424 -129606172 -129226366 -128922445 -128820373 -128812201 -128706175 -128611388 -128517387 -128449115 -128420022 -128381871 -128339098 -128274375 -128107034 -127929221 -127763244 -127471171 -127447615 -127239473 -127178082 -126988697 -126885397 -126883910 -126846373 -126701635 -126668147 -126603613 -126593596 -126573835 -126511840 -126378240 -126351385 -126329070 -126312385 -126166319 -125887887 -125854618 -125388208 -125338360 -124444360 -124417652 -124329447 -124292695 -124201232 -123940140 -123923246 -123919527 -123859552 -123799492 -123786307 -123721775 -123507509 -123475093 -123451025 -123442069 -123380501 -123103067 -123046235 -123038326 -122915869 -122896882 -122700625 -122560512 -122527975 -122389044 -122311399 -122269956 -122213649 -122144420 -121811238 -121706733 -121460671 -121451912 -121387378 -121183972 -121168919 -121024973 -120979133 -120887049 -120868324 -120763584 -120757255 -120252398 -119914453 -119860144 -119756245 -119670449 -119643186 -119639350 -119418088 -119378775 -119347638 -119343022 -119244398 -119225830 -119182027 -119088425 -119035757 -118849345 -118749897 -118744763 -118603085 -118526083 -118476288 -118471084 -118452587 -118097084 -117789609 -117777769 -117747174 -117663645 -117648281 -117163438 -117066770 -117052796 -116984810 -116864626 -116755126 -116647643 -116537876 -116416707 -116248767 -116236855 -115879921 -115850578 -115440920 -115424935 -115225787 -115114317 -115038789 -114728762 -114722541 -114680097 -114624055 -114573509 -114523427 -114191540 -113820263 -113729744 -113493509 -113456656 -113447278 -112934225 -112856181 -112797964 -112658909 -112611662 -112607326 -112587370 -112536686 -112477240 -112448583 -112386045 -112358049 -112270857 -111865719 -111804422 -111763016 -111718363 -111464119 -111351155 -111331872 -111275359 -111067683 -111051445 -111032001 -110824364 -110814890 -110789532 -110753225 -110660949 -110465197 -110293942 -110250242 -110195152 -110079868 -109814742 -109791313 -109596715 -109589732 -109532781 -109530367 -109163692 -109079882 -108954594 -108708350 -108572043 -108500720 -108435628 -108343554 -108219833 -108010656 -107792754 -107768918 -107692862 -107587923 -107495211 -107274772 -107266960 -107241538 -107241237 -106966223 -106829566 -106765805 -106738609 -106609803 -106577962 -106437438 -106346996 -106324719 -106274760 -106270332 -106173389 -106075518 -106020233 -105943778 -105834297 -105715102 -105697276 -105669077 -105605841 -105517277 -105507140 -105334283 -105294777 -105217537 -105156735 -105155881 -105113883 -105071295 -104883536 -104661160 -104594156 -104460809 -104384043 -104284662 -104230462 -104210677 -103915531 -103839189 -103818371 -103659090 -103635654 -103512392 -103509467 -103436330 -103412443 -102900340 -102751506 -102733485 -102709731 -102511311 -102188719 -102177872 -102157811 -101959945 -101811374 -101716058 -101621750 -101535005 -101376425 -101372246 -101255450 -100869270 -100827173 -100647448 -100621176 -100584382 -100499274 -100395089 -100356248 -100038606 -99867423 -99849118 -99758843 -99617785 -99521293 -99149856 -99075156 -98826916 -98763520 -98662505 -98642321 -98608499 -98483486 -98432537 -98371645 -98366582 -98179425 -98082675 -98073754 -97958095 -97916894 -97874814 -97707973 -97617883 -97458256 -97451887 -97349483 -97141553 -97103753 -96956073 -96830867 -96752636 -96712866 -96672065 -96567169 -96523530 -96462106 -96451521 -96436154 -96406265 -96316316 -96271531 -96221889 -96158446 -95986464 -95909285 -95798482 -95796001 -95632466 -95184122 -95145067 -95126654 -95068045 -94914009 -94812889 -94683067 -94652548 -94572557 -94219393 -94191953 -94176794 -94171959 -94106768 -94062702 -94040006 -94031327 -93968373 -93967814 -93944066 -93819961 -93785052 -93535429 -93478108 -93412559 -93309059 -93201664 -93149241 -93060436 -93053679 -92797259 -92727326 -92654019 -92619457 -92516931 -92381609 -92269693 -92158262 -92041191 -92021452 -92012743 -91735964 -91684520 -91627381 -91569336 -91505930 -91426595 -91381451 -91351579 -91348746 -91249832 -91159911 -91103584 -90908421 -90792748 -90753881 -90739344 -90589014 -90281740 -90089303 -90079500 -90027951 -89983280 -89978007 -89964595 -89947754 -89902305 -89822646 -89815133 -89479083 -89470781 -89431441 -89169113 -88988780 -88925769 -88709774 -88648034 -88440489 -88389676 -88296135 -88283429 -88215954 -88077441 -87984449 -87867068 -87794974 -87729116 -87695538 -87605246 -87584020 -87540081 -87503635 -87501391 -87462824 -87377553 -87234210 -87055007 -87009715 -86922323 -86920575 -86914462 -86905959 -86593621 -86495584 -86468412 -86453260 -86365166 -86342766 -86222883 -86026569 -86010556 -85976315 -85976053 -85962573 -85801993 -85664319 -85537574 -85346680 -85147484 -85147290 -84869706 -84598120 -84575123 -84454388 -84247569 -84195807 -84091922 -84035971 -84011077 -84008884 -83905297 -83769243 -83755431 -83416326 -83229731 -83135873 -83111298 -83087201 -83058963 -83011087 -82967625 -82953959 -82915978 -82828764 -82791563 -82781490 -82611963 -82396975 -82359377 -82239179 -81908142 -81845670 -81499518 -81485459 -81140091 -81019218 -80887977 -80885281 -80689535 -80554640 -80520369 -80511425 -80451968 -80300941 -80287948 -80267129 -80245549 -80125470 -79912687 -79911914 -79865116 -79615255 -79562693 -79561971 -79545577 -79504781 -79277612 -79254335 -79245218 -78923007 -78787489 -78745443 -78463802 -78393594 -78330555 -78285074 -78068565 -77995184 -77920507 -77892147 -77847681 -77675311 -77409663 -77101625 -76876519 -76825560 -76803139 -76574534 -76496717 -76297250 -76285480 -76168546 -76080875 -75747373 -75698933 -75644673 -75588934 -75131762 -75083971 -75036689 -74992414 -74960703 -74626729 -74569482 -74515814 -74475550 -74395348 -74327239 -74134611 -74016848 -74005271 -73940960 -73761175 -73715369 -73532632 -73276202 -73232839 -73157536 -73131038 -73084883 -72896715 -72843721 -72753498 -72679989 -72645259 -72145360 -71990891 -71905112 -71816183 -71646554 -71432369 -71413061 -71063247 -71053050 -71038811 -71037097 -70920950 -70857537 -70413064 -70406275 -70403098 -70371130 -70357476 -70308960 -70198962 -70050088 -69907919 -69505500 -69447211 -69416363 -69377829 -69291580 -69116931 -68836546 -68794404 -68769853 -68666825 -68485384 -68267751 -68146381 -68093992 -68089064 -68076547 -68028290 -67932135 -67862547 -67769443 -67627044 -67625170 -67573327 -67500228 -67469304 -67359967 -67292176 -67279113 -67276050 -67250676 -67233573 -66823588 -66580525 -66501103 -66440162 -66226619 -66036052 -65669015 -65583510 -65556423 -65545445 -65516373 -65455960 -65384722 -65241105 -64938893 -64533594 -64495725 -64456222 -64368256 -64259717 -64147594 -64069154 -64035607 -64020889 -63878684 -63833775 -63782763 -63742961 -63740371 -63549642 -63396308 -63297344 -63270477 -63201545 -63076991 -63003634 -62989934 -62956801 -62925232 -62901266 -62831589 -62803362 -62766112 -62723805 -62611777 -62611694 -62513392 -62402922 -62381207 -62228024 -62195057 -62167154 -62154271 -62123913 -61945727 -61909892 -61897396 -61850650 -61737741 -61727705 -61678929 -61580784 -61567742 -61512844 -61352152 -61321370 -61260390 -61052873 -60912344 -60794685 -60754326 -60678119 -60551509 -60399013 -60296639 -60198623 -59940219 -59677618 -59571763 -59411760 -59299233 -59298658 -59247659 -59211831 -58901438 -58716421 -58490021 -58413441 -58380594 -58292061 -58054207 -58013878 -58001826 -57974857 -57806158 -57756191 -57660951 -57627575 -57452565 -57443595 -57319958 -57229607 -57203922 -57123696 -57077926 -56778863 -56749859 -56658529 -56452411 -56285688 -56272394 -56208014 -56201588 -56183805 -56145370 -56033451 -55993801 -55970723 -55912924 -55868298 -55821467 -55784977 -55675836 -55675281 -55590396 -55535324 -55214935 -54895816 -54681097 -54651515 -54511418 -54457105 -54283686 -54031868 -53930077 -53798020 -53608667 -53591851 -53238475 -52993838 -52923693 -52894882 -52779044 -52653778 -52331155 -52311382 -52252765 -52173008 -52163856 -52018748 -51985964 -51883460 -51872218 -51787919 -51740819 -51687662 -51368604 -51367094 -51361846 -51248752 -51223737 -51115388 -50729852 -50674673 -50639435 -50507968 -50432008 -50348506 -50267101 -50117892 -50099537 -49947289 -49931602 -49890391 -49875632 -49259450 -49033685 -48716160 -48606927 -48518077 -48471366 -48468101 -48409708 -48271127 -48257838 -48107696 -48091042 -48080889 -48013158 -47826386 -47801275 -47773287 -47744187 -47654745 -47488702 -47427370 -47417386 -47224066 -47094363 -46324431 -46314251 -46310803 -46208997 -46037528 -45922541 -45909437 -45894926 -45854665 -45623042 -45603086 -45534891 -45354019 -45330657 -45306107 -45264257 -45262550 -45217653 -45088822 -44909805 -44785246 -44780493 -44606581 -44556490 -44555388 -44496926 -44474312 -44161628 -44128335 -44054622 -44009521 -43862711 -43855867 -43855315 -43786772 -43767410 -43692797 -43642350 -43597265 -43279139 -43208821 -43194745 -43168479 -43162480 -43119380 -43049692 -42911249 -42908700 -42892235 -42860339 -42855175 -42783388 -42709443 -42673533 -42457014 -42232047 -42121682 -42005104 -41894395 -41805240 -41663105 -41635499 -41633627 -41621496 -41513757 -41421269 -41377721 -41336190 -41267721 -41263978 -41196017 -41141516 -41006234 -40941186 -40839327 -40788711 -40355662 -40276533 -40099421 -40049805 -39898118 -39718162 -39712787 -39685374 -39661469 -39637159 -39213089 -39191044 -39084659 -38929237 -38866902 -38778692 -38742771 -38560084 -38040600 -37930754 -37853338 -37626025 -37565299 -37428774 -37026120 -36949232 -36870059 -36595952 -36560948 -36146162 -36128014 -35858591 -35654793 -35457099 -35328744 -35210840 -35090858 -34766052 -34726453 -34633585 -34457752 -34450690 -34361795 -34058390 -33824186 -33818726 -33726238 -33610603 -33547877 -33013118 -32957619 -32913655 -32487094 -32413645 -32338518 -32173540 -31770739 -31656875 -30876880 -30749082 -30712301 -30708501 -30632700 -30608565 -30362992 -30343187 -30329754 -30282509 -30276497 -30164605 -30151674 -30151408 -30126120 -30121471 -29975414 -29601281 -29548550 -29386704 -29338265 -29245743 -29102670 -28820554 -28549238 -28531328 -28331748 -28304844 -28193781 -28105747 -27796660 -27728444 -27626050 -27524188 -27418247 -27341924 -27312160 -27300727 -27225561 -27028583 -26948642 -26948119 -26904256 -26899991 -26830731 -26355121 -26272344 -26166640 -26129209 -26008976 -25886698 -25885780 -25816165 -25773196 -25452166 -25347500 -25329872 -25213490 -25030002 -24912358 -24839743 -24755347 -24710915 -24635267 -24319432 -24304974 -24211207 -24166508 -24093412 -23966492 -23952979 -23785600 -23565632 -23541703 -23230776 -22624075 -22573862 -22472605 -22293922 -22279295 -22209026 -22143704 -22058882 -22043322 -21959214 -21838280 -21807505 -21766337 -21724563 -21715889 -21633407 -21544623 -21456656 -21416130 -21259123 -21011407 -20991836 -20795429 -20750123 -20584788 -20201474 -20175876 -20168990 -19986370 -19670179 -19625887 -19582754 -19520654 -19484915 -19421143 -19145763 -19121803 -19060666 -18874662 -18589271 -18579286 -18574199 -18488833 -18286082 -18184694 -17960750 -17833538 -17764665 -17411962 -17353673 -17193511 -17165487 -16928609 -16814592 -16762877 -16240957 -16226683 -16069332 -16043832 -16034679 -15649970 -15399598 -15205377 -15160436 -14992578 -14889789 -14851926 -14756764 -14660217 -14580084 -14500972 -14359627 -14355983 -14345431 -14303064 -14276348 -14214432 -14103328 -14096990 -14066874 -13876532 -13785420 -13762929 -13626566 -13506657 -13471489 -13448433 -13415522 -13382934 -13275485 -13059843 -12902387 -12824892 -12755635 -12456634 -12027999 -11978318 -11935736 -11922071 -11893209 -11851158 -11850927 -11716173 -11623529 -11267182 -11190989 -11181263 -11145315 -11065124 -10755485 -10591666 -10581244 -10573339 -10523487 -10363319 -9952808 -9914359 -9845496 -9834544 -9459956 -9368559 -9367701 -9352124 -9344974 -9295280 -9226128 -9115834 -8986692 -8798207 -8735074 -8693727 -8648836 -8504313 -8366115 -8294007 -8072552 -8070180 -8036285 -8002973 -7978402 -7924389 -7893416 -7816018 -7745427 -7626244 -7597652 -7596636 -7489448 -7309751 -7303603 -7175305 -7174298 -7077123 -6916489 -6859098 -6800707 -6736223 -6728994 -6724258 -6683505 -6603929 -6535922 -6467270 -6185176 -6133864 -5952868 -5881183 -5823100 -5704851 -5609411 -5545062 -5382800 -5361200 -5236276 -5024344 -5009053 -4969422 -4865380 -4452062 -4451540 -4431996 -4411504 -4409896 -4111840 -4071117 -3896000 -3597741 -3485818 -3308243 -3307798 -3238431 -2927307 -2923959 -2822468 -2731154 -2655810 -2482428 -2296032 -2188850 -1898815 -1897922 -1852691 -1583006 -1531700 -1516648 -1490538 -1444617 -1426910 -1277628 -1211891 -1159847 -1056390 -927303 -780965 -761603 -666994 -511244 -167259 145579 168387 286845 313732 561267 986790 1092130 1122809 1232401 1269781 1343026 1352161 1395604 1519258 1542783 1580771 1650964 1998681 2083774 2228134 2317278 2718593 2941597 3062180 3131112 3177204 3178643 3281140 3558536 3694681 3756520 3810841 4077940 4102922 4531668 4704904 4846184 4895678 4923131 4951141 5087790 5173599 5204728 5340823 5611279 5903605 5971941 6213836 6248359 6475829 6509763 6519363 6647408 6664529 6880124 6917466 7212154 7371107 7409207 7458682 7517865 7708715 7719093 7830954 7888839 8021778 8309482 8433256 8437607 8660549 8807066 8880818 8891540 8982663 9022905 9181164 9364775 9422121 9447138 9512529 9517291 9556224 9734453 9902071 9950772 10437921 10598207 10849471 10872657 10916275 10939600 11122751 11174562 11340921 11395863 11485319 11520268 11712864 11784034 12144886 12184893 12339517 12472630 12473171 12679045 12692950 12961377 12989750 12989930 13364407 13402922 13519149 13885111 13955278 13967192 14152255 14164038 14194110 14195323 14318510 14609822 14614891 14667935 14745631 14902197 14912201 14925911 15087806 15278945 15397503 15398905 15459022 15495588 15748126 15773837 15941140 16080068 16111281 16188567 16289275 16295645 16345127 16478503 16479621 16625310 16718002 16838053 16946099 17020895 17135008 17192174 17269519 17277809 17491895 17643799 17677364 17712212 17884846 18146581 18172190 18401879 18630687 18645973 18651091 19012750 19200910 19388740 19553102 19620727 19692701 19765375 19773858 19807019 19867614 20070430 20135273 20200530 20270553 20342276 20413159 20639568 20673857 20773118 20785145 20800529 20861337 21005978 21081629 21378712 21531698 21699110 21702978 21747353 21891681 21932624 22084460 22493499 22635551 22666754 22753977 22860330 22977405 23018476 23113078 23142852 23192296 23515992 23582459 23828192 23882528 23964019 24072866 24264404 24279182 24546442 24549922 24748700 24786386 24923090 25096973 25227007 25667777 25678025 25688908 25885291 25933541 26003070 26631854 26637432 27350358 27364575 27428000 27432542 27529356 27665276 27722981 27992472 28010179 28056774 28113433 28126007 28293250 28316099 28354531 28413468 28449698 28672569 28821870 28833185 28930905 28968784 29001028 29018786 29446965 29562775 29658036 29714415 29805936 29811573 29812838 29818490 29855846 29916361 29992057 30023171 30081577 30194142 30304160 30321528 30583747 30960401 31079551 31172188 31199397 31251392 31348475 31351184 31564651 31621259 31630077 31823722 31909712 32022045 32040727 32400696 32427961 32430402 32596511 32702819 32919108 33070533 33140366 33300159 33485006 33677043 33698186 33774808 33863725 34187921 34221415 34410699 34438328 34650258 34669935 34672868 34688005 34917596 34930931 35010384 35056906 35148314 35179550 35255269 35329145 35403361 35709076 35725833 35838326 36047645 36308859 36325094 36385206 36436487 36473787 36476243 36550698 37205598 37289711 37429316 37602010 37802249 37820384 37855976 37895539 37944385 38001765 38048409 38076433 38097273 38102103 38224097 38319276 38611981 38636229 38705989 38720862 38791886 38929197 39024376 39170195 39249805 39457033 39464172 39476736 39479837 39589126 39768728 39826081 40004780 40051851 40248160 40330739 40389796 40425990 40570720 40619688 40806565 41020251 41047922 41048428 41117326 41157384 41297218 41991712 42135172 42147152 42281653 42342286 42394995 42452214 42692250 42758592 43006634 43401534 43441403 43444999 43565131 43667004 43754319 43846098 43870197 43896881 43934280 44036858 44110753 44326416 44505093 44531994 44539854 44663790 44724938 44938505 45166374 45187448 45249319 45434847 45549535 45553351 45789117 45866673 46015418 46084424 46284393 46434657 46659489 46684706 46698693 46890524 46956614 46971593 47133187 47519469 47524635 47638778 47658613 47745280 47779645 47818882 47940426 47985821 48057768 48061272 48493673 48701652 48796589 48964625 48966099 49054709 49061377 49092644 49172280 49193190 49301131 49479754 49511480 49538244 49876491 49910317 50049507 50066655 50083951 50233304 50450829 50457175 50909376 51004119 51024844 51107253 51424762 51463300 51611628 51649948 51690599 51773885 52028480 52077994 52158856 52208627 52210020 52644810 52786140 52833701 52868037 53152020 53200719 53416150 53565425 53625660 53763250 53827532 53977278 54115686 54127940 54264508 54326875 54331132 54459511 54533512 54648417 54763081 54860551 54931211 55012599 55034081 55196848 55224881 55328433 55387641 55399957 55664941 55761023 55944626 56092431 56187202 56230106 56578875 56630172 56654768 56808263 56823821 56854185 56917210 57031537 57071569 57094424 57132784 57153804 57217989 57314006 57328391 57424063 57437834 57462318 57533010 57808854 57833189 57840645 57974398 58047810 58055858 58094746 58106878 58326785 58544415 58585007 58589703 58691130 58762011 58930745 59002500 59011221 59335377 59375577 59526109 59621438 60081196 60163375 60176739 60201769 60425173 60465382 60667197 60759967 60853999 60903874 60975273 60993424 61018804 61020188 61268189 61449895 61489901 62210108 62306951 62339301 62357240 62390820 62658644 62989454 63019301 63049588 63088555 63129935 63175870 63310555 63553551 63836535 64020850 64027778 64111313 64141018 64277739 64311412 64344468 64354797 64400362 64616081 64640538 65065072 65098677 65202722 65471232 65690994 65740051 65843418 65879706 65896198 65952220 65952774 66042840 66108769 66115606 66203727 66311047 66322723 66382415 66716852 66798969 66879907 66921116 67052464 67079418 67181013 67281349 67569887 67681802 67858916 68158541 68275780 68282635 68341742 68344627 68433737 68599564 68648084 68670786 68737583 68946838 68966522 69000221 69083431 69144298 69183543 69228876 69311131 69325039 69553210 69619169 70055483 70055677 70152717 70569451 70737590 70965468 71051128 71054327 71208760 71417885 71431031 71472636 71974712 72120569 72307889 72318642 72319946 72379715 72443469 72653223 72661307 72664983 72759778 72798309 72992761 73075028 73469763 73491867 73529497 73580785 73654316 73772522 73865646 74045114 74093308 74220731 74310208 74345477 74527201 74705667 74777975 74813827 74887850 74894449 74898021 75001069 75198580 75416969 75417047 75458714 75459615 75545882 75771424 75842922 75993339 76020292 76052806 76094620 76211280 76263032 76339850 76504849 76552793 76632825 76636299 77003563 77054610 77160262 77237536 77477444 77660715 77710680 77768738 78014987 78077663 78109410 78167192 78189423 78334249 78423771 78501230 78612909 78614719 78931824 78936830 79008690 79165806 79625403 79728859 79887860 79951836 80067048 80099788 80412482 80479913 80514886 80812304 81004117 81034233 81149575 81323973 81352178 81411497 81548176 81604346 81605325 81634057 81687608 81692238 81711468 81766540 81825466 82202442 82609372 82620500 82742884 82909399 82923443 82926927 83204638 83505070 83703341 83793630 84049585 84072391 84272080 84300463 84343254 84359894 84374097 84376033 84507825 84763319 84796623 84818088 84861544 84873729 84909677 84951641 85066793 85100812 85210384 85243078 85261265 85357165 85467873 85502449 85543807 85884800 85973649 86003353 86127162 86207015 86306543 86691216 86785159 87258574 87291649 87467922 87541407 87681648 88048354 88086782 88295377 88310692 88515805 88542842 88582150 88588280 88647876 88721122 88832711 89010224 89274002 89308462 89403713 89404887 89608369 89630553 89649766 90081025 90356304 90424001 90499336 90543009 90552150 90598544 90644858 90655684 90704830 90785952 90790796 90792589 91093020 91283170 91284739 91343295 91452809 91489457 91537574 91669200 91814264 91836925 91991438 92032610 92720595 92803906 92905607 92992193 92995313 93006847 93044437 93111234 93268411 93478794 93621853 93672958 93904809 94007524 94150923 94345454 94406415 94417726 94883404 94949893 94962678 94972268 95258680 95347985 95372176 95427155 95447424 95480637 95674920 96157091 96241595 96309104 96350753 96351826 96583088 96707680 97249708 97364372 97369683 97723616 97728519 97769137 97923281 98101042 98182473 98451430 98522742 98527396 98593418 98680702 98747866 98818876 98850159 98913232 98947071 98983022 99020502 99087015 99521412 99624424 99687141 99725940 99780875 99861589 100111973 100366302 100387919 100802086 100974133 101127625 101259747 101326710 101396077 101445046 101634644 101673765 101925888 101989667 102044405 102058506 102076461 102097755 102100450 102660382 102730307 102873096 103004642 103267281 103430611 103471223 103536774 103593772 103628291 103649209 103855774 104050990 104104584 104120114 104157858 104233141 104375216 104438332 104455553 104539280 104592817 104664320 104775539 104849585 104887938 104919631 104950412 105020613 105049335 105090771 105222713 105270393 105433319 105447716 105460405 105463319 105596280 105606735 105681047 105752898 105759214 105796321 106143783 106156273 106208428 106396811 106473472 106501846 106521648 106635214 106664997 106825678 106946370 107014683 107072987 107114557 107128997 107388691 107414814 107442890 107501054 107501425 107582664 107949515 108154260 108178631 108235254 108258882 108334226 108356645 108677713 108694311 108721381 108819017 108928149 109116940 109132663 109314736 109356006 109369763 109378426 109448811 109469229 109519140 109613569 109778799 109964638 110053952 110075145 110284706 110291785 110319247 110324873 110333698 110416029 110586999 110658926 111084773 111183049 111221647 111305749 111334057 111425755 111471772 111556240 111602862 111608296 111743899 112212332 112352118 112370574 112455677 112462018 112719258 113004281 113169004 113299043 113354116 113378281 113767196 113825569 113980710 114032131 114051963 114184565 114217852 114290824 114625055 114630961 114659598 114671854 114747000 114751967 115137083 115149797 115346892 115397036 115464270 115528431 115777137 115932616 115987528 116043364 116114507 116135378 116162850 116186964 116229147 116296278 116357013 116429010 116497742 116652381 116657386 116733953 116928894 116943153 116985800 117263378 117312519 117390284 117649016 117761137 117774936 117797517 117876548 117999616 118072038 118320239 118523409 118541773 118719352 118741146 118779735 118922989 119022969 119083584 119112703 119453710 119468915 119542060 119661443 119717587 119916483 119930068 120239318 120251501 120263101 120287592 120540458 120548490 120898122 120907307 120916294 120984117 121052934 121138792 121177331 121194951 121299499 121352049 121471890 121734632 121930924 122090765 122181903 122210884 122248709 122329217 122413013 122483595 122512307 122528068 123119542 123742225 123744862 123891749 124104159 124321325 124372236 124435870 124609543 124619884 124776920 124901030 125156527 125157456 125160467 125379850 125414618 125695751 125950595 126026036 126039072 126098572 126194315 126316737 126324797 126465156 126480717 126499373 126660818 126721616 126745091 126916563 126944219 127088054 127163996 127194647 127215275 127300312 127389536 127484674 127558626 127628681 127740214 127781698 128016180 128080680 128137187 128256311 128319778 128428508 128527182 128532000 128779282 128819763 128830402 129188059 129351326 129356284 129463901 129520996 129608348 129618960 129668615 129674387 129674958 129803328 129877199 130029083 130047545 130064262 130150988 130176662 130342635 130405447 130650068 130793029 130822439 130847823 130860519 130875567 130970668 131132602 131284931 131339924 131550085 131709319 131781832 131958833 132080585 132111309 132156045 132188261 132219735 132232257 132454151 132524347 132549014 132661145 132973032 132993374 133017349 133501264 133618664 133799099 133811505 133823803 134154260 134226713 134227519 134385830 134516786 134578668 134645148 134712903 134717145 134836003 134863425 134912451 134964731 135022371 135041699 135065451 135157173 135186020 135390782 135516256 135714907 135991231 136009145 136038146 136198622 136375658 136453626 136547609 136792689 136793646 136800077 136900544 136956283 137297856 137515613 137620479 137770311 137923090 138004156 138403636 138421780 138503094 138510743 138517901 138637272 138649362 138740780 138800485 138852794 138954731 138982778 139169115 139239085 139314814 139330987 139351436 139400896 139486132 139708228 139795094 140004101 140116791 140172536 140216052 140249859 140428048 140594662 140700873 140782696 140789223 140901855 141130131 141140217 141243314 141338583 141371507 141670462 141749313 141796347 141814208 141961000 142018041 142192206 142262707 142271926 142734047 143037274 143051734 143112017 143173026 143310284 143405585 143446515 143542420 143584345 143964323 144111031 144395982 144430550 144601727 144609233 144613890 144616356 144640594 145051100 145148807 145162169 145237149 145270541 145378370 145402104 145514192 145750261 145774983 145891539 145917294 145985671 146020251 146083306 146099377 146116812 146260590 146319283 146324943 147054026 147123346 147165310 147363133 147528193 147577911 147756685 147924187 147964791 148111561 148138725 148168626 148280800 148355598 148703445 148760581 148870767 148913240 149056819 149087951 149101948 149145305 149154457 149155258 149190848 149281023 149350978 149427900 149636220 149810108 149996061 150240028 150353054 150413714 150449857 150452370 150454408 150504622 150518269 150670085 150701701 150842720 150891207 150924565 151016346 151021239 151175670 151236258 151806100 151846300 151877932 152254792 152388692 152462333 152556925 152971240 153030840 153037671 153043230 153079850 153200962 153244658 153417262 153517541 153629710 153798448 153800675 153828606 154042899 154417042 154563087 154563240 154603867 154735658 155139690 155178732 155498078 155762026 155762634 155845959 156022986 156044401 156060539 156179042 156226464 156339772 156463429 156614274 156655222 156785936 157176576 157210375 157542677 157618844 158110707 158187721 158264601 158593212 158619522 158769255 159033210 159034706 159101542 159259061 159276600 159349503 159660011 159767617 160193835 160204746 160519833 160533447 160646146 160676116 160786164 160793750 160920363 160945939 161012778 161091976 161133965 161218334 161342163 161453470 161724519 161739543 161795089 161913896 161956860 161959199 162227481 162349930 162456214 162694320 162724865 163265533 163296694 163470867 163566137 163608862 163726989 163732440 163745158 163771558 163819903 163919949 163961410 164029134 164233406 164235568 164378685 164430895 164491974 164619971 164694210 164905222 164915766 165096482 165280448 165488058 165518189 165538451 165656250 165677995 165792957 165901569 166048044 166102657 166374719 166433962 166443988 166561481 166571169 166653853 166664967 166803005 167097839 167206007 167244715 167258635 167318837 167481231 167571103 167749319 168134357 168150697 168301369 168323123 168466295 168557595 168585517 168667895 168711473 168728582 168912608 168927664 169133895 169371830 169526643 169661192 169896873 170116420 170368816 170693442 170773039 170823256 170847452 170877720 170884164 170972831 171102844 171158774 171281518 171310477 171570810 171641189 171697272 171820427 171872193 172171152 172178222 172298305 172339213 172408868 172513088 172529201 172768935 172965497 173031843 173373552 173387651 173544871 174340295 174348428 174386515 174624123 174657623 174768526 174828768 174843330 174896541 174915413 174967285 174977662 175057864 175157106 175229861 175439665 175548552 175556653 175607460 175636635 175677872 175684151 175734586 175752877 175783662 175839380 175845523 175861641 175889125 175959301 175974248 175982166 176055689 176297457 176552985 176627626 176671295 176872853 177031880 177078331 177297866 177322960 177369587 177451694 177487924 177507375 177510618 177605921 177715214 177834582 177928992 178395539 178422995 178514950 178602154 178620351 178826439 178931278 179252412 179282633 179293308 179445849 179719700 179815069 179931009 179944015 180094237 180204059 180206652 180565672 180691880 180725465 181012930 181055506 181107127 181343281 181364716 181650997 181683433 181714803 182321826 182453546 182508273 182570994 182654644 182758993 182805561 182821742 182825586 182903791 182931108 183027040 183082221 183175594 183325200 183760590 183830286 183833872 183834943 183849588 183993374 184182559 184279481 184376609 184382197 184390219 184528588 184587465 184761111 184921345 184983481 184986110 185223319 185236717 185259937 185300297 185502429 185606206 185625794 185738734 185829451 185977954 186040312 186066962 186164575 186280154 186486653 186569415 186583196 186698292 186758540 186798565 186841901 186869837 186909264 186914946 187038262 187040400 187191113 187298974 187505840 187725781 187782234 187826014 187929963 187942774 188253285 188431820 188468510 188501514 188517182 188623626 188686955 188818811 189068396 189140627 189228392 189312112 189350072 189764928 190069649 190121288 190152001 190152409 190210386 190650900 190677524 190834305 190843255 190910771 191127769 191375292 191398657 191469235 191485537 191863623 192126327 192179723 192204142 192286749 192347721 192391199 192456841 192604873 192615134 192726618 192772646 192892098 192916801 193053085 193227120 193471944 193521476 193647139 193679186 193698139 193726126 193784598 193788596 193905192 194197841 194378401 194496329 194623963 194865068 195073870 195100728 195169520 195176276 195228962 195263996 195266736 195292786 195339085 195399328 195438509 195602928 195665336 195694628 195745520 195762166 196008377 196071576 196121827 196250275 196373813 196401996 196438286 196586595 196602086 196667184 196845236 196941915 197050677 197087898 197199858 197308918 197417897 197716371 197758638 197843619 197865001 197955675 197958685 198081175 198131004 198682803 198720228 198733742 198852987 198870863 199467116 199482163 199534965 199642857 199773825 199856184 200102936 200342688 200659633 200733939 200798749 200893914 200899277 200965609 201062701 201093497 201283093 201587648 201587820 201612294 201636627 201889833 201892802 201893268 201978106 202100218 202140501 202150525 202188552 202241925 202289232 202402315 202416601 202447098 202843126 203086676 203094900 203270893 203308396 203421731 203488049 203633487 203740606 203866934 203921515 204082058 204108274 204130020 204228482 204297649 204300661 204307051 204344253 204366941 204485734 204751476 205024420 205054345 205436548 205573241 205615482 205813420 205832634 206210191 206220505 206304945 206492600 206542822 206588032 206592891 206598158 206650248 206725129 206738041 206820414 206904527 207452808 207543762 207624346 207681334 207934696 208013768 208070918 208102335 208163721 208374149 208391868 208414044 208530407 208638877 208998230 209180304 209270225 209301159 209705706 209715362 209757327 209775135 209786947 209868910 210026339 210222559 210351140 210466467 210487410 210530292 210568907 210660786 210723034 210731630 210795633 210986639 211191473 211373320 211444649 211785727 211794827 211852973 211893145 211959782 211977040 212049347 212076162 212341587 212472525 212624264 212678609 212683411 212703961 212780090 212849676 213246883 213372341 213492380 213580153 213716431 213957637 214052011 214144523 214158763 214169450 214419798 214437292 214584701 214780688 214791771 214824497 214825233 214826002 214929416 215516152 215814686 215934526 216014098 216455736 216503273 216512825 216628594 216655545 216731113 216941242 217136735 217327882 217333170 217428344 217446300 217474425 217518090 217823480 218034435 218331372 218343840 218441161 218505323 218609525 218730442 218779502 218996130 219204321 219247763 219476199 219531302 219676666 219787136 219816434 219852750 219904888 220024713 220104883 220213113 220447991 220493621 220724691 220738525 220912764 221036988 221063334 221101801 221143132 221282238 221350869 221380629 221527586 221563142 221833645 221843508 221856882 221985986 222001764 222101883 222208892 222218010 222345849 222407132 222463055 222669180 222706710 222764892 222958414 222975301 223315214 223442257 223446019 223483151 223527884 223538752 223582823 223665522 223957640 223997789 224111237 224137295 224191387 224253852 224269082 224404549 224410233 224540353 224620786 224628420 224637313 224639434 224698700 224711341 224730320 224912738 225062712 225064644 225149430 225166237 225222527 225243017 225311702 225322222 225340772 225450446 225587271 225641593 225660111 225775038 225784729 225800356 225957868 226247745 226268794 226338182 226361625 226371339 226391476 226655624 227029260 227084472 227169518 227418143 227470213 227502589 227503384 227507364 227509340 227713458 227809235 227821182 227865719 228008908 228084799 228223287 228245886 228346657 228469588 228585523 228678410 228806434 228919548 228949065 229012558 229118572 229134553 229380854 229570837 229635499 229808124 229984297 230064684 230196888 230208615 230209973 230234211 230246395 230347775 230419595 230641602 230680148 230702618 230726001 230755401 230821406 230845388 230873867 231048418 231077904 231087811 231224721 231296158 231409921 231477106 231527626 231569634 231607982 231629079 231855460 232177144 232190903 232207514 232271535 232339980 232639328 232815738 232824549 233049944 233122203 233166051 233255086 233263697 233364033 233375326 233602960 233665736 233956118 234052227 234213407 234296587 234357696 234458211 234520521 234788799 235079613 235118292 235121315 235133923 235305874 235335462 235532240 235547949 235611394 235683372 235850839 235875937 235898223 235988363 236686215 237129746 237160061 237179493 237292278 237317720 237352051 237361037 237730510 237795075 237811230 237814251 237835583 238015519 238099186 238223974 238268469 238560279 238981349 239081745 239173326 239220106 239269595 239274585 239319871 239341315 239484737 239554838 239867798 239974813 240025414 240228951 240472888 240533234 240588755 240601093 240650382 240986189 241085325 241126742 241133832 241318911 241476392 241499375 241740602 241874691 242029888 242207308 242483311 242516348 242526481 242603689 242700865 242721031 243065097 243156559 243224639 243225582 243403720 243671030 243687154 243706854 244056123 244475075 244522696 244663137 244771576 244845227 244869958 245056737 245060962 245362991 245436593 245478105 245513970 245549075 245675109 245851493 245859606 246012478 246224896 246272392 246329183 246457825 246676936 246764379 246811140 247132301 247348904 247397587 247509802 247875335 247953707 247955141 248125866 248248048 248409218 248566299 248672925 248728603 248756385 248845771 248940116 248976405 248991225 249167147 249188360 249246291 249271553 249279276 249375807 249377706 249430438 249959909 250070671 250260265 250370277 250505713 250614477 250721504 250725906 250828868 250920994 251106139 251160288 251425912 251453270 251462984 251519707 251536879 251617477 251680594 251728899 251886056 251972566 252072186 252081175 252179547 252222914 252231939 252511580 252514929 252555920 252589330 252712240 252757813 252836823 253142717 253154192 253339711 253378260 253829743 254015304 254199172 254278551 254290361 254372331 254387252 254481611 254521163 254575675 254608665 254707292 254707632 255347471 255861977 256283117 256378195 256382706 256402972 256435699 256614198 256630740 256655524 256791390 256839079 256932684 256947108 257037869 257043321 257061674 257080292 257120107 257250770 257783744 257802195 258020387 258314096 258331522 258454804 258732614 258766881 258804340 258886628 258906213 258982363 259298544 259446912 259600388 259765626 259841485 259880369 260128858 260139239 260259601 260314126 260327030 260359641 260645741 260705183 260866802 260988387 261031687 261074151 261212643 261231611 261485194 261585104 261592905 261622815 261651136 261654577 261820168 261876055 261948040 262021268 262132811 262426482 262762020 262848322 263027077 263092946 263115086 263301843 263331079 263417953 263457737 263470179 263837510 264038161 264059570 264076960 264137094 264216466 264473089 264473559 264508791 264509384 264519467 264656791 264774674 265090880 265180160 265437547 265632252 265837378 265921464 265940269 266039525 266112705 266121243 266198631 266403619 266508304 266531436 266571179 266621337 266705616 266866154 266985400 267052372 267157930 267184402 267281978 267441177 267506777 267542316 267676529 267762124 267796785 267866578 267866973 267894044 268063088 268096809 268304590 268335497 268466459 268542841 268561032 268643836 268742783 268880538 268939382 268974871 269075757 269241587 269593870 269716918 269835330 269978357 270043955 270125142 270163124 270252269 270408159 270799969 270986867 271098561 271148322 271173306 271178871 271804125 271822165 271989119 272018881 272420169 272440934 272451758 272502665 272557153 272670655 272851894 272868196 273096265 273257495 273291545 273419875 273432717 273490093 273560673 273608648 273656641 273701362 273720169 273857377 273907043 273960039 274176647 274223211 274319894 274468752 274532843 274610508 274697262 274828952 274939630 275222891 275303567 275326905 275540627 275584587 275591751 275754383 275866636 276096850 276261799 276361150 276381863 276421575 276427242 276441857 276456518 276655468 276737676 276841091 276938648 276956881 277118990 277175859 277278220 277467384 277524920 277526370 277531027 277826901 277978273 278003441 278008626 278043992 278062833 278205693 278210064 278241048 278260109 278288237 278333280 278368820 278712971 278949278 279036532 279260116 279306169 279343189 279493825 279693762 279839180 280079956 280097185 280181301 280388146 280691001 280698374 281079120 281092724 281155093 281184810 281195326 281252008 281406516 281429578 281615794 281679250 281681744 281807263 281922395 281922578 282009220 282073129 282148697 282179883 282276957 282298206 282346883 282458187 282506265 282509892 282527939 282626678 282627139 283094263 283106559 283167023 283240973 283279493 283489918 283648649 283738714 283846915 283947436 284001984 284032618 284135885 284185476 284275518 284437768 284791806 284975547 285221681 285321280 285355277 285474409 285569696 285640360 285698853 285904153 286119246 286533246 286764379 287242449 287327699 287370956 287433807 287505181 287651391 287656549 287903031 287905180 288034994 288084605 288157293 288244748 288367617 288376604 288541978 288638828 288734307 288778020 288791741 289126634 289553920 289644083 289746359 289758184 289769009 289933152 289960489 289971223 290429124 290481241 290570804 290774739 290822377 290859519 291029652 291110811 291127588 291173926 291301984 291509859 291513454 291517891 291535378 291565694 291930415 292074598 292167770 292392243 292405214 292444270 292481599 292486153 292486864 292490736 292696284 292816638 292869821 292935065 292972738 293331971 293356446 293389726 293392665 293536377 293647081 293662425 293697818 293843698 293852437 293932925 294015113 294228067 294284107 294413083 294488579 294668905 294748114 294768124 294948359 295172971 295204618 295261297 295266418 295304840 295351700 295435028 295656028 295891826 295922706 296015751 296086528 296218030 296511663 296536101 296638957 296653651 296823738 296827732 296878441 296969315 297063268 297185638 297368911 297494984 297536043 297580178 297678263 297713902 297820086 297862006 297944059 298014322 298063026 298145275 298177334 298464416 298621838 298627559 298665696 299030103 299267041 299277684 299513262 300019941 300044181 300087818 300205390 300244073 300295652 300309147 300379021 300413269 300449127 300512793 300536544 300598897 300695056 300746349 300760424 300963649 301144585 301157833 301276435 301277413 301316680 301457539 301497639 301556217 301567217 301637165 301774338 301784494 301811990 301995803 302177220 302214339 302274988 302293550 302427674 302478322 302572663 302747201 302831621 302838936 302877893 302991667 303092988 303171041 303264755 303270380 303314927 303409244 303621655 303877512 303910868 304040962 304132630 304178102 304391966 304418834 304734204 304837627 304858626 304978101 305040621 305136541 305370979 305473306 305659037 305743476 305876210 305973426 305982107 306006113 306120686 306259300 306379045 306439170 306575164 306676446 306823552 306853693 306977441 307184275 307284377 307376419 307469167 307737433 307770338 307795795 307924877 307932833 307978581 307981234 308067472 308106891 308163103 308170324 308201568 308322052 308532304 308585853 308687376 308720570 308875985 308926936 309012993 309149329 309228385 309251280 309486781 309499783 309643050 309758409 309787382 309873770 310013249 310120847 310413450 310471280 310597160 310777402 310804306 310855816 311284039 311363731 311435385 311470847 311609982 311700975 311769696 311841157 311916567 311969328 312009895 312012998 312088916 312097581 312520417 312548079 312605932 312612089 312629329 312652729 312749010 312791097 312825576 312835804 312895951 312904528 313047994 313452944 313491149 313517261 313727639 314075930 314126525 314247149 314363849 314432537 314484621 314570134 314652449 314751442 314772047 314807023 314807064 314963939 314966964 315004090 315023731 315052170 315058670 315081360 315096522 315221877 315465283 315676322 315889531 315993166 316039248 316096220 316139393 316323190 316327563 316332197 316336315 316349334 316402064 316566172 316584516 316641963 316697235 316765355 316873484 316925222 317046953 317133196 317273930 317405191 317611329 317633536 317779753 318112494 318281373 318397727 318564857 318573180 318641134 318671608 318698849 318762849 318980024 319053569 319199317 319290666 319352055 319783625 319811362 319851467 319902452 319983615 319993198 320065790 320262496 320367272 320379268 320599206 320753090 320880347 321009378 321115157 321122719 321243145 321260695 321465746 321498895 321697134 321698417 321856937 321906225 321966619 322066129 322156219 322546825 322598685 322647714 322702101 322773310 322854970 322923795 323046117 323265341 323278230 323363314 323420616 323440827 323552002 323631172 323641718 323651740 323704973 323860317 323931072 324065180 324098684 324130043 324223368 324296229 324474817 324558939 324606040 324617111 324700451 324788351 324978148 325079250 325247816 325297134 325331336 325414135 325510321 325546391 325560145 325562284 325642828 325715371 325724664 325783081 325930616 325957955 326030025 326039383 326052924 326335084 326424114 326463330 326517726 326753249 327276308 327373563 327437801 327463945 327510881 327631603 327679588 327986587 328130414 328285126 328291582 328307437 328402293 328439487 328463363 328583808 328623874 328662135 328712321 328764236 328771216 328791916 328919291 329179601 329192009 329372776 329377839 329889394 330006721 330007555 330141674 330171129 330210065 330219080 330259006 330593811 330597351 330650906 330669648 330695128 330823443 330891055 330925738 330957034 331027869 331045978 331072810 331280961 331463173 331597151 331660463 331752542 331836309 331920331 331979108 331987473 332025620 332154018 332259069 332358234 332539423 332681342 332774131 332861713 333054372 333072110 333094449 333422600 333529764 333546249 333552168 333749332 333845273 333920838 334007807 334182524 334795463 334846989 334936042 334984140 335185972 335245182 335282962 335303118 335462249 335467515 335472174 335511274 335828756 335869182 335934706 336034913 336104325 336255890 336331847 336497902 336549016 336558064 336580856 336746384 336883971 336968191 337087575 337122459 337162224 337204371 337222586 337226070 337319248 337360312 337442354 337461286 337521437 337685378 337782249 337787590 337987383 338145942 338257421 338648865 338680327 338946076 339233357 339259404 339723885 339735928 339938396 339992412 339996561 340086468 340199304 340247162 340264313 340354884 340418831 340481919 340496577 340530005 340589453 340637276 340646782 340653974 340735084 340741477 341066835 341137894 341195606 341772154 341775081 341898008 341995199 342078397 342078409 342202183 342216773 342339754 342415505 342446025 342462585 342524276 342552090 342633954 342679169 342896258 342979180 342985127 343042279 343042921 343135199 343175443 343182260 343192060 343294139 343615726 343687348 343727987 343919840 344054010 344076335 344110345 344207780 344671374 344702289 344883932 344937619 344938169 344972453 344985900 345339651 345373542 345472183 345477128 345579832 345633429 345684629 345768125 345887180 345903048 346028515 346103518 346164594 346194209 346239514 346323582 346341020 346611875 346662231 347157377 347187748 347257611 347308175 347595341 347605017 347714210 347801495 348090169 348121625 348192476 348346439 348538336 348581153 348658455 348762042 349243642 349351702 349407034 349571312 349790259 350028779 350103357 350254836 350662468 350696991 350917473 350968734 351222433 351440116 351452795 351590570 351722575 351819816 351839623 351865689 351945763 351974344 352380667 352469844 352475595 352528440 352582244 352678296 352756186 352951973 353046412 353189470 353295317 353425633 353425706 353448949 353499710 353502318 353559047 353669699 353698870 353762459 354006369 354126450 354192236 354472839 354509589 354617055 354636695 354651618 354681208 354699057 354892417 355155877 355172838 355518199 355570569 355774877 355935880 356102674 356200726 356203433 356216738 356453636 356564163 356615115 356642595 356646818 356742499 356795634 356845383 356927631 357090758 357239954 357252436 357392492 357394901 357480806 357596341 357601025 357799020 357866732 357971806 358021773 358175147 358263148 358314801 358356713 358527948 358946877 359454028 359475522 359544979 359564385 359774368 359808713 359896635 360006719 360085839 360091141 360286302 360381136 360544580 360606143 360757434 360869661 360954614 360994085 361159317 361224912 361277480 361321003 361389352 361934263 361966302 362139875 362245326 362330895 362472381 362513441 362537766 362588238 362630546 362636605 362697922 362777198 362931389 362994166 363072771 363122015 363165592 363348605 363422351 363511512 363629947 363658962 363669929 363737043 363807865 363861840 364402796 364406107 364475787 364479614 364503863 364586754 364683379 364685905 364983331 365230945 365322775 365385664 365439536 365457582 366136373 366226799 366244623 366260099 366334380 366374126 366447252 366526461 366716366 366739611 366795698 366851016 367009017 367660293 367701910 367881538 367905847 368028866 368372381 368394638 368430803 368446332 368574427 368737447 368941088 369091785 369291433 369548979 369673300 369697268 369956931 370123502 370141756 370157801 370550729 370570740 370613413 370664873 370718151 370991239 371063224 371556251 371561077 371621971 371678861 371897422 371988401 372005303 372007617 372053543 372084784 372138455 372269484 372274581 372374819 372382096 372384298 372408461 372526851 372541585 372900356 372921633 372975895 373098156 373104947 373132359 373339875 373340839 373347118 373447670 373498136 373725626 373852288 374076316 374112714 374290667 374513522 374595330 374647409 374815623 375179213 375225956 375273634 375282564 375293465 375375527 375646679 375666036 375880223 375920784 376161104 376277635 376550528 376618739 376621006 376652599 376660014 376685899 376739304 376793833 376807908 376872220 376956585 377030507 377072824 377098067 377203939 377312554 377433245 377462623 377520122 377546305 377745690 377928911 378018858 378105127 378248457 378486597 378500978 378569017 378603781 378822722 378844037 378932544 379105358 379322306 379336615 379357261 379870780 379907456 379981726 380040267 380060475 380125882 380204594 380294769 380339050 380361588 380441416 380540667 380909391 381098991 381529875 381564446 381840275 381916737 382000682 382429412 382518486 382559282 382712413 382840216 382845222 382916789 382957198 383150205 383241762 383272975 383325472 383421057 383486793 383570426 383589602 383613986 383643029 383688845 384026229 384090396 384486418 384488247 384641671 384738359 384830355 384920688 385058543 385267387 385290090 385326920 385597434 385615624 385621513 385700510 385903934 386019575 386162120 386192049 386454579 386699673 386769121 386960461 387056426 387233609 387334637 387384845 387482973 387595535 387612936 387629377 387803213 388143516 388258566 388339394 388642822 388747530 388767869 388849144 388939308 388982523 389277844 389279790 389314461 389376132 389422245 389516124 389565683 389623208 389674062 389752686 389766933 389867412 389955859 390129984 390229202 390243628 390257704 390284427 390285361 390300985 390695840 390803508 390816676 390872264 391187338 391331952 391361751 391423099 391524454 391530749 391800033 391809973 391847557 391916487 391928659 392149596 392282529 392386821 392520470 392597112 392625465 392640588 392945052 392959255 393027495 393234837 393551703 393584404 393635784 393653923 393654873 393722497 393726538 393775869 393842927 393939576 393942400 393946269 394225363 394391098 394408403 394487529 395024600 395071966 395193834 395238247 395351312 395436716 395582205 395693380 395749285 395765745 395804386 395855143 395859804 396026244 396308557 396326895 396336108 396552151 396613693 396629902 397059308 397074779 397112259 397123279 397223651 397903040 398190191 398399064 398403461 398761416 398809516 398814926 398825911 398964295 399036534 399107801 399237697 399421216 399427352 399470620 399567883 399638389 399659513 399689184 399724962 399868421 399927521 399988005 400075304 400078589 400198570 400327301 400331407 400416389 400479952 400697128 401304852 401375860 401413307 401416607 401437481 401439006 401657426 401715063 401805642 401911167 401933949 401946594 402334425 402409161 402553069 402669821 402768480 402800499 402871777 402893997 403097707 403269594 403489874 403569979 403641789 403815153 403827452 403962541 404026776 404101165 404192564 404212886 404229738 404278506 404289132 404308355 404326004 404364592 404388773 404391038 404472075 404473075 404486157 404602774 404725750 404790713 404823334 405129153 405237904 405398901 405408778 405436720 405466594 405520441 405649493 405662288 405798616 405904522 406023517 406024523 406045312 406157164 406206069 406316113 406373270 406569143 406616305 406706781 406830631 407026130 407072520 407263282 407279590 407304608 407348988 407440808 407561763 407585530 407741422 407744542 407887890 408142605 408180221 408229264 408316659 408512501 408659667 408675587 408681685 408710034 408915320 409053407 409072241 409176401 409211559 409240663 409260759 409324053 409399319 409413060 409518342 409518653 409563725 409834739 409949150 410024523 410135582 410145630 410243297 410441480 410476182 410510450 410556972 410564985 410620117 410650668 410656144 410676626 410796235 411018813 411095728 411186185 411278128 411285359 411301782 411526992 411621843 411633125 411795316 411844333 411862122 411874331 411878981 412042108 412118749 412174544 412341393 412358108 412446610 412559675 412796988 412878903 412901088 412948837 412962189 412981357 413217157 413295644 413559628 413646712 413676827 413688694 413792764 413841687 413995197 414168402 414426056 414456866 414614176 414627963 414687037 414815177 415044102 415063599 415120413 415298613 415319374 415356336 415357311 415578362 415779278 415935048 416047341 416126698 416152893 416228565 416301905 416386199 416653845 416893378 417104962 417228419 417241753 417441346 417469556 417594849 417610118 417770439 417995294 418052705 418093577 418172030 418327799 418365192 418514335 418539003 418961199 418972483 419094415 419153287 419239052 419260524 419453171 419490101 419496354 419616721 419617827 419668694 419677629 419872860 419966338 419996970 420031526 420084402 420264433 420327909 420376423 420449557 420500455 420580212 420696528 420816267 420859351 420951583 420957247 420963107 421047666 421196355 421268095 421434148 421718609 422123734 422320177 422345129 422352434 422471114 422567455 422655917 422773668 422798463 422806710 422985594 423207131 423215403 423223117 423247817 423272095 423306384 423330575 423441557 423580006 423632603 423879381 423887746 424128945 424711569 424880333 425068890 425231426 425291689 425425837 425445282 425488534 425593094 425643633 425706473 425783337 425872743 426000946 426103302 426311186 426489133 426519577 426571197 426607081 426806047 426825615 426827794 426934411 427030208 427079223 427278858 427342552 427403604 427462506 427531275 427566138 427668861 427845833 427906957 427913582 427940614 428081573 428093070 428707275 428712645 428727331 428958266 429011820 429077102 429271978 429299914 429502452 429514881 429530489 429564192 429584572 429829161 429909616 429944441 430066016 430140042 430151470 430315088 430382150 430568697 430598622 430630165 430728421 431068110 431072092 431084622 431141725 431212316 431314716 431371969 431419741 431539077 431657724 431914107 431987256 431994479 432064577 432494786 432654598 432752969 432805123 432903307 432940407 433014282 433143321 433167993 433214835 433270512 433313263 433450343 433471700 433592007 433691191 433933360 433958662 434024103 434032762 434046789 434055873 434128449 434200870 434380652 434436323 434498563 434507473 434568219 434580291 434959548 434997222 435004547 435130533 435346971 435405409 435655583 435842013 436064164 436071479 436107731 436126744 436385708 436396591 436487637 436597535 436652789 436740390 436747219 436777162 436837456 436986431 437040342 437116624 437172653 437233130 437396291 437585422 437592938 437661535 437763633 437807176 437855981 437868331 438048160 438145874 438192120 438472755 438518492 438535611 438565981 438667084 438799926 438904250 438904995 439060538 439197621 439282894 439499973 439517045 439587327 439841300 439860100 439891762 439936288 440344254 440360431 440950975 441205594 441247260 441265849 441491416 441574117 441764876 441822284 442123951 442615505 442661349 442718197 442815062 442860682 443066730 443163837 443181558 443238009 443306232 443343334 443358836 443367047 443510430 443726094 443854210 443971693 443993131 444063581 444066642 444114647 444186761 444234140 444273845 444434158 444505859 444518757 444679727 444830263 444869687 444920714 445002472 445062923 445075019 445097635 445120100 445226561 445232104 445260116 445456654 445571138 445588170 445856680 445866734 445900447 445983785 446582732 446591469 446657528 446785436 446836572 447131600 447202900 447372636 447397747 447678244 447818556 447957874 448383530 448520496 448683316 448839719 448902309 448961263 448985055 449003352 449150827 449179034 449417560 449507873 449527195 449861003 449881748 449895815 450039954 450181659 450215431 450692826 450801174 450980992 451121348 451222215 451301272 451309514 451401336 451474632 451509475 451671454 451965923 451970479 452049470 452178676 452210376 452332075 452369937 452380308 452540746 452718820 452763366 452884950 453132851 453202592 453251917 453745516 453774865 453854484 453884515 454038933 454111647 454240168 454263341 454383138 454407717 454459945 454521625 454578491 454631300 454671553 454773004 454831882 454882098 454923283 455180799 455265916 455314421 455323709 455442652 455658864 455744671 455765331 455891391 455956633 456041824 456210034 456290413 456312484 456844650 457145292 457146755 457170283 457255333 457270564 457671221 457777787 457813240 457872504 458010743 458066397 458140317 458276439 458334168 458344119 458574703 458871132 459469024 459492808 459562305 459595618 459778853 460022802 460028953 460062924 460335936 460421708 460450226 460473577 460534356 460581640 460627257 460742897 460813994 460917553 460979138 460998111 461737893 461781163 461881891 461882510 461956469 462058675 462110898 462181002 462185433 462202973 462345098 462421132 462533150 462567970 462595944 462628288 462751460 462791005 462951524 463052751 463254248 463356367 463417788 463534160 463584264 463646633 463744620 463899711 464156605 464271449 464302187 464523368 464619753 464624575 464687624 464718052 464794646 465003484 465235491 465391086 465524482 465604566 465713626 465783566 465793832 465807972 466261106 466396495 466503143 466589602 466652139 466703826 466770160 466920667 467070774 467359943 467502447 467595479 467681242 467717529 467810933 468094552 468215984 468222043 468285934 468292740 468408899 468482711 468483366 468790665 468979604 469012216 469015385 469042254 469221721 469427229 469580924 469838694 470064385 470191077 470305855 470438072 470454943 470457066 470484788 470643285 470848650 470873816 470909129 471181968 471297874 471776628 471865349 471949188 471950838 471998969 472077450 472154632 472166506 472235399 472255592 472614815 472726972 472745949 473069166 473092287 473253344 473289950 473351393 473425115 473426040 473847493 474216213 474377915 474557182 474770006 474777901 474814981 474986166 475280054 475717714 475828871 475881542 476001591 476015187 476118242 476188383 476210547 476271810 476412953 476471459 476537486 476639681 476787266 476837450 477059108 477150823 477323682 477641342 477661481 477900390 477993095 478009588 478043571 478208261 478224788 478319033 478383726 478628662 478630136 478778159 478820428 478923082 478924593 479125037 479150480 479266334 479291560 479475072 479607329 479921482 479931919 479940383 480015042 480063543 480084437 480109854 480336626 480659301 480715146 480877752 480967726 481187449 481187994 481191726 481194569 481374574 481514407 481656115 481662460 481713588 481717068 481859086 481950997 482154116 482164052 482193766 482255873 482583231 482588004 482605118 482648140 482828320 482917346 482942916 483185950 483303086 483597642 484005981 484151212 484180307 484189453 484355467 484399496 484461110 484486596 484543400 484557990 484708311 484710254 484964834 484969113 484997277 485147499 485237852 485257357 485257719 485290918 485301917 485303545 485322824 485326987 485331054 485528825 485531418 485541540 485620330 485623798 485833590 485958063 486075979 486487689 486494916 486724357 486899361 486969374 487116051 487578426 487587357 487871392 488258492 488272719 488389910 488399332 488418649 488493216 488601436 488936157 488953187 489076286 489161078 489214166 489224302 489236110 489245137 489266647 489370173 489590505 489622248 489719217 489720972 489970296 489978006 490534012 490778342 490791601 490816955 490838914 490985542 491118006 491209341 491243701 491397210 491409764 491437268 491483807 491513564 491780840 491970803 492000711 492067136 492105870 492120397 492136312 492196617 492283728 492316189 492334956 492622320 492682316 492786128 492802747 493142040 493149547 493169336 493337155 493348286 493419365 493451924 493576597 493682920 493685956 493700708 493834518 493840868 493933899 493945186 493962191 493994865 494063559 494152277 494292704 494337253 494361102 494484775 494503762 494785810 495130542 495158032 495213596 495575172 495602132 495649951 495721828 495750618 495794976 496007112 496031263 496321101 496341859 496440528 496605917 496751435 497063433 497081307 497128883 497259375 497314260 497411588 497541628 497662760 497721164 497861984 497942125 498087136 498212653 498662906 498899845 498985295 499225659 499265317 499347731 499411340 499441757 499470183 499563084 499667101 499869946 499899096 499922577 499931135 500131751 500141366 500234247 500561527 500596341 500652244 500719226 500842440 501169990 501215807 501230876 501271457 501310794 501421385 501600595 501633812 501909807 501943096 502061252 502131760 502169981 502368402 502439382 502444896 502486571 502555684 502684495 502688680 502752193 502780049 502845384 502890137 503017837 503035059 503093056 503094452 503096307 503162418 503275393 503345077 503535745 503682164 503771797 503930143 504025203 504053560 504142264 504328690 504404450 504466430 504587023 504763459 504823627 504913977 505001262 505015676 505441650 505599220 505765941 505788361 505801136 506017217 506025560 506080797 506096090 506144888 506615303 506620917 506691580 506786054 506870806 507116557 507163809 507436226 507699879 508048642 508070434 508376036 508710456 508767500 508847045 508986214 509131782 509162119 509175231 509204359 509372346 509562088 509658977 509709653 509785358 509816599 509821281 509897956 509927374 509956057 510095713 510183313 510206633 510458648 510526694 510711539 510713166 510728822 510828714 510888844 511089739 511166717 511286471 511328902 511434983 511506785 511520782 511571752 511615220 511733645 511871347 512027123 512068752 512105582 512496779 512517339 512601692 513099303 513117475 513134619 513401690 513490330 513659848 513747509 513849524 513870150 513928221 514048829 514198693 514251006 514287702 514323025 514362900 514413081 514631705 514876227 515131501 515202915 515299869 515494990 515540413 515718237 515734682 515839865 515865020 516531339 516576923 516596329 516607673 516636266 516700131 516783530 516803007 516830631 516833718 516991782 517365438 517385620 517538562 517605460 517662418 517771543 517898542 517996617 518044100 518212218 518280949 518287801 518313954 518340424 518383504 518746963 519040056 519140444 519307104 519360341 519397209 519432619 519646541 519674092 519711460 519789224 520024330 520063040 520170369 520184473 520445738 520772248 520797700 521006994 521277124 521339215 521578564 521717832 521768447 521804375 521851292 521852149 521886278 522090402 522105682 522140553 522496877 522504706 522614556 522637196 522804843 522851285 522854035 523055917 523272546 523282853 523367876 523416179 523436464 523437200 523601682 523606900 523614365 523656827 523662096 523682358 524048956 524165460 524354227 524358731 524824067 524981407 525271494 525363288 525507559 525547324 525634624 525711344 525947344 525952028 526002112 526116996 526348360 526350834 526365176 527065830 527134073 527256661 527257769 527517487 527959411 528004189 528065391 528091608 528229292 528435635 528448500 528535200 528574257 528749040 528801058 529131430 529534693 529557795 529816255 529901243 530001703 530064190 530205901 530340263 530379220 530512187 530628918 530671989 530923641 530932432 530945807 531273560 531386864 531956146 532164073 532230883 532322417 532380620 532813621 532833725 532907182 532940285 532953249 532955919 533029127 533032498 533088558 533155150 533224321 533235132 533262324 533280824 533554009 533750123 533754596 533897965 533960901 534186212 534227313 534333598 534448234 534471482 534506338 534539047 534599880 534649724 534688797 534815397 534827774 534936308 535125607 535146672 535236589 535513701 535805906 535973246 536057316 536348473 536374702 536421577 536501953 536508625 536752326 536810278 536924077 537062944 537073479 537146874 537393083 537421928 537484534 537546230 537773526 537808462 537866952 537874247 537947979 538041708 538192764 538333234 538425208 538582215 538652976 538850313 538862889 538864007 538979497 539178637 539181259 539201921 539757791 539852058 540056302 540214929 540335990 540348274 540652117 540739877 540788413 540839330 541007207 541075083 541085950 541301790 541580061 541619094 541748044 541806437 541862409 541875347 541969064 541989844 542113648 542142923 542163986 542191491 542232090 542488946 542930059 543068050 543279488 543364562 543606174 543628259 543694799 543744755 543774581 543806388 543863795 543919815 543981072 544195123 544234950 544249484 544378927 544426319 544443137 544505060 544602428 544815213 544850070 544864136 544964223 544973628 544975606 545028811 545094873 545126940 545282841 545309315 545733577 545850576 546080002 546153408 546202299 546296688 546385707 546414785 546479153 546695315 546728092 546783948 546821066 546824935 546866628 546866937 546955981 546963193 547220398 547309015 547351457 547464581 547471797 547559822 547633545 547685955 547703676 547980367 548179007 548321988 548352495 548524275 548617693 548745639 548898523 548931390 549077960 549263914 549279739 549388587 549480405 549588989 549612829 549651619 549774480 549866116 549913409 549931533 550214265 550296755 550357380 550479150 550596513 550614429 551198108 551243336 551364464 551383969 551394184 551458357 551799169 551991562 552051876 552088938 552090271 552296418 552339183 552436618 552486281 552570239 552708774 553124986 553162222 553194219 553280553 553327351 553350426 553934976 554087865 554114588 554192564 554401082 554493510 554600714 554601837 554621556 554644683 554661941 554754122 554809370 555005619 555067195 555131785 555144040 555411784 555643097 555848577 555906205 556175234 556185092 556197126 556273876 556277389 556284701 556513852 556735588 556757712 557015206 557071935 557150890 557153848 557262253 557287009 557387369 557415283 557474684 557482413 557497544 557629322 557819501 557895850 558277927 558523632 558548765 558639330 558649729 558814895 558821731 558870778 559057974 559091884 559167892 559177256 559205976 559288664 559412485 559562390 559684056 559690180 559833258 559977504 560344867 560485691 560553010 560589055 560700125 560718529 560721157 560795120 560971022 561125978 561385234 561969150 562281890 562401847 562471736 562528217 562634789 562696389 562740514 562846790 562897785 562946134 563038593 563046631 563307749 563392209 563542033 563624502 563746297 563896942 563928403 563935450 564012788 564135089 564175407 564391399 564418900 564529271 564597755 564864940 564924728 564940493 565071705 565262371 565462239 565603903 565617536 565638125 565670161 565744105 565823523 565931739 566007894 566375109 566502302 566739327 566858836 566898892 566927959 566955135 566961389 567011875 567182019 567250962 567375515 567593706 567784440 567930353 568058270 568100909 568251370 568260904 568416421 568513654 568559397 568602874 568682861 568805779 568934611 568956681 568988766 569040566 569041611 569160374 569239665 569284043 569559719 569780843 569797013 569870256 570063556 570196965 570338129 570466200 570553174 570705169 570710534 570750658 571018607 571282907 571642006 571667882 571807864 571874147 572103569 572156030 572280663 572286793 572376211 572439702 572465314 572649966 572994035 573054375 573058760 573067521 573124392 573160736 573170467 573360954 573825724 573849784 574151175 574351828 574385044 574385827 574562735 575081068 575454528 575560241 575580345 575631297 575684757 575787496 575935245 576032539 576052636 576187036 576216024 576434819 576475108 576566887 576887594 576934439 577026832 577033481 577064457 577128451 577165029 577237141 577300446 577526219 577997375 578007394 578063489 578070649 578180251 578325532 578325851 578343998 578367455 578405037 578527152 578533857 578597557 578696284 578776821 578893505 578958125 579128673 579157357 579170131 579176530 579198199 579206660 579213224 579641160 579757085 580124615 580233807 580279128 580435087 580451448 580693125 580774033 580877846 580897465 581098925 581107659 581517622 581547159 581887939 581951468 581956046 581983993 582011513 582098467 582398603 582974420 582996931 583036834 583208890 583220160 583318438 583495023 583846882 583905463 583922741 584133908 584231307 584464298 584559236 584597959 584808706 584860406 584904570 584951331 584974900 584977378 585139917 585178292 585180750 585351433 585560899 585693091 585756113 585822380 585995678 586068886 586376110 586446078 586507609 586656203 586675158 586787664 586798012 586848793 586886725 586948590 587100577 587236756 587277410 587385590 587464779 587475674 587580247 587712764 587817722 587993073 588105412 588143705 588168939 588272981 588464866 588483061 588503144 588570497 588653546 588712248 588768173 588865362 588895765 588918091 589018832 589055749 589094130 589118198 589132407 589140829 589218470 589356908 589463796 589506019 589534882 589872432 590654530 590684559 590803539 591049762 591144687 591171857 591171931 591201297 591213792 591331484 591456754 591621036 591641910 591665374 591715646 591847384 591956663 592160043 592175320 592363630 592410934 592616103 592617399 592758247 592784839 592850094 592851699 592883948 592915384 593022239 593068818 593084719 593271518 593293759 593368207 593418884 593431508 593516159 594027602 594335919 594449658 594469333 594554174 594709986 594774400 594894122 594906183 594944556 595004169 595051291 595082725 595312466 595314894 595332982 595384532 595414678 595632905 595697406 595856047 596038729 596207576 596253959 596329513 596409575 596425409 596598529 597031882 597094399 597286767 597388734 597396578 597573030 597698909 597754456 597788195 597933331 597938708 597974985 597976514 598399595 598432842 598438932 598529846 598533205 598565446 598591877 598829838 598954965 599019650 599106648 599159131 599268293 599507288 599627688 599821927 599832854 599883094 599890960 600149298 600154802 600176892 600221286 600244824 600375323 600378891 600417766 600563191 600585397 600593493 600715795 601168533 601217263 601299848 601325268 601429830 601730694 601843822 601919864 602062017 602105943 602182459 602187025 602370231 602420964 602571477 602619195 602725524 602841796 602875340 602936422 603012463 603086267 603144420 603148248 603181222 603381979 603764045 603784681 603921782 603977362 604015784 604118519 604143404 604155472 604191279 604247539 604339483 604373004 604457787 604528919 604622301 604656139 604673313 604840012 604851176 604869967 604921984 604977286 605316390 605605980 605643794 605932830 605934114 605979758 606061439 606180412 606402431 606404309 606445062 606714497 606794015 607023135 607254743 607260021 607262828 607328692 607419320 607432473 607542482 607594256 607632646 608434188 608632218 608635599 608668019 608726688 608879007 608950561 608982515 609205299 609226548 609312573 609316884 609470890 609518653 609556828 609671306 609698517 609704399 609790377 610302135 610350078 610364808 610394863 610492018 610650987 610663451 610940703 610948844 610987835 611074721 611170570 611323798 611892713 611950604 611995889 612094663 612129022 612166098 612432935 612678881 612698500 612710412 612739837 612792535 612825254 612917761 612994112 613003141 613353048 613371431 613486700 613732074 613741623 613991179 614160035 614199384 614212179 614417649 614426846 614433310 614737606 614762699 614904842 614954622 615065132 615241394 615333164 615370267 615428052 615488384 615493125 615496813 615805495 615813287 615846544 615872681 615888791 616057423 616185310 616248432 616274431 616320057 616427863 616592023 616598082 616744950 616806529 616823837 617012475 617014618 617036524 617175469 617197326 617652064 617667107 617788163 617852881 617918997 618076749 618090033 618103059 618323831 618348133 618357091 618445035 618540314 618543316 618571618 618585012 618682663 618902396 619035429 619040936 619143315 619153283 619411660 619491726 619501447 619548254 619772315 619787177 619813871 619966195 620022736 620211266 620228063 620538713 620715464 620789368 620897860 621001491 621056662 621087680 621163526 621250130 621469571 621622046 621623356 621959536 621978731 621981177 622024786 622077452 622203725 622322607 622552340 622636226 622719422 622837696 622860654 622921172 623046795 623060953 623089797 623115211 623121242 623553772 623587358 623780939 623806393 623930248 623940445 624050741 624084726 624154011 624156140 624273817 624279815 624348563 624452303 624474814 624519790 624928465 625047590 625053067 625105071 625250441 625449126 625500782 625882896 626001696 626011297 626025149 626072347 626326483 626574286 626757444 626759633 626919005 627187331 627232894 627684512 627698187 627698719 627724167 627893330 627932670 627971357 628135394 628147539 628181049 628384179 628739584 628798606 628867675 628873795 628874899 628892518 628903777 628910014 628988083 629043457 629107167 629180718 629198317 629288193 629511057 629640411 629651077 629768089 629863990 630042452 630221134 630454818 630487127 630528104 630569034 630682807 630718500 631076468 631179632 631240947 631252951 631291245 631358645 631595313 631672157 631874037 632013085 632040554 632227693 632390448 632412124 632415018 632504738 632560493 632663899 632919823 632943134 633257288 633297652 633460073 633578212 633622608 633655005 633676836 633730555 633767037 634121325 634401404 634688816 634728046 635061088 635080481 635348328 635558039 636036064 636082975 636126463 636187917 636318768 636425139 636454678 636673012 636722251 636802873 636904396 636956361 637326209 637425272 637489385 637515259 637584088 637728348 637775505 637791386 637923707 638002589 638035804 638202216 638242117 638267044 638472505 638474923 638526585 638571627 638769044 638846571 638922801 639081726 639147021 639182384 639193593 639414924 639427967 639503426 639553986 639591038 639592922 639610927 639767719 639839972 639890942 639951726 640118777 640158767 640188210 640251890 640316536 640326304 640346645 640497914 640498437 640581357 640744887 640833568 640922187 641005443 641092841 641511763 641518050 641566187 641569257 641616901 641709238 642089042 642089047 642118964 642135351 642161938 642233372 642257011 642480137 642518309 642553270 642757012 642950353 643040570 643188195 643295552 643338278 643371773 643414830 643790117 643797707 643916905 643937260 643972232 643973537 644142476 644492249 644506090 644619500 644635509 644636673 644670340 644714315 644780700 644822562 644898692 644950428 645021804 645054169 645124760 645239117 645333100 645341381 645371908 645374064 645537673 645730744 645785900 645791409 646079535 646114560 646305253 646411998 646423482 646453713 646633528 646687666 646738540 646769147 646780662 646803175 646851571 646857657 647027907 647046932 647170201 647196495 647353416 647383529 647424341 647537738 647619234 647795005 647928151 648008550 648027825 648100021 648237235 648250221 648274871 648363121 648437767 648466651 648566385 648612097 649193367 649373592 649432986 649475201 649534254 649561999 649565033 649846977 649893159 649936100 650014407 650240959 650369453 650376816 650397062 650474666 650806167 650811232 650908201 651073868 651160432 651225508 651249417 651340924 651360813 651374060 651503532 651537420 651611819 651822374 652286325 652437078 652557435 652586073 652611128 652669036 652675759 653034379 653417550 653471902 653582837 653714663 653780869 653874838 653941448 654154357 654166471 654176014 654258346 654349821 654447831 654688642 654774865 654854459 654871183 655044798 655241166 655341677 655345229 655362825 655610524 655635800 655696992 655761632 656088470 656120922 656267772 656362123 656424422 656443272 656625130 656691346 656964897 657126060 657277899 657319516 657321698 657428715 657630211 657639156 657752536 657780722 657966889 658337938 658513062 658561286 658636289 658640089 659129305 659215587 659259536 659457247 659478396 659484607 659711184 659966729 660066143 660087367 660109352 660145664 660217325 660246002 660435986 660525465 660533506 660811012 661025369 661081740 661105443 661136634 661258295 661272304 661414657 661589982 661903169 661985826 661988483 661991058 662032095 662161964 662249142 662265884 662299720 662437629 662477136 662514396 662937649 662980909 663146220 663198271 663304053 663338478 663435139 663511020 663534505 663600710 663665204 663694968 663736219 663743606 663808847 663880402 663929706 664038063 664301216 664346295 664719377 664755871 664976244 665062516 665226909 665274034 665652611 665697762 665697820 665883454 665937999 666141971 666163757 666185953 666219025 666231455 666474685 666663316 666667895 666754125 666841902 666845388 666948704 666952473 666966675 666966745 667009959 667010031 667162511 667262693 667401511 667490901 667494075 667529747 667582025 667631557 667988244 667998236 668059008 668165010 668169109 668271155 668314435 668406833 668508388 668607272 668864303 668940824 668955979 668976326 668986427 669158375 669194854 669234527 669254561 669301661 669402731 669442515 669642054 669866978 669934582 670003623 670022586 670107579 670157307 670161518 670187505 670193502 670301572 670566044 670573969 670889093 670941730 670944545 671060231 671329858 671419767 671472958 671599495 671609610 671663355 671673583 671930165 672058361 672191904 672276136 672504236 672663921 672841159 672995138 673018067 673246235 673431729 673844128 674006965 674276722 674295005 674296879 674444920 674492282 674639248 675075567 675105615 675167978 675235182 675305122 675702844 675758070 676130227 676183481 676183720 676214007 676451214 676621573 676742771 676819882 676869303 676883156 676949119 676968532 677081312 677342745 677395721 677411873 677584449 677595791 677603060 677619737 677762057 677764280 677831141 677839629 677853367 677975510 678026049 678056543 678083238 678329039 678419229 678419391 678536437 678641869 679132648 679145224 679154740 679193149 679202080 679299155 679490822 679592363 679649545 679701974 679729110 679844246 680013551 680120760 680169813 680307365 680454321 680763476 680961396 680989701 681104807 681106179 681177084 681250972 681466391 681486181 681718667 681833227 681867018 681990027 682059726 682069546 682407697 682424545 682556059 682585785 682657577 682931539 683028403 683140335 683217172 683243075 683354538 683363299 683913265 684027637 684084097 684093342 684157521 684261479 684524636 684609284 684762521 684769939 685155542 685316657 685317441 685472651 685532018 685664800 685670502 685775948 685783934 686024521 686041728 686042465 686111435 686146510 686322528 686362034 686443866 686469124 686515223 686661185 686797594 686906528 687022205 687039879 687182055 687258439 687273584 687318566 687384023 687388038 687421245 687567851 687766675 687792566 687818456 688056664 688122650 688140366 688331135 688569058 688643251 688819570 688936480 689195732 689249720 689318533 689602364 689699594 689733182 690125857 690137927 690287416 690379894 690392972 690392976 690875159 690960023 691204235 691292330 691473689 691750108 691890139 692036872 692077407 692111222 692204420 692241117 692326676 692355745 692383134 692425300 692526496 692853989 692892332 693166111 693169038 693330215 693529124 693529527 693562252 693976457 693980894 694054465 694065980 694144347 694161188 694173186 694370945 694535456 694942340 695127700 695159918 695180982 695389639 695410434 695521992 695598088 695628342 696192931 696193534 696270769 696705658 696769226 696789924 696797300 696803609 696891306 697041206 697107838 697216018 697232443 697241827 697283570 697293869 697343659 697349507 697352301 697642696 697939589 698082298 698175187 698248768 698463931 698497271 698536213 698665720 698739807 698854135 698888474 699191023 699203134 699304731 699637146 699641002 699750950 699804469 699806230 699864136 699929395 700130020 700132738 700208068 700225236 700316942 700432588 700476867 700506832 700547877 700937590 700947672 700976730 701067311 701069913 701074976 701472514 701516194 701635103 701649729 701827556 701852004 701906415 702118766 702228826 702305708 702315816 702448858 702663435 702678242 702712951 702735800 702779865 703061264 703105369 703109400 703124116 703176049 703270302 703312578 703376747 703406217 703439467 703538994 703543062 703599313 703638123 703675331 703704859 703789516 704548719 704582196 704653927 704888370 705280744 705350080 705372771 705509707 705551988 705682655 705770788 705836856 706065974 706135344 706161254 706194219 706196794 706304963 706355514 706429291 706496309 706636709 706755137 706804156 706853436 707189919 707231818 707396319 707516485 707708833 707809477 707892873 707979139 707982837 708041998 708171847 708184569 708224214 708284309 708494482 708515802 708682967 708770097 708865777 708868764 708894804 709087589 709171365 709295773 709472209 709553229 709621438 709630067 709757534 709782668 709804304 709847687 709864681 709889205 710238233 710255036 710257239 710272140 710328319 710403607 710435253 710467634 710492075 710523333 710538258 710559907 710710836 710799362 710956119 711019568 711123526 711338562 711435629 711569412 711770618 711869073 711873766 712056625 712357455 712464914 712548038 712635829 712922669 712964271 712976137 713005451 713020586 713442253 713591325 713876259 713883648 713982545 714011849 714040228 714529201 714613977 714754706 714845116 714937299 714960456 715153637 715212326 715240071 715341909 715395985 715410937 715714871 715885898 715913913 716102776 716151816 716452893 716511475 716547107 716688503 716691496 716782837 716833973 716903410 717105375 717414910 717636217 717693799 717713972 717883386 718795135 718885009 719249495 719294729 719411062 719555823 719604817 719653314 719774213 719835348 720220481 720260037 720335489 720751816 720775332 720802594 720868009 720928208 721167794 721329997 721687418 721810747 721821897 721859565 721864654 721919772 722015741 722049475 722200584 722242587 722295939 722305249 722316168 722366941 722451269 722760008 722767093 722837964 722843133 722856512 722889596 723029597 723333833 723509064 723610287 723715171 723750121 723766039 723958488 724016088 724159550 724193284 724294719 724618467 725156664 725189536 725523655 725643822 725987396 726116798 726260841 726372613 726452297 726634527 726673490 726996498 727047171 727251190 727274011 727364324 727677249 727742011 727751047 727771548 727942046 728039940 728205274 728421796 728578975 728639430 728697584 728731272 728752074 728861014 728937151 728937803 728957395 729131526 729266440 729366510 729373120 729449957 729605182 729637118 729826641 729982925 730239550 730306407 730318386 730515972 730643614 730961247 731147077 731160893 731367964 731512973 731571600 731654262 731664731 731683466 731720293 731775436 732162769 732169088 732277557 732326999 732356005 732537742 732638077 732682124 732702711 732750609 732801370 732899927 732903830 732998193 733068121 733169002 733172913 733325351 733485274 733512370 733639618 733664367 733735995 733743294 733838852 733982209 734026543 734087200 734118772 734168853 734311397 734421254 734704018 734878684 734882324 735045545 735209958 735362251 735471069 735652761 736067151 736499865 736767785 736777947 736819132 736855307 736884699 736936624 736992309 737009747 737147810 737221214 737306141 737407211 737456356 737470417 737665001 737810820 737915285 737997342 738043760 738054331 738512976 738751171 738785928 738845028 739241473 739577628 739601685 739874522 739964519 740026608 740101927 740162005 740319355 740437883 740454470 740509558 740516519 740516919 740594604 740612712 740665981 740801908 740803086 741070769 741132942 741216016 741280358 741379548 741478671 741698593 741818314 741853786 741979581 742087279 742116611 742218083 742369205 742450514 742561977 742720787 742976678 743028793 743050063 743161318 743253575 743260650 743342242 743475564 743574874 743765711 743794702 743953228 744093743 744438355 744509195 744517991 744607344 744906916 745035852 745051082 745060375 745074645 745077029 745089569 745172085 745341548 745569217 745579557 745809277 745927350 746089546 746471784 746477956 746689646 746753265 747013532 747227666 747229422 747254823 747281896 747324396 747540853 747603316 747620895 748063857 748134981 748246964 748280928 748379379 748458373 748492386 748544405 748578241 748747181 748831065 748961329 748974638 749033204 749390417 749484482 749567006 749609038 749650944 749964394 749977726 749983028 750008517 750200869 750236515 750275792 750351314 750411270 750663476 750844817 750857110 751305329 751473754 751484973 751549770 751780356 751978325 752124291 752175149 752301564 752327004 752353783 752734381 752795814 752873272 752969060 753050424 753103648 753274437 753468649 753504676 753579845 753674578 753690885 753799759 754064026 754279552 754504115 754698722 754798590 754963323 755145767 755225428 755389459 755653349 755681038 755903667 755904585 756003976 756063620 756129065 756204745 756321074 756390742 756415329 756441663 756482546 756601617 756626524 756834800 757061833 757065849 757102327 757166177 757257626 757311967 757466879 757718458 757802285 757818772 757892589 757987701 758100203 758138469 758213250 758285099 758391782 758588515 758609193 758736406 758940700 759024129 759178925 759305783 759702128 759757983 759959018 760124866 760224995 760429251 760643254 760765474 760858033 760903503 761035583 761085770 761254791 761402510 761663838 761675230 761702404 761827868 761854965 761926614 761991811 762075817 762096351 762232433 762233224 762294856 762296446 762487638 762509612 762522313 762583710 762647583 762782150 762917460 763002686 763091200 763213384 763228645 763605842 763764275 763789788 763864067 763953232 764009478 764028446 764030225 764114574 764147390 764271474 764418973 764475531 764514094 764568603 764626769 764671212 764926267 764972076 764980326 765017758 765149886 765178325 765221464 765221790 765376434 765417700 765523772 765554056 765651984 765660874 765693802 765735153 766083645 766360284 766368001 766383900 766431112 766485442 766493274 766561674 766621273 766743182 766780180 766837587 766882529 767129111 767178458 767229574 767445559 767482990 767758742 768001544 768184397 768310797 768395426 768471532 768556139 768575767 768577100 768727062 768960934 769372024 769501042 769798564 769830315 769857536 769920393 769996997 770738085 770819150 770849870 770975768 771009227 771112178 771205404 771504319 771523750 771760412 771793331 771900897 772150989 772159836 772201359 772355767 772362501 772397958 772742913 772755053 772856510 773118547 773138866 773271190 773308028 773317377 773461547 773518705 773678983 774012585 774084939 774164599 774212557 774238747 774354238 774377176 774420439 774835102 774840409 774889928 774992629 775035343 775078833 775159628 775350706 775449430 775462846 775553617 776082570 776268195 776296646 776340679 776435357 776601118 776751269 776790776 776866604 776895421 776938783 776998583 777030624 777112299 777121435 777168736 777190368 777411842 777431914 777562751 777620431 778179209 778249289 778299934 778359162 778447911 778503756 778532989 778595612 778692610 778747113 778771271 778790531 779018224 779181495 779209374 779273490 779449757 779656221 779709698 779794022 779812693 779859266 780075631 780147451 780192534 780909203 780994222 781044612 781116140 781205158 781263274 781299420 781473711 781752308 781842530 781894980 781986939 782310477 782409703 782698313 782712837 782790336 782981071 783014929 783255804 783292988 783373678 783615788 783624843 783651284 783765302 783779195 783787203 783839426 783955971 784075115 784087435 784143710 784425849 784688052 784734737 784794399 784811038 784874855 784937135 784962515 784990517 785067902 785177887 785382946 785520645 785524585 785643111 785716557 785759522 785808051 785957069 785998851 786034934 786055916 786153159 786484152 786486404 786591854 786608226 786625332 786788800 786790822 786838456 786881157 786941362 786959375 787044978 787069546 787148446 787263311 787312915 787530631 787558256 787612511 787644528 787756827 787758087 787768565 788093899 788283143 788320927 788378255 788441118 788474226 788590060 788648105 788927938 788993170 789023262 789035462 789126324 789137859 789218711 789384199 789414601 789707653 789762194 789901013 790196780 790216135 790287153 790345664 790377095 790391550 790467227 791025864 791105237 791297506 791330178 791353715 791529809 791687805 791695082 791729578 791761500 791768322 791803084 791858647 792097049 792343672 792351548 792848606 792890042 792998409 793082574 793246578 793331991 793332953 793337691 793341334 793461220 793635732 793753092 793863919 794004106 794063264 794074112 794173219 794200830 794321988 794364591 794421940 794685321 794770789 794883156 795132262 795316028 795622644 795833430 795854123 795970595 796049448 796364167 796412009 796613062 796690450 796899785 796902842 796920229 796978967 797169946 797290806 797327075 797463903 797855711 797858541 797902002 797998213 798012594 798137033 798307197 798474490 798509485 798526072 798630953 798762522 798838072 798857815 798859321 798961779 799182042 799211002 799285332 799385037 799668362 799685019 799754234 800062268 800220355 800283891 800285324 800315164 800392644 800434534 800526454 800598630 800769098 800993089 801156773 801377278 801537928 801570087 801741788 801784840 801791665 801843937 801868099 802106300 802176303 802209415 802389598 802399290 802488654 802601253 802765788 802815844 802866498 802876456 803113724 803209619 803323328 803413479 803489769 803542102 803632940 803798018 803824811 803826904 803907490 803930650 803944276 803964311 804157165 804244576 804298390 804420370 804428292 804452026 804618528 804671404 804676030 804712285 804789434 804817445 804835916 804887162 804915637 804934802 804973551 805175739 805187584 805244374 805256323 805296495 805301405 805357562 805431137 805443353 805451752 805456301 805487493 805501652 805525743 805580112 805853976 805968866 806013559 806093563 806109523 806142469 806256563 806353534 806356240 806391342 806426709 806464878 806477656 806519584 806626988 806707838 806814017 806934596 807008521 807025312 807102740 807105877 807332459 807370039 807487148 807709991 807711564 807715157 807744035 807940126 807958378 808020545 808234903 808244566 808282099 808282729 808795612 808927547 808939191 809022793 809308399 809448019 809555282 809652265 809826198 810027095 810060634 810168382 810255004 810320000 810326593 810359566 810377136 810450436 810492363 810524814 810803356 811050698 811129848 811179648 811211635 811612021 811639011 811801487 811841595 811844090 811909392 812035639 812981610 813132426 813152903 813427922 813508078 813521603 813853655 814142892 814231803 814240393 814449613 814524011 814571602 814680894 814700922 814772374 814801339 814946589 814984966 815190526 816021998 816100670 816160833 816218527 816281412 816386872 816392644 816410622 816466255 816631321 816657260 816703123 816777360 816865778 817086651 817200957 817315531 817383974 817395663 817423400 817511410 817529720 817615936 817963576 818043822 818133283 818319318 818554579 818760138 818970896 819054305 819144531 819314343 819412682 819487230 819743016 819834913 819836486 819885557 820015074 820371665 820398466 820500036 820688435 820774720 820777455 820791803 820819313 820953077 821014268 821101432 821134738 821154669 821158215 821274803 821342518 821405656 821420394 821503938 821621004 821873614 821898815 821978096 822033612 822105975 822106825 822254257 822260753 822296303 822328535 822333811 822418970 822448919 822888742 822924529 822967236 823082286 823092973 823273012 823280557 823452445 823568204 823617514 823650113 823664284 823822489 823892075 823901223 823953829 824145406 824203557 824372779 824393331 824763034 824810751 824947954 825072591 825085709 825512502 825549933 825572078 825644421 825729201 825858888 825939054 826033509 826075415 826171111 826297478 826386719 826439015 826478953 826479694 826708096 826942690 827117698 827119029 827138725 827138891 827399148 827424621 827532717 827970098 828068402 828071759 828133453 828149047 828214989 828283288 828942996 828947054 828975690 829263057 829305783 829521854 829551545 829699362 829754524 829825152 829859889 829899726 829940064 830719139 830742932 830745572 830813222 830827434 830856816 830858616 830905785 830923294 831080879 831210818 831266829 831345406 831386007 831510234 831671241 831756091 831811884 832128365 832163538 832357706 832426197 832496560 832633545 832729855 832733941 833031021 833084631 833097651 833146415 833221689 833245188 833298370 833367750 833393420 833533176 833567660 833589302 833773622 833788686 833801667 833853625 833920085 834144463 834348822 834389883 834549659 834562352 834700399 834725165 834745610 834839295 834842716 835100784 835157975 835180903 835259440 835353172 835361164 835523497 835776282 835786636 835821825 835874089 835876688 835884367 836061381 836334201 836334798 836497040 836645588 836725868 836747573 836863319 836887374 837122888 837193922 837227865 837262809 837310431 837606254 837625128 837757412 837831822 838106864 838116780 838169425 838496279 838607341 838771183 838803217 838898325 838917589 838932555 839021043 839143208 839277887 839322581 839534821 839586299 839671994 839788988 840011334 840113020 840219798 840285101 840566672 840823726 840894443 840962037 840987810 841150018 841244661 841316140 841494893 841507520 841606551 841611301 841634326 841705949 841886883 841978352 842032010 842078640 842184744 842244031 842330540 842390153 842415170 842440716 842548026 842607178 842717864 842764883 842840813 842935852 842937487 843032552 843087845 843151231 843163587 843186915 843204382 843282240 843518681 843669561 843685843 843821249 843827518 844002600 844300333 844378863 844462721 844510272 844781266 844802402 844873620 844897614 844940293 844992961 845058187 845162464 845187395 845207097 845439359 845460365 845503461 845596857 845610579 845614930 845756405 845862240 845867501 845938972 845954446 846088531 846108508 846149994 846163236 846203271 846225637 846629934 846712797 846812536 846993671 847462905 847528706 847545438 847571486 847951403 848018895 848095930 848219965 848258277 848274772 848338214 848391765 848418230 848433783 848492050 848636019 848653617 848916833 848983870 849177664 849337817 849502950 849818667 849969485 849979429 850269408 850356139 850438818 850593004 850656092 850721405 850875947 851066082 851084316 851173629 851185366 851242541 851297132 851469704 851549590 851674678 851722085 851925897 851929982 851934586 851990168 852112198 852130496 852145156 852156249 852184969 852349328 852406728 852448565 852491264 852501593 852805511 852928336 853155236 853590408 853651481 853675938 853746378 854362915 854527181 854543247 854575356 854589304 854636525 854839768 854879255 854914845 855079179 855099731 855134247 855474336 855504324 855622855 855624685 855928585 856102796 856231418 856293352 856372271 856443800 856573869 856579159 856795730 857115767 857140625 857249068 857375341 857467262 857578261 857630535 857652332 857920205 857958252 858070537 858081929 858129669 858139009 858508054 858756370 858922585 858940287 859266803 859339083 859340853 859363355 859451371 859646378 859708726 859846359 859889355 859987406 860041726 860090754 860238080 860450787 860533621 860577240 860608537 860624592 860858914 861009744 861096082 861241937 861313372 861345773 862091592 862693059 862704736 862746006 862782212 862900781 862957909 863055418 863062349 863094506 863330379 863498294 863746397 863878315 864045842 864344771 864442078 864588979 864678543 864686935 864730104 864971566 865002665 865112220 865116263 865228811 865281495 865341315 865359724 865564758 865857839 866413604 866494842 866765176 866793851 866883652 866929663 866941331 867122742 867153544 867332510 867360951 867689168 867747345 867936545 867987897 868028068 868135376 868275681 868392541 868440979 868443247 868474915 868590475 868658407 868727854 868972614 869047366 869099399 869142407 869307049 869378884 869478079 869513744 869523338 869537218 869721338 869825219 869986406 870492117 870564746 870634880 870979550 870985258 871030176 871051735 871132239 871260708 871332886 871347074 871711125 872131251 872177101 872268424 872706876 872973991 872976250 873014217 873147647 873271787 873279252 873297044 873491518 873514374 873720780 873733840 873825711 874117598 874131397 874245031 874855018 874945330 875030340 875257012 875432947 875640065 875805211 875870759 875891258 875982352 876137374 876399794 876461387 876581243 876699807 876820016 877203538 877260234 877478274 877621853 877908876 878348937 878543792 878867011 878987442 878987464 879005082 879150203 879234096 879248547 879373364 879553212 879567901 879593489 879831094 879910677 879938895 879938992 879941670 880014487 880080815 880144167 880231223 880232107 880357339 880730377 880744879 880860338 880935894 881085103 881264076 881348136 881563466 881569236 881571974 882152929 882203037 882332754 882348696 882471270 882533944 882545722 882741193 882847816 882872105 882980829 883015112 883029290 883234158 883299549 883307994 883484027 883593703 883644757 883726966 883841071 883886466 883941860 883998292 884279908 884389639 884489032 884646585 884693322 884751523 884816951 884888880 884897881 885010833 885113508 885141786 885621217 885622490 885712215 885750650 886077815 886120783 886246228 886262751 886418490 886612559 886761285 886832189 886864642 886998945 887152729 887184324 887196181 887458231 887490297 887545111 887682304 887911571 887946237 888012851 888038712 888074304 888598125 888916868 888969880 889059902 889093699 889238868 889369755 889452855 889507674 889555089 889657550 889665435 889735983 889744000 889827733 890065372 890262710 890344234 890349551 890394469 890408847 890412402 890424076 890425944 890451681 890768900 890778873 890816396 890907276 891010465 891194706 891208009 891210764 891563584 891601899 891605295 891823145 891854064 891855913 891939921 892101473 892327028 892546889 892730317 892769406 892829177 892956236 893040880 893197969 893221369 893249034 893532456 893610332 893705696 893821173 893837794 893920571 894121715 894152954 894311093 894351015 894476090 894540621 894628660 894681271 894812551 894832691 895020330 895187106 895296223 895368489 895489352 895630177 895633153 895692796 895987593 896099663 896227103 896260583 896285724 896494710 896627077 896681468 896798591 896942385 897065658 897130417 897414359 897418465 897491449 897573321 897609677 897808560 897884572 897941537 898025832 898180218 898315952 898326916 898388656 898424909 898588779 898654388 898829330 898898536 898941335 898976913 898989936 899313589 899579213 899640887 899647017 899723045 899725762 900122087 900153136 900195727 900280019 900410298 900410752 900540417 900732414 900804138 900836757 900990003 901110614 901203888 901259763 901510119 901511630 901560886 901622127 901726154 901786201 901856393 901863947 901887120 901895215 902340360 902375962 902429881 902519863 902678806 902768869 903040309 903119889 903123416 903137351 903148783 903270926 903282611 903571523 903588945 903754163 903804364 903832959 904282635 904580968 904758757 905084877 905275496 905329395 905403073 905415754 905470593 905477850 905741821 905776095 905880298 905947766 906053137 906059931 906067291 906148158 906161046 906190394 906253012 906254586 906378611 906520770 906676510 906726782 906860211 906874080 906900679 906942243 906963181 907068445 907480895 907499945 907777363 907791919 907899516 907923140 907943300 907950322 907960046 908076114 908086872 908192664 908290767 908312709 908411597 908712251 908804409 908826762 909019334 909106011 909316002 909339503 909447944 909684567 909724601 909770380 910071930 910184020 910206288 910240485 910275622 910352139 910398913 910443276 910537147 910562879 910567035 910598703 910617324 910854933 910875184 910896565 911347852 911399605 911568119 911595384 911834888 912021373 912042594 912376793 912507051 912558691 912568184 912633276 912729379 912828097 912892346 912979357 913111393 913131366 913313669 913420026 913601933 913882841 913938556 914058232 914110854 914113647 914237567 914279581 914407836 914435873 914529536 914626865 914719984 915435278 915530886 915590907 915824713 915868988 915982274 916046546 916091524 916241371 916584243 916709371 916957642 917044607 917201288 917352293 917404155 917542510 917674938 917686895 917743875 917744255 917783678 917916411 917919897 918009176 918203642 918224657 918709509 918851021 918969664 919067337 919111006 919224332 919311547 919321654 919361047 919392522 919415396 919462833 919516566 919518547 919574182 919807266 919825366 919842795 919899299 919940027 920038614 920044979 920087027 920169947 920407611 920434742 920569639 920676516 920865538 920896598 921214134 921259102 921268717 921579824 921613339 921665708 921686917 921774121 921779086 921865282 921912890 922137975 922430836 922448215 922456082 922553309 922736611 922751844 922783096 922844414 923038933 923097701 923175358 923221951 923557333 923627223 924038279 924273891 924330141 924377255 924462963 924636654 924726273 924856857 924918086 924936636 925002882 925041089 925074838 925142307 925343892 925371542 925383312 925601256 925646169 925665748 925855488 925957540 925984078 926016883 926021289 926064825 926165713 926205747 926416741 926461874 926525840 926584666 926672690 926787263 926790815 926801618 926829525 926844586 926955503 926970245 926984412 927093421 927174592 927314206 927354308 927362785 927431050 927436930 927593361 927972892 928034204 928157229 928225832 928262816 928441025 928485496 928499929 928532760 928645422 928660939 928714175 928800078 928800622 928899811 928902384 928984669 929026323 929065084 929351295 929501654 929737654 929785145 929861308 929950303 930015212 930031285 930033296 930106917 930122219 930124917 930284871 930370888 930381290 930429601 930443981 930474042 930497982 930575771 930580679 930728801 930848342 930984814 931112671 931121677 931197605 931280328 931465786 931506543 931598509 931846338 931857060 932060362 932081627 932114085 932513289 932589347 932677145 932763568 932888682 933054379 933222303 933259276 933423441 933468180 933729188 933743707 933795145 933933817 934061088 934086430 934366050 934419874 934501387 934622508 934663979 934905820 935150946 935153987 935181726 935562873 935755696 936034083 936073930 936237792 936463088 936489405 936643535 936814897 937335018 937343246 937376273 937591843 937827775 937902277 938006009 938077033 938190111 938235735 938240463 938396686 938675297 938704876 938744616 938825116 938999126 939019508 939106116 939179794 939395575 939585372 939672272 939840073 940061699 940182278 940213557 940213932 940249520 940355913 940384794 940570154 940673796 940784468 940988916 941071492 941311678 941370612 941442036 941500645 941618292 941689442 941782251 941896924 941958892 942068624 942195193 942221072 942234022 942298115 942454029 942454767 942512107 942574379 942574559 942612961 942626343 942668764 942799832 943143837 943279425 943457671 943477791 943487740 943509407 943774465 943790622 943828979 943891852 944082991 944193189 944237081 944244877 944476699 944719658 944725419 944761872 944807895 944863673 944931549 945112584 945256757 945473545 945775201 945780501 945781960 945877648 945900124 945926606 945936230 946029064 946034990 946094569 946105310 946310324 946334370 946756139 946792910 946970957 946983645 947065077 947088888 947310490 947514178 947619717 947754341 947861684 947920539 947970838 947975898 948172085 948195908 948267238 948357555 948414715 948631698 949158305 949204634 949244482 949450186 949474507 949529937 949569952 949744658 949773865 950035567 950080745 950119963 950558385 950863146 950940158 950994822 951094755 951357935 951700408 951735123 951998461 952061656 952217869 952515651 952545438 952660441 952758449 952798644 952933281 953085625 953323786 953422401 953545462 953566152 953610337 953678537 953818867 953864459 953893728 953992860 954030382 954044096 954044715 954062560 954102033 954374736 954597753 954654954 954662766 954739402 954829035 955161937 955374498 955439255 955467355 955635838 955849525 955887758 955973047 955978168 956016640 956124243 956155495 956244959 956319545 956486315 956770029 956830555 956897169 957083319 957090430 957251403 957278324 957306711 957335365 957518457 957601844 957767540 957909763 957946516 958038191 958198795 958208255 958361735 958413087 958992172 959064660 959220063 959221056 959759126 959855116 960014517 960125631 960187442 960397321 960467980 960673494 960704300 960760352 960811658 960941605 961096793 961461395 961782475 961793238 961855649 962004108 962199220 962296103 962345040 962621707 962644547 962671659 962689858 962716803 962726577 962730528 962816123 962817271 962941548 963224918 963293500 963418185 963537225 963638803 963748069 963786365 963789769 963795633 964001873 964070774 964116199 964325971 964365201 964377192 964377300 964380155 964473697 964541571 964743240 964893508 964922422 964979508 965104447 965229554 965362114 965417629 965422668 965512898 965518031 965816046 965900270 965905367 966028583 966158572 966322668 966434211 966441964 966466247 966617260 966783648 966834620 966922356 967173756 967190100 967234701 967238548 967360904 967656820 968190034 968449447 968761204 968825011 968993829 969065509 969310084 969416704 969417875 969450236 969558632 969699674 969704159 969843882 970034619 970166660 970239131 970445972 970482497 970486983 970579420 970636383 970762208 970936513 971046767 971057586 971230177 971311138 971355225 971529362 971653595 971700673 971841420 971872220 972103042 972215363 972338473 972340777 972374021 972401609 972495212 972560383 973123881 973306371 973380273 973511637 973515979 973575037 973693181 973925135 973945380 974022945 974026965 974059813 974347799 974420346 974515273 974540339 974658957 974754902 974930808 975015447 975391763 975393552 975550934 975748498 975857186 975968238 975981032 975993851 976022411 976024448 976233648 976326899 976465952 976478925 976518877 976538596 976549692 976665869 976953789 976957038 976964531 977057418 977082810 977248692 977492084 977613959 977618554 977944721 977950256 978284496 978285895 978314350 978506528 978548461 978752337 978823835 978930228 978946384 978976512 979104102 979195783 979492634 980035810 980081526 980138176 980280744 980510972 980524205 980701378 980734470 980815333 981261443 981375651 981416692 981441617 981474367 981505040 981551040 981610799 981706633 981845738 982105244 982220200 982312425 982382311 982478401 982486897 982589882 982671704 982759341 982878768 982912557 983219872 983281761 983282985 983327136 983364683 983414535 983422721 983606192 983649861 983895610 983902251 983988945 984107930 984288389 984356871 984511954 984663344 984664309 984825326 984883152 984958258 985110259 985137933 985212150 985220642 985238577 985535391 985582877 985682901 985696722 986031929 986090793 986165992 986169364 986173365 986293010 986427022 986645549 986757242 986781355 986973095 987102946 987202885 987294018 987558689 987638908 987950455 988001334 988052191 988146840 988308686 988526690 988653481 988703612 988802602 988821028 988991894 989002001 989073679 989127868 989207495 989213241 989228088 989406905 989442065 989589204 989602964 989707299 989771797 989843957 989867632 989911134 989935463 989938052 989975642 989999631 990170112 990599999 990824511 990838416 990863404 990922389 990929022 991024674 991062944 991130218 991233443 991242941 991296635 991355476 991584380 991826475 991885894 991935076 992108200 992114856 992356415 992427583 992444939 992695782 992863677 992979884 993120216 993167897 993174404 993333900 993340907 993367418 993463482 993474122 993618422 993654395 993720323 993893285 994011753 994041931 994079360 994146048 994452872 994557679 994628605 994665805 994675124 994768392 994773399 994801079 994894173 994897230 995042159 995160133 995170039 995172678 995180287 995187607 995188110 995331682 995343541 995414558 995498975 995629881 995833739 995941801 995985208 996069004 996134332 996273187 996409304 996422160 996427567 996727118 996749247 996786756 996928117 997127127 997190323 997193132 997238791 997288847 997430361 997627260 997665257 997746855 997788913 997816393 997819152 998010265 998113009 998231605 998296526 998357366 998502804 998928623 998952565 998994691 999171509 999309533 999368455 999377689 999436702 999516989 999852673
-611380785
-102949535
409340828
-902105310
-597531508
-302416312
244323911
-974049935
-909644393
134334764
389964065
417498659
-376581533
-12828655
799679980
-247952567
652534487
748027504
-907715812
-322001614
838594670
44459641
-910549957
-8855741
496893624
153526923
492786376
-89762170
-643571594
683274520
215187849
835844205
423608051
-163359095
759367465
-804262553
79544781
14633524
-921374557
-450011172
-697805950
-962863608
-878948835
200386710
467490472
398604111
-554036894
-382477597
611467779
-386090148
-296878971
-472478495
73329342
-988100507
-179478568
-942487281
413081037
-38043476
-727267296
346790488
-750513124
431344447
-367258433
457970105
-64488477
269241528
694330537
-348227778
-191593516
38820742
940251142
-540569013
547783123
-270742557
-438116527
857144789
-728815990
571587411
333826448
980629408
747465171
981196215
718995141
-419128158
-337516571
-335520186
271016792
213994022
-41320400
188757010
874340141
715258236
49807738
-156776213
-226828997
63577874
-269407949
-380233177
231881345
-223132153
-657625058
665552749
-642519246
-439317440
-392277656
485322693
653903441
-196434803
-448652077
-86668460
-953473134
317212883
-263164634
-460883296
532247977
500940192
-60602210
911256777
740753688
352856850
193505787
542607846
585381480
-62992891
-311454979
-291006781
974966285
708486301
113351813
-144241470
957047023
747784568
-813127510
735743577
647402574
643940542
85603362
-643917732
-326778398
-562892408
-590055883
-568951957
-61319857
273668186
-574114915
-376814621
-109525299
78043055
524783733
419517874
-821653261
-733505845
-677347437
815430559
305132002
-364723768
-847548142
-356315569
-995871640
20429698
-483244246
-954215471
-380563968
430998899
944132832
-177130459
631047479
-237453808
-166683827
-320790129
941862133
-366939505
-785470684
-985044729
-205278752
-493993228
860822082
818433856
-479972478
733267596
-443282064
449453020
-349662188
-784613014
779735458
-999385125
-283239388
-576450773
-726695996
-116058672
-864860537
685770660
965707399
514302811
4485854
32534264
343945091
-860180324
39739651
617915715
376328345
-151648039
-179500890
-703996099
630908764
253465073
419862309
34369352
748498538
-716568659
-371558452
371795215
-27241259
799180008
788161241
898555898
317593263
-193052412
-902240424
-468784164
350482399
-769302185
770651330
322349678
-661755769
-768834478
-64198809
904963474
228279462
138693466
691448500
-658473478
-29573127
552461008
-783148109
708478633
-410610293
132677393
369688320
-557012329
-222030546
860611970
119524634
532596195
-860072424
506438549
145060835
575706045
-932179589
915979411
17214927
165826535
-737641105
224466727
682394027
-817594485
384691415
-215286890
-157377241
-920955507
-270039063
-712856134
904763409
-548537445
337101454
952308081
927238676
-655678006
-545857200
611895129
-360518039
12216212
-891540824
802647995
-688591158
1069704
-39389977
-379487383
-991295734
-606314180
274112768
-988325293
314088470
267556440
813369064
815148704
848589647
955343562
-742385420
865369003
61884677
-995875489
374102907
-158150428
442723303
-385586772
-469357345
970993100
-639431800
541711527
-526463522
-681700465
44530694
-836655113
294542773
-365765712
312249643
-621431721
379851888
132599489
-300838849
-586169377
379332564
-872693147
774860772
-577418775
142732996
-413323972
-770783694
-631368534
-246465644
352111038
-897781266
46650940
854392016
831332148
27561593
-423454659
-812934002
-670871987
864454573
-719849948
-244354612
-945221745
-197987774
-54400999
-801104571
277566807
-802171355
73444903
-404353514
-642021911
-602335797
966438826
-734081908
22483001
224958893
851954098
398689034
113585534
-205657353
-478621598
-154758112
-503898280
569849071
-862031914
766108376
-546392167
-690196463
65239611
682345234
-856380631
658287448
-915870129
-925870832
-990604514
97122460
278955095
-8282454
-302362335
-382571179
-351568953
-165736434
774955855
240976895
-54907422
-633776285
-850763411
-475263853
338992977
-358547595
758903837
208526546
902778072
-394385740
-119184315
504135435
557293162
545222713
747324849
181493442
757790606
991102470
815228875
-589627837
434014873
624171433
660019891
831396897
286015166
895190065
854857891
814391491
-507705983
959358041
738069288
-689747344
-434086687
785859455
362938449
-472318604
-760752561
-754305437
17715570
620112158
979384032
82327611
914857617
-339764471
-661242774
863936202
-280994110
94763258
505445950
540746688
189495948
-387478623
888731838
524498544
277814278
-695718775
949894963
320898680
-487603037
283245512
77101363
776261477
-804257955
-1639213
572103756
731315932
-749821687
-721465126
707687538
87837292
-947472123
-148518646
-94500312
-833499152
-768902154
-602441929
454583500
-807215486
-457544300
-679222639
902436888
135388323
-214724835
602082534
893112457
575295978
317018844
-391402556
-212504159
54831261
420114177
-723360937
269520495
-389797612
-852510932
-147248334
10614170
867078200
-658953142
-140478398
-231144980
-442137917
943095476
-479017767
-234849772
-809994420
9632556
749891204
-528017182
-654538112
348429672
-684510973
-700469194
139733562
429562164
-122968637
-735950340
963618887
587609042
897321828
-716623146
-353061366
352846671
-537102983
-213823355
47228273
-664499050
198788046
535014432
987812317
-342857949
-960744388
835093412
499993006
-562076618
-956951398
330395847
287665322
-592733352
627088272
241378220
-270290099
-851809089
428189185
-553396028
-290383350
-52509568
-190940097
932015698
623604508
-64460441
617273135
-748382728
-589220907
-426287507
-397952070
497538969
-906432394
-753245950
920953505
770867914
11034831
-958438399
-757722699
945738591
818426606
603125990
-516493025
864337935
-722529685
-716161845
-446171111
280989904
-364201077
854454976
647472180
-697185401
537870674
-958246626
-487708147
677652783
-956914947
527735049
387011605
-76693577
-769107054
336339055
-906448943
-356742987
-892931954
-169362766
99837575
575018947
-340416651
57557290
-242103583
-594669054
-864703128
-479925014
931558593
-962566164
476122245
-919285940
545065112
-569258746
173390719
-605160768
361857097
-390629078
-937901709
530643572
-437311847
987993292
-247292671
-85477024
914948349
784713754
946841877
28944499
937067079
-202242354
129855598
65633317
769375805
130955201
-930476887
-631146049
432277835
209712098
-400999403
-325437286
183528869
951827145
496303196
-782498097
-33766961
122040020
-574077754
927278911
-440022243
-557692165
-85613065
508304129
-147605682
-657044244
518568458
-174195647
-575755292
580932357
31406157
-626123196
-121354438
-490470984
519474748
-396498889
242970533
455629025
-435567430
-938494666
-750263945
-255647011
-233605568
-427668385
-360593374
965206747
802227512
902307361
229690450
-222244305
450988057
-772103578
-613203148
944290462
149416440
-286881329
-777951622
57186371
-352000458
-263275343
-143699549
395754521
-746634784
-529181994
489925171
427306543
-421393163
-425260115
163481377
-755555144
-876835945
-946188166
154811869
350645350
90854263
213277294
71401125
-471303088
97352602
-695992701
-551433528
-331122626
369140390
828310315
870288373
-378266017
-747275168
-240202092
383438891
-568652045
-22155000
406164821
882164702
205906711
-3603337
-402757489
272069433
547421435
-434293810
418737252
646988923
604653622
-30607039
788459669
-158397032
-104387386
-915372359
157385045
-756004681
167512116
913714212
-483020584
-747154413
160267277
-852122516
-474109964
-321694042
-664135867
-720574797
549949048
338333859
678987952
-11478018
-790789610
-438578135
158011399
-152287763
-663909896
217583864
708568148
-106788183
806553596
501747110
997022126
456772806
-505696317
196261823
165937507
573116276
-378593726
625477597
-839899370
221074315
-889089620
670919133
-483380824
-163970312
421344277
505349770
-28132729
-122966439
443381638
-969144533
-529684497
-935326150
953956001
-887772242
-196435754
49010685
642896044
-326183975
-677886172
-551527907
-104085835
556978120
-895512167
862266206
-554988010
-428037469
143805927
-917735702
134682350
-274455058
671735977
926450822
833567353
159009104
-700661122
-276210961
399314111
840231227
-612487261
771137275
-156186652
-319627995
-245112915
402063195
694893809
-207004253
-533655437
855935013
682613664
-230174180
992275153
552802401
-50144164
309414654
-260311445
277292353
-894775344
-694535483
570327717
391386491
524563209
48611996
610128435
404265530
-346591192
668240641
-77259962
-46945348
-229231040
529086682
390763567
-944212546
-143956136
344288269
43898597
-675609683
-393840809
-484753186
937673663
709562062
-216553237
-874022764
886866652
-499689058
-765196110
122380237
-486098102
-114231051
-781953654
96520296
-960773839
324367116
-362384549
-692793818
884507343
-150461280
-886946941
888766785
-349974359
-858565904
-875829895
-20865984
-895372339
-367507993
339579566
-395280088
296193204
222583812
-96665852
307656263
-955103494
168437602
537245015
302019073
655712082
-206666854
-604193166
-894359341
-600031113
697583312
-33156316
386313730
-955243312
820651987
-942296514
-357320336
-581471954
-330980656
650805020
-363223877
-742151798
-37868779
-152526374
-895978984
-410842609
420901603
-223846537
-416442112
-527919673
193981831
-524090781
-684839656
-367274868
-955865245
-353993144
-1507289
48819087
515958425
862488696
-326520706
103282765
527805702
367918397
891082210
-217089951
640287495
990807705
-95638111
-570054916
-932924825
172430159
-525284151
85691325
-605331477
-102493946
446484098
177208149
-497820717
875566405
-887441589
-87553935
-720394036
-121068006
-994825830
-592195984
-701094241
-105354779
626227708
843540426
151963121
9865332
96880152
-505777117
-203720018
224555129
814298952
-132280796
-85708240
529985993
279111661
-714643911
555504560
-949678327
-497264482
300878483
203100422
-846184065
-545203912
722815705
768968932
469205768
849244468
-95007165
-597053460
435592975
152615850
-150340577
122582670
269750498
-109380352
-551261124
-499008980
241015454
-493324599
13798640
158819882
-932619925
-130557847
-241813708
-339547655
178199962
591553563
990993701
-274394231
263978560
217593179
-294782622
-790088012
584617866
389087892
492889061
709481592
-990058432
-171586698
445475221
-130067444
402722066
-880893243
623150049
-327653175
900844476
-80805941
-338211396
487703040
478772132
976074692
-218092586
740145628
-774594137
-91054913
-131857433
850646834
211298545
-493209821
733145822
279573911
-86311787
-248716522
-428312839
29700074
-806602488
142234310
-749088574
283469703
-969626427
-22615357
-121112138
-796992000
203502847
839483045
-640953683
932353165
-417368237
34750127
510388796
608632522
14980225
242829353
500724165
-43660754
655891791
-501228057
-822884484
981481304
-926397850
289280003
-981915488
251636552
168785812
503555107
-444948923
-43396202
-804623912
-601940129
339932290
579560639
823957627
425924587
207692813
107877057
-838896852
-829723568
-70785465
149669633
183726897
986381745
69681179
352508270
943635553
138339756
-246593551
384054867
994041485
-510994340
50543929
65544672
807379693
751318427
-272031766
-933195639
230997986
-901262198
810331875
-218025498
596093990
939282030
42276707
262329015
-144423832
704157314
-179137013
-717046456
584096166
458835723
-36223057
816294571
-132677243
445387260
824647544
-394299215
659636082
-364424691
-928774364
-514468614
745024015
-768110937
-673896128
607194108
498343056
596626545
151439678
575707114
-635842546
902590021
-583433142
202570351
-841158082
-817362943
826360150
-664019723
369181281
-185215476
167401634
202163690
41439928
405098018
475473525
36202202
880553131
-639556029
-661397754
274917694
-645039147
26332021
43221631
647431556
938071321
998686426
754010828
899550270
979334101
884560687
-119661355
-100556235
653490583
-790197912
157681230
567604565
952008214
-47165338
159932667
961164057
198328876
-27604699
-706237101
27909868
793735173
147972855
770141703
-498723507
312146249
-318958634
-292679009
767148
-156613959
-730608345
730648688
398381798
856268290
22254380
562065357
75835485
-709320235
-909058197
378442057
-511325351
765671945
-948926385
-31531349
-74447742
623470892
-339627608
-419062957
-118709352
-697406290
-934756144
659561517
-512423275
571636596
985939017
244189641
-475886254
-740237544
-535446719
814684100
933676796
67406336
240514409
860580901
-332045920
-752708288
596865502
56433345
-648352831
-136248470
456886212
-605028528
901077833
-383018708
-826213646
870160082
699920013
952884713
-994432392
829399876
-803913731
-165381631
-970841242
525274271
804024455
-999111755
449962902
342970784
-107742343
-613856893
915364109
254273444
-89771348
105295965
584975244
-683557862
354833096
-684865709
-577827229
-443607910
15153110
-757691684
-80835818
622871262
423088110
-941642590
183057237
366099359
274495661
-892262417
-81843748
665427673
-846427342
115708159
289312477
759285727
-432161223
80511894
-451628974
-847440166
575782989
-807443195
852521488
-541696542
326344547
-737483662
-484788885
-635928936
-602199165
988440252
10363786
-434956307
-592975004
630017192
228212018
946322636
870264647
-115630361
-942504261
-263792029
718233636
-449750579
229715072
-540119671
808754223
584693880
-296185267
-628540425
-643891127
-79231095
535682620
-777267058
274979193
-500417095
-223435909
173355553
-992887167
-774374099
-626512310
-757278050
-436689315
-65369398
-102713443
-397330764
-539566221
197499117
-604936
-195891193
497271170
-766844791
-100749853
-176999789
364154055
-605800806
378312596
271063618
-20977528
-829469173
494038893
-186131445
-809434956
726078523
-172946602
815394358
-749985487
-859338086
932992876
389257070
395861202
48096699
649750894
-473751442
-443496945
506005076
18372084
132471755
895621082
-150469362
429099209
851614049
-285093259
448800940
-302603571
572555398
899009066
-565192815
218222431
857563270
-352588775
-926047973
947995735
704284663
-532859867
-239918745
-461376609
141770995
829492343
-114662092
297718608
-994011253
-994428144
620060343
-229762072
-583856124
-602542185
-311689107
-471324551
-753724720
-997109543
-770376868
-951957816
-292975962
-691910192
-276505957
-268376520
-7119583
191042592
-972842247
433688241
506785701
-214826893
56752182
-233493102
503071658
421565217
514072746
766427614
-59235080
-725487045
-68483197
-482336151
-43256282
769302968
194743396
-256502436
464789062
478207746
355037294
360011913
76791923
310333056
-568121090
-532936745
-280033507
576392901
-644044496
-888105797
-858706346
176821356
649154714
903443287
421345043
114856620
-20747801
995811278
-509644601
502722305
47096831
-719549789
815572264
-521896071
86531870
561644943
-191350777
940238909
-483452712
274743598
419166979
131611453
-862061301
-740110414
244818788
941903541
-255494297
82119775
-383134430
-319609708
7305158
585295878
-805730548
321246294
188846712
685453883
-366547605
901986125
-994202304
535691823
823800568
485564809
-237182426
-555985729
495156248
644526729
470856804
64468853
681619290
-790059927
-593143681
379830035
-876377669
-134305175
137841941
376852684
-15267103
-189848568
253768624
-258503253
823781610
-508073141
-701740145
-535936051
893327112
-577105929
-703398950
-857994774
432930702
-128815706
-41653906
-523778286
-638642366
-410520995
276417493
-948099485
-341043465
854132219
-246210118
-903029662
-256740999
545579849
296223836
3588211
-72848065
418692410
773917866
820660861
634352475
-62321527
616806678
237612921
174911220
316149915
620099475
720779033
-622469056
886560339
-922793947
-772084357
-325868429
808626095
151562921
6057977
-221181398
682485260
448270302
-497782451
-387477485
-439856901
-952227085
135088938
-419564415
-442619809
845906737
364357981
-851068931
-298464399
-621230118
906453122
436952383
-174304765
529325776
-418507196
556781081
-800957845
-53500948
-640455044
-600048636
873622288
435111927
733142880
313384086
-493739152
-114494525
-158816579
-170423412
281431726
-942258414
-93444306
544554633
-717392658
-85324664
72844958
495123769
-695848447
551811681
758835951
210219911
-983607949
273819764
-232144865
181381321
580563231
356923946
-940613629
249195559
-639206669
772811997
-607088238
-793021272
997767493
315561228
-612169838
-775736072
318819802
244764305
-126599213
-546092541
-31250080
-854710605
772792853
495437930
449815179
-232635096
98083509
768508847
869337088
-824019332
-363574674
-108530072
565166302
137213719
84172656
642108785
-349287033
869862065
-493991560
-812350041
753717654
516458073
-62808419
420396657
818849633
-975369145
927279513
-482565479
419971931
-138283905
839307459
991884913
976803550
-828625576
-279778011
89861590
-348426744
228736158
-103955050
437606012
862971707
-791365266
-716203581
836163174
-75764054
336619564
-657427925
-396269092
-546040061
-911779654
-223288911
285391958
819478052
451086200
-796319306
369967293
-480904718
97192137
674919466
-983737677
-364804036
304386186
-636631193
-687618
-204840057
825755217
607056721
-368076095
-297276247
400709655
-283158230
883698828
381670604
892513555
-821171045
729542691
382273539
-404642657
792092479
526901299
541596069
-79901353
307976097
982843556
641283986
545937121
-271670089
-521495323
-440344526
684811869
-6692536
58738479
80040319
455479588
-172167260
637032168
910418809
-781736471
860627384
184171880
38986366
469576155
757984712
24901245
-870922633
289289522
-62490745
-420703347
903909999
-418921575
662943963
21382690
-68653347
350379379
-755925976
-155566327
747199958
-842113827
-541966359
-916612254
-816975786
-659356393
340407750
393237653
283386171
-260141041
-714945169
284771001
-697398847
421305516
-568951131
414176745
-967211664
872075133
-278804319
-481427532
-347452223
-523376312
666045061
548049616
-802595443
414808629
-890969587
594698276
744039051
342308425
585214281
980708631
-722117291
799875723
502094127
428708147
145550293
-939433368
-556114387
18546872
340981242
-763494470
308794108
-391007425
-62605916
403552204
953042513
53691807
361642680
-185266569
-881649411
-937511642
663963180
311618400
87907933
-23670623
911565871
-391852304
-328477264
-795750324
48997419
823594741
327598775
889569785
52175326
-866685809
-213188555
810757331
-188264402
534143764
117889884
-740934606
-930202348
-411362499
360038696
-29004449
-211651525
228011745
594186701
-291817745
-239483276
-982684714
471553365
766636767
900964269
-285100440
-129487914
-694204825
787992876
291159683
-59824932
-888032921
175288284
-588207915
798903207
648548134
-582111194
-505793178
-227333795
-213621854
-283266996
-681095310
818695766
-261008817
-611700099
606410204
-164840358
-882601851
130309814
182341815
787468279
-697177222
-44269342
-770843643
480370845
-693282885
-433082829
881764504
648594429
385788791
634716935
-704856259
-52153289
-635755449
458390246
-146191973
-293011138
16576357
138470557
739947485
23215574
-369998396
-848239691
771608690
-948728061
-988673637
744915520
-656423319
-381465361
416472359
-308337178
-689612788
577282732
556415707
-583126282
-980320800
331672916
322721615
-307426192
103766997
-4871596
375924237
231344547
-154083641
-792551097
401825508
109426304
781795412
-247809483
932704674
212342652
-335923794
744320487
-212671285
13859988
68838151
-389190819
206069418
-405433915
464450839
-654622720
-395590551
-719435459
196988140
-577752561
30514879
397295554
575438312
-571831366
-350577703
406904065
994253110
994751609
-280443247
-29298776
-454019665
-8519358
90943529
-54622736
-51353778
346560920
915901212
742165384
-146882073
777309709
-874908824
-931397238
-123228491
272996290
808903037
109645523
807997427
983986879
689648101
861762303
-545399033
-107745574
-126624414
-771898384
872371231
-741747880
-636630243
-121507688
-172835078
-347537454
339873483
-54276462
-642232243
77585057
-409315510
474700190
547120440
459609584
-739596853
440717943
-182905486
-859265447
-121859766
383907706
358497580
-655319203
-172468105
873332307
-648328144
746204378
-961468700
-916070824
994334635
311185811
-870901763
-654423347
161108871
464028972
253143920
509482135
-420643699
-781426374
-634523498
889818503
-144590377
-946300553
843310068
544922560
389544432
-908074787
-953388367
42768044
561836312
602456033
-818712227
157571689
870863877
901917916
612375409
-119510635
901487727
-764054333
-835380999
-763209386
335151395
627960695
-110324407
445493027
651656780
305312907
701088533
-719800379
-413766436
697727472
87956039
-209778117
-515483330
751492676
580166308
-847738959
546711699
-833296020
317156554
601223924
-813615860
-89774902
890562443
137880848
-748316795
-360583623
-324000639
-192631651
245141469
99123412
-180615527
-879091216
257227141
-925784873
493656522
-992437709
-317048984
497112285
230556440
731585284
25404121
-882150008
966764070
944516160
224046560
-578176966
-330114895
771967204
-882807403
892658672
-649885859
291924831
-154369672
480537909
-320638843
-529753335
-256838449
313985385
-711838292
-884704646
-58694355
-931161538
-820978566
534495845
-718544174
991774775
-600107235
10875315
-616155359
-426032974
145238809
-549833276
-157843453
468085227
-814530023
693677337
-879896589
-990350663
649806968
-584733305
660925488
41334637
-669593522
-759564254
-369418479
716856799
784403388
-953169759
999807896
352490386
-666906221
-645208265
-951544985
-740126752
570218676
862962707
350959703
875487589
75668817
-152976981
-494050054
-825251275
-13395762
-347170547
326931317
915287551
989022645
-278877131
768075751
-331791682
132210097
-614654409
284834346
-13957516
101840409
735604304
279000591
641401857
574502090
486312247
505337369
-514317481
8663084
150466263
-523628920
390370814
32006824
-97993844
-66846968
-489767010
531627600
-407736504
-499734385
-596804919
-773631979
435631836
-436507220
459539730
514483541
339315523
-125198303
-880324107
-892943670
-419802223
-560785791
612457416
-285846190
142176035
-81244618
245037849
-549191420
-498855700
-796223557
966137802
-571057221
26641237
-558135335
-702662313
-878466322
-701316428
-291181000
923548478
-861057978
-328985751
423339875
-120401347
102842816
929554106
-366959235
289979599
-848169510
703275979
-815583829
53843178
-383686425
277277506
-468729319
-522902523
-157669770
-278408122
888231511
-515195756
-735573299
26525510
59087784
793550008
-977989329
-969695206
239045079
467464665
681487970
620017396
155706536
-616365041
-423930068
554326395
138976572
478916217
-574470818
-582119010
-353999917
-164959503
-83329108
-469163594
-138961218
43910058
506970805
82914744
940572683
-922815679
748739469
-28474664
164001513
250334128
733283393
-90668265
-693145518
-953701565
-38464517
317995655
-867226632
172842284
-56451277
-799955681
-875187661
-265327629
-674347738
-512057890
-881834881
-468630211
-653916554
404218536
157516859
-690731809
142624173
-428170478
688786156
835637412
-988475668
-877267164
702942940
155990327
82412411
-751754971
-118878658
-116003606
541482080
825419606
-883366408
58456393
527761002
-833842210
53705026
369648383
-613699983
-494757647
971421605
-438246585
429649854
409165651
-831757389
-286751213
347131861
954246862
-171802889
-265620199
-950451356
-515694655
-863972189
41116820
-477580940
-853189376
48032912
-566880973
-752060781
593692218
979964210
-397649124
203560714
-248011697
3306171
-591661286
-274725621
-387524872
-361033378
857316379
-752470194
-209295483
-943015864
683659359
186632662
-350594249
-968279289
-393520834
-439134262
-86363184
-486262082
322544558
69834354
-388020517
846254691
-331647723
-761388481
-879589586
638211835
271952080
653945513
41836275
965046426
-598962771
51959622
702894008
-302000421
-629311750
184293208
-672154330
506179140
381318204
640261846
-76809127
-137308402
-368195123
909496082
-675851145
-130156445
982754969
-931060672
-542589500
717407085
-989664508
-537887905
616741255
555419129
-379360103
-865048440
-22429034
-24392241
6674674
192401809
-427913668
12710413
-397265990
-341818097
-259434748
852922451
854226684
-730252858
375591677
746067944
-462345676
788738964
62002281
432153582
158005893
945519857
-927785514
807676641
768527528
869423970
114581345
-606798495
771175138
-743656177
980652302
655510835
-513427679
-37377568
742335908
631477211
-636732242
408460306
-115221512
519747976
-454016416
-687566453
-493378758
-403334719
342547532
-607855996
480533047
985821961
-268783265
962634036
-509686689
-30877650
177345153
-553661306
-285757177
771646892
-79815950
-737920973
-696748655
-626174298
518206334
-881493248
-230708607
-966961850
666303209
-729187189
80584015
772894957
-498137279
-853489684
535678512
279202588
22697701
71987987
501702072
-979323481
542888786
-514538133
455140779
-58864319
-75069033
314484670
484204250
-929307080
497729555
815323812
-362965929
954645683
5488254
716080179
-763029803
-559512578
875138532
-415685504
2441461
-214089527
584121502
-189544861
681563229
-733752684
-862798988
324711037
-717981065
449860469
-109370267
-55543997
504224892
-697899544
-43788741
243181858
553601587
-932304277
-544564660
-484423816
462919099
-335955855
434536622
-592762175
-923127205
-652790681
213896211
982637012
-749965645
912601739
863581980
982401701
137693509
836936255
-770512093
-657143605
864039428
-316514382
-995126486
943369236
-747614656
694635080
826608373
202438809
907608162
805356625
-209678284
-251469461
-137626579
133154522
97299572
-471224845
62983811
370235070
829639616
-326436984
795309319
626691173
290655518
50913677
973859676
431414202
-782550082
-718954172
671052032
-569199561
554591279
-672175702
-915024877
-209669567
-588924150
-589732245
670399110
-548326659
-257408115
517061996
486418814
965619828
174715065
-925866193
-80431541
-681600646
189628519
171589715
-158548845
841579509
306152621
184509573
19096374
285247381
-85178046
647023233
-247330315
-216385382
-610660521
518355900
-494145446
-667874828
-690973551
-102063197
453069774
925010712
-310645100
72819525
-150809233
94367476
-173052613
109277486
-612721057
-817955515
-797162038
263616849
455093942
-654815347
-47349591
-477805009
-610740408
-83642620
-95329820
-34350604
427980973
-774391941
-916926310
220544988
756227306
-33019174
420005239
-79271422
437907460
758951855
-329902221
621553154
582496807
-487736864
-691955455
-551380871
-989916194
983233677
932652611
-751139042
-907092904
-793112262
999235543
656654349
-228639752
-684738857
734641680
-202197967
777489520
910789091
111596058
101929339
27906793
589438187
447563548
857547351
-617089835
715364110
-358114954
-314453597
834112118
-585349303
-449474189
544020166
-787269180
-34017144
-995217309
969814989
794396222
370086290
185601460
-163390679
622107888
636216843
322662729
-738822583
198670669
-117665234
444151417
-849470755
-339245104
-946414110
977068650
487708625
-960885863
-359419586
-435051158
-558685542
691081002
-407970489
502324645
-457818998
-250476022
-4723089
-55887843
-104665868
877610970
-167255896
-184599575
-178355207
730639200
-209826366
-339588901
382056554
515769179
-668159031
-163107267
166068645
-928464901
-977706589
-817545762
-34391398
675694851
-780836919
-217114303
-94916554
-891480673
723720782
-657376262
-55585804
829252322
-226737384
476855724
351555972
-38245686
794490096
-55950755
-1263619
905777599
-801598565
373709609
-210928637
-965669889
-992129427
855097922
-327529679
254876867
-775329000
-864240477
-152849896
727585978
161420726
-325755270
-838580907
-856376092
198638236
-489488052
-463093996
-472894865
-682297345
192209357
-859980872
-177828966
-360111342
875871982
-927238686
-815243411
-822589298
107246880
-531895353
974112567
-232074755
-150150125
-20150982
-979201894
-158281631
-449262050
256873745
21054650
53212805
29000624
625135881
-602297751
-752634500
-993110573
-725626244
-759645754
160333151
886304210
-670204854
-13465635
222387467
770781422
-593974455
-390127500
735703596
-92771171
4465929
-743551629
-446167507
756823591
-685076932
-552519285
710697160
529416847
-207757322
-101098956
-378230215
520461298
-849704476
-274800931
678140916
-791634229
-611977419
885060978
-444331884
-947184482
-878906353
-839305853
798613246
37135215
-201114261
-544737646
-908301827
-804791444
41243437
-27676717
-750655936
-778265236
-936054754
-486680281
-197954711
66968189
-478423099
-467446739
865133750
935104537
840688566
-206449289
-310464986
-216473711
408158258
380171783
359570531
237081821
472222318
520866475
-837231528
455934267
-812679625
790717111
89375820
493900325
-825779597
924312467
-5419916
534967346
644764529
481921897
46046059
-234003438
887530377
-700465682
-917578256
-475870588
578752228
112385909
-112821069
-612356775
98716185
965550159
-899373209
516771061
714799932
71615554
-266682815
377377952
-204129334
975316540
-74693657
-171707949
117536941
334053927
516573007
374243348
120583565
-183132939
-917931015
-190687645
104796285
-688849384
481858709
-585242904
406324344
-52089463
-699821831
387211162
-758617641
-226017346
-133301199
982754727
-78511113
-595476094
668518637
-22630247
193435250
327883193
-571012279
-40076888
-829311706
-401885277
414285736
-792206404
-674434662
-256115171
-764553002
-723789714
-248154924
-938409333
-756465502
-306543186
-373545667
152076044
577235413
-841617092
799204409
-268788238
-51036995
-38883889
222344221
-869494697
1314375
-774954734
-828281056
651487407
-636174869
-468826576
-209094631
-835956495
-55183733
-765180015
-245781793
453959952
-270181505
-303115128
-412825497
-488400929
459313529
-971287984
-542060341
260228992
-790265898
908255610
-62479208
204589393
559867504
359949838
242664535
559268746
-458057324
307453921
-130673300
-18585629
482095382
576812731
-167523780
13951192
-838517103
-353436260
558042011
641830669
39514242
-632475308
-60777294
427154556
-478460421
-64792648
216932099
291855951
-196423201
-359811722
646000307
-876750622
-834711216
-261522386
401977348
233721014
-731220578
2171407
-208830754
-153799168
-593730395
820075318
670010183
-192045494
459803923
602409077
-411944257
-227390473
-697155557
50987200
777980770
373721523
-936564143
455323539
-247190670
660467503
96575023
-737365590
-450388583
245872392
-805391607
709234053
729239096
-256767890
339984383
931751346
154746821
-738840502
-949069067
-25000329
-690453274
972128961
-255555189
-897386683
-711104447
-828484117
-524987101
392222261
-493724555
48166601
746361365
495818457
796278505
212119640
741839593
372376295
632340433
611438259
-120258256
899736415
-89799452
925771472
-486616021
-15033108
704137036
452476212
-442695606
-679782913
-207780644
-785678361
-97971543
93206366
-98142976
-579784981
-907468991
-134750737
-255340394
404439280
-758337261
-399066822
-140547901
213726371
-570250781
-266143625
-55198629
-853413126
-867177445
833399968
485773515
211495797
-564098366
-453674687
703844703
-264624579
-527029561
4071988
27299785
254472402
-724980187
333263580
-535452624
-771204654
-224896820
-910324489
619340642
848700353
-409589460
-126533089
842488724
600038790
-245395367
-356738070
-278080202
-221606499
606333043
-202858193
446181885
-399148669
-559658312
459983138
760560041
-552872427
-130604978
922895689
491679524
-878593895
759456693
-798207833
-68238240
917926805
990711548
-237615074
-71331358
-562924687
199668008
89116572
585750527
-244517360
876440223
485246172
996502591
140653068
-688142552
548197638
334326926
382823047
-580349406
611172015
384085394
973397622
940755904
-873682057
-711025428
395531760
-433564624
780186897
-325120097
494430632
519952037
-861641298
-890615118
-486972709
590118968
436753456
714798816
-69133387
44412871
481043043
45810500
-84751912
-958237625
863300164
180397038
981465041
945731616
395897801
-222614042
285222483
647512451
-997040821
421452457
-282392514
-473117020
35552544
974623793
773354792
-305890259
524875918
473827139
474077159
89475533
947090668
-339691599
-742447018
289612887
-178287609
-460315907
-639091144
740609385
-977237408
29469165
944232955
196935208
943828471
240096646
290609110
-758370528
534742377
-459959402
-391045986
926786512
315995409
831521051
616272471
-418062540
-925576796
220786667
94806912
690510237
737038792
-573239049
-683671620
-702418965
418251150
-589742546
609513048
430990448
800094565
534751722
-654954213
-485695141
965917270
45855324
983152027
-805219973
935722127
725093156
135280693
823663726
-556960460
743081763
-603974576
-434605406
293411609
-712994511
-170735629
-412938914
-103020677
367382956
-559333290
-262245841
-201797909
697917645
-31903957
417941063
96565591
-876511977
-479606937
257483901
-590932612
857909977
679137609
924143269
485624699
-959072185
-548563311
954820072
-663227339
-341755660
-414542018
673007826
-783991287
-990376317
261878794
-940065305
872746476
635439279
-972872274
659691751
567198046
-605024408
236201751
199071299
882689546
-426449855
6658447
-835928642
757451867
-862760895
514381522
-896912888
777281611
815825202
-440898974
570111282
-491487832
610484011
271619847
-6039389
837640662
32650509
705060390
-8016783
434858570
-462184615
-14901308
-627302290
-330401291
241168304
-445087584
-435007708
729853265
-695655725
-662181269
-883142838
-937273712
672822218
-712931158
879682432
166520789
-389151744
-222902358
440010004
-916971510
-447552001
-719794402
-316088608
-646942877
667126331
567000965
-116780459
165384153
-20014232
715854254
-686083235
-915973252
-615209436
312345938
933955864
933494989
966516821
-607294782
-993943041
-566260574
-634965058
950541951
-507406405
-974326893
641316864
379377083
843962834
-653817452
-192445680
735598853
-898811871
116255116
832221233
-410026991
-944658132
-509691276
-775517866
317661298
938539349
811403940
770109346
233443186
172055954
547642144
808680039
-976838974
-101786374
962215791
112499019
722724599
519947313
-699829100
405031167
-556034365
-182754092
-458871226
-315257986
-657861062
-736203693
-227488404
-421244255
-731849434
376700386
548019463
-846851418
-172283303
-344305635
573526311
674344543
-312338340
667937318
600802273
-877044882
-983871789
594347499
135170370
-447087047
-577911688
-700049347
-178616145
780739536
-746849302
-179839590
-802137752
-963310693
371011360
-319467503
706278025
931769086
-748616527
-108349626
-539193034
-406074873
-887066429
296276513
-211246205
-298511293
548687314
762732104
-790909807
109989615
-802951525
-330060967
136841982
-610493367
790570614
-942722382
706921196
-424137394
851452455
290800541
-658717426
654959858
889457396
154699838
-682299520
-313532027
-79661206
848011701
557311547
45420016
983366215
95818260
322124797
822450132
652748516
698682374
620429051
530871536
918990135
-384477268
-891800841
299529793
-147958166
536462652
-391482263
735089038
623628261
-272164481
206303402
942368606
373427044
-776403880
-977732783
-722476659
-158274621
-314097157
-205617763
116879583
518614934
894661037
507257604
-85291371
-560549456
-186266316
766921116
892493577
385906293
122953996
-13594124
165525806
-222044381
-211961500
-572202724
94997825
84206591
-359928121
272301416
-777894485
863503320
-570114174
-266545249
-933024109
-562298809
-525968663
515561040
-962736571
-466261893
502014341
-695408336
-884440600
948509077
-428473953
582791492
492674270
-818757065
-697145122
-915615047
453748001
449648868
-703862258
585364240
417823894
-46780831
-63958612
935513377
-322670359
462622465
-376019564
-867388741
702707700
830233958
-839263273
-40609699
676766751
-600094405
-792299910
-223150674
-312389320
-469250251
993385485
-650862040
-733253921
-795351315
-707331168
866543770
827616816
657138658
-853533605
85461852
679268427
-514617539
-552146753
580846347
305798599
267777336
920038441
-320236807
811265958
-41530424
928254961
590037030
97373731
907167599
-603810950
933589971
893339444
-407765517
773039486
-592498196
750451867
-169144290
-887234991
-61758377
-119164195
-270395293
-298276406
997164710
-925243907
-982140498
92612382
-810602189
-723081238
-634941092
170516394
-305479502
312429709
705140336
569247314
-34219709
576630944
-556887406
-912761151
-585057666
-705615692
-170921961
237860798
-420906613
-715586328
851173551
702711809
265455257
709062451
684350948
-430374898
-141854642
204205257
282171209
732471796
787267753
-706613040
-366927701
-899647722
186963035
25907783
4222654
101076699
107878600
404454196
-863874313
-366086786
607860256
-954658846
900347679
937975683
72216354
-13776958
-240443649
653017239
731499251
-58582676
-660701129
141688885
253135981
-419480820
367453353
900213648
45732917
-558488138
231290331
-138904236
-291572863
706913666
122521265
548246176
129836991
-777779042
-411718822
964362266
-844008250
-143067166
-306455518
609879707
-728778020
26480222
-751665069
220749422
464158842
-27715802
-644074467
-922207021
196991156
-667017038
-153134690
-885177680
-474524688
201734280
651053226
962646685
130787637
133608134
-773759024
974292427
538940992
-421736461
443561414
514247907
-433486215
107390405
80200964
-902209635
451079632
-450653828
698926157
-253429548
835110731
-833718138
327252002
831497561
-925301583
-274259718
-323732762
-175682248
727512028
57048411
632659998
-417732490
-536775750
-393137915
-386879404
-724514810
372685037
-336376651
-184987957
-52774220
218141387
-187996664
325168930
384421108
-972521964
784582054
-448622834
173106730
-59346686
-371205216
238186569
-233392707
600307221
32379873
94692809
-611278078
507817041
108720640
-894696614
-210216377
-485815705
-947685134
-207118621
752563616
403246590
-396027980
406112350
-504369462
565380930
-400310589
-8250351
91014416
-456693831
216241648
-185848021
273668796
713002691
49935080
-932167170
567736474
478100050
611500459
189086120
719941252
993169128
-897039205
875078210
-271841095
274645563
-594364862
-396524562
-171104681
-199100376
44135377
12963355
265102613
970791866
449000046
186934154
-597113248
-953346024
812706359
-994701907
318941863
-154659620
-350621633
972772714
690858640
96718984
-797430553
486567511
-477913005
-845105469
121910835
353513545
782048232
-768027657
819029922
-831194630
-518005435
19368443
14839859
668742278
914778339
766347941
715698810
821345575
-621011841
-105276278
111798190
692434808
-323600542
940203396
828419890
300516177
941939788
-604639153
568934330
693960313
105968650
-655195281
2559610
491267529
-242213965
248687773
696143920
176101382
303302654
-643797077
368986263
-208146584
617375931
-8887779
875187536
-836354862
-371111060
-102171903
774150361
753669372
-913227564
219744841
654872741
-436096734
-282859052
-678564076
121291034
-899709835
936455772
-926921778
261478823
606205222
204633134
-233473309
713079963
-971831447
-834072558
501748861
757004616
95196397
-931066253
965536814
53200744
-365944875
-882145345
188652451
-373946194
-831553558
-283220696
-601826873
-506796348
442366978
258038121
-532260700
-169406104
539993520
-898128124
780210574
-298992948
164252568
-680641133
273925149
503651014
195445323
-140959068
-751123774
-929879834
17816416
331548149
-213161836
-694381312
-485283377
-462309068
-712039456
362623480
294952437
-40605342
-152638469
435269162
690223490
-837362884
616331891
-437807492
-431568001
-630287443
812826667
255088368
-369490148
559058349
961123778
159349622
-607013602
577589313
-156888402
573487616
880003288
776831975
958738279
-871575699
515633422
-287172614
-709866272
704517395
739408059
-910500407
-865795554
376616998
791958477
-478026663
-283585190
585835553
675345408
824976836
-26104778
-861910898
-276998449
-752499713
132781295
-341026874
406266681
103813885
-351584892
-78034009
387723170
789434723
473578740
-183898124
406107128
247949325
130527134
-613041546
-40103795
-922023828
-814504085
111697797
-587652419
-621814923
284981386
410761875
-475654998
886481077
137615468
-786477296
-628733482
-385674258
180765029
-602234790
-783926487
135444029
-407671436
191659291
638397060
80831996
-73947079
-427371879
563574344
277774197
360972365
-805972063
-559705040
-404835189
951215236
573503377
-389292524
658115559
-816419232
590643234
559900340
5863627
216507271
602903573
386679690
319038695
-257682236
-982251740
-435113090
-702196480
-551303640
241987659
783726778
-984065148
548627127
543067160
618921778
917870964
12719683
-902895875
-931259916
-77598323
969611786
553886977
-902482454
731183965
-164805584
-661745250
281653729
-619317397
146048013
-694654650
-686258499
-384134617
223772349
-486077431
54687476
-657008119
-581606213
-449631345
-808170789
-882535341
-506064748
-312865818
-591404281
-602177149
-86523498
-393746004
629250104
208846594
-231012598
-374725696
933673195
-876265738
-70912610
511615939
-641593424
-783063630
494437757
-522182026
-118448756
-545570367
-858830483
-76916593
-550307876
183689505
100201070
62201689
380717314
852451180
45536589
-582196440
-254880269
-423984978
774599018
-592660623
339156558
527930514
95132706
-99852029
857056851
-182368286
844762661
-637500755
852021063
-881333051
-627297333
-793985453
-772672427
210805307
971593063
-429285525
-997390554
-63048978
543743540
609026264
657473825
-177420469
308359260
466546021
509552838
153012655
141502205
921493229
-157213247
-55675564
75427024
-649984192
-849497252
168993615
-617557046
843811001
305764714
-561008751
885110942
475260315
601671913
-536144912
131926787
-901940333
884149122
260310637
397291813
984640398
593166121
-611700153
-458862722
-80440360
645462362
345257807
-298951546
336654275
90915903
263140067
-927900401
-966352846
-988145563
454235074
-718210696
-597059979
353629887
335556984
-82656198
759680692
-336228656
-361642991
-752720326
643665399
922988009
-59091201
794635655
-876862217
-309515766
873035103
587082852
-922600490
-150260036
910726571
-903686389
-736382465
-434739435
-824662082
889091132
-83980334
-153596751
289214671
-372295157
693072844
-395975529
433491466
-793474648
50894771
-13160293
216643222
-635962937
-161572202
843069479
680625940
-585878031
610763543
-963415584
-779006739
953543140
809412794
-377055172
120431678
175341198
429041305
-323302146
-745830467
-711881166
-470526258
-75680342
285255124
-472847635
829593028
724841818
704665766
-553723661
-559414421
9485982
-282282541
398153644
475575900
-251722312
-588928973
83214468
634966037
-327425503
297449614
-731056868
36791915
450933719
-73162286
871509151
-909081733
-564116882
514593157
-200297489
-489824843
115678645
-920052630
-150303925
-75914100
601293869
449877665
430818711
-434300014
497370513
-712100162
-427071955
344032031
-403152650
-459060528
-54434489
-182410146
-30858644
193807332
88186555
190103262
192752534
473751625
900546455
-3550862
906963384
-724898320
969396478
-761873373
-541967648
-892622582
-337625540
116513806
164364262
-922754203
-116384421
40257809
-163885092
-818864476
814316071
705827268
365355777
-774659296
-852467470
341593524
-178819826
-770926220
-998217290
-988431567
-314974761
208667507
640065611
-786000236
564052548
-74428663
722653617
336163696
-236084148
497333519
-574763494
532213403
-90062578
644952936
-447110854
489497168
172593280
-372868335
-721113355
-895413503
-534737406
-618370028
333872050
-20031926
-122656574
-323661211
936996391
-641162293
-221224175
291506314
504934300
853898949
655431970
75426248
-808669993
344941868
150958782
-204658442
423896210
-68992836
-399148472
391582
244308438
-335331431
-490484054
88275198
-660582889
-344948193
451036141
-773410596
243589680
758704942
787825312
-426649268
-347513660
763345180
-360573927
-893890762
-7511773
-325989967
-549993654
-458734123
-397692294
-765708418
22664311
788139716
907977161
125557746
432654881
532457553
-743113018
437546400
894224988
135070724
-147236061
90648337
316620631
855160992
-597973760
796702521
483593767
202177030
534445413
-239011841
-9386048
-18410764
120658249
-635195477
41160834
-815878023
507865232
372233156
-984578892
-294773534
330965986
-80655334
-622660498
555847455
-769368490
75358953
-213793563
-550225891
-30062293
300191783
-323579340
-221611531
142619401
-482661388
-828152985
616594524
886021472
689553507
-273280896
759014591
102542019
-594496998
767569631
-724345940
861443165
-163700147
-459763031
135151924
295181282
584968627
748231523
-894803836
808258118
-773343915
307017160
802448637
-727872320
399774077
-864169696
91423478
-759024527
710488302
681195862
-395143210
724787423
300720671
135763419
-221141514
448123891
914495724
-740266089
984071885
-424254914
812929731
419032092
605933055
733385497
490150031
-140015588
-30185237
-411111509
476373376
897439635
-174641969
441534379
-923727092
-788071417
863084731
192498874
752948691
62285837
-426482183
-560107454
-396018156
147515749
922215328
54272795
-387964580
124092981
555901010
630583361
457250137
-51994506
-435068362
442386907
839714617
536959049
733434901
-566646292
-408552309
-455971531
-39006171
-294863356
395230398
-85102303
723841308
-541391707
-337728947
58537584
539955445
-52840822
950009689
-903948385
-598279250
-506235505
-193551457
637531691
74848413
-131442227
211436676
-896396318
-863804024
-458526971
609709524
727293778
320828222
259754328
907959348
-151523088
-6863852
-727183620
-412463139
171696449
723484399
-825141679
371844934
-3664816
925226662
-610363322
-247695379
322274884
944202230
96868460
-435712471
-177447484
140751818
-984728195
779050526
314364404
74071124
-879894640
-906177611
8463446
-379443002
754758244
-356708462
-182030745
-200900701
3905166
941094778
459485336
-437740771
-797744469
383078797
-12734389
-491197872
215967060
-173106807
-11579577
314510787
-797315448
471487714
-907293400
407500441
742290452
492846790
-77389561
-238379818
952225134
-988406760
-34750244
408075306
-985957119
627813080
-531629201
-923201828
361375953
824625527
118542897
839904781
163152052
-202248307
-792775686
646257657
-482856216
909332907
102156149
195596660
-539298840
-216798349
42641790
-62749869
399674590
-482189787
-583436433
-703203423
-431681845
-237611447
767792295
-203246282
850066551
-421303141
167223929
25648955
-446904489
920455016
494336619
392956507
-713895642
-227899034
745498733
141710746
-862012599
-536364947
4852747
-36119463
-347336895
-645105239
-415906594
-979028168
-230728598
-134127033
-215102067
-322852756
-258977802
424209629
359381372
38584841
219462971
399319678
-898731777
-186355657
222480198
647723992
552052925
835122779
-599617800
-10958132
243024433
-331799332
-647882129
-345374078
-139596712
916460761
212793181
-706073736
54223083
886541940
505617009
-371393984
-850359970
195679687
247321848
175668220
-453248773
138748338
133535114
207405510
223592270
567070374
340260864
470184226
-405769548
408135586
237561137
680068970
-640832102
-563259673
-960467059
158966979
968663400
110903990
81946489
807784255
-560981590
954597793
-187836109
129408134
-704342513
235349527
135433585
481847752
-260963704
-112464272
743671355
903737446
177580364
847414646
-603366681
54007868
818314749
816496716
-484427946
196774687
378350453
10918356
-289446266
-894026167
53117582
559841037
-194855638
-567817419
964109670
-263763402
676035
58223026
-122536571
859367061
836034123
439448510
-809721547
-199831274
-765905816
-186401680
-13817123
-948808220
-60272938
982740810
-895504274
668062933
474479645
6271967
-774324541
-675997773
-806901344
-24873086
980211591
208300639
-973969740
-262805897
303800766
230222320
325604563
785054459
344876300
56763317
607032648
-351162685
-715578342
550114732
371902172
-30442779
-309469237
229550132
-185139533
107677694
-343572723
-748838781
114408164
-637953171
18786564
782627627
799058533
691821836
805055364
-587853541
-770218330
-191828796
376015934
3972608
606430937
-488751555
407689926
569291457
-105527010
768745039
369660581
248017395
237935370
603765492
-819958721
-799867817
897727670
-623764763
-854043966
-587099855
-517949266
-400258114
605070152
795930162
-648381091
-904813410
644806102
722602300
382207931
-443376924
-374585753
346637406
358240765
-971316848
-258813273
931393473
-313564529
-70662323
-708152357
-774110243
-999615109
-624709818
131661250
131436787
-281330512
385065430
-790930658
-883461806
-529239896
-484401562
-149956622
-63124238
-726363185
386882525
-777496882
992728155
865700985
-441076189
470837275
480779972
273427278
228043351
547137490
-673522917
770577983
104587762
638831633
-64366068
-52072360
585753714
499212344
-432678669
-556802844
383245086
-450380466
-991585273
-723137101
798792226
-262387709
-308633900
-905454022
707086867
20924301
104062102
-84929522
948539127
-9743767
-623776210
475645231
-626588316
183442832
-944699898
-243212429
268613486
-709077767
-463036515
-635845956
28448344
-437435856
583336026
527122044
-175514383
846802173
601396699
523646378
-84911281
-348105938
632647462
-813775067
-560656646
-690456628
417641373
-150834826
333821357
36975456
825960984
514191282
-41236075
272119676
719394751
-445259909
-221539906
333508160
-941171454
-440387467
381652227
104130956
-820316060
676375443
-513461215
-604663182
164465783
854579557
682494111
-725639303
949657528
176945113
-104018671
706692197
860366757
-704021367
-143656359
512702757
-10380982
52967521
69723169
-156982590
986884817
-397324108
-751672789
602671051
-497170640
687727470
-394145367
-474513549
815665155
-472770396
104360225
48089013
755194727
-210502674
-528971947
921938650
-77176508
403933325
-804555456
256312576
405590590
117698344
792667896
-60911433
-994344964
575485100
-957011072
-819689975
225729157
290351959
-154453081
-26333120
-217124848
-449279483
530169761
411124078
-711575637
-942036051
782421044
-745277341
180151467
-492008762
-694732514
-497530226
-472077049
415935490
-504284987
-202892198
32132680
667606813
20416056
893075234
949219972
-577351804
-484088464
557482599
-734010146
878023696
740460016
-680483432
-240179609
582304998
-277177652
-725621907
5490759
750466986
-274172831
-993676730
816038646
377663161
721435952
-349726588
982733530
155765490
-408811063
600385568
622683595
219211689
-510320314
675637476
-350221928
-533675315
601911215
-137544657
417219518
223865304
-83537249
595584466
189057642
-143226081
860073006
-937118113
-273375470
848872413
-340400538
-32966705
-32450000
-392151909
248024966
-360035465
206829896
-224132840
-307256851
739249345
-358899859
-508855400
127990375
376153992
53408992
-589270673
-822440601
462266886
274478879
662633137
718290107
588647240
774904998
-255974323
-124840515
-578369787
-201311541
677275496
-718103831
-785589023
839262645
453326006
877034373
772219127
-100834985
656667207
-862719402
862474849
-170875257
-672493067
456050600
-705630808
201743382
562201065
460851744
208869154
-213556777
463875427
965736055
-420766095
776560959
-367289169
846591650
-342537264
589687464
-22070495
198795805
734050423
-976380310
548407538
948013029
-94606420
150749929
456796851
-236073457
26968228
474173663
-340979970
703455581
-513752496
944315627
-304576474
-525097823
-83847720
-242894500
-44846950
770496504
-217682708
-98536023
824012269
49076002
476017441
296142237
-901968622
-293060315
771040245
-392224092
221145141
647396973
-797589458
691739674
713838593
342069261
448810440
-838175725
238514745
-826224175
880956458
53697686
-841345298
958179960
-771068157
-3083363
-359442928
330855943
429068104
183586396
768937746
889023493
149583739
496065627
858876196
797518589
-505263342
673451550
-36087193
-283864592
225034170
905994681
-604891318
938013849
-292123790
876034276
-312839600
-456840060
-353615501
-327590586
239974109
-287746310
-423805116
-740754089
105070346
-407346931
140669724
81702959
814294126
43054914
-561113456
292010710
-956689988
-89747443
842254490
-619620246
-466041484
-418681118
-771646078
-639150780
-634884935
314065860
-576557848
-522914473
969549830
647318089
-173555209
-366741098
-811634335
747080807
898106936
510626135
-972345081
-682215786
185217718
676356301
-696420425
-5353009
948509215
289750172
971096302
734723478
-542088570
92553580
-204209989
310959576
829323117
-736779001
-924630352
-90304916
-372034403
-650136594
-695382628
874125453
410764237
-331856638
906580620
-598328856
-339326907
223602188
116467067
-818460516
495264570
-896923055
818547532
717987201
820467616
700972572
766329682
656294773
-41251596
417135063
627471531
732181817
847982457
619635870
183432816
-974904881
-738690846
-169844530
-4198565
64062743
-11675716
-148581375
35273124
-366390707
-899037663
-229864404
118596617
-932864187
801442086
913717172
-870975048
-793793430
928329088
-91732206
-280480575
177977435
728457969
339696795
272958753
-242548554
667445754
265030354
-200890720
225601097
-550007397
559213913
204215578
-807350330
-489347598
-923001128
-99029322
323012089
193903647
46632872
918544068
-8132143
-927125634
21069589
382644684
-887215220
828584161
-531108064
-457385914
782137715
980764303
962040046
381723003
-425429581
501914162
-713803990
-942409807
194355606
406421575
425440582
925439987
309197783
-755274283
703882875
373598845
596859027
402353675
497868545
-55029050
962995414
731376018
874828419
-841167560
681869447
-173648167
34609497
-50343569
-316527707
-694025889
147560075
675908994
-418010393
-745632859
-64076331
-130813635
372007582
835979908
531548444
496672366
850643488
-417857863
814451764
-402476485
-167531037
-758700425
69040183
50917627
513325982
-865547479
-488960743
823542662
-883919256
-440207212
-74170381
134679253
-686370463
-377421044
-288878447
-258859565
288639152
696793125
-944015565
540662609
846566669
629299537
-729896512
-758878091
478074903
-350158882
613657131
465575779
-15514019
491512847
435613051
-646282460
-288349988
-964294484
-759387218
-75707389
-851648952
755986380
-789293258
-848543056
895658208
242316674
322057548
245874136
243920958
-643931844
614605714
456207825
852165652
499139091
973608894
103157284
-711557853
257700073
-941855806
-489841837
966944074
-669402864
-239606361
-310727257
404670361
685933627
95540664
379620481
573547761
-771707228
-41900774
-178163045
388850861
530347585
-851126624
868238163
-556167414
-304497602
539855317
-151868477
346782529
-304130316
244720152
-276632443
-823074516
541185062
-238377356
-492683047
525349278
-224673387
-538064092
465224010
318159758
-339349317
320973972
-734809414
-654561059
990879389
-403640702
-793115851
784482995
863455805
-653277087
935201464
-740124573
592163967
-646219149
295303263
-289517140
214365731
-27577996
-402469771
738764106
-482250424
837746793
475144765
611801591
-385934585
294371757
-918154694
-52131977
913521110
792655452
936073710
459685923
-873062452
7403270
-851168772
753393517
-916930523
537377025
-92967995
-78610533
-702427564
356567589
-817165333
-508117812
-292578600
-273887360
-262467073
108293058
-965388592
648823439
317655197
-337300913
-624179965
578076207
-660809451
176544075
110004527
-570586754
-37940505
-681691545
713735039
945228419
-918328247
-934069026
546208519
-188979284
347431985
-396588219
283624251
-657279787
-527409274
267602546
-476491012
-115967412
-54561017
280362807
-991180348
-613804828
575120475
68478094
-545722779
-713689725
853563025
441763146
800229420
348842374
-672450991
821451485
869362496
-167919888
1112773
-887288930
965238544
235427231
753451387
-627590627
-930343853
-875833268
430814814
242961667
506334076
415137914
-84909401
-353388190
665660377
-353877103
-547083862
-585184466
-955003920
455306676
-454104412
-396313127
836971388
-517919598
-964804627
-251094770
588129593
710420249
-83951013
722602787
-792748076
782392483
258784108
194630641
-995836778
-369689165
-237659867
-293890460
705660992
-72408112
294839725
-574906095
-757025927
221586892
-49312263
-114695984
581501960
-335504885
477819250
332458250
881981374
-796554238
672661643
732193248
-136695723
165653080
-311851428
-437708986
-570186115
963290032
246345611
498731919
725457319
597062021
-112720466
307865280
158768907
-928161438
305907247
418452234
559383996
-155978879
-111186543
-834699496
209038015
928852639
205567711
67547157
-928093399
-138530257
472405067
88028369
-595324528
460146191
-16764971
808306281
333610218
-252388594
646727394
530955692
-20175546
293605954
-254061528
672750997
774632314
315708122
-492067167
518908471
-58772369
-523546601
552544654
-930122083
-672223020
-309996194
-5786761
790850246
865952798
51506218
-636388033
-573085607
996400314
189430957
523892744
190185741
-274420915
-158754805
-626331347
162836035
981189845
-540824222
-42861258
45282960
-983424911
871896818
-664219155
-970949214
-636708908
-384861329
-530784564
968263020
-738261856
162164969
-311033368
13813290
917581034
-107788796
229566381
675614223
-194302738
981892681
-930485836
-257390720
-309616224
120073493
751732975
881795519
618095235
308784853
-17982740
621877951
624310287
331238191
-145554343
145129690
4730785
249149554
451103131
-107143067
251995494
487863342
206921751
-821638550
-705690343
350727319
420371032
464616930
904706294
-885838467
625378189
484481144
978080174
-687074180
-820881947
-795618862
536439846
612551632
-634044990
-160921066
-799409312
125933124
831622968
-354124987
172830953
739792965
881429547
730169666
-195543415
103633704
201923673
-4533769
356284695
88144888
-462507270
-528060154
162025618
-806507720
-977438881
-671211580
-752424296
-750308107
-467428601
791480420
-935762709
331294714
632728369
767859713
641469381
629354069
-3350149
797923445
-634377879
607677605
-664861006
-329542052
-674968246
197998743
-334435920
752520434
956811699
-518427499
16588711
527295057
-247261448
-672629746
360083353
-870953884
-47503508
-940971336
-470199590
-454883277
318093549
-584570547
-306478226
-827370329
-808615307
718588326
-986073396
-439748729
145477022
882299787
-301780693
359678116
-440850388
-583070911
401036381
896442947
-314858802
-116389963
-272905746
731295704
452945022
-724555371
2211224
-932558419
-602905378
881234197
134321757
-49927581
-513968898
-267113513
-592982265
-382712845
728248624
-630991403
-327094910
753576474
-285474032
214569610
382767131
69847020
780390654
-128376839
224382220
-268647347
-844063365
-176646585
-259967511
-321656220
701211463
245008028
-89432883
-835537802
780925883
396546155
440124892
-317436711
-334817652
182493392
-394271862
679723257
-276529479
-53682760
502213405
-834939232
922760170
-767834322
-579301641
-575531566
-450312412
745879996
-850063666
-608442891
878253568
367106366
-538234978
-197175060
603843392
-758373189
-925097342
31504784
-352857977
-518891543
-482560282
-540604105
-306485371
971208269
756566673
40954307
382250500
-720499984
-83484727
824824269
-773332322
612382466
832324989
618681376
663536983
-379202772
-403998215
226971853
63222625
-573109348
925811653
-233765048
367428888
-663442954
-25077303
-785702977
-315234652
-708041693
400663285
-914768336
932268925
-711859131
659942910
565742617
-398273029
946432141
103919995
-27250490
145654137
-248403556
-554952479
258467671
-251277219
236528333
930369331
730592925
297387886
290889115
402194908
230897286
-328957829
-685326996
930486815
-158712020
-647516532
780205468
-335903347
-653835016
-667399682
-343440723
980423856
-112178460
-490685207
348365980
-180983750
65247799
-975448768
602444665
-143876522
-587519667
-330983620
-441319063
706184202
592778501
253186071
312370866
388575168
768610657
-1115953
51072978
336783708
-898583199
-247869111
-383942796
-364174373
-986825171
-594631126
777301760
-320502704
874772314
-303084453
478759851
305461513
398741198
75104844
-213437592
516088179
-896718685
533540919
184386474
131030011
121913253
-666981692
-766665772
479464006
882216777
384490552
199453850
-120122598
-423920029
-728048604
96298134
-771258613
-590113861
-815895745
-527127599
-500647829
-835268894
266492638
-269050835
-399385345
577314728
965998118
-584588416
266901163
50510713
-862013027
536160840
-623736322
-464324731
283913208
-578823012
395086294
268205750
-446435330
848246451
180699425
119044610
-462371186
604267992
526531953
-864714598
459270143
-736721230
-560453144
183648381
-752078641
-868337923
-44056552
-660377472
202797144
121435771
89896511
-672204329
678355113
271575501
843992508
-767815916
500598079
-142357757
-53406890
435209815
568220075
-179701838
-374183990
-248289334
-100537268
-998408702
-834033170
-792128282
-593535860
160896150
-586450052
-9738958
936317951
-448798461
29096726
868055320
-548732422
593929543
-214836138
-774070399
195912776
-939507637
716971955
269171523
-668020446
444509700
366967058
-914600637
297808299
232427656
-318300695
23784494
-606238216
437501039
957061213
-845520633
581188216
581210893
505146134
-848779251
-683203868
139376558
123280683
590418445
-709836648
-782842345
-434261716
514363222
-334906203
-873192758
847570346
184532686
632265069
587948820
-974156001
130464410
-12542882
340927118
641769082
992082936
820576454
-392323655
-797707068
599297117
166067380
744963460
-895598720
-990846991
-750869601
-447958152
-117057632
858649710
208053423
104212971
219189643
76826348
-334499490
-126944315
-157248083
672438310
-126583289
-375003763
-241961894
-591888798
-319867049
-305211588
-989725185
-571377879
642253568
-636572691
335926192
223958492
-974232300
783553557
739392046
-387480015
-483228986
-902139042
-70153219
-487032894
-143755078
-533288795
508430688
98690014
785744619
-216345878
-632436505
-234686828
-695375360
-259660108
-543400299
77233156
864348257
724653936
504312734
916001793
62320663
-797448835
157334106
-106309339
-236831294
-517350788
-433504922
346817949
-742806044
-229210069
961888891
674954288
-26024047
-26746688
574204755
706484054
686294695
298528994
-850231356
179392832
612725660
-956295991
-771990393
405978234
338340479
791113403
-49824074
737856424
-415266561
598336658
-658597211
-240316023
-196246517
-635457095
264105561
774716638
955706668
-272312981
-178620415
-945982489
-99137980
-645018219
-952421444
-881288661
-202398580
923736873
867479462
274346934
650108849
455191883
809925500
604773932
-254680860
496223037
102050621
-288049166
-138058937
-31723694
244645397
-984962047
408073577
-1992867
892348232
597660494
725138316
860885996
447600769
446123728
633483053
358984480
-746238419
715614614
-952226990
208876778
-519745892
-989332724
-78289777
-668771640
432817308
-223577175
455149814
471688421
663538847
544589572
-8348977
832544865
296400984
402528007
155634382
-40918468
-318759110
-588547217
-804829271
-946104550
566528479
-581955399
-995936216
568331036
-627467972
733195142
894857424
406746554
367230507
651310825
-661952796
409350141
324844081
-435553199
764357550
142667787
213640287
795152176
726030389
900061362
-628688718
717885967
-30705286
-739379967
433436234
542527815
-382368967
-256868451
568650027
979067599
-190522468
-704065261
-360790028
-162663834
674325715
250167761
955827577
284157560
202773123
-168716688
-370474706
-278590458
-731304909
261743625
77143001
-602769945
286493570
-919949714
-438847953
-208076903
-691987973
323482373
601507997
759227633
-994645701
498976922
398755097
-196791554
194976913
-432474818
-978630020
-439630218
683556891
228141773
971492390
95267960
-346545573
-570918363
-887366278
-899863061
2149825
-397620816
-22834947
294016271
168111881
609136267
317697467
633322960
230473941
-456181622
717374592
354477788
-422264702
-460940393
56060838
823671620
168500286
505661823
-37568511
536670435
-171167505
55975292
-394214762
890238366
862421151
150857831
56274750
-85794493
-524343585
571532967
340670930
-897587862
91921412
29004326
-872769497
96413892
-891607227
-968347450
-174391581
-456237578
244427581
-194799732
-217576087
834995441
-583178940
216382846
489503544
174729857
915082632
-107419148
-454864517
87884496
-442685984
465287369
632394699
924524976
-261016887
-569052403
691013048
-257254122
-176095296
358271816
-508229917
-189982541
-300047713
-39525083
106304066
295357952
99107999
-284835748
-901844470
-764373180
498569699
867016247
-326419572
655656505
-778095705
-441752082
-816879052
-537753839
626978562
-540929514
441555520
511041523
952252646
231155860
640330218
-357481438
-974647101
-326014495
869607356
230799307
969002078
175835811
-752421230
-814329554
-569684879
-91972390
258662327
613418833
954885242
88678606
698998840
-326359693
-823635380
-564900851
-460685460
511060213
360696260
-610652589
-36852112
-692280439
10517904
-778231596
-590550643
269828099
-734244847
-441329672
772963160
-704708349
-900523276
768318710
-782358667
-694692194
525473916
53009172
-627765125
26363704
-163526556
238172514
9535589
-142303962
60116762
677509762
622912746
193310031
207653536
-751160463
-718264913
693586196
595171660
-447823959
704194105
-499050950
-708281216
407604510
-377340125
27542593
633407985
-43294662
-103736707
-7409661
994709476
-369064209
-38571725
27304004
790598531
-105004815
292573759
959050397
-744796235
209426461
-349028517
-72529114
790177757
-994260701
648304737
890992003
-38750821
846852603
199819252
940479657
-694675017
279539363
641256689
-755418961
-163886243
-776409758
-792774998
618503995
980726748
-379296487
-895916639
-606937008
349330487
2165767
748893447
689463977
267815477
891418777
731837958
-732847275
-141937081
-35431188
12561883
-686542842
-438046891
599177267
480081946
511288634
-470708828
-382372494
-840002365
569908602
-142371145
894761875
457134038
692594090
-824595333
-489477298
308858192
35886303
22110604
-796507925
474998148
987406809
-60031348
-351469979
-936508517
786252877
-879859458
-478585414
-369284047
78360090
929855321
-267537655
700056915
-276552291
927520138
-236087618
-885870396
62129319
-745090010
-830341267
407780761
357504863
-664737192
524547091
-716042115
-960749765
-693937347
-698518675
-349640754
662330280
-308255927
-308729235
562810827
-442092678
-965179889
734786575
971176940
-629159730
-17607684
-532583854
533224850
921939869
-604712550
-773582383
340180229
-588247867
694855435
541936985
-528164122
866641378
468720162
-863638884
290723969
-950523205
285669453
-545073662
-383179511
-436347538
621549382
367777037
-23906329
811036363
685327424
-545465913
221151368
-514652222
-378612210
21370596
277713919
710794656
646366800
851883042
-700147829
-934204303
-10198248
-836908044
273488517
424505191
603808217
-855961999
653340854
962968071
210005237
283718374
-247589833
-867760403
649264801
209525740
-942608726
404368464
-101318842
503858687
719012482
713289433
960047714
-924580
962041951
641087976
515340058
741338461
373867405
-518741771
-462998531
-188832034
966788381
879262357
-817837778
-52388835
525302395
-82665908
-787186737
458356103
-763537104
-441324229
-36269478
561968631
-404726755
-57932707
-609065037
671887085
-538676115
341443174
-818136146
694421692
677470064
985910928
21362221
948706224
-576835497
407941800
785993994
-54468532
250494381
-805150128
782753953
375272422
-434481373
952564047
29963705
624668213
-367924548
242309735
-283984026
-710259769
86895938
-418036211
-425488416
227907261
-268767478
645812601
-506266838
-108385916
-701128376
-917045872
140281220
-542081298
993406704
-810204584
-357990075
883863609
856277109
395966371
234011944
170934338
-511700469
-174947409
-431316101
-489193128
-459400583
-923249209
370951189
-416493316
-184833817
-969243107
-450294751
-214829159
-770187514
-871017483
-417147208
-244578415
-157244538
888514021
-38210781
910233707
160967975
-549596036
-936617826
-707605406
-998615923
973112799
-106395060
-952567198
15149372
-950187303
-114629209
363649958
48020760
582015825
289593480
601964239
-364785870
-119373945
495878858
-964672851
689134314
871140453
-738792633
151349817
-189505942
187890453
699487237
-440801874
885289288
35560701
226224904
-646426709
865376425
604129250
851020459
58097647
500136489
-763652716
576571387
114555826
350682946
144294695
-970691685
188772329
243994863
650528959
714043902
37218997
743236416
-673503055
825186922
-533647828
-147177964
-984799502
-507775436
428659283
-799764689
823452750
-333340372
-180385547
-224662541
983618242
859517165
386575314
769415088
-4912649
-167993756
-935830397
796566586
239307498
-170102599
-947714616
-330364276
-422206223
-438049
675529800
-542085105
875982
718255122
872493964
872742407
-849852989
-856517753
862852166
632649302
709065371
2049239
-845764646
-303702433
179617807
-950085512
532110874
440698860
-6270150
-787750885
12736626
-870573886
693066040
759294209
180106963
223378727
452330924
253787452
-128936171
817918238
-308687864
165591254
-926705484
-749755845
-139030210
30599317
-632600759
-281864567
829638296
168817510
431643393
594695415
672118241
58491815
-130757626
778440752
-895003195
617972326
-277733898
-836238660
-922540023
-67621259
-62780882
-472934798
933464519
920174826
964474582
-392084956
856001295
-774191773
108362894
-588728013
-925344999
8815394
-646226943
805858950
-328234012
531154152
-88768293
-466304543
539818705
26609549
988415026
-52901945
-180056252
-581619096
-2514398
-642136109
983962675
634921173
-772966253
970165650
223395206
-629545836
-467784281
-137751468
54499561
351161742
-624387392
667359868
632108788
397267042
549671714
-990168213
419982496
146833390
909158060
995842879
-850795154
289971382
-775159019
531892868
-999940195
675036712
676857943
258047182
512970931
-853933763
-651401413
305633316
-655806171
228130501
207672683
-678681004
46305495
768222026
-716888821
296209915
376086683
187544663
487776843
-157996149
-999331245
64358442
-362606259
-810261940
-164086927
-174555456
691458582
327634724
-321401071
329353500
-299416011
-489205677
134938165
-960518040
2678929
308565993
-365694024
-80536283
979535339
729814498
780604258
-903162349
519724618
-245248426
248572964
262181918
938953389
552365805
48312345
-230079289
-325913060
-87479824
-193998303
-744118983
-587333705
-261567785
-674485251
-571269191
-233040279
921105086
-831907864
764181770
-487147750
866510390
-874118808
-818016945
170391509
-353399111
369401176
-925451044
-564147587
811349203
-602132657
638340202
584325883
531657752
288103003
215372509
426969878
270489084
-432357601
603589152
-592554271
475643433
555472544
-81901307
-827473923
-37504931
438036140
893844224
-203987910
-409672513
-778824872
358190881
-634186543
342602861
98703241
180503907
493030255
-444499776
830694722
-187334882
343754693
-406738227
569277990
-271963192
-927786881
222015321
352679478
-207638617
501090290
-500557089
552855441
910583546
429303181
107752397
-217665683
-215276081
837469946
-228357374
-995948191
204639284
34971219
581125211
-450169693
667915549
367074168
482470093
272202915
-757683887
909377322
-108251718
353175081
-448002390
-769539394
-988087792
561877750
437032895
981689344
-991353800
860243365
914931170
-876138095
293989990
619915971
664940056
-640721047
-115164181
268695308
413406860
-234772061
-967228794
442027700
-843264408
94545771
-131931034
-76102353
-901854374
-743116478
-778254595
85247909
48736934
-339871755
193910593
498867679
-948131676
-239648965
-865121516
-489664505
19057061
55423662
887851155
614068980
-214784523
262633092
330212726
196068642
-329616930
-492587616
-489728119
557544882
-675252919
-609280398
-64665641
594935
-58771561
-139211031
994521709
-293515668
-202186183
-651255364
707218983
-222606269
856234172
-943143272
-178568351
-665604514
261674632
921602164
102615119
-126752886
-377206156
824205585
-727770536
677785517
401089563
-206400055
837975649
377578092
159702232
-475401710
116084338
35876226
-394872361
-834335409
396984929
729442662
445015262
438705749
-465424636
-479076848
2600919
-981773852
-727190245
323080017
-87750279
678490891
-56317388
-757086975
-100387629
-148036950
-752496353
359584864
75711875
-52769749
195666659
-9462659
318230175
876990891
-510087501
-532556008
-332075292
-949350031
-761193086
-96113142
-625274510
644078127
65788280
-403790190
-138274076
-440658895
-494351064
268212283
-891802200
979585451
-653403376
-635635270
-11198486
-371644588
555979738
284301848
-676472395
600990613
-192344849
-9302760
-733456913
-338893137
-626992710
-554877307
-15740331
330804563
402688374
-880440801
-465389054
259654514
-11225699
356420516
-721223997
532001578
943467230
205491117
697420769
-908661848
857092394
-862615522
-243532775
-24342234
727233885
-156852099
-215588249
-141143802
-631348797
-196377964
-483391972
768411360
-555979647
432902346
98996378
-740600772
645032680
-919329796
477486489
-350742341
-586103570
-777947178
780113908
-590841651
-650333408
-596697664
859156296
-912312702
-323380018
821910707
153260109
-395900129
-114314523
-830897846
434969097
-328955940
-160177127
-838954856
-714174471
997626101
-475760998
74779890
-459899817
675789192
597360083
971018891
705768338
217999245
-536815157
248883421
-582954591
-660300614
-874071463
-866304364
-895070782
-691029752
488951697
-249299525
-47063270
-558464330
141504574
544622387
-801716107
271214791
961759803
645289511
643177753
-518896315
-771673742
-748794990
-752545661
52729709
-41783201
841434473
-79257120
-479392873
-110309319
870963781
427561939
734933400
-995029236
-892649018
449293988
834958414
896064079
890607243
-393908372
-500046484
516917488
-37083678
-923999192
-785205858
-806236379
-205980444
408344122
978294705
-561149451
-184554963
-41201472
-677190196
-513424802
317085070
-307333288
-692284938
-480265142
-346069176
-898016704
-421504604
757716726
-512358870
-665801550
-993973753
-255408062
568547653
547357712
178485052
347326658
345270078
-519762663
-699603601
9835259
-633963851
92567499
775166136
656362841
21600709
-922173396
-995114717
-259297160
13511661
776882542
721310303
877433693
274692695
483642680
29478064
-774539690
871007952
-602525713
-98447452
-507416207
-8736415
942513779
-700018593
-37154695
-859669488
87044984
510928697
35634728
314715067
14295725
163911029
396171209
862348484
-349613773
320365055
-780774650
-804770863
-529245012
-197353077
-196322287
-244028982
276645589
-749301252
-556435432
726095744
-85452737
579712896
480449764
-487713915
-102887802
-328079420
648246405
-787208212
387273747
-298202796
416041713
870661511
-663236880
-483945964
-740960297
428794688
831122738
-925980766
-847587724
563683231
929741542
170407393
38397707
940145257
-141543667
-636949730
477344862
168520443
-487420499
441708972
-493382426
323619448
676418626
471576661
-115631794
-31545809
385565044
964035500
-247605508
-188981335
918114865
356646484
228431006
276804017
-234528555
235998422
-160234725
223714400
631658870
719543479
-21821695
442820954
-827668431
-480560733
-66329337
377776749
-277284219
833139721
-573264772
753496970
-682519966
-447789120
-462598026
-378749511
167332034
-801259582
736591031
-36802476
-760532434
521417773
-322486202
641963457
-695868035
-752961878
878466669
-26173241
-282329555
-866013053
215137335
-937258494
827772190
-850746150
-921353421
-531145993
396051058
2783664
331109461
-9945543
-992066907
118825015
182323094
-545664573
178900068
637051669
976889266
680159318
-939538677
-405969121
-289189916
-884077679
-972866318
645544754
-286071893
-127955633
35729383
125639920
-203261727
503119622
-695016165
-166185882
-333322229
910899818
95398990
-854722032
-617308597
138254965
-365695999
220569766
4509303
223620357
961097234
188718040
-156554508
-180080329
-939351170
699246597
438285438
304810680
-170596536
-62269606
-905989669
-704194828
250745392
573888157
-847844334
-88619300
-83294488
-962926364
751164402
-159761182
921670603
678186931
969840509
578653056
401595874
302423653
-738524534
651699417
-769655886
-930460104
297610219
143671740
-914296976
-455185829
-878728257
416141722
-667584332
-410945876
149189487
-797999873
352326427
-492817978
949917740
823023630
-331109764
-997669298
-770440389
761731592
228515937
336375732
-819030349
579865622
913819273
277442044
-347166195
-771097350
-886895321
205346372
-192431816
-962402871
12073601
363898168
49385266
-418618799
230868596
-3565632
27275562
409037937
643963696
-538965381
247915490
-612948975
-551991305
-504957496
73484765
-608188893
-405923078
182307213
309124157
-809674119
546052052
-230120726
579149063
-622063621
83193683
579387086
-783543683
-638560958
-130224411
-207956676
625473458
-802848174
492884474
-563161504
574742722
277901611
-111480312
635534033
-522440647
658536214
818236935
-173614949
-292074353
530258280
-19258914
331923151
407647711
-269642342
552338346
-495436708
120933694
-450897703
-779436870
-712968966
-46781027
680723885
848166102
356060813
-885240391
260401082
175475614
-395680779
-398139812
818558112
963874675
426467420
875570776
429183965
269857674
110978271
-20962519
-55788191
149758664
40533050
-350031760
599353617
-834423912
-201215528
-564411865
770883251
67594122
-143380127
563010213
-999484199
312599153
-314756931
-134783704
-948618467
281688320
730606220
-149384870
-452208736
443447947
-444832961
876194660
803099484
-225456783
582280574
297887808
78689298
-702184644
599550064
-53965358
-28457325
902829644
686943657
13729400
249465589
574586767
6038704
-483710631
-873921617
-793328735
260868047
905633867
-451645620
962669937
-793932600
533858973
882326220
-919441984
791533401
-405423083
-577880676
-749205554
-124032249
948248789
-254017131
-761004871
-425634646
-207220058
942723771
-795909295
-533159854
536583845
-68085139
-783544594
-212617523
688746093
701633576
-47106777
304828299
773585689
428668066
259863690
37141284
-705442932
-129621942
-842951920
-489636865
72096381
785004044
308175985
131581812
146968318
-408134108
779962184
-538841226
-635281748
-5919968
191482895
-218226256
867856621
933564436
-879067846
-363360494
704074509
370929064
158748298
-756598344
-836142129
-149563866
-869951197
-128238835
334583076
-778258289
-496556291
-100770742
500438615
938402699
-866633930
602987785
115908033
171264302
543820066
90646122
727736942
52950294
-897843475
-40585672
-832608552
546236055
51421318
894828661
796971128
920041558
392388427
-487990237
-353348838
-940933208
596885932
395621875
7154803
-590199395
568374569
147300674
-857984301
-860475043
216758337
467675179
-331326685
805271360
670997366
656047162
-795414168
-675570838
179025294
121247472
216888850
771691666
-781969944
863992147
-669143663
-13435570
-416489169
-483023924
-36702029
-864421277
-533663142
-475332907
-800422268
-736090684
-239282713
-236478183
506585974
-365139211
193597345
123681334
-397683520
44671648
513550800
-316485934
-145752306
503753568
105033199
-348383737
670493160
-922918066
-158005407
61796378
-600468909
788926333
-700874179
484667911
794547767
784391611
-133470554
-436017477
421313772
286905678
181761140
754421358
335525648
59782748
-191860682
135848770
335339123
633135760
441109186
-58117066
458871957
545401717
-596996939
-494232423
244664330
73993230
276094908
-719251016
-196123770
380404648
337941073
-39279439
327704166
874691786
378500726
644933841
-33108928
985211829
859318016
243536382
695357122
-470729347
-242412951
33632923
-999035019
-869753719
26598106
-739592645
994391739
-975715019
-907095121
25502974
-505312380
609165076
-390053967
-522459350
-797659210
392122313
385641975
-779340532
917712755
569146842
-644778048
-75488136
102724609
-239267344
-701700669
-443986339
59543120
-371452158
-905246324
72517246
-569463705
230503584
864128407
-448897611
-440843294
-112489225
763612543
-789623743
272465538
-453209367
-159893402
-667053064
-844694310
-886893671
-231758543
-430509528
58333808
154500831
-671927320
-81351247
-172680118
-736380886
-521878727
-611175335
-403199695
855883825
-433624035
-152740213
-87148671
918483303
854053952
-392422158
-782599590
-938974773
-454471251
488069857
-579934115
786182729
77700128
845983856
885705713
-303326852
-98163391
-137181962
-64153577
552939574
905256462
348525727
-810054962
862892393
-465223638
-586698942
61847735
-560447782
432399722
902060074
932731519
-597063445
892864641
-831336401
-209396357
-962201188
509918906
-410934268
379450474
-537791424
973547475
-121501552
635183828
-335304456
663681867
147164801
-405431041
-945304939
334973424
-872498731
986754729
-743177927
213571206
-876153051
513590496
764501943
-880814677
264421572
982024484
-167716573
-895238140
519114392
376902829
959200346
-24583990
-305821762
-376914789
407803881
293379508
-795854031
80065018
-408703820
-571663134
-465983627
-950979977
-144082413
181892583
-952305064
366093033
-912386550
-679827520
-146737985
647696955
-285471054
662092401
-613174099
-193359147
569081458
688250686
581092827
895624683
823965734
50658361
-6996339
-612813053
-315366852
398575983
925685082
154548666
-806056587
468008411
564451111
-191487691
-629394020
-756884222
-680204925
388769076
582711762
593008042
978767228
-987775270
50896145
-923375651
346651804
-658883478
-598707760
989348436
609446303
576777493
-724521461
-761355255
915921043
-87649789
-798204883
368279825
955065137
-371371395
-769313042
357403940
-220227990
-491628951
637674523
924184015
799722840
-705714143
-399499887
-615303034
894811596
-6933297
367562582
265680295
-106542354
-877569651
-687678063
-348532228
-141298349
363370371
-275069835
-582863920
623344131
165923159
326579331
-650473864
-351846132
913445096
298201270
912384392
-56738714
300851452
333079008
-457016235
786836514
-791186960
551392205
-892430420
-905553061
-917141899
-437556315
-710951523
85406373
-863709142
24759462
489311638
860595985
594203420
419730837
159870803
-410068509
-709765343
602131561
535065775
806084333
122841596
262773341
-975999223
-943536730
-829050649
607183891
371590397
-646914829
-471530663
-557346042
668408909
543792266
253638729
-651119504
782052784
241792095
126198219
754311177
-392674469
139827287
313550957
-270144718
-590680295
319200659
-487855871
615541695
58112018
-59385813
-339747392
456323820
-236699915
-749684821
-947664140
121349376
480558333
790629916
-994120137
-923177377
-946148281
362055104
-826898706
931033233
723150624
999363441
531383662
-324208468
-243562871
657655195
-273866517
633758259
-958210994
-426460573
735938585
-285687840
616335
761494656
815062181
251752676
-461583878
-842038724
411467568
855878560
8312343
-144112385
-561979698
347521987
-964758468
-132613964
559276217
896079424
-963311891
885300706
887243316
350667543
-740209296
-794387191
-852502290
907365907
-733680838
172570293
-853123067
279582517
677094713
123233978
533410471
-253349655
-909807100
516657017
510199566
-686557222
-76596496
-520363553
512151803
-459105231
506491386
-537111285
-958465828
-19667734
123655806
493321242
439008669
424096171
898169122
920287260
891469173
685103769
758783162
-502158179
661643511
676474419
-84599338
-260281449
107765524
-822544345
337638243
-760366427
270085802
-646598539
-644161577
209652873
-226815006
-92649842
345864667
691010971
107617150
105887658
968303757
-116730252
-117114213
-414657853
854366163
-343451995
-5152315
605728820
-833926873
-63426209
-894236572
-394473247
-310892872
-4723994
201792714
841252089
611900237
598794742
865964662
-33129915
148695625
-646143643
-910918685
16926468
-534824244
119565008
558038682
-404583903
-406912300
-700827222
998755647
110665533
-901596892
-446786470
-550970937
876407885
-655424168
-311211911
-561042731
-212770264
-622409764
-367868626
297125362
-412136422
729666857
403826302
-130876674
-569460682
-751997602
157864326
-613051647
570433682
-436826709
-219428148
716562823
63371541
-842249386
411397095
235297793
-823362577
761840335
-68157342
123128940
-51059865
868518299
511107650
-537697695
-341393448
-685972719
-515521486
-467722128
352008356
770612389
842263890
794874858
132188255
-945822443
-497606024
681804227
512264942
-216673307
-139084917
792913480
-808106769
-423745202
387195645
238925360
673285849
-255171754
553419860
-439240423
552930497
761129015
-260680445
963921008
-579706505
890184495
-71606965
726708649
646904407
8505917
179139587
58265812
498948978
-595315358
-952784680
257758192
-761391131
515976087
341840500
-14599770
93660642
167105807
902725385
781291909
-753056737
492823486
93895777
610566997
23786851
190765184
190246113
-48698875
231252059
657963906
-595808755
684065125
-706046324
964754562
519746783
927806908
400110873
-161651888
436836399
-604464124
-679458277
-916999379
-369707716
-106750384
-942121473
-317384788
719354126
106857358
893075179
92482587
828287563
123912718
-139957801
33815922
180237177
388612894
253109955
-289240440
86592795
995172994
-302748845
-416464694
-877312894
-44150894
901785056
-498256331
727050574
-895567406
-317206872
961351612
959823449
-43473898
628502413
-344433063
-397957085
74023619
-228444112
732377893
-158787359
-267541683
-853954628
-439876343
731866899
-152409147
-581892739
-177891936
-705052410
673571715
-593213808
32003950
181622720
-188806781
553224812
-799195503
650465164
-98507883
-654035687
-122248193
-352408069
-449994280
-87108875
195537942
49436498
153248690
-120173387
534820638
-405412802
-653640853
-669594389
-424819699
421549091
-845590696
-236513281
835223297
-786840197
124685313
207962268
126073817
-26068461
927256612
-878704464
-960696778
504444775
424168370
-900678065
7523703
-667522615
-114829210
-912383620
-944341995
143693800
-507831988
-672940900
-727850324
396127324
85337694
-451728876
825271525
673775169
-729170245
830835112
532177647
-191816917
-135802062
-680597657
-350792836
-166066888
95020067
-993239430
-153352706
-748335788
-512567241
687399095
-865716834
424162944
166986338
536506938
579549248
-575952608
-740769400
-456442457
-373084207
966756335
-888255620
122112376
-328081808
994554596
-529907270
-313263073
122548586
-124313361
-520857509
659713144
-518675835
-51532923
-813097042
-181394366
54293567
690108209
-408266644
950984593
-167995745
-6529558
5284925
-579325844
-704500757
-501929807
-915369793
366623499
-185139884
808718551
-272679122
-190069403
-83716930
214685231
-867809005
-878842556
-803689866
-842646728
-26374250
863411247
-59990854
-983463359
949766118
-534249427
-11784346
834083298
711950300
205497743
940766002
35307304
808835419
979476896
728899989
100725461
246679182
-80813239
454290739
938435729
-77328033
-393530116
-298490245
-475461161
-509621260
265732011
-946353773
-554333010
87392629
-532841638
-287983376
667701678
581194810
-58431209
-789822637
-897240631
324899399
-728461637
872835966
653772137
-88712921
517994712
-181887319
673597497
781670741
38838976
-905929603
196649912
-998480138
-407091156
60334497
826728413
-830132004
109122048
-235535853
-249421646
-227987569
-319759589
804468509
-605533568
-126390065
-409296722
-401972533
620479324
-116795740
-759598551
142467234
-960596444
-455322804
-9519915
895569086
898401339
597025251
-492490881
645545560
16284456
709981494
-682417982
-908627810
706288439
66652450
-181078039
583784881
-484786403
-870115425
-882596738
-303997339
-655779705
-812044108
-765522166
577790549
185609136
684921009
239210322
-779472202
-800371882
-877342193
-707164063
448766058
503795041
219738025
-354622167
93448486
6226912
490365455
131745325
48300246
-266514644
-626794724
56936632
-987561999
386952848
-301409158
-345484361
-588340231
-844395508
-693678689
-885388523
802491867
-285519235
661158868
452193325
-993636129
588155253
664657109
-588978278
-157522737
-912678059
-564451992
-879235569
548675364
690241553
-67543975
555564665
235137689
916902956
468383501
527729144
267842015
-120580772
-535656134
769533425
967225646
208345782
-77299993
708126448
152688643
742069588
750256763
26119520
903290787
242587863
971053385
-339842305
-534633040
-426830859
-908095452
515461740
-105293466
738044363
617104302
-693002933
-326321577
382307866
398540272
237725585
-534345279
-228361021
-333201188
-192531246
-92247427
953171976
-509557095
-483364385
-366692365
155082609
-632366309
-75515697
365421524
806484372
670238577
786675728
-897235711
515860981
921483566
310300792
-467956945
-407370159
-7770152
181677914
803260864
930873468
-260480403
-702916387
331172895
998980081
51320577
-948309334
-363365306
587394516
378069575
-194965728
-293096526
328204402
-572063469
174204098
652633732
-626515211
-74613869
609800317
390756327
258517650
-752851659
-936008655
416937639
597331666
932611323
572258638
-938060068
340863573
989078784
-437248897
502949465
539963428
953217390
79263884
624842938
76123113
285471383
728669248
494618572
-325142234
-631417648
650985181
999756595
-663525028
-102254123
-453540557
-598940760
80157709
-588550115
-538048460
-641897448
426199926
-610833111
-89996147
533280083
733158199
-747964331
370769644
-27840222
-758568792
910723170
-256128355
-671448186
397327807
493288057
448409351
40526420
712713489
846897748
426644007
986372360
-553287792
-915892027
918583530
-211700929
848243193
759670016
-678203081
-614972349
-785649818
490692223
240138297
-265846881
-419694965
951388037
-220057103
533304811
-912922558
-273727479
996340124
-753898411
830958331
830613182
-600412478
-340775696
-319957014
29110236
-160613252
225351513
-238096770
616711962
-826060924
-536230618
552123187
853076725
-102147362
-616427860
-833347577
-465565994
-270173168
631210035
144823980
-603925447
-117082093
472929744
340159705
498153190
62676095
270007508
-741632221
-131093092
-376506073
-412640888
-327159895
-628225607
-300944550
810348959
-350829814
394039079
-196167083
-664233060
-812657894
831609774
-435421985
-396830142
22915238
320943651
845764200
187147097
-833865175
690545220
-224350050
901034800
-618830889
905040626
-812359812
291212761
-696980980
-222599934
-138491406
-792025182
-142329794
-755416921
846889925
990943472
137072125
-97864986
-826348697
-921318988
572767159
-513064215
876639565
-882110961
-762525457
314597051
15010039
-707882193
-68847609
-792848392
627301993
-522557907
-848560084
109909866
871648092
-517023330
899765823
401233834
-520643458
112923642
-57885251
-716052598
584166541
273792966
460837201
909763495
313712227
190778697
322635710
566417446
-803849233
-538837462
-685055980
-439375017
291797569
594273827
934354110
-608035790
271169637
-348402555
265525922
-620470544
-43265473
957707450
638945084
684309894
248842928
649902893
-517877015
701265321
-750257567
807849012
-764412955
910180203
400608965
157342008
333570783
-66052801
-320732260
285416839
-670952694
492872255
312094682
-539736345
76782511
974158699
60849001
445540241
10206917
-212149995
-45641619
452556946
819911102
386567002
-933324051
-956700769
-296116648
-143382406
478456607
597004607
-721640314
128485758
-176750837
305357511
684222367
-621104416
-304187925
-313309329
729924140
648074788
-107384250
-570300629
942478309
272174425
425351967
706394404
46542275
-971279007
-807128239
50385810
420121625
-820804521
-98631706
2123775
-24971577
603474894
-668558370
981121180
-16170721
-309080690
755541548
-605260458
-345985726
-216933327
746715791
539837907
-924236828
181839316
928423818
-530506716
608822773
492478795
-721769660
351800476
902290443
65901028
336178501
489071945
-878808938
539152080
746700199
-857234148
-564763305
616245947
-112536439
-658076964
666377800
815552533
-445780450
402024715
601656196
-992577326
-779596872
225419201
-441876846
-65607084
93804806
726663465
-980657029
-204372038
488825508
-496371447
-142957086
299685050
-237457251
-421377919
780269941
-783349589
-820780190
940827508
-156396270
910156015
964265912
141828575
-67985086
-629101939
421529899
-813290960
-146903075
-4555170
717738506
452201452
138576296
707913720
794513247
386360123
-137178200
-861619695
378808458
-985821551
886795576
-28906553
-102797278
-286705442
351811545
631245151
-705041763
634054940
362525745
829311131
112015157
457957398
-942638812
160920409
338389627
-759368755
-813015831
-461935008
989621519
-893481554
166223898
-713828368
-280448871
-774695502
595973610
803401171
-220099196
-958331445
21992482
494032986
-995539239
494942989
512407674
656522484
-796560498
-736017451
379173928
-963343639
-986246919
415682644
310466424
-471790517
-710772358
866289713
-901948750
-786229806
-881893294
-634391579
-96301052
-427317764
-832259874
-216537421
-618508593
-11957159
220688504
-931901150
762039644
-797076005
-225103324
733671282
-791518607
-493112031
-375480678
-89981695
-40456862
123266335
601551243
975397314
-202709671
-712441140
689442495
202977977
-496544343
582904535
-655669573
-182083526
-854017703
584534224
-857833373
-403072593
979586933
-664046681
104794865
-719661053
857790147
-22384023
474171460
-49728552
-277732426
843689860
797018525
-950957871
91242322
701874875
-645988393
-36682220
-183411794
98650698
670728799
653123613
-198723965
725908389
300443949
-494117869
-276690770
-150586506
844063769
-155723928
-877532963
-833806146
351656636
-439679443
151069310
905335588
645063971
904268867
-651329709
792102404
513210499
112903740
-262667827
-863973000
-225928000
857354860
559297140
374530236
594603737
313909084
838848847
834128141
-250055350
761859346
126825448
-139598372
-753008321
641294426
352159882
-150420801
-872343095
-665564774
-254477229
-467543360
252244669
-880963441
835018097
-361799574
701882915
935836088
948931227
749392529
163111032
-792369518
522564414
-324887529
-558070609
544848452
878957311
-211239440
-61973983
-426673273
840771943
-765747012
-486781728
-886334577
-766231594
292693661
-516067820
-401020145
519215764
239610325
-868831388
-145887121
490580599
572997308
78658452
340371531
-692145841
-539115793
-449808670
231215748
-469160691
-165873465
633527074
503677073
-542853963
-965177985
45870253
-810625340
-394769924
650240005
-385349966
141997909
550611521
-891060026
-679411786
-870671115
-817630190
964095862
387993869
-192711491
-121109093
-411567326
-481310562
975567409
519989670
799816782
-155466801
-520150204
-886044090
336413588
594641803
-475485948
555856161
531690631
-717283954
-329480206
688236059
-433887670
-7716204
-440959808
556356845
495317758
-82611087
-238888329
110178382
324784837
-496601259
408926823
954805626
-913495107
-728641420
691023940
-695468131
-513487154
-162548045
675663019
148828543
35694909
122213685
850109916
236041588
640784357
-707725911
655385248
493474280
-423246068
799129153
487532060
-748083648
663230731
-486817553
-802717797
-330361296
-610695200
547857407
-180538354
-516657857
56617789
-549119390
-82038023
937495506
964565784
-158525609
955514602
454485694
791810208
-548885870
154297251
785471366
-569376293
826862427
624909388
-679357578
-316726550
922777625
-115481322
-32115608
-506087294
465022836
439873700
-523009589
931881666
693441307
163533408
-735825828
504780270
-938529635
-126667172
-552111703
-945296257
-642636448
-795821043
588550462
-414272055
-648414249
904324332
88893282
827538807
918958143
-525357112
898563694
-472686522
28595317
-542045580
-747452895
-212160560
-773113243
-563355227
409672144
733155203
-827583859
405922524
-473132088
817421138
143533828
154064250
-501292784
460895748
-138505604
-927395483
-953765839
-493179980
482699368
-514644474
603688000
-980634295
-480193355
436143779
-931535688
-922177428
-137763497
639456701
-762990424
-430193088
186808588
-233061638
30247904
-149598879
-255786699
-81188314
-496101695
3932182
913104548
-297625158
518050793
474651720
-901848707
-692626949
-184735055
977122713
416852262
280238894
984403787
-872403262
-884380137
-834548765
92749733
-778447181
-811607708
-915018606
-315081765
267906043
475176263
-76148993
-144144337
101479325
-877894623
610533713
85603845
-261235540
-341404369
-189143242
820127495
993272978
65920182
-520270576
80156236
386305534
585668729
-261307603
-267630770
444356678
-663238462
660031540
562979576
436955087
-608862184
798367859
-699633219
-340761748
-857928180
-532810355
541204579
-263870474
-941534445
905323076
-850530334
-573064619
-419649708
130118373
273980939
-560548431
-821114224
991281937
-697978351
392894254
-286987963
582467613
333070707
788739889
196092092
-998975934
497256325
577496418
961789177
551487918
-340941875
-868466977
-955513095
49301669
-522205274
497151420
997506290
660047121
600610348
121044917
-260263922
571841929
-938746745
-358079161
-567088122
793132966
357692379
321113614
-597182045
-296375050
-242946492
-671466516
376804777
282057713
70447309
-247689335
-150310796
-847238784
-849186086
-559653654
-449698950
-494936463
843720710
574722074
-339583220
474663100
-998584550
-740664032
-716102227
-252136759
-162392720
876274917
652226982
669573816
892311255
27803767
957978758
-576194664
-695964030
-167895347
43023981
205770255
-357414005
-484079800
200996530
-29251828
4607339
734853910
-840924402
-827911
-784934700
749370266
685162032
-679777460
545580157
11784980
-650269314
638058116
888669600
-294579798
-807824088
596957521
-246238201
818966813
-604644768
-6132890
-384871805
977411142
-220110385
-839645641
-240585600
631071597
78955300
-231371128
-148362642
337103085
-773973102
342341345
305612723
-223757749
717278719
784168785
928551050
514284243
335494992
-239250003
34532157
750807518
-951225608
-666959299
-823181777
605492990
-378969010
659626784
-879937490
12221397
-520005311
-42844215
-197223952
317147218
838119412
-230957770
-718823104
-282230914
29335586
244274430
396631101
25348866
-144351415
296659925
831460931
-130115927
480981309
-184635008
13763689
-89807418
-570410759
-712215866
-799150357
-900058052
-987325161
955382754
-454864857
-506572737
-147656739
-488711980
-793986767
680983559
-196693287
-285673285
-530582533
665504660
-83926908
993952366
-9702969
840260138
-151263968
399145702
-514953714
-12985922
282229841
-489460573
-426649767
30029785
-365762632
-91291565
-303334722
980758737
-984931861
992512769
-128961313
373695666
320065464
-965738362
-892586158
167350212
-284834271
-185583443
960311487
-753344309
546427848
360100569
-670764960
579902371
-257531270
404464659
339930696
-406416676
-17163380
-655417286
-131054658
-661287251
644404630
688537758
269691920
441608821
858604133
-402937407
690300757
-1373697
811856096
-64116653
-453254542
-218868517
-885005810
-70193958
638779661
236756778
192108472
-276080148
-295636897
-299193134
564804081
158104021
641501528
82864297
179093533
753901902
-572014823
959768342
692078923
488219313
-273130846
522919325
-404941846
-281590929
-300031777
377272029
-524032839
144136754
-533676941
-465404207
-154104464
-368712660
204444811
-68287298
120166769
630659448
563972107
774458852
81105462
-611116742
26111882
985533576
422906265
-991275480
-897835208
-936311890
14087217
-219898363
-393858087
32726646
-990467425
-773361906
-101381964
380647517
269312428
208877356
861571104
-501062021
592500024
547559980
-880934177
592755182
-767695996
-677267318
-438201264
-785436676
997547807
-657677403
-298793598
372193151
300314670
45342854
685029778
-468282960
302383753
636591342
-165767292
-697858030
-248046866
185618554
751461344
-793852313
-413512259
-961226738
-99552602
-419590820
712272392
847432071
32892728
697553723
-622313571
-51217311
-913463322
-552541533
-915621989
990313670
-211038238
105668687
-296376418
731288420
936180239
280159771
212768897
585545998
880827757
-214700867
-75742983
-400476112
-580929367
266050864
611654773
-526181690
781144903
-114920872
-308858542
695433117
655598973
155804666
93319921
-920792947
-783824076
-789737100
-913676966
69177005
-192206620
646823698
651452580
-186324559
-951768186
784801550
845626932
796169287
-62741240
-793943843
-944728240
-936475523
558410852
-42458559
-656371274
-917435298
-516846517
717393503
34070944
760835641
803090538
-925973115
-515048238
-332107198
-898767787
613200651
115783871
-978978564
152961617
-468382407
751060651
-849135023
428208679
35226349
-120294901
840182061
330776614
489833755
-948397545
612238867
926579073
-808710215
8232112
629616131
986335045
538416552
830297712
739305468
-375817120
8876298
73576067
-958827493
413112515
495576200
-72737917
-338800510
349221160
877900348
-591456535
-675694577
-11827240
349934984
-856292808
-618505220
-787837099
-45536927
-370930396
962153271
-248990167
458304255
-514774210
56191109
-999684860
-840255952
238748521
-770970044
-152981104
691790512
7448509
499018743
452229701
-787739884
875573743
-745296332
203630446
-981169940
796920221
703284405
-108921693
80235542
879642020
-986460097
-617571777
786023582
36947740
-346639042
-688430089
252040554
-494279412
406086831
820127805
897035161
868674914
-268065526
-418476580
480903898
50608008
879835209
-992005299
534724116
-767724074
655262853
542041601
-337722820
206403173
244219622
-559788376
178306896
-399786553
78896823
-257568994
364652745
800664462
841623261
862189150
-236773723
-181395539
344212457
-270289711
-116599688
-645431255
-236972596
919697287
669708147
-955092552
-887163230
-817214854
393993743
10928770
657292442
-369256751
49847474
-703240069
899109764
122199870
-381152450
-332504230
-483569229
-866062082
114139114
-574497054
625822906
790442823
-754590705
-391204810
-47316990
75617750
-765538686
9322030
-794692346
-446398403
36131786
-328914284
-984638215
595289537
108563936
-428541397
706548269
328601476
-67846595
668584937
-500760307
-302919310
-592016068
770335274
-129994398
-317494403
-310370156
853847148
-805603000
-182626793
94678936
755762216
-604104857
975080638
68975727
-509365783
960589325
128372773
-609821289
-10429616
-876717374
275191844
-484225530
305444001
-695226549
-671398925
-450120564
644655841
-997316219
644308072
-771328127
-819055868
-147665001
-609899728
702027430
-192203926
440717897
-32990249
-830887412
-238773414
460644520
516252264
973083810
444777274
38763390
852264142
-358724936
131687070
-40622480
565722547
-224580875
73976968
-852609114
740896954
68266064
394822980
223997659
-472450660
-472127924
400165589
81743051
-926497644
362033963
232711702
-375953788
312795804
393788397
-984767768
-195839952
432315067
684628499
-264748467
231229160
239960804
-313347809
708864170
555564774
-649003600
-689011493
-104082517
-535134714
-363811557
523599085
774066703
142993008
-279918804
552443211
367280034
-442438637
-787497463
-278562765
-411748271
-813446891
618676603
-903689651
316020465
379563967
-442694842
-336922601
964977286
-200114473
-774652850
671094947
-905614085
509872988
610395406
-124266029
848431952
223111885
809148015
53009988
-437428464
55273367
504908819
420976548
820285841
-834940115
878071928
252386861
992153322
292272448
41484036
-675354360
263861399
34615019
-719489578
441771570
179379304
589068435
-116317517
146602604
748195369
-676717373
919195732
916041554
691008022
-658132326
-172684721
160560875
-753994261
-483752947
-472809937
624383834
377059784
-753314925
321576265
-687425045
605937200
-268745984
363938366
-26641258
506668351
826425455
163455685
-325556159
157630955
-670008194
873997701
462446094
762270182
429993928
-193299614
504411025
-110793902
-223312447
-217048582
-387591523
283962696
380271562
-324269700
542454469
-944049807
-412200589
-203840294
877672621
-517038472
580685586
-233171546
663352646
-419369920
-797274989
255297256
-792704908
-942772881
-244917594
238987634
-773752697
-392273645
-536673443
690305027
-743509356
197295988
-280032248
571392348
-799555635
310771562
-141472996
-971564047
-666118477
436187578
-46086356
727876635
604244100
894265572
-6205701
285001173
-926871428
803268486
435633724
864521748
-214989943
-65262774
-560252411
794753383
-895915853
711702963
187097005
-364784365
-570052420
388884274
-415646657
627164876
126912268
653963121
-983859994
-99951186
273450171
42475043
-962859014
-232633007
-617669151
-243568327
-891685402
44179612
135971085
-981816677
-585856050
-480192216
424245004
-227617778
112495730
22841695
819357972
-416884466
362614130
-566818030
-821315895
-49816439
610204090
-655790123
-813771606
-458269222
-788342763
730736114
-48474626
986167407
-626245434
-899482881
22793452
744802460
236572268
-368176409
198495000
-604425257
661859698
-399141834
40840410
164775233
577123933
149852254
-46861311
-615076343
980411914
-333041656
-908060040
-701826740
-319685661
40336555
-123675941
841397536
286135496
225543630
330489880
652190808
870566408
369909566
-642448159
486508882
66972398
-732595912
-721653597
-269630371
-316991050
241504316
-735934387
426188833
384841409
20947126
-714210738
-663273057
-651192687
-484675239
-668452921
-102530913
467645203
825577598
222543082
768451726
194840818
560316809
726443938
314863668
735458697
14649846
-958213030
253920749
-368823079
-670049134
851863777
-190534353
-756129585
78599315
779037553
528071559
548594702
53001453
-101538633
-626211777
735289532
824228167
979943385
-472834326
870521312
-910309413
-482871686
-827949944
-167438637
272252178
202921116
665485429
955887637
-472982345
-666645409
-766837220
124823510
413396234
130440460
-425733927
-123797538
657005572
674178792
427906839
-454101549
63467549
-662167725
-400112039
624269012
-588593852
-896896467
740861048
853675123
120232373
109950097
837124196
-40096039
-58365877
366626309
-723218043
-295614321
-808023889
318478305
-677873626
368208731
-34732816
-745929439
201530546
-822186778
-348588612
-600891208
114048570
-72476157
-419580773
-761176120
-921214539
-877285822
852516349
482962236
881936022
970029985
-925171050
9684609
513113678
-89583039
486025092
825033477
723881198
220766011
-795720845
-613400885
900119255
-970728576
425773958
732465891
-395718008
274765312
333580171
784001265
-541814427
108606836
-164426070
-125741456
825841634
-663107032
-183160649
467472525
-940819609
-612563609
676470157
-848778377
-361672167
-173951722
804963849
-965144301
-966628945
730910233
-341044093
-450595875
-20742121
52586373
-191093111
908293600
191315493
273470134
-397101640
831181823
421494762
-452275287
532196365
984089826
-634086081
-456422710
-530922355
981531791
221288282
266129825
-947536518
-948528326
443905807
311872831
318653358
-377941368
-509067871
-889345490
360517222
-287294293
150195401
-231435683
888546444
-283015827
395757581
52083499
-346379774
926253292
305798729
874227298
133834031
318827662
705714698
394433375
342851632
-300071839
-209505243
-504172877
512203557
-298924002
620148585
-413651667
-77288196
366903617
-163997309
296175793
333631461
105513267
619572789
490734740
-769988737
933240697
-199084879
607921346
-909909957
-831712629
506660255
-673422609
-360148428
-338250609
801787487
703239343
-176064855
859070295
-371934233
624139450
165608182
-135427470
-50393587
392317986
-746894623
31778077
-956533873
518059388
721955329
555960414
-108100172
112836401
-666325855
-495923195
-67415399
196741765
-74914862
-359793526
-221401174
218989983
115062789
410334221
614862598
-167116536
-356859060
949999892
-332088360
44719392
-351276112
928676074
866828224
473365909
700114992
810653148
-41166027
-166200140
-718321797
590159541
219467737
393637032
243564956
863486980
-43794061
-525830054
-568624994
-348861923
892186635
-370510007
468393206
-577805413
466187945
557602096
-845440188
-979319967
-567927634
-67681956
-275645813
77287173
362124242
-141997453
13340705
-919566514
-702669372
259702747
-38280749
57082154
-255354834
960781490
761006982
657330331
47252224
-509923859
-761399046
882384135
-163831719
777417740
51819973
-237327143
-7903804
-507844862
-646693173
-478413348
451846635
-453359071
-160213774
-416582241
-948806169
-676166558
786081005
7823901
744033665
-540670866
167960918
-512523801
960924846
-475680574
-694974861
-42200828
-4172588
-950326726
388375982
-154278477
-741966551
-318875616
-16342751
838744413
-214928858
243086822
792966233
874048115
-882415549
903109860
406090095
-440492350
628181548
924759705
-723045201
576071902
559002907
-59197113
302023142
-777450294
-502733162
-42286404
458163289
626427710
-108201996
-112325950
848970095
-631268629
-279385273
-720758087
434422858
927090624
-986460099
-404560190
-407356869
-103523936
-490876065
515073898
-875124560
918588855
-155754471
77609646
-22879269
448384538
315731080
615031598
239996968
478367441
208692637
-225666930
239316033
936576925
507505260
848355721
-107552429
-23451660
915001459
923631196
-881979103
15992305
-681061051
791275268
816172736
367417383
289196199
-805085907
-81669735
-506273393
-874974214
-272985406
922572724
982637710
-766782656
-510975688
833855410
-512121161
-744391333
614446801
-964697840
41818611
-89135611
-841674189
319053077
968652820
-855907247
-794149932
299728001
-831166805
-745929975
429462994
-424094748
204927842
-385090937
211928684
813050705
601980894
-119814937
582857727
712985325
-3262796
663930125
-448496061
-846175662
-273120961
206427835
797908218
512996703
-608868030
577052178
-19230349
97852851
608426095
505817160
-558882750
-790585584
-571536488
-733014910
330295480
-746195455
134611851
784818209
376186748
579796223
-898139915
746929326
-953990905
-473573219
131303768
133933268
-616888785
-183990503
-375893535
-145666173
471347724
-895078462
989615649
610793620
757126816
-577908601
510020075
-532159172
434942427
-273665648
625760571
26446670
-420935532
-575157007
25501087
-395932353
3117045
569704761
-747515540
81563516
158576954
733812948
544588592
689292545
-820984483
739719725
-320273002
221179738
855776883
506459110
-364510621
-435141389
-521597429
-1987615
-667234599
-916800218
-540675431
960285990
530790390
-642394865
-695052263
832340583
276099109
-979366938
110412266
512499085
372188461
-693240760
558620943
418258915
504905280
569271389
-455873944
-371366584
-647683353
-361185974
407490419
-566096749
467425480
-783737514
-805414091
-34485631
988866007
-480407226
-601721213
-173241379
-622069502
-301178865
-441726572
-5526649
-379782611
116254217
980014061
-567816280
-987598424
497516239
-21980887
-15148990
230561631
370253982
89372803
-263561684
-182313947
-917480693
780207832
840230542
616346978
451727356
-556566598
562413866
249383682
569222236
-945687831
-389304110
-175650691
-444656305
-360856194
303887008
313558360
504951248
262256667
415855797
200242689
-616837886
760762319
-265819951
-862627669
-625315236
438167464
508546506
895871588
-346746717
699180829
-992563962
-802568129
-346920231
923383342
-122014019
-101584256
356604102
-752838975
-810957607
825940463
-421535246
-514767032
-887573788
709083628
-323901179
26084355
281207272
853798889
452395435
-394045361
514697076
-981807797
893177530
-771966650
-716309107
431166519
37074048
684731439
-818703509
-129243463
485534863
-922642735
848958283
665022040
791518024
26834867
634170978
-689995614
-802390674
-2876000
19192315
62358015
879174043
-146282136
-980713854
-45557199
-381613114
-488345676
-233416172
807926907
601041542
-325333162
-197958208
-158723217
-972673554
948865593
-318375104
732066017
834937216
-891485675
749341148
-480229295
332068297
-31237789
681893231
186734261
818544110
-42959553
-865006256
399359580
-86868187
665384584
65396668
-341067884
106516696
872922939
940367900
-144266554
-672733872
406166567
662702712
-90851843
711299144
-572051077
-8877490
-360368382
-190337555
22748905
-385446765
846676219
-869111100
985219001
154445285
-755910848
208165289
-650871777
651936839
-560367247
-108378734
841293658
-940376417
-293890892
760879748
-737624518
-91731806
-413916457
-557361532
815240855
-105613266
777218399
-575813660
937810335
-789518398
86732757
-313227943
344902702
-372528750
602002294
-818188041
-570301639
-849807432
-60962705
-131885698
666683601
602031394
-672222003
-258759045
126624732
-172172619
916917280
162745481
169390580
447533271
-997813734
194667733
-683705693
-410171651
863454768
809413555
60147084
847980837
-611136488
975734974
241975414
-942706532
-568008590
879909177
485577035
102920727
535059754
-163683271
-805328810
217219898
-623123363
681047811
-926095327
-337288732
81489512
-768576654
-269457908
-585040419
-885051035
-780104953
-472473897
-66567056
-28535146
-472313749
85969532
-951367942
-583705275
881020190
-50392898
-693286734
813408682
-405647735
-568973361
76923405
-9272574
-463430089
988468045
-614384446
406146946
666379742
-843565160
611003734
-626315025
778285861
-894055260
-284904838
188506380
-855492248
-562678483
-172513080
-548812579
678894356
736323395
-309473771
-510304349
-573887343
-659524185
183513285
19604345
501490426
-113519411
508987096
158701511
-477850676
-991674250
-733992230
334217247
-172233019
7230035
-26125583
896102145
38716115
423128919
-3563435
-901329870
321382601
950233369
587590360
610907321
778239762
577636643
-806196882
-993162354
601777220
-934178845
749607643
307914174
-649029642
259112195
-341691197
305166901
482165738
-865651411
762344286
-420263353
334917521
-112645478
8064680
-95296882
-990579751
603430480
-566874151
185078483
-977569376
-736454741
790708929
-206818705
531777870
-83597946
-264254246
-606119155
840308787
361268730
418969162
-496842113
-857898639
161831586
971193946
-790252216
-798940090
-230240182
-628380601
157534210
552414800
865271288
-491290294
359166607
-685023135
765654245
-823212768
-383354014
629807229
-119925989
584791176
-39378944
665143973
708614162
660719237
845781558
645155816
-14770804
223302401
871671064
530179869
-190941144
274508261
-442744352
933855733
478931896
498378698
902245580
217252288
444049965
-511292586
-613635693
-303372154
737840271
927393667
-979020842
-704974291
-597266801
999489320
319617423
168146149
521472247
686650805
-869997139
-180095907
23141157
630317970
472418555
983650188
-837621765
-425584915
232431894
446016334
263715456
378955023
-427111209
613023767
139645318
-472668800
353517679
-686931046
-558803978
-184592234
515462797
-340082452
396525356
-746319386
491850713
-20620277
20548721
-322227452
-584933764
135073222
-664138392
294671124
706811221
-607879054
735440571
721303660
-73489915
210174894
62631857
-89717486
221264665
558313492
442405838
897024453
-238904311
-138608229
488867837
-533043381
683847801
449379598
-434152606
971546571
336538140
-308079665
677616985
-372537197
-959223609
621824365
327273626
892702535
592328647
-859678195
619521442
442027264
-77081286
-291464722
-493374724
106920776
-437745647
232337069
919377325
-812709560
-542779204
571500586
250676744
42094559
5292366
-864450029
-436681170
-368988309
-323318390
274377631
-733606274
-538977576
-752021974
-838763454
786816735
657025056
-538860098
898607455
-250418566
-647917463
-462041141
911458066
679473983
970407848
162498703
-37202225
355908680
-114904495
122907007
806469309
-109112675
328425598
888629156
237630424
-64871954
81081051
-394240225
800144847
-108344781
722601011
-337082620
823522679
361631861
-87245473
629011548
871672632
-434552645
929027685
636652633
233630693
-318435851
-253588082
726941326
-770036081
534055255
-124999145
-87990697
574237872
-809734176
-433989405
888974587
-413474119
211821558
-671683842
-102743392
328282006
-888541438
-408261646
-867264053
408192316
-282516292
527345889
490049878
507889422
-501536626
758222528
304031661
-340486367
-49473398
-760349808
528229455
-997980873
94683848
-344502924
-213799373
550533636
865039290
276055601
-725831269
679811016
317439227
34956384
467397351
416060710
308035576
807355732
-755787194
-624786427
-53855482
635711594
-984780063
590851711
618968591
58365900
813770471
-249234807
940135203
639656036
-700360170
708031288
-764540595
-736522290
675540869
-116609890
-924329085
954771308
610601731
563749351
-543788439
505619731
84437155
-676393422
776658884
-315228186
-160870889
-625367213
104803955
-215221392
-402207410
180537623
906776582
-308933775
-863699434
-311246663
-379673166
857111165
-296638663
-463855632
711677111
935961758
753770882
-265661222
580799207
-257903130
768172390
-537073393
-590819835
346179604
292405052
-674671565
-924072187
967421899
527744899
-743997878
50678523
-923363890
859599868
-185712274
270291224
-208958109
19324317
-427209577
380454717
-480092774
753831229
663757988
-212582992
837943321
-620951237
-12990396
-371178387
865496005
-740885710
-711336573
-210720925
-680789623
-107315194
986673756
-795454711
456341512
715945256
589374645
506572415
-391076539
-537659931
441677422
785835835
504941531
236324102
-191721467
349798383
494707146
286305311
703139432
495387278
626341555
-949073573
966513222
-510654686
728728328
-11177326
-142605139
-117200179
-56879000
544784909
330013929
157144869
79550552
92840016
81624901
-415371253
-147914633
23925994
-352702898
-771262721
-244120722
-601774938
-717361778
-912175413
520417500
976605757
787979608
327605612
-360990662
550449886
588615620
840395173
328901258
-686538350
-40669795
-596023144
50179756
-5479410
-820456363
709868293
-252473608
-894535515
-921109699
627121516
-965472735
447256262
-942106856
-446577291
-626361866
-5056201
-921954974
-495092560
82390601
730624506
-827719814
626117414
124669847
910045080
-246711736
-376799366
-8571623
623781474
813225490
-696219659
68295314
558007282
179403570
-716040461
-924960027
-360566862
-443360758
-771432902
136293825
916516276
-229336715
-557034622
591755874
-908602547
581424730
-845420518
-398210439
105907544
468865610
8013034
362663842
-754390468
-748769766
176467369
179448673
108348659
-595465976
896576103
-122483355
-256177514
-309285701
-217431429
-159766466
-875361841
481946565
828102125
714468393
-885064971
-943346630
678936680
-941503577
509502308
-567981863
-25523767
494829835
256621627
-602483157
-575591655
-330433698
-879385646
-740227057
-196805355
638462457
-394416029
-976722272
597015953
-930529128
-34354472
-351456199
-150098074
686913059
360689333
485251364
-221688208
447467002
959014182
-395193113
-492161797
942966251
415793762
217145005
336272859
-884751362
680535943
-951807871
-501291201
-512646004
-407843567
32680749
-719796240
32623717
-646883259
412763522
-989526355
473261713
-472683246
75466460
-79302701
-635736206
745303936
-393533419
-155092513
-996280782
344585993
-299748596
-366977814
968423508
413425149
-939763326
424408666
705682178
-459435720
645651224
965597533
-270841545
55583119
-324311026
134195330
-185205429
898852638
-48380712
750013206
831376556
804474631
23769941
45578669
948270957
670058345
-226939046
177386499
-1267609
-215530441
-701022406
783706638
635527357
-121191746
550717594
-64322576
159683990
828476893
-907517118
602053457
475165675
-405530302
-285588041
359962724
-600717990
-729114793
-637215038
-145061857
940724736
138525538
57739437
-875567989
-958163503
525583888
-275388595
-215762004
103479773
-806412579
-88551207
286311841
-777000325
-594724857
588012600
-119691008
-474806639
-290535120
-850091219
2057910
93260384
-440160572
599174131
671352794
-488333541
996546640
-952320901
748119394
699027200
238836727
616109151
-730525261
-256931350
-362041321
-781988703
13667368
-619212054
-397307572
-855467292
73896466
118299509
699010789
172254084
670496178
917798536
336605199
910517129
301824165
-653627687
86535010
-238538504
-884342654
-132289949
-520984550
-256811275
131105780
716263315
-519318997
781977198
-118661218
617825913
488928747
203148941
968796654
608470413
-84858050
811330603
138246235
-688307874
26168391
-42409132
-844939788
-161022109
-809569866
-902206628
722999010
766953061
647028272
352408227
645783730
-775128696
127916719
719705332
-98886637
-157834490
137810635
-27422398
295278921
-358082271
490347542
149289748
932045858
-522254885
380323741
145045083
-809915567
-416750049
873949313
342928457
-313233329
793159899
-961967567
-186629547
-618930305
157117056
-150509897
386989428
-947468204
646792954
-74103935
690559490
-845620825
-314354539
-992970879
-524185691
105287309
-910150576
226734565
-559974231
-821303857
-603303085
-716681057
168762793
-28914588
-108418810
582425539
-810587574
3935755
-282326977
598875663
203974759
599382968
-291225555
-466409599
-400957055
-107678896
787723885
-820596758
788916442
969018267
-509718327
-565576407
-460500463
-551553066
597588870
544121569
581209352
-328338218
-138986725
882632676
133065052
-236820486
-827044551
350881085
-663801256
-119316270
347094095
406884634
816801885
592002972
231636180
-553546444
-986737742
-914808369
-405878382
-778002343
455151684
-570598521
-971826973
-578076328
-188654904
300264415
-898438236
-476891036
-918203616
-88371496
-935576334
-928226262
-658973024
-60063100
643334319
-137818980
-435356955
913236329
414308779
-252906454
-356684541
138726976
-978415577
355304797
361654256
-663943004
744713054
-595606358
948388302
878742917
12716651
-448380025
229652477
-692689682
-933426145
-893029381
605814024
-135983547
-975844341
209379226
118764236
-588560558
654070942
-126774586
347609551
732761920
-585785454
708242603
410862937
-509065805
117434255
-350537699
-391546979
-160047195
-46696903
976329888
648957950
8754499
882776706
276282669
-654131638
545701881
-846875498
-657100001
-531931371
214481968
-54455349
366168711
753973351
-532146482
-779868748
-372785252
-146991739
797155663
-456974020
863352739
130583180
402757280
589766709
-392036
936418417
32295097
859645166
-843766494
-817712495
-863158360
185682938
810962017
-593114630
901421085
528469408
-815758644
143644020
-619629631
288440270
-166338600
531083024
-102976513
-260125446
-873901221
124140443
-994295431
-275309361
459214221
175673551
491677126
-731203631
534609798
-847735671
869844231
606237247
-834147038
313038661
394373628
135577134
236550141
636465892
-145380219
782257696
367633645
-424878020
522620579
303683234
173124431
-306703316
-819902965
333808494
-551005748
21377701
-597308145
-207207075
763284004
-507836877
681960520
268505127
315647759
-506322497
678091558
-110997999
-7226382
-78551096
-930820016
352063253
-419369144
904609450
725530136
250008388
-434413010
-470321017
-845349929
920941750
-238866846
-361832178
-128872113
327255591
626990834
186996247
-88761593
-923358757
317645077
-172309781
773096400
130381510
935949208
-413197521
684261410
437617029
-842794279
-310237015
526933660
204062161
-929801572
-105805796
773113661
-284528927
285942403
127134877
243154971
637373767
435218160
-14131404
393032959
-172520564
856528886
984246989
899049702
471554557
-385937764
-927132067
437030418
721821594
-177777609
811619934
519616510
-981446673
-833733297
141753762
131075152
240931099
-458233504
-784037691
876031610
928358457
-984233065
921293475
282013136
540774674
567029180
-238367081
955145548
389401008
358417809
-78767123
621990729
-2996437
-921088349
-452582239
-106396060
-141591736
11626488
926463365
527892316
446046309
-983922794
-494937049
586310377
-652966357
-445058574
532090108
-227673725
207112461
-623946519
435846457
-339689628
-117232411
307711282
897987455
896754706
-372452902
-92672980
99245624
-750703664
-503796305
-518512075
235754975
461345958
980690012
-654610799
658141019
228917254
-128609926
364637181
340461877
118299840
-263805389
-655501269
57392226
-247050166
472726957
635961812
-78957781
191492619
-933715272
-888950353
-791839939
-282239543
328775098
-149039728
-673708916
-489984649
-600591580
116876987
291873293
-601900923
-593332539
220728549
428818745
-876609779
113835798
888513667
975741519
206518626
485754423
-601025974
-178468288
675331913
207960184
-316894455
-868539671
917427180
-928067457
133525173
-693619101
-542133824
444207221
49258200
-880913598
-8467366
-329563184
-393267063
-305950573
72129458
-777926080
-845832997
-248465793
-155133009
-545530371
358886142
-271646898
591094443
640904138
-464714173
885749014
-409390240
-100412122
-601042618
252403708
-438280643
-184650196
-436347992
-968414900
173566371
119834011
-454117596
-361110533
179896804
-342017564
466039
439254411
781632032
619099668
-879908279
268966061
779687557
56801401
-374539953
338569836
-259204096
-224815547
-30862808
246796186
648712194
196027587
-446901481
890856887
-60921461
921274684
-523537038
177477959
-839058982
135370481
905742714
-990283319
176748146
-660021361
-685236523
464116008
169284856
-308800287
817934203
697022989
-134831465
370840093
778218461
466083338
-520867843
928098389
-605648171
704434682
-790198308
713064404
-30269266
-476418107
108664231
-290303865
526579186
608212966
337617688
-721406353
372088825
350563883
-310385574
631970729
810927360
984732442
283875861
570252634
282865333
-854139135
508807297
677931714
-742609540
637627148
-70402533
-818152029
364764846
445953487
283410904
-471277172
443317776
-121801562
-326659427
939121687
642651059
480554747
661575995
-466855745
823421843
-54406075
20726109
-899505911
81469774
187377659
685282863
-213209505
-429555536
528699412
-329621397
-247382466
308107754
-989712483
755190395
-851834791
240382041
615193370
936283765
147480735
807757085
623249674
-285636175
-342964936
-230645224
-229452243
-106676632
-630677821
-7684441
847922295
-899713592
-123676393
-209634392
-64867503
-444596510
101346728
12469959
-674399524
-290115552
541044640
486674591
102353935
-421305915
-217184764
-773979704
-240915920
-352651071
-927554771
213934489
-359294808
-133753955
-950406901
-720384000
3890141
-143248885
960663314
-596872919
-47642445
329587519
5204083
836296155
-340834104
-437206497
-381747688
579139330
680777829
417532618
756771697
-20113741
-30190584
-773600872
-699568428
-413752650
968798504
291899200
738813848
87789503
-646600293
542845399
-832474458
382004315
-462580693
-685589703
-428461147
607556562
-363841143
514386387
-322388234
-909719465
690438813
-729404259
840519898
-373506353
-759466711
83223177
966442775
117507488
58129178
748814377
-949966298
-564478818
278999374
20342527
-831513700
-693978846
530576301
-521034412
-356889833
185676520
588773958
-722902518
897922477
-389134755
-963197820
869596258
-8371936
788324614
665163677
306489238
342796801
-246452148
942139687
-290969919
799072246
231626295
-479823269
-422952706
249346102
756472531
-681426387
-101999115
306581559
950412678
533107394
310914413
379287759
-692524013
-376199662
-236490245
469279695
803949731
263406523
98734232
35883733
-876345913
-453092378
-592007644
-760610777
-506661613
666873873
-993656007
-956473942
-718858837
810036281
949232139
-238643084
-808484079
-778862995
691752801
56441846
-244406383
664312156
616897738
-162509875
883405718
-775747595
238032256
189643205
-604281038
-246402926
686971295
613858540
789581589
-13452061
-740599185
799744744
-373127868
-322440034
278018780
705233093
-435971769
100501941
-936815162
817789843
-518365486
380890830
9917251
-468271951
-179389312
827044430
817058176
699791225
-78505889
-469686275
-487301657
5576221
899520839
722002769
191805077
190504911
311741659
-263288158
-422079444
-164183429
-535856869
-949951626
-740252656
984450979
820586866
-348277171
-314811799
-749324732
-219993323
390073915
976501897
-578399356
-414585570
455774360
489295935
-801537745
-716790115
-797845837
218076107
229289604
-841668117
-360879687
121185429
-627192348
-661282011
22362739
530631093
163628079
-474498965
386356220
-892442793
260920451
-194434112
-481604367
744128196
-381080229
-903379025
-15093674
769799013
642292849
231346223
400105232
-376764637
547018158
-275251555
-729789990
434896740
486619465
-229444917
-301974502
-291350122
-859254376
-798044625
-118209593
91521083
713108556
802315580
-120681590
541933990
26524119
-97978767
661157600
295508248
869180539
962262974
148853811
210576930
256235551
173948141
-266432450
100285716
944896789
322019735
-731153078
-460313787
-341130391
-526085001
-263639756
471864020
-112309340
759716601
196204364
-59576817
924311532
127162867
-919161544
-217770290
682007158
-820214993
313813081
-353625256
-387822013
-880292902
-301148466
-940921822
333316125
-7665374
720680746
-307751802
-148312635
622863692
-302766605
757039643
-134241812
-454343495
286495840
947403953
-935179703
368389779
992571123
-261888902
-612278551
122651862
574313069
-163950772
-906860226
-275182086
563710723
-331114024
-569695126
337013155
-821985419
18398651
-595944292
-458752158
-60238579
-71355677
-561034636
23437865
-2360506
674244309
-861546943
-695169608
-149623518
-840776163
598429932
-350901695
-453762237
-819949952
597049533
-879227966
-646082112
-273286533
201209581
555351902
-401291202
-747168825
-861829171
-262229076
-926856851
947038208
-65461734
420894891
-904456143
446313236
96749533
-502576606
-857411628
-142209539
-977109255
728434118
610602393
-678108534
413791892
886455375
-708145530
-33622389
739691311
249128783
-237623164
24771397
737914326
-236175623
-89679500
462061094
551912452
-623678310
972070474
-683989782
-301616811
-406524512
-286349910
-89436608
360265717
775231227
-419857557
-121660639
423769904
521266176
-704559414
875206571
509369853
-22282762
299889541
-889926198
-39497231
292744469
43326823
783437046
33030909
-648868431
400719111
-723367643
879389728
-482293502
-291246150
190547313
851651319
-161575728
673238626
-16710438
-486600313
84044583
-831576122
-61521382
835084384
904208556
987398209
446878904
-575460407
146489940
-102024078
-988713479
-686597507
564500008
397878797
-883426907
-642835267
-58911587
582322752
711988228
493902355
-211129406
360989858
404418998
-932864414
324324386
461914341
-217778635
-770614871
327370064
-175586535
-911309231
109100331
170295587
665874130
-481284238
-368506467
831782425
834722132
186889325
-518769572
245090781
790167144
-109090746
943603196
-872068051
-66444743
211656925
-381410679
114790417
-361971212
-321256045
-913484087
-624343321
985365693
-734268031
678545918
-488704594
10099936
115500194
-208681717
-275221563
464856203
415407191
95336789
449313535
353631319
632856756
-508124501
-491438397
791845244
-714530257
-648598019
430302406
-904626185
-429763053
661159970
-739944351
905179334
-389075200
183029333
-148009505
721984750
-159431289
930476893
78780725
-646764965
86167059
869300079
-909105163
313948593
721474816
514116952
460052176
-848669390
165467366
-470874806
6316950
-396767698
450295482
425364955
777397619
-145125776
-433678323
127381131
-962207179
-344962185
-927496486
507925445
-853600388
-193014130
433104831
-329495762
858967445
449236686
-831060240
-838878851
688217615
622192448
666638964
-489799974
455367801
891678291
-355439110
-747580717
-588127363
271089930
672337027
-82392770
513555540
411123348
-908142293
573565921
79630593
-680186517
-494761760
19103718
-531326074
578718508
-844728186
-261730819
-813005061
-601874416
-380090960
890703072
-252430336
-810449792
200464361
441525649
-185787160
-125126053
-91391215
-23315227
-567790125
-217918727
-931983292
-606899154
883142115
-144195479
-845467867
418954945
-194443618
-161121116
309188128
-47844155
70580197
-844406069
714631753
-532545255
-828984567
-608297131
69733626
-55109588
-521311807
-130732498
17862413
-476064634
-283312732
441128415
-976093331
-523974392
982155582
229535291
-718240416
752917367
844038663
-810299669
425389315
960324071
-337342340
-178129856
599382909
-319328512
703067089
-391279037
85296834
557719649
357873546
-704059126
-919237398
-570312460
-554387850
244664462
382557306
110442725
809643564
1713603
-117956206
849949869
-940784443
373260655
-624230247
-757270078
397767403
807961804
-489012417
274198683
304979703
898546512
-245755290
679376550
346190824
867244137
-828035946
908962115
457435450
-675095198
497048227
449291582
-970115882
47931290
538625452
872453372
53442670
708947638
-128351869
433176519
-575798778
295403223
-288627017
851618851
-205750255
136042811
87898345
-997540227
-365575989
286120328
-704767877
521922313
-335458288
788522805
602809893
-313740211
-487692682
439551732
915690187
-644905532
247089024
430678115
-365256529
-181194690
213908391
456946412
-465480984
-744283461
940740818
-375613175
854171053
-935619854
485574221
-767470645
-431650752
-74960735
-752612773
219880294
-231361864
903461136
914892234
961613934
238102058
-232574832
115048430
-783193136
653621728
20332382
-831914165
885391832
-482971531
-486920373
-492393746
658158174
-627695575
771781974
315115796
-205945314
-476278907
-213275026
731025402
264019952
464805906
-241892755
110609868
498424029
82841183
-154157363
867919251
124702923
-119991725
-437766572
-795077083
440489313
-295942190
-691183118
-276363822
-628865981
878290433
366360036
746847327
987193269
-493533552
-763217891
-263843592
-115842981
721126039
-110971708
885074133
495632698
836445274
-745715320
634094790
-518270074
-124098874
-751712904
722931973
185258565
31916613
916154406
-3633441
-961192599
65623378
-664785631
517074452
-221784328
320183499
727799029
75062362
-912288464
970605729
-840470276
968152094
-760658665
835826562
14263702
-721764016
316687177
537661510
442849432
595548321
-776205115
-410191743
296299742
-175591669
-60442622
922121905
-434138909
896031826
-941797600
567874599
-972759953
734250705
452594641
374453438
-849957874
556004159
845251388
578162014
-613075683
-300038443
-550261368
951254551
-666279050
-240822018
566962171
-885915029
656135328
190002976
-394081139
-766651429
345168902
14503839
866889418
-750688053
-600104481
941827366
-142767927
66300249
342350597
94548546
-353876316
-986613515
408021802
44001258
571901688
-171757992
-123527691
-111052660
149728312
-815918803
-462627988
802672203
335154781
485431866
-616598856
209142106
676979518
-751321600
528177737
-77369344
122767957
872084315
-309548601
318864751
430031378
94623612
744837534
714640900
-725849270
-842238987
-536305746
-932035481
-971842800
653701700
295343814
530926496
-457186007
-252341244
-410939771
-208669943
64625478
-65521298
141727166
-920457181
243298880
-928939854
-230265475
-778822640
-978191183
854257444
-797840850
-930809352
384048109
-39888771
-772354233
550875289
785323581
850822284
-851810498
416249525
-240330995
-630515073
252093724
478056090
763155938
147688662
884231917
117246497
334950755
-972012012
8728447
-534760157
-396724155
565007440
-589178237
199255654
-503217454
-676070082
3834069
962796823
-298276825
-753132776
245871327
148462881
199407750
-878460521
151297022
360956629
-326656166
-951530267
-55710768
141266550
546979083
655177833
271448402
155592014
-122518413
-262269894
588914641
327097692
484392071
-42718510
-534965856
748263314
583035363
-315313120
700133498
-788846844
747200179
282181016
-798031952
334204574
-555846306
-982941795
638086141
-268951765
-421939613
-35285553
-597242879
-464450354
-224421895
-340699409
99454044
136996270
-332250870
-627577298
-17957872
-973316582
-410332986
204147841
-578048098
969332909
421242032
-204360243
669019022
-592933170
915753866
877210235
372078796
237958026
882002674
226509337
-56588180
-398489102
-342632031
429856485
723818417
-34141093
-931366470
-380423877
924281667
803133610
650043157
-499687656
366562315
954755626
-848877086
409032322
-32341026
-362512372
136563380
-25612822
627829696
-944730778
-807329291
563580977
-368293284
435133171
-68927444
-513981900
771455097
-64379179
528898958
878045466
-952693028
892182596
-646594766
983864519
-263290717
-856695313
643865350
-271956094
-689282385
-534837409
494799363
-599015496
-999563705
-256590685
491410768
567751932
861404953
-270663533
859303526
65758549
146415050
860030008
838392949
-355132685
-316930157
585867019
-99528462
315911724
-919480130
-282019437
74271822
-651015293
412154010
-383137933
607902141
-931662954
-983482068
497689640
-999008691
-837157939
-815952669
419218705
-54668529
-966286901
-269600920
111276443
-462951993
869525256
-821671169
-588446054
-911503072
800992233
117930732
-668720358
581643487
-674186235
-98875159
-527341973
765660639
-422284593
-312523542
-899791333
112193712
-802183987
-762317802
621827323
-618085431
61847707
467692114
134551104
-355810034
-386970446
805336172
-853755764
-27667030
859159493
216802890
-722229530
974528867
-77544905
-387469891
-443046442
-890918590
220773394
-983895503
185600638
361184973
-251617709
-259052695
-297046090
-21226189
616617699
469665859
248806800
-636076933
-959266791
965579485
-307513586
-907089608
690746766
762539868
675626641
-8352500
70809978
832015350
-830735751
-79004524
291230555
730027620
35008935
552966934
141542147
-97863098
-842846977
-930090228
191026936
687067371
88610964
681800686
-729485764
-410757461
-691039338
90538084
-306702629
-856816072
-921704874
616748247
234327706
524563369
-458364705
-946404741
508916939
31744274
825254841
44026796
-338046887
-167763527
-219288582
557152355
124433357
-753546541
159312707
148257384
773708262
-64039236
-831929816
-887271367
323539141
401251048
-455960758
-997797055
-819403155
409179448
-996753334
-205928638
545586511
417167683
-485372276
254970803
-950952438
325384686
-123832716
653211151
-648699842
-839099644
-905256526
289658453
856269309
-45390043
-15277726
224002518
673246947
-800709873
-745523353
-461466923
54217447
-87238529
-134840220
-476397331
-813419198
-967426243
-214243324
396907228
-255416372
-223548499
772119319
627103808
-973435926
517373702
778119891
90609035
275552529
-500057996
624061680
-285519236
-787320768
-197409455
350060053
-505763942
-510521415
527635061
-593581271
-810773792
150690699
-426679571
245725582
181256404
245734114
-129914429
-75339668
-29255831
570412298
-411302791
-35288809
821389758
-835031547
465609704
-15738370
31560284
432457074
996215865
707786447
391697581
-512583179
-767987451
-514803836
-601763179
-330147475
644073914
-154666521
559908289
-971892164
-663034865
489469972
992860955
-639369454
-182392113
-663070295
-833514565
126444089
-117246834
-387142754
-357958027
-682807727
-993702383
68582406
950678718
125576974
-967370344
-372965070
-162976838
-580037391
330726413
242144920
255929414
-365062709
151065960
-103863290
268963183
998502633
63247619
404279801
729916767
-890428233
-781350345
-27329815
871953526
408283444
367092610
-788728301
-680917688
-697242539
-228788956
802307921
-862056380
755233798
-323216152
-672252689
601506564
-910863319
593379538
716613472
-758557212
-424529681
954533793
852316281
847272493
316991947
278620062
324300993
-967214827
-984538293
363077728
-699522333
778363400
-319301316
279113456
12531833
-274077542
-876781750
-889905739
24570406
-862437047
262106615
-179150432
-663679098
-229743806
572942282
-58440539
-917912104
-411638129
540221366
178024662
-161959716
-177240117
439298535
239026606
-299669410
-96951836
-412388806
730919863
617994134
-146323326
302938634
-38786558
190850159
448155899
653137005
-825399044
-676299107
-286391294
430221488
922706374
56207565
179134207
-708223030
194650301
-263145850
-439342872
-661405375
92411287
762637086
-78220446
-82844316
328351463
76709631
-496793936
-519136911
-852774306
525832879
-855528207
-32625302
-886082098
-71870197
853033832
430657234
172628691
-839964527
830225911
-534215644
-613751685
251401839
-897025672
447904513
155257404
797374002
656836472
-254444682
21868198
-720131134
100128492
396408448
455218124
-52770476
-543820859
410040685
-431386351
945286508
-235767788
-474490988
-782112532
406641735
856728087
503572921
-312667250
448971834
-84770416
-833553186
-309361797
414920871
500685130
-734623625
-478180821
970187923
-79304862
148364899
-451617628
-879477490
-995952827
-374673962
711159882
-494495498
-847123554
201510817
-27774670
-667842204
793419686
833701921
164776769
72436001
-927169120
-941115682
-903150347
740845151
819302164
67598494
672486626
-643289013
-160400791
-581517651
-18151983
-16061455
697129578
-494390571
-915677173
863548922
-679254152
-468586282
861872538
149183510
121283829
-501214993
551507125
672025108
783534270
294644460
217979873
-726666822
-151616328
-9013844
-733940664
-687695274
-462447450
-56523648
-152247294
589627824
355152691
-183706264
251912978
378307778
-650972177
-284822881
536354648
623501240
-18980210
-799943964
637495002
47193628
237488129
478568753
-732531055
-715908721
791980231
403762536
-68487315
-46873538
156449593
-44269052
-996278982
-767863316
-948337632
605528236
-382095999
-336985022
-254467382
-724968221
-125681930
676002018
-500411327
-436487153
-524326600
63970838
-181814083
876662883
656838159
-224268509
-758693105
615834339
800601620
597915489
-661890345
643267801
363105851
129233975
418395476
-699876765
-783983337
205107511
563187676
-977754461
132578317
-688980378
-646189616
-117827410
-621294280
869903965
-884070022
982046380
-494296196
-187218784
-679843476
803975575
258157231
-864572905
568087087
-586505982
-652788646
726288952
609209403
51225858
-67663591
366514902
118656290
-127368357
-834687731
847638472
83946955
-30678364
-995338343
891642875
-722393833
-361456440
-426890540
-81615422
-757073797
-17013664
-986451442
-534713970
647570791
-887646311
297448622
719061365
-554814788
255752290
135426683
-897075487
-349264276
-538907602
857328754
-163025170
261217857
310289197
-125554579
-966011770
-82880188
-77218484
467669291
-773253130
768838520
-498156362
-909997651
-447198665
-607068819
-359945749
59455834
857193797
286590781
-210422254
-295525844
873332251
-178058142
-375199553
-928033231
563358781
-697683446
690908770
-18031376
-506931823
-405256819
-513517912
-621481958
-863496263
-45507216
-250956650
-121516803
735680066
463615370
488118747
-301080275
-857359352
-218894802
59808294
43540745
607022773
-91721012
-314096122
-126410503
868183071
-462404122
173857193
988410102
762965724
221570983
326247182
-234231807
-75116738
-144437979
-880672662
-355105461
-725222406
-390540707
-817396163
-422983198
-102196293
951091006
-12236386
-111867818
-931865803
-448483746
191502485
-857138172
151579864
-382380950
908234647
464422860
-832337437
-721266611
666958919
764986336
200399399
-893627183
-888898878
-484193444
909594176
402292094
269900825
-175776370
651446735
-405765142
309472760
-408972538
-474053504
353065308
-9427021
-348125544
-876401671
312717079
-902458746
-323226295
432628025
-171627410
944148641
-647560880
814878284
230211940
-395703860
148643799
293672918
168989660
-211553633
339374458
883908996
-733115632
3406803
271454500
-197274208
-791842730
321120678
-535124372
-990488469
283057078
744364335
924339093
-993159287
891125006
-481804672
-419779204
-506254885
97940655
444744539
-991677593
262695336
977684426
-215708757
-945019912
89283026
460709102
995670583
100624119
-206299677
-895478630
-741327226
743843074
-400777620
391567602
878218827
-722462902
-266568399
-829687545
-521662142
-719760365
986169078
-843607871
500115654
-207607495
-108955333
179679669
-12086740
-863085004
474624407
-853827552
241817008
665282115
316277595
-517711116
-370286733
781731047
328901054
777031200
-922349855
790809464
221605625
-187109260
791716146
892438855
887796431
-165443763
-574223047
396600221
-581986383
948773173
647006819
-61703410
-116136357
14311768
-33287709
-67992713
746682741
-577932413
-932532025
-523764828
-670066777
495141506
-60703435
540455772
616313122
890832912
-126865312
-620711868
-962640498
-869584252
475703229
78404873
768425993
27281704
-295485150
875871725
531904956
-573124198
-466649264
-693464535
979772862
-799476185
67719698
-198582035
521402923
-186986375
-777084781
-454670484
-971936073
554832944
26204643
-72532687
638794155
699788756
-114922807
-652830399
417831755
153668740
-876964911
-118025651
462108889
508607220
769191987
-738456419
137089662
509256259
-334649646
-991523299
865859607
-136536601
757923486
299312614
621252497
-962097803
-217418302
471759721
938238324
668893188
-698130301
-242269564
-187189903
-13612283
570710634
-431672788
-297176699
58624629
-825861877
922196392
-632719222
214654370
-361344702
935921214
-132209223
646087391
-536541485
-355509235
358914075
-600589012
327291623
874900467
-875503353
785806423
-112592904
-85109969
362800459
-508374839
25085843
692097311
437479472
296096907
-494699459
814118361
147904844
-488901305
82041357
60208602
841062451
-173738090
946792049
-614614742
400166521
-564200605
504858483
-724849989
-5654578
-401039270
97859047
-805787656
-327228007
305085028
704219028
397823724
205595170
-799895454
-240986569
-496152838
530214961
777428414
-782254498
-461235743
680545791
-118580661
-605342946
-707660927
-548226487
-68737747
-198856441
414447525
875711521
889966673
-227089568
-552898476
370014981
528132911
-421629838
643416846
182542223
691966161
594251261
-934988914
276325788
267113366
470998600
295834649
-157735753
-92593082
-946973469
511961218
68471070
-327157148
-351854673
858542724
-65652620
-334417116
-166812906
-356914040
-222877569
-709987262
593271008
-577400224
-490286921
143670426
341996805
75306598
-101656080
397681919
-358122129
513924629
551917098
-305968913
316101968
-696726751
-222339469
244706008
-302607489
173999665
-353991541
25089891
-423128780
-545097573
-512656731
450001423
-657510033
-929292496
309141362
642722973
202572036
-832568541
-175528207
977508822
-12402621
929605563
797638003
290168700
784067573
-906514040
-445633716
-817776195
457793312
57373759
-532538089
72075953
567544716
782869500
-859815390
204547925
896970118
-394314248
112916680
-255808182
-111679090
-174944008
-388576896
509370195
811077513
485828086
-805462669
882528348
-348086353
166892759
840955121
912798512
-642335587
-4325986
-51599942
-713377411
-874276425
724688591
660379823
960055637
-898994712
722411055
-379869808
-74697145
179927699
946867083
-761292892
846247489
-413547843
86805824
904678747
-800557443
675019734
732666466
751937759
-637032978
62587735
648623745
-834058334
78407087
22881166
397894910
-626638898
982465237
-669576916
-983337504
-334588510
981267631
484767860
247845212
-982903113
280635686
94921833
-2255937
134180516
-710825824
-796769228
-79263522
671934238
438835606
-987007361
-693540970
886430164
-1876054
-598194557
-945294774
-754943303
-429342048
403311344
-988914917
90714639
-840582238
-667044502
-361028661
236042766
-711080483
991138880
-374420568
822341507
745051689
-804587790
-357789978
-858324234
515251743
322466760
-737130591
-796820123
-385851613
835714495
-971487341
-469569539
-999155094
-479322403
-531465438
758060953
-339914249
791062820
-436711983
161938822
-392468938
877707567
98048396
534286566
35443680
-617749587
256185261
-703959656
-898155616
-43982547
-613267901
407640870
392476269
492911295
-460102327
340992432
-209111226
779588399
-204354065
-148988991
661444187
-460203448
338544017
810660696
-28858164
-988045380
221806857
-585043048
-689693673
583640411
27263143
-539572638
619516147
704364881
-738744095
-557871247
-868597453
-436267478
358302416
-482750096
734771235
-295764384
-555654327
209067227
-989748172
-578441430
-258912444
144401466
908335163
-825437105
773620906
340512457
-473521546
289875608
997607928
-999076850
-889926111
-342446961
56652253
-811396989
-510144726
-784363596
-717165917
768859196
-233944526
-832198212
-901368738
-567817126
323712173
539398945
-206385619
817518406
244655584
-793151332
367461754
-507005662
-684879256
457793816
586735053
431791884
68512966
-465705890
817634693
330977551
962650425
337472410
514673839
-303910261
-86359673
-440643737
-153421307
-282339072
97280326
-25184756
-22235548
975663568
366865705
-351530335
743371681
39566304
-683963940
-642275257
-160315331
797448819
215678848
-318936476
-687020564
660733087
-74163721
-827985444
-480160765
-56202129
-205160541
43042652
411184765
680572719
338273913
-247576468
-45528159
680274805
-474222030
101690151
133993152
170478103
447978705
-176438794
-869589896
437095529
-145370426
78681529
-229200042
-289972974
-554033429
-528420408
221393735
795888613
-864237811
503844144
931061904
337853306
342042447
-559373010
-995119266
-896856062
569826345
-866375625
-240207646
-816219604
247268044
-531600814
272926999
282224015
-210438068
-952338621
929416093
-536162501
-297810965
21684909
-545167491
452837105
155655795
-55405305
321096541
483254160
146864083
946700986
-530753947
-854427154
-756906110
201613568
-224061290
437324221
-324613222
596246806
217055403
845471750
-758973360
334819722
-502566041
283893280
-226500394
-527576997
-767477869
811301987
-648332093
331198674
-56307512
-87197569
-848602140
5409298
-750523529
-869669770
-604136322
-370453665
-977246186
604449232
183980604
-596172430
129499394
-770224528
224780514
867410272
905956564
497443922
963462737
405822053
253144989
461492421
694061844
-655660651
-563659069
374439267
616422087
465990500
-282509626
694464631
215390625
444187551
775946410
143192705
741779692
-450433953
969017782
568387471
-772320646
359374965
-14315931
810531025
-947540011
721743379
944677483
-59834351
-60595979
742905093
504958294
-511474648
-839557959
441568069
-684989854
-494363738
-211851749
-317853453
-499434982
432827738
-789552046
-297143620
-235823706
513538314
452709407
-845139062
-168402111
-200278516
955314468
522241792
-632480715
132573105
28368168
168978674
-969355026
-707246506
-92058571
933524316
-750524955
84151858
-298935960
760380071
-429611229
-912217955
18191397
-378199051
619391345
408822240
-809790632
-427965283
134268129
-430061053
481522518
-370041076
596142235
-974105549
867198774
-300323979
-642415616
-510260398
677382658
-243354054
994709829
-798278746
-880079874
-830351045
691734240
120751797
114343083
30349444
-925562204
378394248
361399141
-988787951
-255752721
-616029580
219683226
-639537971
-63843219
-753393602
-372170903
581568833
-277054743
506546010
-117639633
603982278
513909866
146835047
-272977795
-214722430
980471042
997700590
717272188
-938522785
26916842
153576421
-355535549
40455906
-545015719
-759482379
659104376
346530285
-188318308
-840700114
825731917
-868786664
-259572656
734784913
-265730185
-569703462
82231756
479811392
616001318
97605149
-800608243
-316134102
-634723462
234599672
-597464176
-38623368
-731885633
565140960
254735989
-148507993
481671843
857652041
-10143024
226513995
-514947256
-774452913
-917607823
-583489851
710586770
832934500
-388105854
-225021293
-635919410
-251939249
698214424
-344944360
-823144944
344075270
372337691
284845924
-784895572
551151542
-612412228
905210401
776105335
190297451
516599004
640536894
669052482
796654521
-284855286
674928875
287633646
392647484
761012267
-636184754
-259617510
-74219329
250945765
414916930
376408109
-101873549
721290976
661723844
254047633
-76763676
-7233631
-583136900
-89261833
49208276
920119369
-589943504
-578721041
37318431
-404977880
86286620
-128528404
-42051846
355253641
23006192
-306961015
-495941074
532060092
508404052
577264193
257622497
-441020469
49163817
556079942
-170585591
-377184918
-100255207
-788249771
-546681963
-382903075
-22253531
-559506336
-449212313
916525473
123674956
294680708
48032546
-307914021
-163703583
14079788
-83742901
-423858552
-167901204
-363945899
-95683762
577524096
709292212
-336644758
941376786
-28581420
15583299
-924982362
-733843734
-712426711
-816632201
-8822069
949375714
-698390974
763652295
-268211498
14819512
487539725
-995887254
-210780074
142973435
493254576
137206633
-985184498
-431495537
154934837
-111073017
-626203912
-333138020
-890282016
76779736
125218463
262824694
-610163728
335994717
-288371980
-83016364
946077167
-634084378
955348560
-934368053
739844464
505392240
-245090876
756710405
199963435
-293982210
-662482433
375909962
-354886349
-737408813
-218433810
-855783885
369433631
908642899
-914177339
398788891
-910597098
148390674
874188492
464343151
-297486290
277807864
-483231774
802487899
-122692216
368615263
-928752834
-849062091
-726847955
673322532
-224663707
-534138686
-522834027
-122869896
806188934
371823693
789284013
8790531
-386557862
643215451
855364931
96426696
-118907248
780075096
376491255
148050828
-910948167
39065988
-813527425
-61118268
620003948
890397474
-562614086
414101412
-578239377
-117387001
-482834800
408190117
818970552
-872021697
12067331
-643295163
596198381
464544117
840505959
-318946677
-391178175
442415944
122107311
-92481835
-198846280
-650702163
957339098
-193823787
224047220
-371365593
-365212196
-125883259
-191484327
952784242
100863363
173736992
999911597
-514569312
301464557
-809806496
-284696343
-643896528
-17821516
909313799
3612958
-580012658
-564901296
-732913178
795113513
-738558505
742669093
861541598
-32457705
307498338
-538245186
107222208
506729606
333642271
826112964
252858072
-215193688
-266212759
834308461
463108877
-735079500
665442835
506061632
-508197741
190436896
63557551
-921136420
-22732428
-174952574
569435819
-179266057
825240466
-539116369
513158926
-596836588
-710105199
-321604168
104776407
239741063
-213919974
432013583
104673394
-700743877
249564744
144014402
24359089
138321687
-812260752
439286837
-986760445
514885399
-443671253
-245055107
556511807
-275148236
170159289
36377404
-939876782
202684802
280288528
-912891077
290897507
783361371
844897298
172245880
-235228062
-108127002
510940016
-856029585
-863633111
-74476734
10987818
279730123
-543530586
458812550
816866737
-7131261
-853813321
-839981423
-340160355
-339772515
736920949
-240938400
-89076551
-342361631
-545745641
405349852
162225678
-597332332
831431174
-593338255
-38165784
252999718
529179790
-652385111
-998416973
857356906
-444756230
-603668785
-481626330
292615601
-859899450
-319332461
-869268688
-854077908
-523537764
293261726
425490194
-14355096
-987417047
-443523978
966428154
-917658521
814341949
-613171082
550559738
-630970306
999570938
-148190608
698739215
-534464413
-784609214
-489942891
-196069245
266513187
-876429592
-544612396
-891841553
-332781190
304716146
-452818748
583640565
-644915853
-948354165
-71141700
871172843
-507746225
249403628
290025599
351054865
-923218173
955483798
-635543564
-168292670
-772021747
-341757803
946629855
487018575
-65957633
-465442199
539220377
871506958
-968556432
-783403528
184369344
372623328
814248422
501451582
-942962258
74082104
-307496290
-742344343
34286977
-181625693
-443668626
-769060395
427091618
705205080
31464741
647994398
-117630143
-781304251
-258158834
-604452290
-319754032
-591545184
-832401444
-632763094
941571321
716405264
-433485836
742615403
204026636
-14235652
-441827495
-527319156
337713935
-213941861
-525235939
37537957
370981706
622457246
708163183
-997432090
-65963538
-27157893
583594713
-253237128
-618898839
183024892
992212488
354113905
-574644772
84957967
-58879039
-175923913
-132377486
-449694382
-196468640
-608967949
-844496406
699113683
-157995883
953733021
-345024075
-488801808
-427100945
-686008736
-36833814
-722583220
391586968
647004535
985331992
-392060857
-443483002
-713185995
-208875741
85455253
-359271058
-141048097
-684910853
-425650950
-723090650
-293768318
-464538508
-567895506
124817548
-727690622
-28549508
554531511
-802391436
174361625
-984211259
-354286932
393820261
-222723685
793769021
560382706
-61767855
185406172
-152246640
99292251
-463492598
-230829563
706588105
-541868979
-776432430
-313591126
-578044414
-72476572
150544049
744624034
-63709043
-696896468
792244268
-425116634
637379845
544066580
-726830186
-578043227
-274587393
34081193
-446132273
-602196158
357854705
-814140901
-172991884
-307905845
622407635
642896584
199302272
-70907602
-679654414
670849053
-56925876
919536016
875723630
-662031519
-139992608
-20396257
903194800
-781350690
150016563
90167731
922952836
-596111309
-562740965
-311327483
900881632
-900594994
982169972
-134561285
-40146138
-709987726
-366859547
322391015
273621462
38720953
-216312001
330802483
98163821
-133530968
-106929691
335395792
510969556
-794094373
-546620881
-343999230
-728806231
-150503799
-131899364
-143396595
766286963
749511803
311880636
-50860950
169411222
-578987090
156597028
217594115
-567581112
139921851
-417907674
-53595874
116184366
-618863133
121349991
-708824637
216216786
-140329018
942928666
626259448
-457841674
-880166620
164502359
41885055
73354421
-776375732
415571110
-620273351
-630316304
-448606018
287518729
-672314904
-244639748
-460926167
-389129
-770786978
200901596
73616069
507496336
863176885
833787831
-301723131
836213528
990957273
-639123916
551893541
-688134760
-137262372
-676849539
-69671362
999380792
-622538124
-471146184
199791559
-745412079
216260034
-373662070
972612737
346368759
-67558483
-116115503
587825462
-496717585
226710900
-184782490
-238814551
888943683
320699472
490784777
452962970
-880489364
-93421652
640245806
797277181
996115082
-272851529
89405345
923069391
915360467
-821438804
-708000860
140202496
-59347711
998945652
71590283
627579026
-292324824
-813485080
-550043508
-117111986
279247742
411383638
-186808505
443697894
-216832332
-794788192
-835705148
953224801
145200213
34948613
168610885
-730118292
458908868
-557251685
-825417326
-668942931
63595960
158833171
-638455763
-228530925
-652541616
279431965
-885023870
240200364
-349713770
-117962512
632921245
-753388661
913384064
-104266404
-68693403
414944457
955795912
-964248771
-512426938
-617671528
356635370
192340708
-762582747
-772931626
-677213122
-710444320
-379170517
724032441
-45927393
545092680
-193691032
-306476714
-117063935
-849154269
462434762
486521057
-185414282
-613450767
422198115
-37208569
520927543
638503713
-16577094
627038460
796555685
-280380256
-407197346
349898207
427099570
-898565121
321226923
-682339462
136379895
-557222955
427829517
236366238
202902236
-52403963
550673654
772802878
940212013
-868189720
-685512785
506936748
560301618
431298815
-383118575
660108492
379115892
-770283935
489548976
7711095
14387677
754041394
969038568
-318981693
258363839
501991674
900612336
887325083
770117492
-840824899
89140469
410271907
550459137
-537398296
-341192672
622707545
769871046
-811512612
-308410473
624907982
-644467606
445196576
-945542024
944281723
59198657
815732069
-613798544
-92860825
856571663
-218898996
-456618192
229941202
387439508
759430675
943388205
322899525
-391341964
-896505146
-448760358
-981589342
-805745988
-710870931
416600871
-613176100
-770053055
-897163799
806530361
130645451
-603266579
936576149
-535760606
91807105
671669497
-52089142
637668250
-990010799
-325725046
84812083
797114512
383252773
-294398238
-193801190
74947782
-896162902
123021601
655687083
88793507
929138679
-682089177
-778784087
601136583
-889877927
1560252
513259422
695413386
-873532032
-41702202
-709723383
755192536
671082735
-832200704
-123905819
483256680
-689147819
-176699130
-323235749
291494106
982225401
909627918
863252077
549219798
-842036260
-221127682
257712303
-100911362
961520606
393126577
657168487
854307194
-395881921
570241565
-631845084
921648014
-194393224
696905703
-474869027
-907046105
65337
-560556963
-579238291
-713512875
-685622886
738284876
290296157
237854603
124849724
468786390
-618636185
603457868
-562179384
38019887
213756870
152446627
-37297981
-444019085
-129621488
-131167836
424467746
-401493485
917670340
405417715
552560416
181731397
460859176
-870236408
216142352
352887403
758411563
704365982
-85948736
-857315411
-26229794
-447372369
-109829740
128308000
-188910534
-49921852
-914957577
516265731
301528480
-599417386
-319888876
-228867318
-507542349
546021300
978958712
614795022
189509514
19605678
-78643975
-946475615
223521882
-16583497
122989752
-276753479
-755881568
-870678573
-676707425
250859649
-643786497
950099015
-250225913
38109535
263704828
-609542322
7492361
-438833915
787693920
667515140
-505951074
-486026272
-788393507
-824180533
543047015
745500315
320852627
120620890
-943724004
393472057
578331086
-685535390
-814951769
-598270062
-318457574
-566457589
167920438
862193932
-512587160
726557949
-154951013
-997623726
-426723849
314102612
-906282353
761374557
286639314
703139642
709090193
-676630472
-443261705
464002093
-669547802
-237970051
-980253852
689485881
-536729965
552349294
242861090
-494202588
624324140
610652036
-306055769
852513428
-819938117
-519967662
936905247
-813914210
-762419025
-950523585
-529897571
576507179
-923995171
-431756771
755048662
-144536650
121262003
341435797
-224644881
334845566
-304208916
-915506617
-148627405
-764329539
-402057819
762127144
-867831102
907580345
-747117444
-436356016
423897059
932372214
-767035899
692500941
-746651706
-446176632
522126238
232232052
-124520249
627280112
-562775478
173244038
87109878
498477466
205622402
276808773
-263527810
666809135
-961686980
582967236
-711968269
-942227638
-53680247
-623437023
708620498
143861309
344980973
310942367
-129412867
850870178
-344536145
-13321085
837467879
-397880370
-328815463
-868517803
-968444427
519923563
88726163
571902267
-132068093
-520916429
-346756364
84120692
939846927
870069043
344378326
-61251641
784933849
-798118008
299285564
563987208
29913334
-464170221
-755156507
-915030821
595157523
424296435
767484798
-637509721
814187432
-790493283
878749972
289913781
-661747770
-820125786
428518016
-602582924
-441996510
26725571
890207394
-995957775
-283907693
-377181316
-980787002
-826141698
250547049
-178780428
-642111720
-751689844
12134377
49369417
-515963942
-199469898
-848368848
-988648584
-971113948
-982818803
-118162162
713804879
-192674764
-54977757
275350934
256537282
529580960
411881246
-102152282
-362409324
311266033
-90139369
726901609
810138793
876010011
268594842
437783280
-796958986
2599641
-641329317
-380699793
-639797906
-44653095
-484802531
-857973260
692116215
270655304
-38862402
-976047425
-193997298
-547341722
5879518
315158098
689188947
997156668
396671254
-47686576
-161345120
-570074745
-732678334
240309434
600780779
152685980
-688947671
629756715
-786124187
445462667
333246612
-331146229
86138275
-63220946
875162918
-938590457
492444720
576247885
858538981
568651238
170098839
945131061
-99446808
176533628
465897293
871616958
459245927
76545184
-888964255
970808836
388686454
802082877
566152765
920923115
-783719492
-720021066
559919815
620358039
451046798
403238231
832048830
886913202
-512089786
886127334
-144053231
164042167
-416656705
-404723298
-353948382
174542776
493039492
-113907179
-855473092
-752789620
-682140798
-194223711
-366549288
-631699947
-800882377
912112129
-576684017
-132722952
-641081070
853720581
-696889203
-584718738
542043488
895906604
-479671372
-639146620
860602810
89255704
-839468422
-789230204
-192242344
-821713564
-200486098
290782508
-509062116
453637418
-722980763
159748709
-263697593
-142426549
-587655900
665965524
785044018
222442759
893941376
184929351
-10791986
-726795062
90572852
371285022
-782770630
576098313
903454968
737930732
544369325
301428904
-889160149
-523083006
-546440716
-690134442
-561564224
-198004114
683787818
-562352713
-924053382
-998863065
665647814
679317504
-805206193
-566718737
814011308
75107437
624574416
853749337
-343962660
-748206913
-104650145
-510066087
-716285453
-980817974
889807752
949419168
-147409269
-830898594
369677588
-923518202
-352600547
716045740
350320145
-861379399
-975494901
494355479
-859301935
657175319
397108071
566197309
798263463
-736426559
-408507250
-707140758
790052662
-4635626
34607148
-888725689
510553204
-718084988
692651788
-147120227
301280212
-37396297
225224919
-993763080
-584625731
-160064513
496016132
-510380772
-529526657
-810505710
-614752667
841850547
-387896761
-472565252
-577636752
918707588
456386443
-490024363
-5183572
-772147170
332632318
210259797
-873990538
925561351
-89587376
-281246843
-335602639
698162084
156239680
-95734898
497925940
500919708
-629923171
-87974090
-243389440
-42486693
-675651053
783840533
-444213587
-56156408
738073181
561816933
-468059728
734345677
-857514981
-730762683
-963565151
839890722
946981997
567364290
-614983235
-406427223
-96113135
854616686
-363397348
-929475943
-252823106
-141203915
563938366
-101458607
228481323
-42125983
-500534685
801940443
-274300172
-392843561
647537567
173250934
-258102875
-943225754
-975729540
-483563916
864221031
478114041
-437617242
-278797744
-969204142
82113887
184097583
122354872
348220537
466379848
542857384
937021839
-824983113
903648382
669414319
582866182
-681834560
942294234
-538807916
-533942235
955350095
743685450
-743738987
870029149
-63299532
553318279
978179858
239088
881927593
382063797
-581705451
599866256
916982725
-85622485
935450767
650454234
-476752207
922265931
988596980
663938004
-495632158
640924653
-388130746
-395533604
196653315
-956104962
617174067
-298020284
243564580
658835143
-918918931
-404918444
527442211
-696640457
758059933
-850325322
757483731
362950056
-832713739
391787151
-397700830
-875111882
9157389
801645236
81564235
47581222
28738454
539379589
570433863
601051355
501439464
956407104
618683579
-940712896
-48145337
803634602
-825778862
-119417385
81932696
-870287887
-830438412
165664747
977095169
592935618
703720942
-232048470
-283341466
-228021295
-273757293
-310969692
-89299230
-203294668
84400935
165046714
-17655540
-852311043
-996355029
765057428
-697179743
73916833
530737636
360903855
-378364220
412782871
-115264293
-846921992
-633396699
-288033823
-212435396
522631585
252701401
-454430327
42741861
341744616
-677577528
-965576160
-654308378
33912593
876634320
-515126477
-95715597
-126019888
-250856948
65410225
818858443
-376417330
-284552398
428184383
991425578
743821858
323827269
197154909
-378685104
-524694758
-464807035
918703948
-344627264
360477391
35106259
797102330
-231943319
410677223
-119278167
868078256
-418368563
503687667
246047916
-609066859
-435901219
70961507
356410265
462208780
451880390
135451449
-10424011
565966368
584678081
-402110747
-113847743
-135152163
28532896
-581526050
-961739333
-987129037
-411324585
-360358938
603700214
-736840021
-694508443
592484503
271684098
173003365
294313038
681216120
923675872
-18459770
892786433
734264278
-948644915
33508126
-541562161
-947258783
764383333
690875418
434553808
-946924040
236386281
-290982747
551919985
202034436
269502734
-578189701
567998439
-232268695
253900083
249701663
974460574
-488831471
282087401
103482525
-487643786
-683261911
399366477
785530113
722624964
-247751880
177474349
-625225747
-472628672
-132302903
301991760
-384332963
721502435
-345785449
-748265310
690698513
440394047
995832136
622527680
309886149
-818879610
-904778222
400430032
615094803
9826028
216672072
939881527
8173863
-739128705
314944151
970194843
415267326
-121722654
156019730
413409970
616294387
935598133
-963589218
-426647096
-829578461
-371183367
662058608
669196616
986344435
752727687
-459553041
-882915234
388880743
475850564
464960301
397610836
454612995
963001150
-206916896
-459218748
-814988948
680175816
-351477970
132803622
-265303189
945160614
-69226191
829069657
463560639
503691744
-125104822
646072839
-146439294
276620123
-302266286
-850303660
-126654342
847069762
-250148201
253060627
147840248
-570367291
-555353250
891108198
861824479
-54260871
-845796719
-472793307
659340696
726891929
573395431
-737767463
-277226674
-915660029
-521598908
729248667
-616286312
340942459
-185915700
200316415
-521182521
99269542
930991005
-297174140
895852567
-692005119
-965597750
-591027219
663855811
87790725
984648426
-633256838
-723382948
28971002
-284964785
-467223004
-381079500
204063014
-366404051
-446786751
-303266301
-995185934
184137454
107528867
-402192483
-611170413
940451529
-599239191
398853768
328850453
958189975
387063485
243331561
838974973
-980088691
903780030
809686807
-357792
138708738
863500084
820163941
-318704361
444254965
-45155038
493950950
547854254
898964547
879880936
334976645
-806810204
418276513
964916305
252076514
-806935910
-436710976
535964880
-149189198
63566517
-33370621
-932984972
481181306
-786138882
691326216
16876848
-550840241
-465943800
-244518240
259518510
500155171
-377125466
415873343
-568678076
193460951
286245615
-19991226
34123662
838935897
-267333069
-934689401
-836344440
-479857085
-883516546
-176148456
-606396471
-286105548
-229899647
-884107094
-637859489
-303223154
-138260193
588993330
754808820
102452929
-202925333
-231397223
521214022
-488490361
-328799246
-793144888
-590832324
353577403
924924899
294486211
-371976072
202545274
816157544
-327188642
445213221
205775337
78581259
-454330995
287712022
108073898
609775227
-663138585
-292571174
-27717702
297229357
324017898
468273672
-110612891
-974518910
-532232326
796274651
-895777652
-885792034
-425722450
88304771
-952955503
-130892335
405844909
-418044841
273423430
101742148
496427205
937798826
-460129196
256872261
-446529715
-254982263
-152874322
328684523
-70484448
441985968
-828992318
-494068870
-54244613
-568990399
941592371
424227823
672523913
-706382198
267370087
542093046
-602045297
113255968
561783142
957433786
296249307
201275123
-983836081
-885863376
-393503096
-935527852
643376197
-622275089
-257103539
-246025384
-20162086
490711068
507375312
59999164
918027750
526787933
-761951670
855556548
-150892339
911537449
79313647
-408225394
-328375591
-397661044
117490416
185496412
8694169
55464910
851262543
380964276
-873825337
463504529
-151250519
135579125
-527517990
-651077831
-976071908
705642355
-131406292
-479015635
606664614
857841456
640817625
740222402
-815925540
512213021
-214994452
-852634761
26893711
519607984
683307712
-320810101
-871499559
-828755968
10487267
-194768667
646466776
-343632626
-831524220
971400150
-747639674
-699623744
45571554
729156641
639677352
511048628
737536585
-234457335
-224021818
958065303
861387264
-248437229
-547895266
474316810
-638962044
757511234
-280954445
-575749688
794737701
340940728
-608344611
325628279
520220158
872517197
-854907388
-168050160
272657662
-633647502
-939720514
476742367
172453230
625130449
83695737
-314900445
-538120707
604020356
-406651821
906423875
34316640
-191847655
205248631
-127095680
696396439
-977276655
-65938248
405557302
-716802451
920293673
505080632
-463228943
773367851
363536578
-129185005
332313474
-768719852
-728623941
-875563908
-779229976
-107548382
926725407
-449032998
870619773
-15527462
-478363162
547728706
901151924
963723452
681243335
-835589517
668107370
-223080893
289162229
-546120454
620714959
-555206338
-641824236
-330035678
462720915
-696779156
-172558297
131937622
-741387124
-698067993
962491458
-319576064
-456095466
247674508
-265130552
222380042
107040507
-33081904
117876352
491481609
451411600
-66185844
642199372
-547658398
380291254
-95162402
730616429
872807486
-681496259
-643582456
389422285
-502861949
-914323341
180237622
-146651391
280372970
459277997
959573967
-883190267
559230036
-83102016
538921793
571084863
929869194
-972367766
112560858
-547999022
-410759301
-627437868
110299878
-753123486
-998526574
-489702649
508414366
278175091
-284777001
-839873084
239268981
-146217451
-254877016
-262453097
-336075414
-629864029
175061441
-842719510
627688170
-946296753
417358513
-594659406
-252308397
-105983769
-769400764
-930391713
12764564
31848648
432357737
960457964
-562588075
957534462
967243712
805989881
393909367
578246147
-103484899
684671433
171402515
-434358453
-626158339
215778394
-313718205
86595167
674472217
-228769138
-21866948
670390669
-705077878
-492459918
-790148708
-792528716
-996208964
-126261167
838258346
-611573564
173158991
134761199
-196721223
964027515
-98846613
-684301819
-29685578
869281999
-227354069
-219074569
-206874511
539392841
-940092651
788670616
625416484
782855436
976167647
136498497
957048881
-420369874
419647357
594947078
205366612
800087124
-293792292
-634515273
-731068517
38013003
398631678
-770591995
77064845
-482066962
-378629231
921218988
163475338
-282442846
-946953543
738773967
-214497150
-134953871
-358456087
909570948
-633213681
-690830630
320289619
514089143
963612871
741993863
-319186405
366714197
61094506
176921716
-656750902
-348437633
638530490
-192107895
107571263
148573776
526969025
113128725
344698450
-217475427
-331079421
-817548108
-977855088
-925683521
151948867
986376732
-929215244
32453013
657530617
-416348510
-991877296
-363543113
525184483
-398503052
508422648
718681469
-288104545
565287719
246631957
-185861433
-351488159
272474088
-625902780
600799608
-365313433
-528661862
744181487
519379254
-232915718
639075145
-338704524
-48149602
-661442055
178213034
378214291
166772971
-704373908
68061439
609468094
-683337638
33010228
670857671
331933357
-857754009
-746461559
705296556
-972735330
-616586553
-57478560
-573935265
864826500
-108012507
-849469615
-416975328
893283345
-301032071
793840123
-259316366
-221736952
375322411
-971629760
-363834937
680838676
495101376
-289051881
-553450454
820240858
703716104
40730996
-860671044
754545945
902127297
-929578654
-629720566
421608830
651963441
777590271
-301072434
-705885540
-291235096
490702815
476432730
-819410239
980945473
-501225859
-622988087
602894345
-795767263
798584688
608682434
-888575988
222645665
-288741719
-71116819
562925971
-437296827
595502425
-626044688
771147123
226552190
440066561
239400992
297723207
-317111785
-348868052
-42053227
-264687774
155452012
983468835
13142
823614991
-433716951
826352651
425052857
409386326
529817185
-66868743
329330446
-816535370
-224177482
-669154545
-769167916
-668142603
383708037
-413752971
-123072380
808635631
-669116067
278842135
-548767538
541127172
438150868
-780285524
-486340872
-925344210
-63702872
884293603
-376055879
-649714823
-848997062
504618903
256255265
-234056970
-570659284
-492724800
-67529794
697385695
207698196
-711127828
202136024
504994786
-428356505
134791226
432213966
637894274
46091720
-511630539
-802166162
81826303
-482266351
-325225102
-216121448
-931085082
269113702
-553177982
219520391
857556940
826162689
-213109171
504722407
723713504
-319438638
-776942474
731867942
131606170
172770710
163853652
935701690
407725154
-179284536
-274168337
-850270638
104597072
114389356
-614489608
-688841104
-984669933
385415886
44275719
-875712156
308235239
415594934
-150624008
-574102339
-696485772
-738113446
-957795097
-743508577
-475797684
989053763
916556067
531007945
916314012
-566559935
410566998
-218062134
718579258
-126405640
216899941
531931401
254813514
-423364953
-855709574
-502530169
311882074
-337652909
803328213
-873678007
-39709980
-421724424
-224316185
-956387057
264121044
401550025
969783095
-794840798
788884045
260554060
147531483
54194979
451418845
227906087
338130316
340831188
804696210
-713307734
154926296
733841156
742364746
-667764874
-635576336
-820281295
638415206
899543864
246947509
989947310
-592993280
-967447350
-926922884
597730434
425902695
-821379070
175969271
-472390716
440226039
-172220214
-643456317
884287924
-291227899
224344129
431557129
138806216
309649122
-90267275
804826270
29754401
959702883
376097760
-685926177
626023376
-166577751
-179865223
-416556906
-46723763
168226434
-171673019
111386456
-154501524
215179389
-885084572
-220703245
397012304
605824944
-630288287
766331624
939035540
465156123
-399593198
-575879371
-359670546
536683105
-545987310
987088324
778062726
20503818
-454523575
-890420602
908487140
466519162
610614825
943986258
-776017104
911648472
-821021562
-96096289
-18877909
-896620257
477295038
141784587
120185857
391935554
-178266702
430570588
-95546126
-622307429
-664215259
315904058
545279891
-660621523
-945254969
-390529654
-152816272
467294327
270416283
196843980
967819644
-792830414
100353203
230091051
-872447301
880489925
-586716653
-459780202
-31109154
891342054
-187013373
177486129
-620321393
-89665072
733837240
933204695
-417610690
-903530521
-157306677
-267261692
-682249581
845131636
31548207
84938251
690415285
-437250028
-101965192
458614078
727413122
-232191889
-307772422
-774708835
-310731228
-326069708
-276335276
879621484
922029362
-640326491
-54468455
877369852
610065738
-392677945
-915161127
-427863577
-863031086
544145870
-496379188
-216018594
-75107112
347550942
348836458
505448031
-433950995
-667046676
-834698968
389029168
631925830
-400521575
18758798
526066065
-450679835
-433562565
35338232
853640050
-836604060
-492252096
-452993306
915427763
-148429047
-163289660
242496233
-410374966
-512505083
-49272830
430192835
434820374
60549514
716665105
-159164820
-816971536
776352573
730510248
-9228143
-249857022
904388016
-48360874
-396746130
-962579840
-528241676
270966378
8665756
-756737249
741008249
-663376450
-578713053
-955101876
38175126
-981585253
-448814196
638699606
525341337
535930287
-743398432
793972745
-693907649
65182460
6432966
12564535
760193399
-867513373
-298737130
913027806
-568672571
84289285
-786244226
281801830
-272359888
-693622844
-268401543
929036519
863799052
745434806
-217498003
19321591
-168711539
-105475275
711165887
499893748
-208773109
476304257
518457398
403367143
492223115
793684776
-30670374
515081805
489997848
771299967
546993183
-386396054
-846074534
-80510027
290479461
139702948
-305409259
460988764
-86140811
244754551
-689010651
981959659
-174094537
-744810209
417061131
-207401338
803993564
-41697671
615454432
549083216
-192972742
465551147
833805383
833290062
670247234
-702540665
-516906585
-8407584
-473091541
320384271
199599843
392470177
635184632
874955611
741650369
-215764437
-133411107
-210199968
-543854698
-208294383
-372313052
-341686394
176748512
-840133788
-628395236
637429609
-48693660
83041547
276279739
791452715
741329810
34070524
728490393
-4020383
-978298433
-350269109
453469890
180884588
-184651239
-309056735
-665284372
45936832
606224704
152942965
388809172
421945901
554478906
-4225778
752937671
388807254
-602736957
-133151521
-753377677
-539307902
-573343556
409899797
-97516064
-801014639
-141790517
373710521
170604835
-583571043
-699676335
-883782791
383765318
552346065
-348258224
927373856
584615755
-318241934
70998086
729608756
-7453348
-876174789
612057161
150771747
940466392
794141280
22534785
512409361
-187313148
-852949174
9625741
781473669
808549339
826993338
394794813
729608860
627285258
911529345
-563403599
669398870
139225680
-476542414
951429222
-320096603
-141092409
-933465543
-814013798
927895126
929594530
-755267613
-156446131
548720757
-361758384
274628894
-263921407
18996293
254038685
-6655213
-658614365
408134066
800281657
577997542
-843292870
607720674
-671043517
-651402443
781523916
-79577248
892084354
-671312001
463545596
-628296275
763234722
966231624
-254254392
977225267
-734181903
-400652004
618829858
-153499903
813802186
-20549223
-880312417
226741265
509450106
-426961809
-581143361
30980619
728357243
-590879898
-721043932
-628573249
-72135269
657370696
-62225423
-161373604
-191007065
-858193677
123757281
-10981005
-831844402
635285678
810963125
465200004
264081207
-188746206
909945573
972582049
609856177
-842300264
-570260032
-643162592
488591316
294974993
-406051799
624712925
-993904740
1327942
468338962
943132949
661238552
736424770
121898896
-403427712
410939487
-37518033
827170956
726736565
155716133
185392232
-741801233
176809810
356089467
897347226
-985280299
-860521780
6204396
-755651801
113513261
-839061566
729088258
-215888169
-943061385
-700112191
962063015
488117803
180766010
-767768202
966230326
-957537499
190623222
315051740
807055248
-322881215
-909796021
212941764
-855804632
-91891958
-721127075
381501278
-930192845
199212908
-172842540
809820434
6741712
-416407377
-36718442
-758996171
-492937503
460190930
-639441537
692330114
816071610
322986349
765594562
-949426934
-911641394
337856696
951118755
-258142393
-950766256
-695439426
-867638182
789384300
-109652414
-398856589
-475290345
-517354002
713238780
163040318
-735082901
394782649
-84483739
-428357968
-894622901
-44861038
-636997786
727317755
-421672660
254423224
71833427
889576747
-16481820
-671532026
37060632
944970122
-602784788
-873871347
426116864
368734209
-849683120
24600964
-824194049
-298295451
-686103225
736437793
453427193
-672050380
-747241241
293543183
-33476752
382883228
-506763848
57385149
297424928
-162085487
-805493146
-2593904
-503730632
680855461
-904191500
-137451578
554108636
-602090546
-612894614
-192553048
425208812
299494154
136723921
639065095
-75070271
183113026
833545752
812433758
843889647
-106830211
-643611619
-141780340
-239755739
42320150
-27817848
842662149
744044425
-531893407
-899619418
204751978
303663120
312485194
179523144
185345690
-621417892
-884892971
96894818
27023470
86365534
-829303949
305498993
-678800730
-502411876
976665177
694948648
-941335122
-225701422
-108755634
-884080060
397372224
-188278249
481850655
433079662
166282470
-357897576
950990063
937467469
11518539
157734921
209444422
8952081
-640529747
883442982
-659160589
-613442677
417078799
-930593198
-182450641
-394990105
-537377309
740643741
437809782
262493294
274161126
-799176947
986499749
-132828865
941099304
-793583525
-941704031
811172623
98303354
814236884
-66639340
-387514348
85374592
876643583
-257420170
166746207
347446092
-940779930
-56652156
-150275034
102927880
-502377954
638837702
-895403768
139257601
-292031158
511708080
72948990
-981823813
-254067665
-64789516
-708920997
-822352131
-372677629
-952881128
459239190
-302179426
-502629079
376227420
241244596
529040311
-224338794
-86645644
456060884
461975244
719065173
-453012164
104563460
744586653
-356111270
-287728918
966981161
-466635262
2645164
-469584722
-361244014
-762404152
-232093142
-334779936
-696126027
-730768798
927328475
-679267214
-319267360
777481518
-185854902
-891041912
493977988
885486771
974035304
-30605560
-979969712
-864122775
-488793970
48689929
-127128716
-707210840
-764089542
893266587
150878944
648004124
364604546
70498803
-622620168
-369409561
98524502
-955167206
-793903326
-559611426
986744521
-455883626
-825450549
-48512318
-444053715
972652512
482918402
900791267
274718082
-890229258
-735576499
-98093193
-246128156
376781751
-129184682
-216416743
163975249
68819515
-148334304
369172662
-640828189
225343017
453215577
-488277043
989189492
84508614
239651998
690999667
251944240
-208084193
450109468
-493005445
637350916
677543645
-831454408
845186672
421427872
-321764577
-907583508
-901955683
-76456981
-400531613
429686820
193461577
255075633
650019717
-396860408
141420373
-269216674
-37705270
-570272891
520315237
-842478083
747124182
338393656
-19686899
238449059
-561674243
-372809872
-123438601
-666670697
-312825684
770996030
363641783
453745652
-91917631
-705736377
803237375
-991285936
758953242
78143201
165176397
-695146245
727129086
-950347929
-386022873
-353340814
231668579
583579531
-551668221
-120851087
327210522
460250724
244622668
-365442863
395990479
-790621301
-425361388
-711442751
958922907
18165785
-658768223
489703593
64131912
-517927327
689473426
-990657169
-386159506
-766929489
210378959
535642101
-795991635
-282108501
176281611
772879246
-863506956
410330438
-284909062
819584323
985846267
-622912089
-312582896
-313716342
872281793
677237662
-281612993
678436602
-764472699
-656007078
-391726839
838343167
-61022931
207907737
790985965
975435209
935565471
-277897674
367417452
-652476688
611370416
177783526
700725124
12017741
673124280
-354402202
-253830342
-68881249
207374186
836295188
268971863
127253411
891315957
-641937861
602010841
-289519308
-475527938
-33694038
-365610569
-660927441
512877360
-242274558
-690080939
632686184
675310071
-979307024
884910184
672861474
-28107555
-245019657
575603463
-808273671
857548655
197823339
-637499125
-743835428
800531980
727113094
61050368
965440889
-565600408
-281546643
-454541224
-376079724
-383676677
-164662482
-501846552
-740460424
-693497296
398049318
950237737
609766413
965913066
480442967
-198788063
-265259639
53836589
-106457895
930392854
659383842
561467981
142104917
367349450
-786983627
-808069723
428763293
-270059102
225086936
-319949689
944351370
699566250
72335940
917815951
-364984641
91992437
219716476
225207419
353980192
-711387715
993268048
-317475600
78349222
-94028832
249697296
263076041
-248409728
65257468
-894764105
-802971812
319392841
-896344842
-408830807
370600488
256867404
913223447
657891431
-592273802
178402676
-515525713
-440172975
-221814020
-546893827
-674642956
296858368
-504020078
-843385799
974002573
-791174955
-834810618
935831896
-663449447
-980265951
70338804
859704076
238114907
1090295
-800701647
-420873854
-988315629
-850382970
-39331281
77201878
20581422
-322281056
380875356
-298087498
-200122431
218707026
755535859
-903425119
-858889699
-805269843
532013831
-190598927
544556695
-433936020
235627383
698310013
708889801
-310488144
-653970743
-490167007
-519797194
365321646
861773217
67777840
977621941
-913837236
-952698951
-163538092
462307858
-649603519
335685740
174668161
-81835089
-348084483
-394058918
65390027
-922231750
426493355
634780352
-99858376
950138993
-623821101
-983166108
146969225
-928373182
-381050826
21626354
154905370
-366254275
-278790692
800450604
183239117
-179699544
492383550
-234220243
573893754
-231904282
-168369608
-351004113
208469169
-605978932
906537817
798901049
-403654443
530817364
531101791
192960000
-27809388
-539566059
530688531
-402269880
799525078
-227216774
-10307502
292148571
37271914
-339615677
237093400
467492250
-126841095
-751509807
-22570458
-923325460
634870935
-254435909
-383780152
596068010
452184331
476522567
528939003
-299957757
273935347
-819874919
-221290456
192283107
61030276
-816455741
72214762
-5302849
573353840
894697225
-78008292
31493058
-941797373
-276578213
-742848220
-480619886
424020200
515795214
450926585
951397855
-421553
964176063
-206062439
-417879912
664111031
-367556553
680287314
812124199
122190237
389163343
723576557
-179453253
-771694127
-507520395
-351068514
765958428
-8740121
-351585956
-665387938
-416704705
809584429
-493548295
575510074
329932235
-819996025
-55608798
892219144
758653871
44571925
-70153977
902512952
414484641
-171752857
876940309
710360052
-282743837
-643926545
587217521
-301800763
520624423
-972823510
368689832
43265804
-979324191
-448040435
-123139399
-621931881
59663822
-329527806
250873350
791325446
928528611
939826172
792893
832717411
-544658826
377137194
100381878
515715153
-677927580
703259334
883058986
-574316948
-791550091
317715061
-361844684
607459485
388738038
905123811
-533101251
-570259289
-762194019
-375731150
709394672
797121766
902191575
-39687687
566871968
-776095670
-960531443
-259212280
-600336070
-47772952
77407797
707939703
-3744738
409982223
766904086
-939096718
618988068
-892745648
270863297
834130230
497595096
-866748759
-4161259
380265042
-175318721
125493314
849636241
-678883897
-355431810
826935273
-705891358
622495541
-536714025
87925069
525525338
745563547
-632673173
32764652
286715041
97820166
-810050002
-73273740
353569014
-507496117
-988185650
257551762
826219357
-994977890
696816900
308027523
-751557635
-526658543
74314741
-728353553
771370569
429172374
-983347609
95549185
-856104054
27001239
-459904302
-684937074
159652226
181718683
429677973
789769249
33824546
-312772315
-709174271
25928295
843632558
474822602
853546038
312119823
199677855
-447276886
631389225
317174093
771451368
-601132579
708307964
-386525335
-568598741
605092359
184759338
-417282458
200210057
-911510309
752305294
595402498
-665973428
903489949
-802783166
-317560714
-774715154
179195703
418715697
-196057962
-160149125
478165474
-27391517
658360859
781092074
-235376036
-8604515
455010305
-864328285
-299133602
209728752
-620883033
824344331
-943621250
533602378
182953345
410316767
-809485355
755249706
146656924
-121936682
762589618
573740481
516576284
801412722
292127495
-389361847
-227928851
225087697
-932511947
377238558
16385778
-914241763
-537715166
641490494
156897853
-272193966
-731542425
-566573456
901622490
-642693503
143124357
260636828
221499068
-61065762
290028162
885012413
97872834
124921958
372504769
284591202
422110425
603846948
-997067715
659355427
217974669
354792113
-993714036
-632262381
-652654316
-112900616
545285455
-309720694
379750840
804303576
249335225
-201003784
-530215662
-94617984
-99012295
205433014
-478614677
-162919148
-869367564
396268395
-211063150
-908759177
316150709
367496341
-301974091
-818816603
676895288
-555696381
420508156
-78278923
-440411883
-404406803
-182160221
-844560587
788977174
-728312833
-47764594
514387234
857066900
-590860765
132129639
-199110488
-740793748
-200335390
-329861747
-263144890
454835511
842695733
-853943585
-997146944
-190997556
826241126
-710654623
-838849163
831576189
130226030
-145925532
-912232093
421945220
393761737
906089481
212122537
-12209094
-752701540
316995361
-165393561
-844773552
385840958
-319783286
-108256245
-907541072
372724170
-643862676
-358313396
989161262
-503866211
111472982
-50266515
-204617088
-938950705
149573797
838715429
761684978
-806850500
-111112169
-517276218
240141321
-165026466
-566470058
658349951
620173466
185473904
-928011568
865682932
-911897744
374621940
-693313791
688737432
887157290
867897123
-568572015
405819195
766970857
-187122562
520475420
36269560
-486305634
-899283694
-773404168
-525974854
-331266279
235299085
23601696
-979592934
423330245
419801825
-455645810
100581729
-53621110
946397124
288409346
-701180588
184641789
-658185760
-653217796
-24299278
-535757834
-532529760
133412103
-377397103
-192855529
-690036806
376979581
901975521
686450668
-702855679
-813734063
-453919761
304467899
426500641
83754820
-882551147
218538478
-871990527
-719960489
359600739
290554605
-722360588
133431186
-15936870
836141579
14953350
26119350
-799429084
480460402
403645185
-758475442
-435335091
284016722
540497458
-123052749
-441243930
270977069
-952616826
-147827382
-987462579
-832349632
-850043955
510978755
901765959
111613111
522105508
-673914373
611784799
-8867077
-632751614
920215689
741811159
-150685310
-774756172
557041209
929280445
-484171618
-752135167
-235908034
894290669
245264488
90530336
528650273
457376364
116558088
-256946453
-116725150
-123974638
-3607684
602786495
911644003
-402307249
271384697
48395777
-368864086
584714289
-211311357
600493691
879266422
185939450
-941891839
401296764
-246961481
949429406
300854717
-165210664
-231939039
265298277
993965851
-266995641
-289002942
654635169
631902001
408177370
-720807238
551875757
-632835341
-514624002
-787641182
-545520535
-564178591
886206303
-916316803
-952358347
-468377410
-966158010
108296367
-320574527
-964939398
530919005
757767332
-698819345
838044793
-791859390
404895374
-72439953
-716996650
53263456
757719953
875156224
585729931
302554006
-51188624
-295335684
-430796377
228470630
-862448369
-626260728
-731097702
766958188
741733424
-871274135
-316837900
952326300
-514142910
-815223646
731665701
-315472557
-147041401
834954090
-455082166
-778643497
487929362
-882066590
-225492891
-660516336
555965614
454147069
880070127
-787325650
444095727
25769161
534169579
643748612
76090629
-388238736
44601547
375153639
-432006671
-905100573
-771393220
-589616237
228307490
-552483995
709180987
642876086
487861209
869597195
-908847614
-267858244
-313238651
-4045472
688036540
117843547
679866444
-734067815
-46781426
-36302852
-471186035
848650777
658180965
-829979426
-443363120
120022315
292881263
-479471480
-706682082
244211605
-605028895
-422429558
-239651830
-525812217
490049037
-27225807
742391060
865981565
-28567362
488305399
753392139
235232205
553575067
-70321537
-226211809
-635589952
508977809
789653671
-610844969
-165267224
-77882206
189323811
-99584528
645857447
-294558405
-583894656
671763662
-38091303
891515720
647267659
307728451
597508046
-193662553
-186217211
920615168
-961507386
724289907
-170021796
257647218
74930539
-560048368
448342684
294645406
539175229
176048469
-259952925
523313130
564750538
370547251
-764155165
-626966010
-822327015
-787303331
-188876744
-480682526
821362279
967557785
663837425
733480673
948016041
-896330327
988095286
-715238370
-869806169
-338540109
942681149
-616095971
884331722
277475346
247600471
406346514
495905511
-33495401
717946209
959266598
-424239587
-247621214
559101273
-195951801
-137549645
-736273826
947126068
799674247
-869879661
-319812824
-722031649
-925621532
758250035
246107903
705886989
-474760487
-2319366
70127638
-242010321
493614067
112632592
-383127003
-496623530
169540857
176911347
652261650
-328562648
-450434582
835483842
449254498
424953076
-685448287
464095288
707731125
574629831
-462065458
-260793347
-598883267
-661286739
11305923
605016090
-92790308
867464198
273497666
419408613
-847595090
239821370
-439254846
944848649
-984327508
-340993331
-949087235
-504863074
-915818324
-742556149
622728828
222909438
731025851
-19938834
656745448
996341981
898447420
234296913
-253866472
602704919
-499562023
9931857
410523827
-334496886
-75860370
813596017
763042266
13933391
-651602773
832392499
606152117
906789906
355882732
985570763
823994552
-531267756
662870269
-930964364
-928802023
-940696445
673123562
285564339
-631849266
-831795600
-980590241
-880668325
111742653
-734263678
625124127
547810740
-921398759
3607106
-839491908
-341990137
142464139
-744325221
691893114
-776314611
350977901
-287793708
-272843114
-891717706
398827401
156399372
517427815
-719247155
438410417
407898551
729659289
215753235
159543240
-905734138
-394094391
-990535077
277362238
-41042721
-300899771
694814671
420996348
393059692
-484879051
30995212
627848306
-599745718
492020773
528019780
-254479700
464902227
-495909195
422717992
-334336009
-280725251
-626173371
-16385973
-130317816
-684423971
-370020146
85010132
-374227218
808467737
-782119928
-870100523
-586314562
-759817356
-731104295
-442493303
-236805919
833629656
65835996
-336335981
-217815376
-720771993
876191166
582881462
-713042819
-723388437
565953919
-304041766
-749387184
312879044
-611457523
980893583
-113942792
-623229747
647352582
618051404
-546191959
320268392
-323440176
-288731819
715585832
-827595835
172384449
856491958
-400198084
-134483041
698034796
578985740
-967893278
-749641222
888725998
-196460196
508591282
-649955445
-313485475
556015056
115000990
939878299
-585750468
-460171893
-269614801
544546257
-373245204
-764898681
-94061883
549525456
-454912800
116296317
-791623762
827362196
-575109777
490441086
663093543
558560861
835737960
319181451
212566586
-456399732
474561371
-478219746
-541407528
-594684078
24664943
333152221
-318356753
-866306758
463968692
210950265
-138028766
914258625
609901174
-163008841
-241183864
-175095994
693817551
-161771521
-948927710
168445225
-326967393
-724305202
820099584
440969708
-172619556
-942449627
765635095
-869861917
296168623
843907229
-328821140
-504087568
-211915563
729451587
52862553
687930104
-257977631
-750241778
-43357155
869698540
611816448
-805154157
-541079294
-88791797
-989850726
312002659
-426455263
274075538
-890709263
681586848
-677824267
849658015
543514582
266653935
-918165569
630055610
368261847
-687502798
587236836
920958900
361288003
397650717
-40739463
-605101405
343965346
-895737325
-46038159
-942710171
554099818
458022680
204971070
794464013
-751183878
215178003
496845850
628031499
3343212
623021287
267752625
-643527678
-936069171
672194299
97104300
697564966
-171487575
-310036988
-740719561
205258884
104897493
647844416
846654233
434885378
-260095523
880207852
680276940
-345285545
-60615517
-123150354
826724652
-979349093
974924767
-768310009
182495035
-569925937
324710506
-616387544
-384047469
282677196
-140067405
740232747
237762215
549760466
619439742
801362873
-869373256
-87040583
528240951
143519831
-503851092
651826233
569641462
514197978
-225458779
-184379631
126055121
-258364646
222232946
755644663
411248984
482916978
-710571291
-606802569
-541076753
815644124
-400366156
-251094964
-805979607
-809775776
-560004518
-956617406
-799134436
-285401090
27957536
574519011
-95305673
781881395
-926183961
255296536
-423437038
-189008741
221714292
744598873
310158746
-447339256
971936363
731422150
660693687
406254448
-7493362
-108564724
776130559
-203698737
-470858580
188592882
-233780123
91023013
447878619
375582820
-411748967
-932961407
456394890
893485125
-534930915
523636690
708513370
-121537696
-187851873
17149296
-826880801
124759488
-109074980
571766067
-924200962
-443983877
390940616
-591950848
371575161
-461448924
214718023
301007303
-935406929
-739706589
-741875732
-662566895
-432061904
521136980
323494662
256860329
-357410282
918750506
-122982150
397003003
76679837
974515630
-783792307
291045631
732867009
968066267
476416118
757665223
-133550624
54668734
-787873427
-633616509
-489161356
192951807
-599930905
-261286631
937911692
-709353774
-113583841
379845589
470872812
973878679
358463710
546748860
984688494
996030344
620429897
-326680527
-273474405
862775268
23688505
558932602
109362842
68533315
219908522
581543446
-83963100
-726966407
699212408
-891247620
-192273092
-867474329
784497553
329893388
677622080
58421759
559620688
-403926214
524328889
-953602813
-797212402
-930950848
958058183
577916968
683028784
-115419608
269548481
-345324019
624393413
-650508093
-270357908
500525936
-748869983
391529650
714684284
206003712
-182947111
-742766669
374185707
-296921629
405017557
-50996655
-966730320
430501892
-79282358
-333727906
-628936255
-304114499
51331269
-990701543
-640366892
936446940
77168102
-586561909
-890855427
-259439540
659717717
-59435552
514591723
771009878
-867620973
367264030
675423190
691189228
546255075
999293692
463686270
193039711
-738624771
186965678
-639356057
509442000
964694372
422787258
685008071
841853989
173904432
590719997
509174528
351261126
142268216
-768836511
305887975
396287693
-957681771
-308102257
-221081810
-835988026
740707886
963728167
-957866005
462878881
-755620136
-560435811
392242433
571536316
-913339039
-183726530
333826609
-751955550
111544326
713506568
-746771763
-806235146
-831962230
-684629066
73750341
-80610167
-646242978
506523495
-56618894
-485488844
297715876
-1058974
217544402
-387929912
770330344
-277819589
-950124129
-225146097
-32570498
770199087
-685501594
187258384
-515014385
-79803657
-468986026
-905368967
266947424
-186478753
419813816
503081200
924365496
-478510670
-998597472
414362642
699611194
517208262
-36936581
222107551
-621105082
-821394355
-871148997
745392925
318795222
625067052
-179565279
275767645
342362261
308828199
-412865822
-389639869
-176481159
399653277
204087381
165938551
450500855
-554072390
-556428831
-255755209
-645806846
772648985
-27164148
185259754
708032735
836148128
618214262
-992777294
484268153
944719733
-698855960
-456784009
-845222541
396750346
275256831
-644364684
-254265703
211692628
-12370639
-505115559
-879633164
-325581879
-14300265
742823871
584122128
-174471248
-793161250
-884864136
-32169520
428978670
88573323
-726432618
-428361367
-930324455
224961143
-864969859
-315572361
-580294060
275733151
149067474
-920331619
576117260
89236028
-346208204
-529168553
-373023794
-720320196
-978999744
-870818215
-888909972
-200861130
-477873726
-416217530
6456323
733307833
-81981353
186237366
282941379
961605514
-709580452
940641694
-411967512
938722650
841468745
-104029135
-158615618
-591549863
-301229288
555971325
-50514184
-166123493
95487443
-511457865
-882780934
710092288
436962591
341497042
394279975
-649878918
-151516094
-2958926
-761491598
-623475873
-255678285
-993994330
-789113013
-124007368
-693266924
-726595099
-307130196
999221613
931578921
-334206626
-473222594
104208791
-153670218
535124813
-36061402
-495366487
-529502098
12450186
-463195382
44680185
-647434198
-229425195
133089573
-283465372
157530991
622560177
29766503
809833782
233224310
-523626162
-693807951
652347489
-58962146
45917174
290339394
-625505410
20851067
-610546680
-393143860
408254912
-153561080
912978347
46098944
-932404958
34492937
274480134
596398683
912309148
-850937700
-41549616
-499994365
-652231526
-58964222
-433631998
-900410417
64035884
-954171556
85526702
174070458
-585394216
-929829107
-953932656
56928342
-2299220
241217496
117608235
360159216
950946434
894366567
233708291
-356903647
798542433
892809226
139544147
-14534860
-183761333
57243734
-861818052
-295694277
74080256
-884324174
665503201
920845018
556800003
-278645
445881291
247079327
594855436
-726875869
897147308
43693685
-489467522
-13635104
-799908107
-962419547
771245953
-373364659
193299057
936394622
-597249274
-386801169
392247688
474696818
-531961016
124039737
616315622
885913371
-341524899
704268654
311883751
777991616
669831100
50236240
239507114
840780415
-545149708
-457776183
-482055221
-965823717
-751108263
-206109913
74837572
-212732882
19820427
232022516
409113828
229433835
888572617
-220990063
172478710
27597382
741756872
-395397533
-151731327
-763323657
247006151
608841028
-886125085
742694400
337996169
-209478871
-896599918
662334592
-235420838
173092017
74964339
66412850
-237016839
-385369892
-15961331
-815923871
-932544948
-382552064
825382567
-238616582
-706436406
54137501
-763999455
-506173436
509276921
-698958902
-673482224
522571294
-17436967
992956979
-117603935
852842549
-829921902
613011446
68291167
-523756197
-478359038
131252930
-972680783
-864584962
-292631716
65110702
-327700586
-887979445
-483059246
499563176
-147876848
193796342
-731169414
602630184
18541237
-60458059
-681644999
-27814886
368819511
-124788762
671088509
-432796134
276267060
315473332
436620167
-87932488
637385898
-135149558
987923772
541182891
-801740651
475412405
-286272033
844715719
461921275
-247056137
301632518
-223902916
-350148374
238558859
-749346651
857295916
-129321766
-13883561
463612175
-557061890
816406536
-465310706
-569687979
-379890485
-35625053
-311286393
-142062619
274658634
-256528928
-292497676
933261532
111227520
959942457
774234129
-249595637
-105384218
60425442
336262667
962155486
-933582621
-457266025
141080639
114907543
-706196026
-228032484
-422477465
-91352499
-80143769
712134762
304194363
-699583983
974221679
-362677352
-707380800
-398913724
-552760575
443296057
-980525024
-433747948
-850049627
-651354261
441572172
598778883
425920194
466040370
799737050
-936994267
-796201493
203830763
-426098446
58508457
-448434451
-242154156
948622621
-179138139
697943183
48656501
-128041931
415796873
950926938
726343155
-603467602
709825883
-887039764
942170509
-965023455
828503469
-117159379
98062463
-153002461
972005441
623125823
241333915
590633857
-193266808
-326091939
915298732
758875378
148981765
417925535
369159478
-101137088
-754505401
-339169978
-192220864
990455164
-879118503
593111496
-397576336
136959499
-190507219
289243385
-690632572
437982125
-664524236
689712256
-928127393
-865737472
83930045
319905017
-333726209
-735683386
304044001
-929932773
-50098409
-198453418
72107777
-436150445
-886159055
-718272893
76290603
22794739
-331867994
628687356
378526421
444276057
-282446964
312876033
815741365
-473120368
-46403604
-1895629
-140829877
821698935
946726999
-11393752
-92375571
-746928685
-471865789
941883170
936824983
-194970167
981978944
749548574
131187258
273801522
251942256
-302394834
-447603988
841332987
227364800
-978949148
-110897932
982654758
977328480
-868944553
147137528
447803563
-153731700
-537034058
-628589502
690125782
313989949
-585628367
-296150251
136634634
-123938991
-332881821
-29011683
739463222
925144589
-763783789
133063876
5550200
-822291823
-776428985
583228798
266782052
693772936
324889283
744326289
-321994532
-981793139
816377574
-495835232
712083007
485537627
866197803
-733385391
886854188
171057630
83338018
-606901409
-599891986
468809017
-713975522
149724055
-126940925
-993623849
-43962633
342578517
-442530415
959096477
-796294500
-458425010
45359224
844802753
448098067
962493158
172879893
-288498960
-18728569
363769878
-988149338
368591092
635856398
-612885091
-503502734
-872896560
66447162
-307382640
785736493
-769562281
440580356
272717910
425750187
-64512937
694109725
947105994
164355618
-927092007
722452410
715442687
987878387
-652581656
-356850658
48738518
323959387
569275927
451645250
326065976
-803709491
-491983470
-731442818
318804393
-368582162
-449258636
-827921355
-671318484
375604335
-732510987
-391892953
170054983
-167191898
-155888833
177944244
788107185
683657457
691861214
409209458
213860164
-406011450
-236258852
337172679
649871515
460282266
-823180261
-434674887
642551606
80589482
570115081
-288756268
-352474288
773495126
532399459
-256793660
-13743250
-943807778
-175905497
-635292490
-531768694
-118774764
-551721722
815231077
-894601646
867168454
179034564
-207104005
933055705
-777074717
-79413326
-228324931
-727059127
-920149568
-477578053
706459731
-547228384
-82189896
-96811476
572018579
-902848624
142677561
-599604981
-153263125
-671914392
469599105
-428914404
-481432974
-234599812
273758876
224931840
918856542
-609730614
-637699421
-142756012
-501282517
-610684756
-440922527
-619718459
300315780
566069306
706527058
549802971
-523765880
-861257438
-33242817
-424213657
-324769693
906496938
-555901583
368137798
-909155214
-481673752
-578980810
-845879903
-71752842
812009502
-774074642
59516298
996963539
-238314655
884629859
979768403
-616731769
-770811146
-944508598
-362483330
122492555
-257225582
476045484
-683231707
118317959
656919470
-51541807
155852642
260748283
-135070620
-208641717
-947278044
432598367
350632013
-786056913
-575832727
677234921
-41315884
-149249816
-38231336
831166595
567231577
517690121
577116927
-126285381
200053157
224491673
689619194
637624230
963875014
-400046173
-292555337
-29706176
-855768005
-112594969
-747038896
-533282852
-907523381
218866671
-982141608
-269596799
730331027
246907912
325072937
-620257859
525845766
914162663
838426466
-779747671
545387514
-907292069
-765379196
916784116
-843044492
506136349
710568045
753039810
-214426694
16458228
-516143167
-850777095
204390982
676161826
-679311768
977237958
-751623263
988812443
268530427
-205746789
766638320
-56948789
-535920814
576437193
302641811
452329539
-589281901
11340494
-143358225
422153235
-652683879
181320927
-534271763
373828548
855968977
-665651231
-690820674
-422049911
-557517625
156105365
-923623325
-542835382
-934944245
263004609
-688574364
750117105
932067688
-476131152
-557945789
575394506
651601621
762043386
623349044
115849280
244241416
-90381121
-538954580
522892403
492041236
-947975691
-117733386
533209722
-618385761
494421014
-736913505
-415009424
876572196
258184899
-558480070
194122984
-195705767
828414268
-121662138
-952152899
344103403
591504134
858355404
656013487
-158099621
464248580
-338260414
-784429290
-162844542
182758509
86694819
487804891
-253147037
517532494
777857482
-852978887
-845285660
31464984
-349074043
-619825215
-550759221
-478589275
460414879
-886159443
-930939868
144945841
-222226614
-82784754
-746168692
-463506502
594890623
-454800445
-555709088
-625472498
-493616404
475436678
499753255
52977458
734699635
546074077
561571226
106473061
551219405
679686460
852999568
-332121071
-69031865
830490034
749371338
812644604
-259547470
-885407939
829189275
-838124183
52589427
689635061
313786204
-17293351
-208548806
283277118
-419679647
149779205
-179018327
979885937
97661905
233892118
935426904
-780587316
463095159
434881593
-13832825
-887051265
60565542
1463878
-930594767
-85350256
-812017369
-884613392
554782527
-409936199
375368645
52641238
335651230
330138331
74267760
-478544900
467804569
-486197055
-723074219
510116987
-206108732
569156592
-971713235
934184882
619721844
543500400
-191488516
-982423856
509092688
-513555946
731579788
-871456263
-173668135
-377783324
-344951798
-398585223
-965451889
416677629
881807426
-179183552
-676637486
-186105608
699976252
-98003249
892568264
-289527222
766772831
-648968407
-364235443
409784816
272064995
-777617994
-769052792
342116563
-929164536
-773849697
-116862802
-34717692
-6526482
973975086
-813963955
372949256
-856429114
295193944
-879853867
51596891
195652481
781965307
-380444656
-855115893
314149959
-915069461
-500621083
-876244408
-444612582
231644553
41658679
264598537
-277244688
-497372365
865264641
-202501813
-931019648
944958928
826586705
91350050
-966927644
-770448602
962359929
962220385
57183546
802353171
-372464415
376934868
332724773
-922681719
-714013314
-253930822
-762907810
-701575874
356759768
48828520
-985351004
655642229
148907597
607062979
-989189578
979056795
290630787
-454138262
456386947
-600929914
-429732960
783257436
-339980826
-303206843
-142294726
-35704167
260572252
-36484256
327219139
-355583624
414746781
382281695
-461706319
-924091946
680237285
-998795491
145494511
825542344
888823255
472818773
571493381
826823073
655655014
617517634
-411708703
-569541014
3714283
-779828626
-344940210
-291074700
-669184207
187825702
28929459
590645209
621319873
331999780
-623337600
971011296
919565703
329443588
425555364
262519354
-967181892
-193738569
-169367398
776736920
648329029
-244948045
-668666746
-495796640
303127558
-638803469
-473625060
776822419
551771789
858857889
-6513733
-735056850
983328191
-60985547
-83548901
41600721
-625094709
-461460335
-755236142
-4020457
636134147
387522821
930331491
-662422145
301397399
-196454294
-80092857
-440262646
510345820
360152713
-524947126
-48389711
-895513292
148247010
818666365
229990698
698292876
653255773
561243763
186695272
-594635775
-583886882
-915758479
-868887073
573799746
290781550
-741416828
256163051
-597377451
-301976431
50087943
464385162
-689641957
-172667699
460642208
384049980
-762461328
189830963
-797020464
-588873566
-224519038
-193452674
-527033110
-216542528
20273959
-438660517
810069627
62892020
197105509
-882442119
-404361604
-840725159
988176304
112552478
-542037776
-316053306
-713260699
-342822900
-405966408
938367638
426662803
-110103026
755367855
392704551
-32630142
-102153726
5696753
530246225
70113713
-365577193
-672194492
-313548630
-711926039
381710917
176002223
870423380
-238770412
332459587
408994336
-213218577
-712770308
-964161066
969243966
-765351743
-201751695
-950009455
-767126236
-653826907
-226524307
-598670027
306806734
813831897
-386458156
503489391
-132443729
-125313854
469558948
-733507072
620418090
-772742900
839541003
-701707015
-171156975
-440622406
-812954260
-767125615
-251965994
-858393545
-53413022
-938641422
299161692
-53900128
566298941
-792757295
-768485872
-450503253
-296632045
370974058
-971939540
-113630929
-328719749
731194923
581821810
56475080
504610708
937127678
-230242821
916158781
-707686124
-450864040
-260043083
-877982859
473549207
686196920
955175948
-856947671
-22980568
940941435
727009696
-532172799
-743175979
965554216
875884953
-853520236
-279751844
898770765
725660927
-526039440
-378740353
649200311
-203364860
-752312264
-465348447
-17686454
9499762
459547274
300130067
222695353
920145895
525670204
525617487
592477875
-509062531
247967551
123214012
900783114
-135115059
-676887797
942629604
470499032
-304715591
-318287096
594930700
246039030
803517104
623791780
341869124
-823323872
-222492602
562409003
37621767
122191822
137757462
-297366301
-163197284
-964907525
-779876837
-244495230
776611713
843928763
792423546
683592459
371259127
473561271
-551191812
-414422541
332798156
804823108
552149081
999576923
468637973
926278781
-314909202
-735965296
-620815096
-392984388
-58247388
289817191
-726350550
-388346210
-107792088
-305316350
-96061709
-133743598
872721481
614949991
481575052
-341146000
-514321292
-760888867
516023642
971127067
50730708
665600220
-100909823
801402007
757968207
961015731
-641730384
151861871
-727101858
665989757
782022335
438535319
-236696057
424863069
-693237518
-477804645
472913014
-54127125
965105062
-745357011
770316609
274151804
863957595
-495980687
-305585348
-414752030
-10501682
708867005
-525799072
77245428
-561452106
-524507203
-675439146
-577697031
932321543
182730991
-793738283
899004254
615689713
-898342049
-810249235
-528463734
194149322
-692329993
-956227637
-348410335
375688890
-345747043
108928562
-448856408
-952498076
-730208317
703820969
215017792
245655652
-318373473
183917238
249785705
772458603
912231887
-439906705
555336954
-332764023
432792262
-478684614
-67237523
-835184784
-895185987
775159223
6313961
505272280
748443018
-886197958
167183915
-561332146
-189286009
-334826970
170376897
758552315
-162965373
862660683
188099570
344969717
123661815
-32821051
713281909
-722952499
-914570289
526130345
-803733654
727521034
-509635922
972247121
611733226
-636734203
86576646
-723063685
-71028388
206864235
-931873407
672742369
-302637452
864344580
622730674
720964594
108048834
-859264047
640552651
326712816
714940656
727229243
-364589207
210935522
-850221423
908282274
-349419625
664105882
265469184
402775983
-817357380
-501096785
170015817
-696702137
-860088682
985241475
-479209246
-159031455
-491890250
314676629
477596815
962961316
-240695377
-119632542
-700024635
745929325
-225832379
-868347236
657319757
-994115731
487229853
984021093
-664537540
-753878129
-121871590
794892932
330786696
924736290
937695692
-440097072
585267917
347487757
109168793
-127899129
-122572754
518163954
306586967
946146105
-80697644
-843028007
-54623320
-587460249
-872950290
-612991875
-993557177
927513079
954240698
-192612466
-179046446
-555673891
303666255
-382635234
624139042
16094509
172766186
395301213
771997960
29137952
668448026
817302813
331361029
-125997762
908789672
-334744425
476920948
-681170113
877594297
639970364
-708229026
242351055
178466315
-215792903
919585099
239819120
-877631483
-129708998
257018626
298469053
4920805
977695364
-983207189
57102610
885545154
-71646345
681248996
-80867762
-325474098
-268817172
-542235233
-527184668
-866515185
804625125
429613892
-779900910
-91181349
-240023652
389509207
550330506
-51764342
272577758
351869407
994964958
-191975986
-208520988
592249968
183141887
645568014
895399729
-260177856
-911491116
-361950736
816707321
-664062045
-102227276
-170039816
-711897993
45992726
-320465266
110272202
36520043
-323873110
168864154
129393577
-872812056
-533084851
-711415212
-875710325
721537634
-146017826
-508024175
-65353238
-241646156
-682236340
311072682
980245326
428613290
-707102292
-322304408
-517606202
-304941233
-893942129
199234449
5094714
228468853
970689823
-720742895
-631974457
-442028197
436366668
-276077494
-312260353
27825018
-837962412
-929633657
-129587842
-426194316
287417896
477493281
821612777
870940508
-413250158
-688148163
891367179
-129888208
37174121
-313256308
865013258
12616804
442358027
199524313
965493978
269503399
-481898866
435348152
67954844
-354260978
-675586995
-857112105
-833083157
-292614960
-357588471
-255569485
660342914
-235790595
556555160
479403429
-659350656
857301741
604371272
-915079269
-30887754
-621817620
556101499
-946780804
57400695
722056612
630408429
-52896905
128540717
-97445347
-309783103
368307260
-419286869
-8811358
708717951
-302007062
238110106
-258866566
-910358481
-399661723
364491245
210392863
-918910076
902472811
-413312834
-68954699
769985290
-588284752
607475613
-747171558
-653953116
971635885
922984274
289365071
933920401
53358121
-636303917
665077563
-938203461
907747402
-309935902
-855695371
130903652
-144603407
470998708
950542232
39762782
-581134020
-142696277
-99228315
200940889
251102484
592315907
-571175613
-61253170
843179930
289004856
291414906
966111329
-687955077
-568603819
-983944390
-870560476
144451908
864886608
829695436
-655202816
546010296
-846453819
771157192
20883611
-763190958
873510673
870179397
-579767135
675276931
-434064976
-422244208
-978470641
150931980
333430336
-328131540
-167562191
43172425
-104938453
485591104
-427355942
710568031
-847252312
-249642202
-692534894
-206058151
596030413
-164424043
525076886
150732209
779462493
479686386
392642884
985596484
-148382514
220201150
605364100
-108448279
-434759476
-1547447
842359390
617063675
934927234
-5272194
-478312666
-844524814
-135169126
799630983
-142739827
612700218
399266266
-546922216
459913863
91401126
-701188521
467181199
244329404
-60279020
682921112
-135377077
-340214750
-289330334
543983281
-282049208
319328828
300273901
799485141
-768768090
-237957363
-172547112
-702721338
476586798
-665000606
-274692444
-590431600
-593453497
776669170
-810047874
-772411280
-734832823
-887392262
-970942045
245492377
-359964797
-91494449
-457259200
-685474410
-117051384
-479563147
591438585
-607673294
-235628254
-88756091
-589665240
-319279481
-600727919
466282383
-937390417
-602005389
964236910
395495881
436583864
64971914
-443767367
779975961
-557612394
865298778
108324573
690048098
-590815898
577171790
757506680
-567945218
-89451481
-521774477
292441174
218986218
-704164298
-373886072
143768368
-592402706
-248741821
-364641068
284930240
357154029
374394278
-782048013
-524135187
738879938
-860820754
642018753
-338418557
682141333
-196945705
-451581340
57947261
-217139720
-882599838
669604358
557197232
882275143
-313201191
451945720
70620699
139599928
881581774
463015945
-568809284
334962429
629311249
-552432709
638178352
111932240
-17790674
-652388071
-888353321
205001093
219497702
589398739
682031451
-136998435
862209289
436354623
177011187
-243362285
243789500
-998841133
-880416210
40335210
892496568
284968822
881544703
-644689782
-383929226
-223538844
269657977
-692927882
-84329996
260965311
-460159599
-366102205
152027225
158355770
530024027
-984933595
167431782
-145480977
815616221
5652751
711551700
717682840
-962208195
-635059848
632404199
-568733294
764364006
-185177130
538708546
-305603899
-788734866
982681082
-108361402
-955684263
719340048
95347363
484374060
-210246274
955610575
-69681194
259043802
-986237842
-855322491
-312592283
-894441716
-631380415
177440035
757529258
-240773867
599538152
975270007
792965803
879026235
-133815582
395374346
462048973
556894819
420624287
335588843
-582803954
-139804679
-182970728
578314523
681574104
-67064520
-299903807
-425407431
-302904916
237141492
-441735209
421413678
-308707662
-21636417
-331081118
645592318
237301841
402956130
-143020076
340657791
44396427
376136795
753954415
-542258588
-597988194
971612719
797170042
-484648953
421263934
683500665
336501862
90364505
892740171
59060847
-40580824
569285000
-651966970
-812266069
82047940
510522733
-657144626
233081966
904402420
-373672380
-401322739
-38594927
-124645009
-871090519
-824155471
352175688
354159551
785467271
86067465
-660548387
216999969
817926352
-440383481
613863376
-75864309
485130455
784603585
-227688335
63319886
-69735059
206368243
881046669
984647326
-127138263
-723647496
-885404477
-259597866
264001131
-73643110
-795335466
995608818
184743947
311645131
982739205
28829527
952160752
597246522
-379533130
-114265074
319922717
641896775
352080313
908640814
-794434687
-686688153
854125252
-998030014
268919918
-88216673
-631725254
786674855
-729055204
-218336771
171296613
-631951416
612154235
-6190757
323740100
-875991109
790286103
125232936
611902359
22641417
998644698
489501211
594196017
235854334
-263231230
-685868022
-646303326
-593941951
528618082
467571884
820478844
-888672902
-308300486
-805553811
-389774304
804348586
-797733607
749349136
-354909091
-175907342
-454596872
974077172
471579405
919710361
-210425207
967061805
853969374
211237334
204726503
158454353
-649005540
695374090
760020660
561325422
-242103779
916224108
-268613037
-601293620
576718019
-862048070
323910302
-139275619
-532115197
246546596
-716471850
-565274098
22443857
857209490
-56684814
83941337
39955233
672362472
-395624467
720615964
180704397
244301381
-115625442
-306873037
123959362
253527357
619787046
-623366190
-302919638
979997265
-547761766
894652738
996842094
-519247709
-60463262
-717252013
456681268
450536468
-946443203
630237089
-153647572
354730362
-346469410
-341480171
463382121
784502491
249494822
774543626
-179852395
317398936
-550969447
-610967529
578374839
-439099032
171819530
880285751
929485990
498081881
124667381
728170519
-313730694
-700280122
414252374
346207814
262036123
604678810
271323449
-8857712
419148444
-642528747
495722422
-531934831
-607622227
-198983029
-610164636
303051524
608906073
899465603
-950094858
-867362803
592958423
-271496050
-908107099
-401691896
384561213
197230800
-315458302
-850062534
799231470
-478315886
-464411484
-870405439
-127903659
-494224511
645818869
977162082
-310157910
-363847336
-40052097
385743341
817924521
-369404717
587549656
578666041
-743194989
-9874626
330947886
-489914693
-376031404
-260686046
-441115211
713707623
995717735
-368209866
-27784987
982833985
856580818
752030500
-206589857
-475755280
275752939
588185329
-566040044
-146253273
798009004
837597340
-472535617
598360741
318224418
-798448334
995694608
-236187818
-697092594
-533958606
8447221
945201950
256937486
752559821
-915273042
-473416964
-641875447
-421771847
609343784
-217966273
-588195292
230224598
-244933328
588339307
-21216527
-492841158
-569608001
838124666
773641041
997957162
-175343871
-411399240
998347502
477159347
148050958
-56827892
-996866836
-916067292
-364465567
472834623
785242880
-703703918
-74138665
-790635462
-302559651
530452468
618821664
-850173396
-100511262
-277370349
-245617639
-45934222
-245911382
-916142031
605642697
400872253
176769079
929308855
118208598
-651767893
-444532593
-833907319
-428326254
742696899
-121358423
-244430228
-653773031
267090978
-775299055
750021969
782037445
174290859
932408785
-37721272
634256287
870409883
-72734267
-869789735
789011279
-331084026
26174917
633765040
-802300464
-654388262
-319314372
664254916
599178531
-123544402
-789574007
-511117991
834493976
-749871849
-211397496
-827588662
-453357683
-484514884
437062862
216490985
929185306
977706899
-65644923
625290078
579098825
-879777363
-437268177
879004934
602279981
447358706
147615279
-427292734
-493633084
712624517
-199972427
540930480
340338767
-79131071
-821088145
826034532
326204539
198749097
-170297741
586554576
555111890
979578300
-804034055
574039048
79681580
343334801
472251362
-92840346
-169507954
999633323
913293239
303531354
396712676
-467993237
-194005757
-667428120
445840823
569702476
746744305
-323914633
-638067947
-327980196
266076151
-400827105
-283480358
194894846
-794074368
868145689
-905597264
-815783436
649233119
872333643
100953838
39021878
-459684661
-812127472
609469448
-108415475
436072768
886379958
594747433
-402148459
-323488380
828388732
-754494025
-303635093
-341114351
-780232768
128405806
252337207
-413637214
-474315334
373446857
166588447
-82053174
-209092261
952670876
440160449
-312170147
319633869
999322847
626651741
-332316375
-458979780
-371407185
-991076130
-81049190
-911921667
671671774
-545326899
961417102
-83939242
592427653
211684290
75206190
974928125
-71151278
860281324
196520239
291543620
893848704
764999594
-883937391
-700908099
-7834095
-720387396
217859619
455424623
-541354739
506445966
603064507
-221974547
-624772648
61001499
-865418786
-633684224
-885622829
-473870172
-767665106
-609220470
-408029988
-877328224
11226247
-641449048
-78468566
593183765
834986803
154128873
848023744
-287416352
70043522
684658844
-7907416
480609313
543377592
-529246858
140548703
197380352
475519394
265846045
-532672504
-415063796
49727706
-959703926
-693318990
-154429226
430915155
-972620383
-358095554
104424379
582580296
982045052
-254261506
-632509449
357775441
721131110
96398342
750933985
913196992
-273433413
130242642
127364704
-291239243
-536639631
442995507
562238067
-419216757
-499047939
-84291148
-702508757
-36580748
-663969518
954785108
-907325650
982936593
208243016
-690644565
-224629369
-396320550
193650341
784741353
-645492750
755608044
778206148
3157892
-450054802
542282301
-285908104
420922756
-320384201
-211950888
665287309
34791722
-691876174
-961006263
349287557
641402968
-609402581
-197880579
736828536
746266582
-439061757
-573360788
813427007
330800417
884980138
140215294
-319140714
-98940471
-101040600
-795812001
-957162006
709884608
-98239254
702152557
-635444121
155283603
246303069
-28965495
-624849292
-309374783
-570380422
-605426779
510852846
-177711283
349091057
509510673
588586526
-959515422
-739744216
-419824668
270163136
380994874
734285801
909651399
41612892
-190009662
142118663
-601685108
821510280
54913415
411440343
498308155
-65768791
-445604329
-905610257
908165762
-898716323
-322251767
723798627
489003786
-917869902
629676125
558580587
469571642
830998703
235528103
-397098221
-10000412
43170947
157173056
-887732658
971701708
891991231
476523834
-966454857
-118340663
939548703
-730746027
-344455962
-813561046
190200437
-211944123
-450689692
-643426420
-52543527
-738650835
879085611
-585576022
-642711504
826587299
312642482
629342934
914376204
-903236024
-490598091
651381263
852810047
-384097370
279122890
-906054545
106277626
-935271767
-569935528
-77361838
549523642
869352885
-541019481
429511021
-990768210
-743590811
-851671228
843785366
20916672
-989051284
-73490217
-499680071
863579357
286902633
86740834
457965441
-533615877
-689214985
304992466
439736703
-743493812
-49003612
593196901
-633162338
-812558671
177713201
-30884506
449610889
-345333686
-965673528
-571417974
863908158
773250996
-426782535
747450572
700011672
-709842279
401782440
-621488275
369660499
669722859
-21979963
784965352
-452405568
-966366681
-176583228
-368205800
404994609
331503006
-649136284
-85925276
821899191
-732088028
579849533
-400055324
-622942353
-703983755
270273767
-648063638
-156224973
-556483632
204854181
-37998801
230841817
764616678
-321804123
923500007
-645173048
-124490771
484245997
-634860405
-112560137
-503532464
-724507600
-546204638
-130446672
-118882482
281341138
128242721
872301821
743303858
-641132546
571434634
-809605911
-136343425
-919585833
-51291933
440520052
-285911197
-148301090
-577682897
727373279
-785858214
-453370167
570083205
-88102185
-427019658
-710068490
-959197191
468028252
475498592
-903676429
90047983
647976158
280077917
-269116273
156928860
803034876
-131943876
-387941069
475305913
541283639
243386281
-277377835
-989210935
406508605
199367094
593303510
-922212147
706846910
-10299943
-555633725
-349503361
766013700
787162791
-86763771
607729139
-392809433
689325041
-87136515
-133120745
519950460
498072144
307999742
442666341
-112947471
-929153939
-983610709
-121064034
-957192731
-242219865
930495439
-629618045
93757950
297037277
182820975
607705227
907937053
-729434349
292312473
900676693
-876870172
662994565
-129744459
-302878658
-478877940
377116029
-682976320
459206121
-190183441
-407782950
-642516265
186900702
-250038142
585644651
-911697350
470074542
-108639492
-330506414
-169477760
94598301
66890138
-535000105
-894247500
-159037779
-659153928
34449907
488447618
-445066851
891356980
-493301864
-445826733
-983405211
-74649499
360431179
-632072117
-167707453
-747348747
-748869836
493238806
-527096774
-1943348
-407247479
-331447987
-418226103
-119689397
-674177796
420034235
-250494578
517918428
-547243450
30180723
-500278037
961686910
889484627
368294161
-125035752
355812343
607420175
917407926
-612531110
886012752
-332665166
436435995
837313329
-637940184
398605653
-747190511
-292107807
-772402395
-671932070
-355229187
550872564
-85642909
770237053
-432975576
-324921354
-647774563
-60074781
-169225483
903578978
296323251
-399561361
-441383702
346765949
503236346
-653715027
634487737
141516037
-107047474
-94812777
-726714031
-406421881
34408996
647506140
-232572307
-982190117
-272297675
-525732967
712078879
-497807357
162341382
-693630225
-656556925
-379235418
-370199919
540793524
141639853
-394762806
-715797917
-306702800
134532832
-486982022
-879606451
530831931
-378902681
280515109
802961863
435534762
-864202238
-121423619
474337225
-824393344
-311390960
-966328216
-897488027
702540281
207582533
669063211
55186719
664863702
-173100182
-908040467
838855341
-892126767
736559070
435090482
75626161
-334548795
753721294
-970465442
-236134089
107910784
865424497
-399776229
-12264003
-47565196
552508492
711458031
999041257
425373530
-468252897
690053331
-939791391
-265302876
987061411
785982410
-780221896
87740385
99135922
457772177
289886739
-213590232
409476184
-822934065
368180357
345765175
209280068
125250652
-544703349
555294220
-31511536
-267826609
972137466
524280165
796035333
169787467
-371841020
-487274147
-572409984
-71303651
740365115
-976630967
-684971758
730230219
806960433
-527011119
505057665
-448037614
-754445029
338994457
-323935423
725684514
-354436040
-619908193
366759377
-796490112
-288148618
-482374420
-33290370
-362896766
-742700495
327776746
-563253645
393320188
939925636
699967528
833134654
-568242510
-787034603
930555652
-347398137
-199597068
420154776
595999941
296406315
838868911
411549727
461784267
-853093282
-287935294
108577787
-930867282
-233483320
-972337598
984693899
133597604
-565089099
-72917255
-475955973
720266940
937692479
-702081590
234679033
-852999346
485829901
820689275
-619497072
247704803
-801630232
97512573
847196335
127937813
-553078420
40747987
121142023
757587502
305429385
165556699
486981565
766546490
-567252813
75978
-896521418
-573056060
991284164
-311254887
473162431
-378861567
-855985079
906203538
310782818
-477941240
-163762302
-799939484
-116000562
413947234
-299933264
-966656229
444863959
134975646
496909227
227435975
738378946
-233335367
748249662
775172228
-759507143
142390030
-214386137
-787836784
-528417025
631897655
-521071031
889518949
-773802948
-704361181
287477401
540515247
-977553332
837273539
635647717
294862080
-890355829
275781379
466739152
831255399
53440842
-25942292
9780995
-462143336
127920207
774342884
922396211
799032913
-743093791
799287868
-342097269
249557724
458678209
-147248928
470487181
-237550353
30638396
875415119
43254831
-538597680
-407873169
550268983
-940998642
-919917130
130028251
407642078
658536774
-953615696
-23104329
-465154311
-903844807
-190144864
-487812436
989017732
595239860
484769914
-719354451
-155938110
-430353204
-130548646
645074471
163008298
-497292523
428033701
-461175334
-326163556
-484628201
165131032
-866557769
561610950
279694422
648241903
-767278
113428964
-975719530
493552457
-497823592
592714795
668772532
121973639
571626373
-438487212
-60548128
-816993937
-260564984
-879975302
58135094
-568695083
815323759
-538504212
-483808692
-432955791
48698831
-997880048
834360668
-541458481
-16561620
387554199
-159427801
-154912347
-708615064
358128659
548640438
469221959
360995397
310790899
521612469
213522116
-558953840
-561501872
60289128
992147539
-66291132
934088213
277218595
-152148916
446871851
999266979
45910699
-241454697
195202874
137238214
273810609
27339509
859585622
-414567867
841604145
-877887246
-270212096
351793929
338596542
503628333
-951455811
130530066
-51603605
619093510
562391262
108294834
220836777
204660962
213827658
925545747
-461147135
13249717
995030084
240692673
531780702
363349027
591511870
-150759258
-260980786
255855708
460605
-652317154
-160936939
-973783890
428389201
986778432
-848059969
-256293347
-611749582
-605384224
-410209420
302539167
724822337
-783230144
-733153490
570921797
-8165341
42873178
-566834491
-645039855
-467867157
-982692212
-107985185
410603091
-904170871
-623990919
945553464
-570272112
583746527
-479280431
-966261706
172479031
-347079618
-801649924
-375448732
-378130482
908599049
-953637787
-476542392
-985863023
-933396902
211570601
99361551
-409766298
507609264
162595337
-645306877
502113084
-599000020
-871834264
-167733378
-719118394
786090367
370006934
784963742
212450290
-905158205
-885557602
562291505
-950785439
964825338
-461420084
785151378
737504369
-789075014
-732150232
205214724
397080153
116061117
-5844928
-59620458
150466487
-717334917
768917866
-745133839
402991190
923102564
478928079
-880562553
-146202537
49744039
272153395
335731849
-791878237
918789256
205540197
-599059608
957338604
-641047882
787044204
-855012543
102594684
-175279338
-374744382
-332815062
-21494077
-766164267
-671020433
-352635253
637166131
774734307
-383720585
705151587
-705822657
450941485
-90127264
-42408764
78666743
-669340891
-263130321
-303111900
-237874239
534784013
454528306
-811274514
694669566
-672929838
211152183
169602654
912192061
-982240878
-449283781
590039726
573065070
-875358587
691540225
69571451
502717855
255431643
47056670
546604510
-333447793
546265962
549099256
864055744
-84853568
-960112112
527708469
-651948070
-564929314
-477572436
-390878811
-192301398
987238826
-793185429
-926411427
753795468
-717016431
353032749
583925785
-294553723
60909635
286662526
889338276
-405455762
-685939897
888392739
-206472438
-759705015
954683990
436836019
-908887508
-96161863
4126871
-320764144
-551634505
-573192107
-84431203
-425551362
-798977500
-183273125
645634722
-720874751
-754589250
896936986
-735948006
-315250514
288278057
-19892356
531558081
-261901890
-583608877
-605616356
-821439870
845720121
639879228
70152542
907794653
752957697
-343760091
412833794
888049256
994916595
553263379
-36097245
-559423810
-348957548
935292868
407556998
377129286
448400462
-444371686
-584939698
79038380
-186612186
-46811350
-402059321
-623775837
682523913
973625007
621595191
878200217
-758328370
641236654
-252277113
-459511136
-623596071
-938798717
246191426
-208024583
-654481382
-334474234
-880207249
305158843
602620645
24321243
582648958
-426745254
666527389
-681097073
-194327210
432150141
935089964
472041346
-231361648
38981927
818283470
-161928661
-779073319
408853691
239018114
-168996399
-545929342
853063879
-562280934
-59603590
974282472
260717056
56941249
-6036829
-319172121
-251308259
482736978
909832452
-888596996
386856810
630037284
-281509751
-807271398
-190293356
707792392
820281680
692398543
-466599661
-943155189
-774756281
995153094
-779148586
138908536
843583653
592678041
876961947
-652838211
654077009
-471595608
-937171302
135302641
562826111
684930305
-699003513
-485263409
-408005555
-711432015
-470137413
693218041
-416983754
787389610
-964295032
-805397948
-895382210
-955194485
833635148
-561592893
-796607576
-834837812
112510695
504039200
-302722886
-707786579
58136930
875294858
-534124513
-112830405
-682596119
723910492
386947062
942391246
197028613
-760593033
360705665
-177681925
299256585
-337646613
-409039707
479042040
-884972350
873683800
-40264190
965615702
819207155
-244802527
131023610
-296763055
35419754
269907618
901292063
439374436
164622671
656086050
188888346
158106395
-574120928
354266514
-203342235
139908832
572527288
242093580
-136237776
-534570939
383819269
-257061112
258847147
903349882
167660978
-236407511
-115315764
-824426159
796405940
-340983414
726767822
-31342857
29916597
770150394
244900004
-357355453
-47569488
-216148057
-59087076
440485527
-868590550
-594734991
822392102
-717370749
6412335
624346572
608348574
-47546190
-993830124
-880628431
617118285
662918158
318029205
529803843
-905244041
-341498381
-750643997
-169463051
-536655197
163697715
133466051
424087771
721122810
-799050587
-379201356
-366103881
-485358897
-590748962
-795764000
155811758
-36933010
-614306355
206075462
-536796474
-273830747
548541260
-264393245
-94212620
231144637
60259775
-818026416
995918906
931431564
190165882
521597666
-807602974
659106920
-168241792
141022174
925671554
269875232
-795861654
-759883910
283225102
790235824
696323852
-321003887
-166231492
81224479
-272326576
600137596
319309384
-985644334
794057035
909305478
628425902
-510781027
-617620517
92611883
-876178515
763991604
-548272832
719939535
157597899
806294223
95464739
-932971444
752074668
-728823606
250080309
-601512349
-773631624
785319851
638405776
286723932
-28209070
-432270693
520491292
-515432045
541496793
682320390
137371470
-362053387
321739686
641215729
597765957
-764987441
-987370715
284197884
193084387
576290428
399824635
230061290
-257440949
468830409
-233059383
-82927792
-746548604
-542422516
277410958
-597143535
-816762642
-989784052
-550913400
-916252840
-328140278
901798781
-168361772
-267115012
-777857119
-330329954
976132990
577506313
849944797
-351687914
663766813
968103381
715635101
-719402763
-910960872
-989322385
-474339336
-891941324
-306154540
759977089
-566372412
-937465577
-387887738
190551059
-943860392
-353678608
12925289
434634208
862378198
-513912515
238137373
-930317329
-797081650
-49005467
-315929662
194010634
415275285
106934845
-912136656
148635735
-759970803
-329782987
679112303
772380932
494645714
543647643
-739541408
583960923
20928921
588676783
106491734
665339329
-125803516
-475091768
-257050555
236796225
-122669605
556226842
-196911815
459028128
709405014
-34310279
998367096
443946801
-144266434
153587900
-528988767
254590350
551699913
880126442
-747562399
147458747
897843773
-949671864
268955062
872670979
655665484
-485665067
375412156
-669215872
-356148904
703094395
-79619324
-543738268
253679018
727024632
-164800094
-915022875
-439332599
85307061
-190529012
277883364
58201068
914210940
74335553
-289589754
-182810879
389464632
879239379
392048130
558959072
522991454
-710102108
881329742
743802801
-507282035
769707507
283271010
-319271391
964024303
842644932
876867484
-630640636
-975814267
-674868133
832074005
365854394
-270233208
-683383417
-716564104
-566118150
430541180
-917226060
946921595
498160673
31055816
747679430
254875906
650953352
662081343
388055246
-683545616
25003773
142858361
530242964
-3927456
-269664375
665905046
-575351633
-932369280
168741079
-188499355
-440507474
-876892371
932614866
283164395
61315969
-612855034
627552591
530735599
356683532
910455996
-361451024
-534353975
437192472
-10702563
880477996
273123623
32838846
-649619549
21493489
659530081
77318037
917769806
338673963
323171493
-531060787
-570783042
840924743
-438614020
398057403
451928960
780522139
-142645734
73848405
962094282
-33896423
787312596
-353364424
4005646
246915837
-95786839
-543280980
-897375532
425156888
322243859
-198945283
393475356
-9135510
-636776998
741527910
-351492362
-334781147
58156639
297008229
773379431
130710083
-692595420
-281635785
466003519
-733638931
-76317316
-503214919
-217222473
727873293
-536850284
938558554
-987037157
-903491183
-663794782
-892209086
-687625696
349645520
-587794256
474013081
674831971
-171053690
736859613
-31674309
978150115
-380762581
-269748191
-599202777
607734138
-820461574
248613858
479538123
-389427288
-469781830
-513689259
832803687
-572180867
-755720287
-206879487
-813607865
-401978342
883481530
762155031
282346067
936139432
262218565
7325344
415570445
-587263837
365375147
-312208027
-269101591
380371368
-980841919
-255489264
329040792
921991051
-954096016
-334709150
-475346221
-561568715
-375785853
-403374929
-965492595
755370720
323157551
-493827920
-549024445
121331660
-325669694
-518012687
356980825
543165360
186034846
413977993
-21790480
246249319
523563213
692289786
-487337981
179109070
-279523742
58858676
156325159
-570146080
-332791817
937240486
-469193580
917645615
-81423628
758509274
-154188021
219462455
136574766
-713793528
-421898796
-667450006
484197856
-394877451
-491017655
888298555
-981031967
-264485869
872855685
-629458605
-723079961
-122873753
294044125
-687643094
-521409478
-90959719
279119451
-42470482
-467862346
-584878315
73538788
68999011
632154434
-604710006
-994279589
865819033
-352928813
-772026299
476307514
-231352298
-386585334
-101803954
79433342
349624112
821586891
943173063
-909278714
74648576
-610366605
-73814743
-636479677
232120154
-74335410
359192740
-926204412
-122579254
542543065
143390958
-903813766
-784129015
-585230811
-429543720
-285775328
-299747939
256115045
565888980
-973265908
-662217173
-986423342
-655261562
677933611
-603420326
518001740
-938391843
597729273
-392587293
-661495171
-182413612
175194267
-532108009
184876270
-272430282
-73038754
892418058
982051125
-434064854
278834844
-872011867
-250874651
-607033558
782997600
672068606
-355166109
666130065
513275040
250652155
-724270138
457021203
864698208
-96913410
964002719
658466029
957083866
-454569193
-789550458
424879962
-734319012
-70761959
609921984
646718777
-312853926
743912043
598480380
486213056
206984609
774485234
208982958
-927292398
-172460481
-829800513
3021169
-284826135
892795568
-684401403
-842703604
-873761958
381188299
-259714546
-291315109
885154193
283589233
866087566
-667288393
674012046
-774686318
667117747
-251880175
28723595
-516748419
-401089428
372472612
810800589
-307639704
-819202320
-147180606
-579836376
-114604161
-490615392
631135187
662389680
-711617379
-206131890
-407312677
329524510
962475769
-96456518
234786022
-499800356
557412028
884762379
359790496
21289396
-737202009
-58239397
-717719241
822113425
242783335
-131268860
374992212
988116196
-152016684
-904985637
670877692
323285293
879494916
134139952
85306591
496334865
-696776035
-583633459
446582566
128604392
751475651
-879047891
-839995740
-375057438
-832143707
-396112904
681078796
-681104217
266267083
-537669512
643696028
-562076699
652632303
405974387
-610853879
-234782684
-306971630
965899693
444228968
-544601151
196406924
328713157
-690451331
293815803
-958197717
-442101600
-60907103
-575325486
-835404020
847692866
44990837
-377513710
865007479
396110692
373732336
754867810
92264844
-787108189
711361058
565668643
372875287
-520688745
-737315565
-517001510
119578284
-990287263
500181562
487092380
-463079254
-124595355
-171578505
-205039345
-882087962
21360753
-645794923
103592690
-209062622
-181220980
-880919775
859887975
986685263
880518187
50199516
234623585
-121029143
-216814027
889671664
-375835287
-679004714
421208460
677708143
-177243219
-18555811
-75823024
-212847308
-205427410
-934514348
-155676426
-609541378
-177797146
-885727627
-277164452
-8775901
397469405
-291846057
-11238482
-930868460
960247748
383607223
-937987074
415182847
40951996
-47847592
-997637189
-438464232
-748754459
-55873889
-94497385
-956884115
422754091
-156297812
-84969521
701643961
-837976962
515536817
723614808
-686481829
795248514
477645999
365853281
-566393670
962518626
165138660
845624505
-854418599
-363659250
370010995
-403291807
751742310
251416277
67516727
491034294
532990980
-468045789
215274870
-886338864
921513949
-772128532
-150150757
-144674030
-261048727
-293149289
435453921
-198865689
-8329332
971532775
931871225
-924332279
775110982
860881567
367761544
-793230484
790720664
-709788615
298594342
-878229222
-748347776
967564053
890298274
683438511
-920458073
-934350141
528339443
842770168
426731183
-486217304
-93899841
588772504
-568894619
530165768
-717552614
607594781
-254246320
-305000150
-978295273
558017361
616314651
-295266796
714685435
118545675
-294890775
-133883660
-158130686
198574375
-222432963
-877557033
-737104538
434456351
-985998560
-748548407
516778333
324366392
-574927239
-641656794
-805721312
-532865837
-675938212
-885546030
935428673
517130437
-764387549
-763557291
-533458070
420275688
744290410
-187782824
791312997
956175878
266341655
-472559315
374216690
-322096946
-525005937
-811828044
-266025865
569301938
-310310382
628863019
-123293748
265762685
-11054744
950835744
-792289994
-265970187
848304669
72914824
153995173
23551042
-296871962
648417670
64837116
232264029
203098739
-231269638
-701331027
-956074074
165472740
-597096757
790858122
-431439013
201850731
-586847733
-639664660
-449065973
-882798187
-344910028
-393075509
493820232
859859820
703627459
743125875
63178665
855266402
935087629
-726212428
766325749
-748602449
-301222957
84308382
-130822590
-455040115
534085147
387437627
345354403
-900681668
652045304
193995464
-790097486
225617857
-427882042
-154367457
-117181928
929289709
-460718772
-84607714
729866468
988624902
-517764649
-418967044
-186941010
-676276858
294298444
997236807
-750805475
-423722023
-689318974
-971686309
524703308
-360563190
521915704
-4054904
624343809
-289600138
522856120
479725095
41257697
497777533
-463364100
479711612
213721717
-808474097
706826229
-215309772
-767576517
-749914193
996700791
974213055
-46855988
-81926923
863947964
860608090
-835984154
1767609
986743562
-415978803
876487461
-265926608
-169662640
331980797
-163753122
-357552803
689440079
293964930
155022431
-735584097
-837175730
26447391
-660214640
1998949
924096415
667092864
154809751
621781347
249594743
-358170918
659199083
595294593
293487627
-743516035
-158980258
-720237130
282469526
558035361
334640620
393068674
44737409
-559430090
65323270
18403005
-259408433
135774047
629645705
565255014
-722469924
-152701599
-152780590
967154248
-13526787
598326598
-117987402
-701091290
487052936
-331334327
-88855604
-444350696
336548316
566104269
-255538784
885014256
-898810835
295113816
5341829
-335729526
-211009868
816801207
26711923
224919433
140378127
-924720297
-123089142
-832931050
688883534
-275502279
688442864
208790198
528940805
857312508
951864650
-109610537
927532594
406914724
146106144
-583828272
-136421513
18365920
693679179
284878323
-594291362
-224650348
627407248
-836293566
222796201
-546027505
-623503654
50114406
566213522
175059395
-372010659
-779531054
-107067573
-483582091
960848274
-38611971
752205136
159859669
-491984150
229742139
688493752
854493592
571292847
-801006153
-497237601
-937939340
-851831441
-719319902
637700756
710128348
-672640721
-49301844
380208162
-791633251
-311082500
399827493
46562233
24277127
392605242
-644672949
239352207
-920143784
-48184658
-703034821
362578686
-559201829
-545028358
554829276
292744574
490400142
-974589693
509923481
-367054142
-402669098
-71125330
651445159
803287464
-892571264
623564018
567809302
396508592
-469095348
841268348
-427062379
48104483
-810044361
781473204
-159300608
-137898867
-799345877
97926708
-310854868
-303834768
-948011968
458988179
940102818
-954433416
744904717
-69674311
118716601
962335013
196613964
814938336
599104023
-975828096
285803164
376341784
-96917554
-427699201
776998072
90588987
-600683868
112522727
-116166507
92148164
866094168
-890120174
-178297014
-708100500
-426097346
103257418
18598983
754643803
329787407
518651252
730668068
447993899
1372056
172129346
-423576711
726723572
-378378605
-325697408
966753141
780613659
-2433826
967359421
394783136
41709904
235588576
-902128858
-451181785
290803899
83129773
-910022356
-451516534
-407874949
674695347
-303616454
-451960090
-256354653
-953047506
-796090907
-145990198
-814523222
-125652656
-673728526
-134185095
843290225
-564764012
64421284
28376844
956074247
132287636
-70843746
234287554
-850558552
228254262
-368608832
-159881004
-542071444
-754841548
-304433558
266181662
-915733286
33846654
477224394
-696750571
-449011807
667819958
-294768839
-301781032
340101961
-537988555
978630385
-668034620
405775308
933655517
874951935
-605396960
671391270
53678322
-33171787
542989442
-690032384
486646135
381851706
636293821
892775579
-339604175
655083407
720781486
-754494689
655118578
-117784681
669039403
-424969094
25097784
-710937815
-919962325
-828093082
930632184
-970379212
-683338623
-585688663
572779650
608767479
154299405
-79827248
-459749432
917006828
136505576
-677910677
896935646
603003373
375172026
999940950
-328941062
880177773
-192980274
-301108028
497839224
695282311
-276444041
805027027
4319260
-689687620
537413252
597134564
-206243183
-24002568
-868237756
-755579288
591714063
-791142325
-443629947
541424008
343362112
285628740
781200396
-122197966
592843355
585613783
-305240570
-856778849
972249034
617551461
433281945
-87315882
372859109
-202777497
160709144
-846393771
102501814
-50653752
419668064
-217981716
897816985
-449798833
-697034554
-399847774
156956073
-596710634
157482541
77853078
462613430
443894614
-436609668
-73591613
105413449
316917347
579516280
506819866
433264655
-824105396
59648336
309693835
-183267801
-220852238
-685316523
127314760
-376688673
-999807764
-423763084
-992859062
-798378973
404055701
389979385
864985828
-365331540
158753956
998475959
975886348
273253544
690033823
529341637
70372521
745086640
-836024242
204832913
463474385
-780681831
874491931
502935896
-396864658
160644873
738729663
-604594712
27474575
531449721
266448523
-885154901
439412197
-334057338
-432365358
431492407
61815047
-709400378
-597854883
-950296819
-740617971
-200533493
-341653770
329004809
-822800384
-937407847
635675856
740900360
164874890
-491735991
266789037
941707512
-457574683
-28700562
-977851313
819224037
495157084
827620476
-719898583
-399351607
-726031898
952927844
305860074
-219502866
-168764464
884527847
-104841165
387286862
-749637826
-579198797
-941769547
-95950991
949749642
-338650382
168091820
845618805
257226062
390069102
-623795710
-962289882
667194973
198140693
-835767017
-10727368
959447461
90763898
-943203498
-603178091
-333932488
-108620795
-957416103
-165851950
482019055
-497806070
104260108
780475266
755741931
-404212629
707016371
-923673866
-530142514
-119100417
422409028
898708741
-453315560
-584259795
756001762
264001676
-167308245
704068922
670192963
287402869
463231632
-656210056
-250468751
-862812764
-955984335
792116744
-984472609
-809403548
196291988
-190497831
109072059
891417262
336033502
171701523
-241798674
651767677
-886472364
-821448
-715870919
-771085435
122582763
724427501
967079851
852845948
754038199
757623826
307956086
549870563
-763204773
664121020
506999101
210527392
-197532449
-935949651
-904795126
827764979
735672020
-602819070
-646796605
395068990
-881949119
715907389
663744447
529124791
231053637
-865089198
521549236
924328959
293170333
870389811
221941633
-320009441
363642167
-220061624
-915548468
-784603395
-881740819
-379533657
987824677
-47276633
287551516
-107079860
395317226
846160280
223411402
-521198679
-719027762
677838096
413858252
-692462325
-343484191
322441675
787516569
784127635
-606079445
-183111245
34374892
-149354219
-621597190
285545344
-904329726
958789158
937556223
-738420235
669407890
220359790
-719460827
-986921673
-845693252
-443123957
-203486029
-342495990
447081108
238744527
899243800
529970104
-513324233
371213033
159110102
28407582
339329742
712445753
865486359
-716409454
-995640747
909227624
-259112777
-765104162
-396076338
-758844977
-371813641
52823089
707904628
941719001
288832742
-534921112
729747582
503445762
204936663
600833608
754267070
-852222761
326072930
215269653
926224599
-712777816
430463812
-75049740
910389501
-766373709
-673992523
751626197
-248573728
246572872
324550290
-521474756
-535382248
-929093112
390222146
-31092351
431013817
343052678
638860791
573825490
-495223018
-77810251
-152862217
608462122
-281365477
414385913
-630228152
820626674
-274217356
838667771
-591763165
617953343
923500454
-607122613
-728390372
236091543
-568761496
94129183
-471008005
-600238510
487630347
44574407
-290480640
-796158001
84815846
-566507897
-347560195
-751991294
-74121339
337980962
-106645036
307417641
538071811
-433820372
763945022
-656994497
-364381550
553976363
-276575312
631630255
205089119
-463549790
-880098096
741249760
313773844
392850230
247154845
-290689933
-637965420
-201680218
894777728
-239184332
-66426848
84931268
-655072283
247393927
274294665
-690502042
-625893279
-624929680
-629418572
235172023
880608234
256464898
-512910478
711214266
249879881
-875817002
112198781
201710545
-565658906
330026189
988468620
96504038
-626378752
-65365178
361557718
656434818
-759299799
-611749115
-313562963
917742280
-960280783
673817966
759123174
19894631
-517299120
-484619725
343549023
994690588
-930827190
-701859303
357607532
143969517
606711943
-452309634
-628126371
-353120025
432126497
-197997699
-139725858
-871500872
-420677680
-409248423
-875435317
403762163
-270114074
442890737
101215586
719781865
850730560
-992668787
-23805702
777249056
643172718
-600963737
740184955
467840700
-637575503
835934896
925375730
213799521
-402835766
619631966
959029406
102275233
679991337
-943265608
558125422
959049016
-750751168
628816416
-656006727
630704347
-868372973
606119684
-467577118
-726761980
474742520
-669888824
731247970
662491655
-983448809
-787435144
-714627824
-438869195
450070704
-42786264
-684936400
265170840
-948491997
-419568038
-911198668
866688627
-367534744
-671608457
-75020859
28084435
-934628688
-817891798
-609647934
-619090409
-565431529
-609069799
114522572
292451535
857608140
-600761153
-516296481
825063256
783766169
-403149649
-922972681
-677455122
950177212
-201540707
464635538
227269155
-571655928
561934681
-695615178
-603378878
-758423544
-848798125
-722328004
338948678
-971443041
423725756
-209995458
-328899252
811752254
-44918574
917884848
-756526611
761730481
461375911
-152970278
-639818837
368994080
-701904107
-659016406
-71046636
-24590537
-125420563
200892461
-368452132
341893322
-575929204
-599069503
-292133945
-803249825
-320051757
-33662141
887787381
779859232
-259154038
-334697065
394704255
-288018564
-615564509
537320016
-18715837
-3589463
379654165
-642651381
251323254
886139022
-782900015
-399591343
110125699
868096861
777256721
-77826899
878068746
-499749706
-528050236
-318521111
721440673
-13864041
-629342255
-212926895
803308549
977510517
-955140051
772587160
-695053177
622214733
346184113
769164774
133866477
-953334466
822566492
609483582
-501723683
-65550170
402798550
-985838111
-877188054
-889944749
-162574168
931155923
-47414728
857432773
-935913569
-857068875
-472209252
960758272
-217134689
645080580
-113950807
-31248832
707533192
629555691
-130845359
-195733346
-181368307
-638502385
-495933210
956727679
500161504
63839514
416685517
905879518
-905245139
-768803557
137601436
-680806778
-645148440
337436903
516813999
685942567
-398719383
-953036934
-629128821
54776836
470988483
43089202
326126816
5545023
404157609
528061700
877406719
-382352378
-888507354
-287979568
-685843727
-761438410
528178203
560567772
-707347361
-388060339
157459076
-404609598
-549514435
-680774070
536085054
-592687430
102768982
14341803
-670964161
-37573425
405369839
-647493352
825514501
-161447059
-648797279
197294988
902363806
-808915102
284706398
-299701146
-899435019
972274340
-185192880
748612051
-246333381
67292167
359923245
160658271
506642642
-383772832
967258995
794322991
323174854
181438053
905957973
689739870
-850074900
-456135580
-842275569
310908593
296862555
593186536
217210190
-144146106
-77988962
231117890
101742162
-435729847
491938346
210130020
-425859280
-920490702
313656679
-927944680
409254080
-631228636
895540866
610911244
-283633667
-271330381
-692332367
898359787
694179976
95434446
-372912372
-119631409
-236314923
940720499
-917600841
478455560
-465257542
-143172156
-756487295
312340316
353796211
-774740966
31191815
655795432
243588997
-329127791
178895913
-385342687
-897850689
-271123916
736157055
563157721
439815713
-149989224
31201614
988067129
-381548210
840792211
-820213702
-49417387
923826882
-879821149
-211260405
59389110
-945120763
-751871208
545676685
-790951338
-579201963
-709480851
-537766056
-858465458
499413680
-790305368
-682831458
530919129
961944540
133695287
412493819
-73979546
110262391
-39329083
741065773
879838104
-190001203
560705293
-887234925
501501753
-148089519
282409227
917385247
944201870
-547074612
-932021920
473049071
453838639
-143846410
-498013814
-232968802
227912837
-58515225
484714342
495393147
283312970
207734454
304619529
958112648
156640756
596365256
389471998
730739543
717935964
937536241
-583459301
-847243389
-266727924
665431277
-772011552
-938561685
334697221
-600652237
99068999
-41294889
365583130
706255448
-114045933
-446847978
841431052
-274036310
-631544530
837807925
-186475630
-166306830
-684513699
787799607
313776082
-674147887
-164109396
-948457364
-483999944
465604593
970271820
-160879304
-497183541
408910786
44833294
-778424235
-126048749
816215989
-779796723
692209577
-271469852
233327669
597131486
-217605673
-695515981
14589258
-306371649
-649122947
826940337
756937632
882527258
-844361130
377768550
-197554869
666077697
117126663
974790765
879370059
-809599553
903733413
-6268867
760115082
232986993
-311437899
-316133685
732314276
-632267929
-871502406
977836002
371165964
-286153013
568405718
-609313386
240703400
-201399554
-883304358
-572878324
2084884
-746106151
724008728
-200478562
-282815782
-925311883
-190566875
-799052046
877574033
129432778
541702155
-767964002
243978388
498571608
-226754324
786527763
-303041988
526720536
-785690474
-91924096
-13288146
271815843
626692564
890537031
579972975
-683384044
97831751
-72395525
-993653116
-826791592
-93058570
-892410448
415136014
-373415707
809746926
758543736
465572165
-316047530
-823576518
-516062357
566641159
-798795194
597488416
46184023
-165198008
873151456
582469955
88887894
807280917
-73351574
-57277691
763619536
-165364850
524814407
461207328
891859740
-825502693
-276271346
-552585167
-926268293
-744654982
795011002
241979658
-5147743
-347683666
832344495
-297348819
182341925
383602188
-260617489
-526789969
870785116
-487165618
11095629
176204713
539281642
-119314884
440972961
385384669
190403624
-731101233
-172568818
-518085763
-617699035
127771216
-886137399
948870857
973925699
-468746464
-343624354
-983386912
997260944
-784827686
-514054835
-700777402
-618987082
185857132
-236711490
163169080
382415528
-673908758
969941963
136574626
469739025
508926155
479862627
-694565494
-26895170
147196770
-21751220
-114570020
307173315
884304625
783854345
592598295
-475208080
-607143125
273758899
-209171636
674488276
-269450367
-896788395
92564024
-425737651
-932414023
-48066915
-225478097
91326007
9644290
-345943395
795602113
-945815807
-139320489
9011890
52505369
-974756685
499607259
411926666
-188604640
-578401640
96752661
-834581928
739856472
-146632272
696508201
-726994316
-832801657
638507044
-706473914
776284500
-756183437
-522454123
-565201474
442608722
775123049
-62243689
649205088
336685278
-878117727
-44959823
984273210
-12997719
220611738
-863782645
592125076
518416998
-959698267
-829896306
-798447168
-229892075
561055775
-942599916
151055046
270469508
493284838
203137066
-368821848
-359008614
618835868
976752656
776930394
400729372
-79404540
180158917
-838160315
-16565771
303947406
-868560866
-481712153
-455764510
-901185438
708692352
-368391804
356716659
730692328
-404396130
-853704292
-663768597
328020853
782434286
614697472
-327648315
729876517
593643314
-876946845
-552208170
698419944
617952943
-186164071
-7722590
115310719
-666151405
-796473528
928044293
-442491586
50043922
325761001
-508317889
987945540
998979901
-801350010
614018282
162560959
358299170
589612689
619370877
952518250
-457317749
-743375470
-757772793
-360216826
944828906
123277261
947123827
-399335939
470681850
-367646861
-749660690
-229992810
-704942967
-211019941
-391284879
-981663665
-871617566
-271166547
205585769
-338439373
-82476626
-841657382
605311922
-394095977
389032633
-90099370
855438196
251694198
629649343
-63392043
967196333
171807686
941349094
-993102256
-29615985
883045606
-936737966
745717811
874083790
-772338884
526835888
-155403531
-983893410
779309286
-4960870
-391090083
-243162090
-883789409
-472718252
200315214
242519695
-893570707
-529675625
-376977835
-935970380
-826144318
512100409
558785822
200647857
-497608546
20952601
206983711
8769108
110576166
-320210412
582570364
-241763410
-755195027
-863761468
-580470478
-364022688
180473711
759925768
-682327634
468200436
-487019303
552879662
495190408
289540234
-299557065
360489692
-63629122
-279255657
-672312981
910686923
-723665919
-237461852
2407349
-493748388
773615282
880737725
73637987
153313382
688683091
-658553370
-745402571
-79801729
-496282940
-129747696
-818819052
-345486665
234329507
250440679
657959224
-87356631
577238104
441253762
-822292910
-40423203
-229585121
-8185373
509976358
-221717485
918488537
752008520
967114941
-33969521
-673416614
838103385
-912443728
-963848599
894665583
-331589446
522540780
947965289
-467755954
-233882820
-568706872
667567269
892200501
-795810024
-402973046
764081021
-248907447
-346130595
-111370176
948588654
-822497440
184348367
353209072
13835359
935001947
-383386994
881431813
-214294624
-205478507
835081710
586847909
-947263327
-453606090
-786477268
110472976
151844498
-796481964
-147399875
683763863
-323600792
941432363
682298261
-755760965
427660458
680962443
-222294837
165384994
55158049
-68603633
-983787723
-716352429
359705697
-663244170
-53560178
-637432802
374511396
-870945817
-999519438
-17310348
66960263
831831946
891136548
674474861
348762798
-709985328
-902570583
-655241748
3838145
95387759
-364734254
374105955
-307341961
-28088243
-613278275
366100882
-514919762
946741221
-262582151
-574300382
-697036492
-646677147
653204594
-851566220
-573528266
886340309
-3196108
-223397306
-818081995
709587992
696158707
292016192
521929857
656630223
-62389775
134455485
-864000718
-798119505
-604405518
-30637928
98272003
566101944
-848955429
685215210
459698927
-464891631
-922832347
-778571834
106860404
-246476430
-630181481
-461406765
85280212
-874804408
171325669
260634000
-963223637
-94252388
-581159798
-199397459
730303659
-282179054
978820825
-37229134
-973815420
336554242
-260564486
852658682
-134433810
-273434746
625403910
690325682
-945571738
-566240986
-644997229
570281586
-776799578
438075464
417166746
-100341109
815127127
-359803779
-149109554
761786551
-80019345
123061346
-392070447
-108677005
-876353679
-227688129
-12146308
86924215
-160965347
527551705
182226387
-319475940
-419122951
-560317439
-561874554
-168156918
-916392400
90498376
-363733543
122709157
613946478
-559052090
777720420
827945096
-106428336
-119363729
-375059919
828382905
-187652621
548365955
-275999213
-830293931
858147540
-993060954
720522221
519285155
-361496444
229052781
14880008
319692160
-799841335
-850113597
-216201352
-354528143
-929134768
843475038
73938133
-395118345
581242948
469778730
792697004
-62276067
338471617
6193102
-125284417
983459545
-228028357
540965579
-376361438
-596120105
646671681
-331683049
-212627372
-404968627
-705923016
-497472156
712948019
-184797659
104951858
898497917
458982297
361891113
-305724683
52675828
190485465
64907085
224670071
-234019666
616782321
651763871
343292511
-124610004
874477425
232339613
983826514
-857615860
730908865
-272569124
288382331
610522398
-849715609
-16400731
76132412
628506615
-565310951
407684639
556996964
335371891
-95871790
324048367
-817579325
463661726
159583065
825284102
113569183
-715677525
-446292189
-385367633
-283097988
141649190
969101653
-782246192
426585170
-208578013
549349763
632664528
-980862553
-626688434
445008968
528398216
-102168770
261362642
-684239465
909783234
-31895729
92638452
-883068686
921529762
734984422
-345936584
495214424
678096304
-233544890
-961759418
-538892980
409837692
341956154
-132145533
599942884
-887899591
857547389
840528027
-203068814
-659599743
-564259793
933092429
993781500
-407645599
224656888
525417325
990291243
-763596471
-770787300
-137396117
617142134
-719061755
-16433489
-389400265
709239998
-216693934
697484293
651778861
-977456736
509605141
-451121093
880497851
-956838440
-186174161
472086474
274392637
-676957454
134911502
-60037310
-616908251
52348322
351304754
170872445
-6955091
943220113
-281148721
-589970192
-512123237
-351959759
-531507904
970423239
-621732098
968564556
428971171
144817505
-822117805
-389865234
-202518581
-295879765
-765564796
353544463
940307978
-591440388
-957761046
-533078166
-581262603
478596299
991994966
-194606765
-274331096
-619145893
-648022163
224800904
295982221
588196585
-53294079
704116121
646419472
-942753360
-283884099
-379579617
-28189138
506525013
233098501
367200087
-740879939
802023342
979467257
198245745
-814593486
758711920
-720451088
71382227
384417374
-939539544
492408921
-849148507
-98334855
-260173007
-469642173
-360168090
626714137
-730686884
-230932840
646574386
-317669758
274467532
720033262
918649869
168726960
-603265254
861610094
-908597853
110120599
-306833874
93942266
-945677886
-440083330
-980127319
-437507472
-377650076
-181664547
478428652
464860545
-659590756
-939271978
-215990715
-491367858
703963096
-176821293
116121763
-197974920
-11910449
-415574094
-166563240
-981445833
313402229
-596459984
-682142818
174859940
-130908990
-128960964
463806530
-175531209
-762695722
-206510868
-347984400
-1549797
-291107175
-507880535
231472166
-953872039
-752779480
-586908804
517604581
-959072909
-77488171
90355980
-334274424
266487795
214454777
-619817035
331112389
-203167517
-674848029
-989164639
-704361188
-341237537
517651502
-503068663
915424315
867077920
-825475562
202062573
485678041
-588297073
540456383
307523284
417515233
227216493
7233120
849576514
251290480
104814597
346811210
-608159256
803197156
416542357
292957618
-453416984
621614349
-784020788
201824903
250498087
-444637435
667484514
587134477
-323086407
449779153
927322230
-120525992
434387270
648200433
-345762061
-808561498
208186462
46114366
402039243
-283206009
984223450
-211413004
-9487706
975925159
228587538
240140515
-293408026
875582974
853075069
-120838506
449938116
-344916654
750357947
-240508248
371176585
956774055
-854142560
628832042
-595745986
972791983
-851170588
-947678099
-197041183
-939564462
909509335
-739497860
-761227957
-251799910
-694231118
-736461
-975943736
-410828304
780905222
120574980
985787200
-638221686
605628091
-920131805
-746470155
-297584142
-722087545
723423412
653457937
975262309
870894688
591016236
928876155
468836483
-421037913
61763166
581346546
334937024
-247969781
12786194
-603036754
-124513671
339529439
187796628
365965752
-248312003
-930952367
96559919
-873368031
400315883
430069423
223481312
268946664
-443756963
-914891645
-802923086
-335673046
-590236455
-128364843
290024257
-594464792
-813621901
805434470
315172699
671331709
-616902123
645592492
448269988
166551936
-252240908
-829770169
-336021765
307137087
598625323
166471870
522607061
503625360
399536349
489665082
-827156272
-462440603
765158425
-782471271
304065334
-230918411
575132781
84705243
-99482817
-874306525
697972583
832443689
72320721
139161570
800039448
954643902
-809617389
-961887261
-849467086
-448341722
-728559304
-414148447
-931628093
-357039947
660286489
118404466
461910561
166522652
-720847335
323722137
-977186189
136323639
-73260296
159892742
-44839139
-721128838
848041648
380150146
112325037
-269155944
-375805467
465763431
-228256760
660121330
-684309329
842871411
-804774876
-187310587
232361323
-963801299
226899547
-77625145
-288896427
-807718353
66158353
19126559
-641745002
758380645
-814799716
-746421670
-852580248
-565196914
-348392104
816413231
-183578391
658909046
-339313102
-376537537
-95010082
986367557
219356480
-703447182
-786798344
529486302
-746885476
196414333
-95976146
-306676331
-790205409
991206716
283920804
-166015396
866291651
101424587
-987353775
-635311705
705735640
185828289
-114595743
-729017832
-448756230
726435517
185565433
919561931
-712762590
602875863
-597839008
475438601
-9364643
224017000
-90090211
-449021937
-953052909
-125293718
344527628
-597132249
985601841
-551010999
-206877324
77906263
278702310
847249031
-725838892
959836418
-983521819
-585285829
-206590433
500741468
255506093
259181239
453666475
-436852337
-405710132
-369381070
-777994308
-795864857
-985366027
-110746536
48287900
-813602950
982598940
-283357687
-821961935
47400109
761471294
-47915131
828686486
-5417610
-713019094
-150540250
-851081809
404893037
-85935081
-931452787
809142022
756972974
-525572146
929010741
254978844
740411644
480442169
-735242309
-582593893
583814206
244110037
-474270763
-606878291
519230920
-512042847
-555211985
689664500
-328780418
997475768
-114201077
-340979209
-958583177
942791036
-27681682
-717908693
-316269393
50031757
-797650699
998709955
-191768575
346216830
897913569
133798352
48841532
839668758
731594560
-124067269
-119778980
434185825
-1236513
418880934
-434620364
82429211
-576919691
343919430
-393680976
528487143
-132611675
-158415561
177222650
671438569
-435134754
-367512515
626728283
509342761
147509038
-630126434
-380361563
-554236357
-920875062
-731961499
217379659
87892140
492583252
-18432062
-908843375
269840791
-981393562
-294621986
-647967200
532455639
648493545
398835898
809275706
-121227411
816145447
-500964463
-759625587
913443002
111522558
452165934
404619556
140265246
405648938
-610446881
93478936
-689482043
860401321
919731640
386055603
255046685
582610018
-321074560
-816541555
193757837
182168912
302399462
956680081
654051713
-799991462
571284632
-500258844
437003249
418895888
-530681233
538919259
421428412
-343988299
-549372521
177943577
252578446
291886838
948113377
-851402346
-513437829
-534314248
920415056
-277098071
-320059896
167280703
-518375065
-84102208
-964210876
443642175
771705695
893784956
-295204376
864265999
804646589
202440628
312374530
889343467
-10564945
-446218929
642736937
-601328743
-214628715
855998539
266712108
-355366829
863986292
146151831
989898283
206633220
425845407
434665114
-741335926
-742327892
810636163
75505050
-552381387
456814008
-249209720
130240093
285044261
-599335733
442348502
-287778955
-997518258
-197341668
-100440753
-275610205
982468463
452740480
-775079942
-380714159
-569334817
940925218
54977674
835591690
30526748
640507040
-41012745
-229488107
951594555
997204531
574468981
944818660
436924899
659408691
-75017745
721270621
919750398
145914598
-597996038
-199676998
415899002
516136139
896784136
738867041
-915922790
996104379
-586461851
-262420003
439736173
-285839869
-659774557
-245131429
-715898059
-162458157
288463145
369720862
-579629217
406197321
-746305302
742235717
165075687
-255187741
255853237
-587865030
-339245968
620596207
98888335
-107929684
-737243148
-375671977
-434899464
-718904061
832050383
141608868
-18245895
-997798015
125437624
-793460041
579874672
-730131970
872818097
387051018
-844566787
-462081491
-340682772
-960766146
-397473361
-301994434
806297376
508318298
419652296
42967429
-348975651
596751872
-778030626
204876838
590413780
-674490327
57509950
-324041
126152296
457019821
417115888
-366284974
308840252
162441307
-246218695
-118513029
119414465
25296810
-189653853
-590872678
-192340931
-774966858
800155188
-522570584
286423854
449293623
713200350
-388132248
747830728
137156876
-452071460
-671947023
-341589871
699272180
-530448092
-102384192
10613362
-285979018
333869643
-603691074
-209131659
-820982722
146488765
661975812
572054325
447939732
121674461
681015351
318261004
210737467
54133449
-276173558
951880923
101905811
-463281953
15787180
-816937672
178635217
-255825898
-980582584
410954482
-112859777
951786237
294224664
-758403922
522965456
-72103795
-221888549
508606936
-274365507
-129546230
-555587245
362748217
877550967
364692634
-440998186
881182550
-396812709
620967455
-503045196
275162600
225317633
282408918
-210191160
-620738989
-915693238
-52267125
750710742
971281548
-374401191
755474122
-857984536
313142468
698777347
232347002
704165060
542827989
-532038802
545609495
161971739
-63032143
736899361
849748388
70000411
355098211
-459435077
-894501564
-526983309
564671028
553644301
480784450
-115271937
-554914791
-455528641
-501938770
-68591394
230424816
-175799427
15524087
-699391515
-704282568
-990667214
-437585617
955065264
951425096
197502205
-353684482
-144521818
-71269104
-728403273
552514939
-130549329
589331950
186094019
-683526098
281530767
-124962140
169352515
365846533
389180097
493956501
730268660
263055688
-229002277
-403991120
366955914
-246128221
-205215458
905369868
4952628
810753638
849464217
803802093
523303874
-805208935
-694484885
-638393816
-308330537
-551254332
-60510483
173789438
668895008
259979598
-762400811
-885013276
-534084979
-1423031
-389099321
-799844759
-987109025
-172529782
-863980178
973199825
561624248
710375545
195397225
440844796
-419075453
916305037
72486598
-460970379
45953266
184170923
-353324599
-189399244
926023698
752877601
962840604
14538464
821057400
-381183152
-443321936
997743056
287182860
-341460093
914645182
-449355481
-351913946
551087545
-822979379
787665542
-693995264
-599089863
-984493325
826312287
-233550217
860456714
-922736453
-425541248
23144697
673889536
420585419
-232957879
-634631327
675772010
81002659
825510769
-924392427
-916554975
-663476168
-100518054
272772770
17818466
542125955
64602753
58920918
359017265
-328775117
165677246
-600296807
-543867025
-55637004
529006890
151222258
-792013717
928808820
656828265
-429026333
714604909
-604218352
792152372
-614108070
-522837414
-290574350
-260216014
196395023
433864215
740728363
155246381
106906183
-143275260
-482714451
-914817132
467328672
-259253795
-838280652
402864497
-87187728
-59999133
-80128127
440647533
735797193
-464709456
843684351
270229413
-278188725
77645714
-51357532
297415344
11672347
-860295351
49292104
-159431971
388377587
809121106
838654418
922320213
-329071518
112668017
428872719
210275942
553861262
-790281506
316163983
-888911467
432086790
-848831977
666124267
803060926
362326590
-311241480
837294118
219274254
944893859
-660979385
988638885
153674713
-773207624
438512176
-76445554
324522688
485743139
401774995
500074035
-620789014
-70151761
-254280167
-200005277
-422873351
418155835
-985705445
-680442426
770673150
727386347
-814788763
-827349633
-349998068
170900922
380340131
467194342
-524513042
-133745910
-451735175
-949148580
-877762142
-912332810
-19737468
69301526
-569308508
-164279513
794413606
621580388
-337937970
261293573
-961530968
-561734955
321712612
748673001
-456167180
435537553
560359956
352950090
529821913
-629724645
56195050
-637942237
869632739
-89406717
151740004
346954810
-671020565
307339413
63333385
687759570
197520584
-583379744
-22549184
-209868296
876396666
32991907
-970232215
-766874093
-18875399
453237708
585511327
-851656809
-122391508
-581155401
-921062939
334386039
-144833647
235432365
556453147
-668409479
-540630596
-325732062
-196842549
614330306
986211777
809373022
-203373457
658957492
709999364
826685706
810790175
798584844
-97832840
-513827168
18369698
-214961068
393228541
992275249
155171310
557448802
-639075767
-994755268
348739859
526196099
247948168
-38151799
946931236
-220309839
599086650
-319574314
-504522232
467203718
-872671795
948088448
953109872
777729456
978058711
-88882493
-307590162
-642477955
256077472
-576208476
381400747
897598277
-112768842
-295619671
-947098319
-603667912
-344543188
-261819682
-531504614
602115415
-737460225
-713043121
-344856178
-772698675
261868418
186391296
-517159779
-599099490
-828917612
697083656
-946780413
-379922375
-615519906
-617256840
899251564
86235998
-880100282
961010330
-612977123
586893450
493514359
497915088
646653883
498072479
985722980
746852706
-718432767
-715512818
812137293
-395711993
-849831776
-566512246
289161794
-876776181
666210337
565094817
81410455
203592285
990749763
-916972285
-294391403
-781627145
-504228370
383912918
118043244
-241005860
-698125110
-34117902
417517289
597692190
-778925832
-696499582
-533970216
-761599328
437015217
-234403765
-126976014
945123070
-538903049
-763118459
459719742
-55841587
-818035048
337627257
309526729
-811180200
-847139727
760261442
-271689642
-664755533
485564644
588302349
483434615
-847473762
593765596
844165972
670359498
-424058529
321160234
327708597
710028046
-950492693
-385825842
546945528
878630067
-823727388
753316922
-968846299
-257118771
-921157290
-371775934
-671235237
-62258226
149333995
-247503190
-826220564
-83988204
-522070500
873504671
351270349
-178581318
-980725402
-770852144
237198748
517676803
-217661148
685874864
-164449625
276111794
195432829
-91264438
989382132
403181514
-732696175
-945864019
826363416
122584566
37658625
-965725120
-683125004
-634223781
754125034
-606219967
737623665
906420440
807051772
508397326
-532305414
-93153674
-997580050
-944559586
-569524386
199088198
591357489
-44303530
-744994751
-541429819
823250803
878461523
-435803406
-754446517
598847318
853786634
-61381112
-87269989
182932360
-930653891
427603602
619445553
-290958664
579396459
219547671
-150334304
-181764046
537236130
-647919318
736979528
635098427
-912366993
-186394652
97586225
475976708
41366564
129445796
-34602289
15081827
-559315022
-510499839
-266107233
911333136
56639909
-452230432
275279168
-825824897
979888995
-481832405
-19486560
752632121
-506923103
-344238843
249613807
-174800210
680038091
-493418882
661599908
-938099593
375936891
730943152
-258945079
-464807205
223112595
818836716
744518959
786187597
-584885238
-739115236
-652113770
492047652
-532551374
170321087
817785826
144470864
714094126
488389190
-676636577
-794928658
-643924796
182455885
607240553
583250843
374431591
-2221691
-155679365
-232936983
516029195
215658457
-842683881
855439357
454112737
-255311899
-847828350
-353774513
235048704
-915979942
342815172
548868759
-637950197
-413034790
563432388
875579104
-995459900
-358213070
932485220
169762896
738874819
-691738747
632055033
-730908541
934815295
-723329667
-462592923
214025349
-247463349
-362470906
-997424541
72845656
-384401355
1635646
231528125
-457004762
437168656
-467936465
-56568074
-269438778
932089932
60302607
813596972
568072078
487898313
-273152573
-506138706
-812513687
-216975331
662818910
-695707130
-218868636
104391413
-287597004
-825911985
-293960115
-714647622
785946421
-326042254
-845363407
-581935583
931519593
679029597
564466662
-396508084
-992596687
433395051
-228080968
-766694245
-254977918
-841480980
-407496307
-496977475
-311922394
236302405
-454460963
445814490
835664935
629296421
244079761
701179262
464165344
387625650
-559576742
206513334
967028356
463345391
-24602701
785119776
937507034
437869039
-692793676
-97851775
-288458124
20136726
702878880
124341222
625416005
-760904052
-995185257
967496451
126990441
277378957
-622970762
-58781404
956536170
219935418
-104103420
231366849
439469900
-347903962
862933191
-964109860
-35387228
-503320826
537919440
-65391539
145049767
-421285576
689631770
543678428
651070520
-681975440
568838332
562562227
-933238402
-662283538
724367340
673719337
-735869044
-689181370
411158978
-858589587
-107701974
-261073377
371818749
-610184505
853293396
-154823644
370893479
-831045719
-375736259
568467536
-253276064
228893908
-247725313
306108634
497248960
-707411455
-858212219
-970552497
-345728982
-251850640
220175097
-918543899
973434288
-352593567
-881794219
706738009
803602299
490621743
429336454
-315433735
-735686680
91183479
-960800189
-632131565
238187438
818027873
761312947
-299116751
-891224527
617999989
-9530399
-434995594
-303664464
245008904
519859178
-961673961
-55747383
300827854
30034455
-281241375
745147537
275906832
-481885536
153239041
293084204
632167285
-894026919
-566009129
-842209403
-225154672
293344343
-266358121
814128130
-639780507
-456715518
-144273253
-446747786
-360458642
-708581977
-947047174
288444796
-730714765
574890311
402390869
-793875391
-571052220
646643139
-490172991
-34666103
-930395697
769960979
27717638
-254466633
-735553926
795909055
-720443159
-962321695
-130940898
469985699
-934122454
218764495
-796815580
-863751508
545527137
374661504
876780743
698887359
-938366414
786811999
80460601
-738276640
154181405
505990426
-601681942
637337871
229059402
614407233
698705824
-861938725
9549489
-860905522
-555792327
-6333397
-719926077
661822604
444434524
-333022258
-831178717
559228360
-391575858
449882847
-196372822
143479521
177520168
575077745
-5745774
427773452
-481186243
769182588
-815225937
734668771
-926073495
90420489
268458700
837446612
829554642
485925217
334043737
564619617
-387511441
-219040925
781152049
-494386261
275267185
-359742234
405709758
42573261
-30066185
537762924
974647780
-616401512
535664129
277024426
-887994111
409850729
-544926465
891278957
834960316
-608071868
-610267732
-687217793
272073016
-171891914
-971446876
980695268
286946393
-835182430
-173678018
-845986367
243717283
486505080
190816876
693414544
-45559523
484135288
-245597663
-332960140
-540645319
-855715547
-103867017
811628512
-812030520
-341519575
348222362
936201350
636069624
957876316
-312695722
-536550557
710748355
379652112
656719937
-467712289
300508101
32111356
-932444387
294443699
-561687916
969539755
423929271
-612880345
-491728008
-600202333
282172735
566013401
-620953720
792199708
-31514991
885141105
880873891
-862889768
-837600990
180252181
-408863779
-300266764
356234498
836084054
-698363858
597844801
496898029
363700130
557720323
959028370
43283511
-865056766
-268237138
-554953000
783637647
853998818
554449261
153437382
568745460
-53092211
-378996796
965030012
843706303
523858397
991458526
895178791
-193770708
-694088166
-652932892
532494882
-706807667
277885877
-375367487
-877013443
-863346484
757110294
957166379
-213589424
375502272
856912680
174908546
790581640
-676861655
-650878804
-158079444
-393166139
-881100782
-94062684
-322858641
81828217
-373951542
-487308560
-221223762
191862130
-902064822
586446171
52292999
-663924321
-889307718
116724174
-592461785
802136990
105299894
442242083
-824516423
-367849264
428084967
-225103897
801308074
506952048
-712665405
-126595244
-115265292
780334688
-375086450
-186977046
-924757332
-377151431
-759330305
-333380441
879584977
341369139
567686581
-133032967
467350872
-199501258
-27689161
146546679
91638198
793608739
732032896
514032524
222305605
-52090050
210179799
-32903556
-755643169
-87816893
-90255915
41513912
30853228
38939738
-951721345
-534802533
-888526905
-802712850
-377761340
-404651343
896548125
412536868
-447678191
321633934
-45564618
-626948456
-207680063
741824317
947997170
-475613090
6607603
-858264080
-30970991
217788926
9617802
-717039169
507646595
-73241249
944641314
-320476010
-206967398
-999586096
-657933038
-758745718
-39029439
-998647289
-504836414
-576492739
991949130
652922024
361772392
509882046
-462606843
-965888568
470995032
193491681
-652522169
-850397539
-846028774
880670282
210194756
118709101
809080997
632576354
-863600846
-341688605
-866530354
146013792
-443043767
887880631
-537680027
-183838297
543025159
-750740438
-463502407
-416114225
187717907
-627272275
149095906
448864342
-641206260
978564599
-828546469
-270396078
432167757
923898712
-667438363
858083250
848851292
283095967
361387033
-387902348
469366023
449144457
-973526149
-947734663
809361482
-496968510
433113446
474108843
-176255130
254564272
881450271
702832709
-66557094
492355875
355260877
-807218077
-714990157
-218482903
-761765098
393147257
40869156
856923043
416974752
715074947
54803957
902647265
-995731291
-743518671
-617963407
802609051
-360331257
-77682824
892022821
-772525936
-129078470
-377513433
933421041
272829784
557312110
-117338885
-777847184
21874555
297218917
-590003303
-634690398
634126902
-996808906
219283020
90037015
446844244
-234032693
-493663863
-783195498
-385308155
-466454551
645585285
-207876951
835172163
-148319790
-364560254
-953396999
-213042402
-325404895
-38780674
-888166945
192033776
260696305
899463401
-489965116
-501234281
941411030
-165352443
-908202904
-604914599
318658647
133616479
330677080
-288872820
412462135
-814542777
-176080609
-815811637
-611966279
-836400078
-970268024
-459370972
-335653049
83039782
-854266717
113600248
-689178581
195811768
-230421217
-644457759
-914405609
-735944205
306829719
582333144
-407908965
560655787
460952586
-456451482
40337826
-974871419
857543269
915185393
-62625498
-110464924
-52379432
160880796
-858983643
-476447664
172890681
801705571
-582855023
245814246
-939002648
472865333
460039823
453960700
-933078778
-630699029
43592229
694671669
-723071170
980057663
-332776372
456748448
-357243717
-291997971
308339853
-664969705
-778157054
904228495
745418973
919956974
-974677388
408033126
-436878723
608139313
-657570188
143654782
119180159
-241580294
-569339206
-708681948
582753507
393009836
658542888
-561535430
-734760000
661313638
-879980134
-411495101
273843307
-873141607
-15499587
362724728
-895419635
-269480637
-50616120
-536882455
840107988
289516036
100926965
-529596636
-540154068
123339512
525551009
-995014819
77330855
-76920562
513250084
971324182
-707676015
-92931235
973134280
-499144369
-555906434
-96224404
-817161486
-485832423
653943769
65704118
-415875780
566211187
441077560
-40038766
-516479448
-536500954
-119562
-218718541
-515480948
-925396458
429786891
-239984586
208602864
-917270465
970294355
-360263765
476002297
-887310640
-678394987
-260262023
-692183578
25601408
652379357
-457722433
302061383
231377545
-561116223
585138539
-413263489
581368566
890070147
-395732452
-779067974
223963324
-261089943
-461803256
672635769
736426797
850151484
-691542123
796959924
309407484
306035350
136904593
982612729
74818493
316802252
-743594394
-460690780
942862976
-527078814
459989553
-558407263
-295349971
80758925
-589974024
-765660600
50303205
-320878292
-182829007
-547754750
145477956
609348587
-336235234
650482753
233723518
46157419
90851182
-926935069
341707478
-612507756
-261855331
-480279470
-120250685
-611416747
-439378142
-813202847
908257692
657136502
101981870
-920171878
-76843481
-602845741
488397232
68249964
695416101
473847316
-755183272
-930483485
68312849
395416237
989254235
-880279507
-756911500
87661065
280930148
391918046
127440688
92382781
-258724186
633658343
-407968691
-266738643
679078298
-252207776
-76040984
980481385
-867015732
-514959631
-503828517
759280769
-622403176
-576341162
-29991070
-118688104
-582600730
-847737125
-910745609
99345322
-761015018
722432832
555782111
201534758
882545505
532892489
-164561071
760275709
-476711391
876006034
550466480
299726545
-926163404
-110441066
-243487975
421042540
-622142103
-69670858
-403152631
627455661
-783745496
845256381
56019491
817670043
490951217
395319433
-968664578
255439229
-971022831
-321061458
-773117653
-52557096
-122380952
-472167995
362692214
-639910639
937689554
-756099596
-334610836
850956333
310806705
-960858740
435315397
-831516688
427226831
-554471995
-986475617
-768547036
-320003227
-458830857
39072785
780637394
487922899
128020742
-364018681
-562965641
-653048553
582363496
-52847296
-498147935
-626901783
329127251
-979909444
-535784560
628115704
-484075273
-520574191
911847178
-709575956
509954302
-654264417
201087226
223554546
-519200003
548009666
-362341538
-266947578
-287295976
553340185
-83024936
-966866635
-578501676
163483191
-31253395
-472279245
-526742387
923544513
-53852988
-182707013
816010552
-222816699
-101555918
79929594
-414217301
919948198
-283017398
-17234981
967487687
356805559
1415023
438652149
904387124
748711139
416256784
-34549741
546863131
-32633494
-359138222
-270638750
-833805117
613209507
463062659
547078363
615648214
614480691
-447981515
455650203
-791959931
-505682517
-99309978
974500345
485941848
-415977603
202533633
668954245
-92208874
-753058722
-338449820
-195508667
-977358772
-113447576
-726479957
-920083698
-228442523
188402054
-448573449
596569730
298999166
938497522
-943157246
931556677
428568637
-822303707
-176090459
726624074
252486665
-404830341
68026824
-494180021
-974570075
-754217354
171095498
-551629777
115495134
732358077
819551174
-505815895
-546569754
533282687
-334573668
508968073
550526318
-452654181
695043034
-355143515
-578122121
-135373850
-542584913
435738173
-956195245
355964538
139867723
-725532502
-383302277
-903810737
-678046314
-443403029
571601825
784745290
-543560448
742225720
-826060538
-35819426
772936299
65908206
-598491063
-404388007
885075253
-792976756
800116663
195165517
820157094
668124392
388812281
-316596310
-648543137
138230266
-345223455
632891607
-969908491
95395438
-212825333
-899327070
-346838451
450990812
-254926364
808190906
299441624
978928225
-254685781
238964568
-619275977
231326697
870430570
228299830
418740331
698006977
474058436
681853140
-698752025
-496877410
489009041
-491737952
-275456356
346835146
-79833115
-374876068
-678392551
-680182136
-329223439
315829879
-745950356
-811042589
-303796581
740310844
-967943399
-348077478
485760538
792748067
196823222
260902804
128573634
-726316651
803463894
106307738
-459265708
-993795597
379210403
748851340
333594354
898649176
718121504
776052336
-60224533
-537904602
-630411349
921576645
297986722
676725031
-827263447
925665344
270063925
-986061263
425870010
737365226
230038625
-967305885
-21811960
322789978
-590240084
-534455026
282924608
-431327229
415837472
965386925
73462451
203471664
-384268952
659223531
-953719858
271506511
-39325266
828790126
-929075530
78316374
-433576825
524039869
-744528816
727569658
-364528709
-820862589
886612896
251291921
637201920
-281944818
-414529158
139306899
394725162
385445857
-904379197
899584173
-878695533
-642696705
-986102009
-501678311
-341077158
-665157363
874040547
-989677502
170350130
938913081
564196016
-878461936
917520765
549877132
164771554
71361191
130739980
-40033200
-103005595
673071179
941853546
-89550624
212739468
925635650
-138152459
442075555
-22019035
12648763
-995213885
813206899
-214298712
-186542915
304202978
-758229195
-615078111
321433088
826505275
-748881102
932883684
-324674185
645797206
-193361214
-3228911
335339643
148144646
-349836742
-740634428
11113712
710820035
666114130
-620961577
282280568
-75902387
-627430206
-116434940
-705649612
-349631903
-645581914
982846251
96357096
-45609548
81301705
-221954641
455351102
-334971585
841753468
458620481
189884001
-805881552
-550637839
135528012
22198910
676602642
990204161
-547838274
149818848
576683453
-917754280
947929492
618957333
946721658
-473623540
-314048546
-289132988
484926803
-45668916
-585896602
-822004148
-39618972
-913187214
-981225085
956643465
703089051
-106016937
-413386047
906226372
307862897
-480905003
-678985121
59755323
-826123858
-152005170
-23294679
515555234
220861440
527720861
-751484871
-673190617
748573645
953742837
-918520100
-401659770
284642033
-827699510
356828289
-598621385
-938727851
-515620907
-81203013
-131113960
-679278958
77309566
-139648101
941525640
-669081602
159369057
-109264504
691949273
796800023
392109324
-594615335
779497286
295258991
837717311
-983836380
443037417
154223435
-926749041
704711955
265091749
318053129
214601456
-569491114
-400827633
704956462
7887467
314426060
341419560
969270424
-718606839
628056154
930767908
22790257
-396279851
-441404675
-925402440
865385792
482383716
-18766452
558886489
661342608
-409775580
165396520
319649030
487710518
561579544
-463741522
-479126342
-285086283
839711951
148875132
-291285165
520545099
580436211
923490952
-809992684
-280921808
-988554347
-976699367
951161344
787336108
-850475396
-497387923
-252336997
150035391
-599094470
875735370
-583376418
388278317
-705976378
512865545
263448299
-380833123
-658262478
431540619
719179134
-533328379
204153040
536235453
442323767
517162979
-403853593
630729980
968881747
620394989
697804517
678614910
-917518268
327527335
986102025
-446552450
553677100
990237134
-989492302
-781685753
-126552675
-898394123
-508330618
218104157
-337930470
744299419
549297020
825015951
610535327
820926420
-814191813
-922417306
882542860
-930730969
-432979186
844444045
-523866655
-976626138
-969151876
470252885
238586992
419512529
7614750
-116829642
-566329678
721789951
-98657541
-539111425
-24001605
-530282645
596397419
557663695
-964843164
511114928
-699385394
-144701374
-570322407
-170020658
-947118016
660041323
-546488641
539212425
115851431
25747256
-906927502
236956730
735601194
-435456840
107419889
782166530
-43334259
210036767
-553424406
409771542
-683438418
-714428121
203538157
393356827
-88101013
-381923891
537315886
-721127622
-503288768
-278033166
-384133683
633572334
32450201
-994354540
448634809
495497485
-715641438
-451827925
-107121922
133800416
-687248195
-203016442
-640956780
269386955
-614712556
-767755304
493788674
-573570987
668645488
-448037534
520098419
-655757560
-716426313
-717974150
622711425
-135669160
949638407
-896750053
-407074453
180464816
225957715
-487716610
-318576335
-979669585
118599376
212766062
-176089702
513486820
-404589639
-941323775
-996775934
-493183643
262831028
-607923362
-35831166
-6626214
-728874293
-878600497
-176306328
156239227
-995395182
176212676
732382413
-53758997
-838284640
-375797352
-717899338
-586814744
-525245145
-95871071
918394079
225963748
899976219
827377301
930659153
-631801376
-980108986
-390961228
724268743
737542616
666200026
858094769
784365098
-667625241
-346679589
211552715
-367855957
-752852128
32641324
-471372113
538744890
590167792
-907204132
147252077
-302501093
-67853570
463670548
130906394
-903781013
798825336
-468779594
-527951237
-75997570
346333948
-762617425
-672443018
-839399809
-236078091
762442552
-102998807
515248007
313291599
-388436572
492611358
221181955
126652764
-474390101
-357782168
90866779
517830453
71473032
733025400
335475886
-981186235
-781672406
868415210
-212804393
-540920362
-469830682
663840687
-794093041
595434110
-136182345
-499781798
-434320609
-246200643
-425354054
-242330972
-632323429
-826178139
-738685181
344607600
185184059
-144978444
489486618
234348166
-689371202
972568327
-870322588
391298533
-321822655
903687554
-747332629
997472302
-943739172
117946681
631462992
817135759
-165453493
434179171
-184728636
-740962966
-139128407
959945335
823978324
-876250398
743158849
-774006096
-899407926
215472549
666152182
-972734018
556806097
-692640262
-534999953
-43437046
786599709
-996633663
258969470
15800172
-837409380
-744366085
11217345
-962309648
-667893418
719642521
-136603547
873271016
-22978888
430613290
653887104
998713603
-639634876
123784813
182627556
-649640749
870793647
633065029
-18102588
323840368
-226403542
349142597
658877680
-339630141
267246617
438064178
-123484634
-346774867
-906182661
667811564
425062198
500944665
-346329055
-22933958
684464517
905115442
515856605
718748454
-687899746
311587318
193734121
855797639
-357735814
-173279289
794959224
664138377
24331428
635936228
-273826924
108467757
-225991280
-18125909
146392001
-533031807
-765786703
601464928
348151816
958840712
951984138
421116417
-137089915
-982999198
-808827631
-430704641
-736451784
274879942
804349677
656362311
16500421
2816460
6439907
-650074941
-422772834
304054564
165183700
173290790
723052691
487422189
-928247507
156455567
-560704911
886163596
-657849187
-470692608
144102969
447763191
-665589826
267861866
-905919854
101557113
263815260
140432498
227045014
169407399
310470842
47823413
-605912985
-339931790
950416993
-842898089
531550244
788641104
-78473375
-269284468
440606401
-314620513
-118460433
-1297517
823967581
249125917
-257246467
-544346497
-406727881
771157827
508360350
306190892
656403728
646000426
-191323124
667449488
26601842
-240241119
-760334463
292350053
-939085394
-80063452
-77627273
910441358
876215001
848054990
147596739
740583148
744868125
631666825
-531484026
247190357
-759796486
-270323269
-553238596
-676791470
901504064
-477644403
373002696
522886360
-643244383
720890863
381131544
-974857387
270424900
435261459
-241979657
-250199763
589358693
-474057329
-176921813
697493917
258320683
-426835299
369682168
561204523
485580529
262555483
-251721994
41485711
-791161801
339250553
-811543258
170897584
-861056233
905338632
566338744
-773082257
179112768
-646672861
472004875
628556686
-958572523
-521523795
-818018263
650768696
572427319
-954386207
460545629
150182925
515449262
-167003755
-73417399
-311869158
259072952
-896149548
-741429791
-507563521
804663136
319372327
-991099431
261251967
-347747981
991308719
905903533
491862705
801089622
328320595
-152155127
-894956206
705185285
-71539375
-547859423
971444656
-600290422
-329841225
-351555377
-133530547
911851804
-175041617
-121902649
-778230668
636346495
-388262416
-463760719
123532846
745366175
-353547826
-770602745
-686553044
-161857123
-764343827
84045070
643659596
-666774591
-198182042
127560003
522668905
-421322485
-306231196
291650148
910072472
36844030
276541720
696045630
-459294579
58101774
-889265678
-106564529
579060838
265225066
621684990
-328886687
-451717903
-823995468
124800918
400791153
284685731
-318223276
-249443476
337758001
-565856010
474673412
-51996893
515610824
-733491552
-194800310
983400500
306402033
-47719873
417578822
-318804466
-370882546
105925196
130301977
-843788249
377622987
504232546
-457519569
-909061253
924402020
-547381938
483515603
733007982
-45925240
-999511808
962459058
-769757733
-781025486
-353073725
-157687366
731048578
-567393069
135258695
-169123445
-910917562
-416775741
-231708622
463049431
-576821443
-978650073
-194542684
-358369512
251420946
148593994
-816430421
-141150993
-433023934
460114590
-47050057
-682336181
-349367532
-636832917
-324287359
-273624301
438496716
-421890511
898082996
505343611
-79889357
832620132
760463343
-203450494
-465317730
-125820122
-10884006
346139447
-108484921
-907911709
-51257606
-610055757
235840540
-825975363
-584089380
15239186
-148362529
-898319327
521805739
975913859
464558878
310763284
440224606
548221360
-977537416
506513045
-308862397
-873055030
314238110
-885559190
592856578
-481068131
-844002512
310590576
163508975
-485571506
-644723107
-227178238
626595517
-449077799
-888095313
-305783480
26169877
423660910
532436774
319830662
-576878359
240524383
128592651
-605732300
611581702
831600800
336841762
191225030
744403961
287513006
-468279221
-990202346
672777566
-309540962
501240388
149233989
506416899
-148043918
480208167
-30505972
784495923
-993005027
-340123210
-327229480
449382964
-680876813
722296970
970987291
-367018952
465914044
1821333
-455036668
-953658257
201927997
-255163007
850500876
-74251294
-671446528
403920860
240377980
660560302
-733700449
13629467
777651779
364616356
-940700527
36990592
-75303543
-562040802
762943450
-212665861
232286226
-201500322
-976989930
497137211
811881656
706435651
-38302693
-569957402
-740036118
158154124
-765144654
45527187
-658883577
86446340
-261819079
-221981629
-649791977
-135226172
380694681
-258514181
-384840428
448687927
-508565026
-535015444
278170835
222063612
391571640
736353121
749116858
879696040
-944438413
-166521296
142437752
861099973
745347507
-887405693
826630551
-566243246
378247150
-683344229
-738828389
598802519
-443278512
-433107698
-100723187
584225824
-947400143
33578183
-412837159
183403196
-261320368
-522501900
362675956
12482209
54346203
966363892
802809075
621404972
946112151
809498113
382706112
-444165605
-121944620
-727047133
-780256622
-448111857
269935923
-139392738
-873946176
15887381
238787328
179661098
-410804244
-349565263
199963580
365073617
-534768606
-189229091
-380991077
-464900446
405685377
-775633066
502685194
-438325199
-407934847
-291293963
-734062656
-528164510
263912604
-373267964
427063422
457101657
-561896915
-609233431
128383285
766424069
-424465097
923151074
-916869185
507900908
-696834951
413539028
-228613243
-937447992
135345520
-466958445
-330626453
125449513
-15171566
-630853894
-578088077
186026251
-816025766
124223944
-640378195
974350160
764942748
-569878082
-297508715
589256851
814211879
498544499
-121763998
448171711
935071481
651695407
871337700
-959113996
-95721629
249999126
709965384
564490683
651300565
-916810608
-179548753
-931412788
-240238687
-691834499
-52061329
801152421
-14586718
465130787
-158267478
972201551
878714202
644386384
752323337
341342689
483644369
919958307
228517295
-687338174
834928324
293904359
750843382
548624202
-375416406
-885882187
822737884
-873517535
996806395
454867877
-311253538
-567480422
-737280627
245187788
148731327
-68942548
234974278
895994453
-349286817
439405184
327048811
-197109606
623207696
-932920087
175948381
11509756
-532609525
-82195905
220240649
928994038
-52115416
-591534864
273624435
-671720812
-221553212
656915426
-524650148
703450395
27243331
677046667
-639520998
891131919
-542284888
684558972
-553083657
-761985775
-2515995
-571209618
-485007861
-258416103
940997343
-431685607
491979578
-952476336
693626399
233865717
728893985
951920734
-996392841
341873516
-861023007
-895516383
278652946
224262449
36851455
49417855
255575686
-423734139
152035488
836171196
-217613727
450638315
-466817938
535590160
799420887
-13835339
-163433486
385342186
-992375467
-251098646
-428173993
-279073592
910457360
724634635
983319982
114839800
-209798206
593936134
-805778788
858114606
774478933
668810769
-117065588
549447284
103424336
765099911
68688027
-904665406
-852241245
-77737104
706623049
541070732
185321566
-876256110
-839317991
128287740
255853066
-412981347
-974565072
833000572
-490761741
921355792
-891917188
176103306
583977862
558425637
-818737692
-877223158
-741129816
-132405126
-228866626
240400820
933835139
663839018
643244375
-320531592
762793463
-637320207
486724610
803012261
-837829677
-575651136
664371393
-476933341
482075140
785927449
186145578
245744878
285837872
-969536146
35974399
421660331
914979665
-692886168
743101586
-778114113
-581932563
484133574
267532191
361683465
-123650095
739716917
-950994197
398387218
-455865825
-812033750
719564723
830956904
-602589836
-78084833
713283546
793245352
832515518
-14917029
262046453
-652587788
-281604577
818883250
881095930
82957729
-344464166
-886692730
247128684
984619826
732531395
284196671
799737368
408117127
3208477
-687732660
-321545322
421132838
-246076350
-691280682
23857607
513171547
-776113162
839473241
911720849
206457416
-155441230
735854275
119496952
753821935
496523355
30311730
523159232
-294064862
-921664493
-565249826
42322441
396987933
-897161214
91931443
690245089
-665832831
649835214
-596935097
-738785635
698458565
323067317
328784824
-770220385
921469348
-479323726
230779133
-941399968
829388584
-255482213
877596044
956092358
147097314
-836419779
500025252
812256804
998629697
772759902
934264061
-594311178
-368127148
138731584
812118211
262466316
682610046
256221332
224128471
-23611452
-514906727
472621905
-194216560
798434143
-481930923
-236825415
-304094968
575025909
558358014
-144537829
485363758
-12169443
715062471
-238000068
-310099606
-306534987
620734977
-789703987
-446106887
167287609
-718869679
-339747010
-163736010
441358231
-986580280
-608311643
545860126
237054080
-94531161
-758051323
838864646
764005849
200031799
442716302
357178373
-708387312
59591494
-257131443
-2470400
-916789337
107139972
348550260
595203053
-793933502
-517007584
250060187
646231906
336724048
-472538509
332482962
431872823
-67935121
502442076
859000540
622247672
-979971223
940707210
773935687
551110528
564205605
-728098346
-623171193
-284559159
-282637369
562310074
654960982
-79987547
543202788
348489301
-404281763
67564653
931904856
930006046
938332709
-852388290
-151249764
-389265875
865247682
470201369
7150170
-864993959
643704445
719342103
471760710
-63865790
565070756
289960587
26637721
65176420
502609533
-220308998
169031723
120932280
-174147860
-354239395
-549987364
219415026
235746447
2774596
-412243120
954548389
-242927809
-860360256
742356566
7376760
973239565
-806188936
-567208908
-982652143
54829447
938364355
321931086
-695661440
669025323
832495843
-347337492
215641496
204136442
-215266729
-948117917
-431096441
-447451877
433866193
555358011
425766230
905382226
226381958
994721159
379471062
-807902054
-186755673
452921731
106625309
861260450
-727758757
367684834
-373548275
-439936502
-429159064
-617292090
345991403
-818657907
756059558
-741965285
692667290
-122518183
286564710
717427792
-555823709
-863911483
734852510
-891885960
316743689
-27168629
-821188422
458832805
420224653
-324072573
734593593
407850766
802171159
997798614
952032910
-759060730
646576654
983672262
374069641
-963793478
-692106720
446605007
684037318
338505435
-621549768
-878432956
26003728
-22235625
-444129614
728013996
-423640707
134007371
-182605936
-40466622
596218762
-460842597
114455935
-967414862
-175217051
556054961
-471206928
775220709
-799648477
190365054
-24659635
-341076369
-854066601
-553680726
-7980084
509879802
-58712387
-616231889
-277313868
-178113467
-161412957
735611205
534482886
-662184976
547062964
-931580928
-414172458
-825124560
337503512
-7838534
544868177
-917789200
-916184020
691974747
-215530466
642523352
-272327103
-680615043
130254748
-346716779
96668259
-251704198
-488323875
632723813
-578572109
18788552
870321499
68663052
196533607
-805830163
-677193954
-937867846
404272285
101095393
-666247702
674446842
-522905949
-59375928
953065941
-410466206
-393375429
-471916245
-133699048
260708663
-753825175
156929875
567206376
-681795735
988617561
386723326
-909418536
-470284285
-689476382
76997626
-426373876
130238561
835052193
128324396
149228550
-909171262
314993347
-616334528
-791036488
185622431
23737015
526224239
23993483
-732649769
242695882
63556538
-745582940
-719797650
-858010466
-250545924
68522904
-478262303
254831503
-765605854
-468087632
-695897271
116902087
174872457
443761050
301592859
-33784506
-749175647
-503009972
-210840040
-101889837
-150863252
74948666
246254788
-718164381
-154401078
270091247
981493222
425026767
941181213
-885429181
-274877011
635034401
401195180
-487127784
858428890
-230573481
345795976
-122684112
-800006821
565129451
842203636
-258989097
153148829
715856516
588806722
-963659093
-908921695
-106843686
806603981
988458593
-127833547
-68821063
-427135179
-585812476
-807880140
-844163998
-198104894
-368833404
-236339975
507016416
-710498078
241358735
679200231
841994803
-412302303
372236547
-928141178
966563628
645462819
-456174422
-994607144
13598043
132311924
-680425590
879169056
565760993
-683514469
-199179281
130427703
-919455515
-749241712
-459473050
-786793246
-628327972
-196519411
258368142
-929950498
894554792
-571190337
537729333
197164956
83751887
225699463
87235522
-881030636
241188467
758888518
614840500
-105622220
449450259
-545121781
-50680309
772855026
-613914725
-675174175
811572926
832732531
-275100528
-214813786
713776515
741725080
469322237
-975234151
-221416786
-737219038
869265473
-340798288
937833870
-819506484
447004275
-560431958
-226321850
918018526
449138234
437386661
-992935165
401657280
-898172062
552302703
-358261899
-39920917
-98649268
862098735
-858384883
-962088654
309366649
-871891362
-526803710
305460390
-93980111
924258571
647805903
565066012
292073214
-205035032
796038385
-649280588
792667325
955962425
-592368356
-978121165
395187959
-675492328
-431278898
93311470
-712158696
-806070284
-367369257
861294100
879919428
-401526093
341578485
-6667646
440388465
-316673842
-168260857
-109885205
348982420
552777676
-273497426
-240155201
-551005619
-518843841
464788446
21478079
291973100
-673722102
-788689105
891995960
-224644750
-784695590
765646357
-794476623
-172557271
72260603
-218455604
-864830617
371859855
-475878436
8136671
-392565433
688755604
748253529
696020559
-577656337
751013469
110632931
-680463558
-596098138
817155478
509185747
-616720473
73420807
-601135179
-546479058
-277465232
-666783624
65341025
993698561
155217750
273101690
-720276207
-725187305
93455968
-519091202
279489351
-622433439
788901171
-217123667
-128386343
-56558508
512944077
337073619
-23198641
438852566
-979234545
-530999430
-286681853
-671174989
633467443
-676851208
-483426602
-56538554
570525435
645007105
833020010
437598715
-109079805
249416503
827413930
-429183249
33168641
985249765
924922623
659639735
-483774147
543671116
-935585892
105309088
-551221245
816282617
475670366
-309222515
-448386101
-132021545
-810813758
-77272852
-691855769
-633499376
-576025257
121322022
432756616
-29295979
79906197
-722192917
-879403019
15141538
-386263112
-1886215
601852832
-150874323
-7314548
152457296
-404319694
822442084
914029202
-942684532
644842554
294924523
666309137
-621336091
-614289194
669396884
910280608
307344276
-580359596
-31292078
-883942201
-587503906
318668292
514862278
-80909975
704344197
-526833268
-778581606
318050298
-389697441
513671600
-82034084
812466955
-370662059
488908506
-359712731
729101263
-809650523
486792007
272254662
407451398
-895821295
-123571057
576354180
-540000140
-259876760
861245768
-292044064
677006657
-87625755
455756
-943464567
849240665
824392411
771089296
584240522
-273768805
-757228511
311289902
-943611126
307159846
667359619
48096430
-170057065
645492741
-365027452
6036326
-581250710
-30988597
-377277381
922855010
-324888368
-897492171
698057480
376663173
187201854
999640717
578390728
-661410855
288637088
-689286059
549485520
-976053468
435925179
390436341
-861973267
189366393
691573119
-692837543
-54849774
631128497
979084001
502178664
990283588
259335963
178905214
236111238
-408757940
138712262
-137429564
-2488537
13783309
302479675
-527677716
726904518
-411250847
886334371
366247206
156659375
726148813
-651670910
-10385642
-989195371
363084909
-741421331
56611390
966795116
128453957
419000900
697917026
171247379
950462084
428705764
57033024
136341738
969922411
671626590
-213824990
-258905861
466414291
566226531
341558930
-975746670
-62803035
355500161
-162109240
217626733
-335052214
-625971234
599959813
705653655
603849637
661886432
978181487
293009793
971071777
-757528919
-696629998
72491500
555422278
-69184118
509046735
-832923035
-4361807
-179357575
889460472
-205030159
-525469962
451022182
-151106546
-485203317
-972625231
316074944
744981912
118528043
686961575
-856591797
-299687426
-176919700
-299113473
-474968507
-814841518
-335736554
157071424
218543252
-874156770
813101392
-84554139
-963174365
-328133025
-427071736
205239574
657265635
-61929080
421641219
-454657433
-418466778
309370183
-130193603
798508561
738123975
-352427135
880079693
558796653
736570522
