55159 26921
-999989496 -999962823 -999919576 -999895418 -999893588 -999892242 -999855963 -999852949 -999816512 -999810983 -999795227 -999777911 -999771059 -999719705 -999690269 -999646342 -999554866 -999515638 -999500009 -999404180 -999376029 -999251164 -999243277 -999139410 -999097138 -999091968 -999080173 -998994932 -998989839 -998957591 -998933376 -998858573 -998845708 -998833969 -998788969 -998769284 -998734035 -998714375 -998678228 -998632637 -998594512 -998568144 -998564418 -998564393 -998554925 -998508455 -998396087 -998352492 -998337341 -998332530 -998313785 -998312575 -998297292 -998295827 -998241355 -998221460 -998174608 -998059673 -998012238 -997951127 -997934982 -997858410 -997814678 -997809550 -997748467 -997728574 -997678452 -997634708 -997612215 -997556808 -997551201 -997465387 -997426573 -997418287 -997397429 -997382489 -997356107 -997350447 -997283039 -997270364 -997260785 -997218374 -997113701 -997097819 -997079674 -997008647 -996939057 -996921759 -996890791 -996862450 -996829669 -996799992 -996755780 -996750910 -996750679 -996640896 -996579620 -996502155 -996497602 -996488053 -996463766 -996414578 -996325637 -996323595 -996219137 -996195323 -996144249 -996119219 -996112402 -996074729 -996030166 -995986650 -995980718 -995979932 -995966204 -995947554 -995794857 -995762715 -995747568 -995734858 -995722774 -995720983 -995656387 -995634053 -995598547 -995532777 -995489656 -995481084 -995442910 -995433088 -995196757 -995087011 -995003227 -994997065 -994965063 -994949711 -994924956 -994908487 -994905359 -994903474 -994869839 -994866655 -994850922 -994775599 -994615992 -994595190 -994502725 -994479476 -994433160 -994414301 -994352527 -994332640 -994298480 -994293620 -994266046 -994235155 -994197856 -994023686 -993995685 -993967169 -993915121 -993895848 -993819945 -993739283 -993662048 -993619520 -993568090 -993479795 -993459715 -993447307 -993428751 -993412911 -993384995 -993384487 -993339127 -993256724 -993220793 -993119727 -993099541 -993088488 -993008833 -992995921 -992976584 -992916476 -992889979 -992869132 -992843680 -992741289 -992737030 -992716426 -992679404 -992579345 -992543709 -992529857 -992498932 -992497643 -992469676 -992372355 -992365038 -992348505 -992295588 -992284438 -992241338 -992205868 -992102610 -992076704 -992067886 -992044687 -991997873 -991985738 -991984832 -991899605 -991880321 -991819014 -991796426 -991758662 -991753820 -991733103 -991710270 -991683275 -991677714 -991469923 -991466072 -991433871 -991429093 -991245301 -991229363 -991180867 -991174605 -991159367 -991040513 -991035903 -991026472 -991013946 -991010288 -990958558 -990946412 -990913167 -990901165 -990824733 -990775997 -990743170 -990730451 -990704078 -990657254 -990633399 -990613499 -990586041 -990567117 -990504468 -990491329 -990483044 -990371048 -990339267 -990290766 -990210416 -990180968 -990175839 -990085094 -990081250 -990070888 -989928089 -989912791 -989912160 -989904154 -989860234 -989843450 -989818163 -989766583 -989700266 -989617791 -989533209 -989508759 -989506193 -989498240 -989470543 -989402181 -989394708 -989386002 -989279830 -989274688 -989240704 -989191422 -989176366 -989158776 -989105539 -989086521 -989076843 -989059689 -989016856 -988959873 -988828720 -988821629 -988804619 -988725736 -988702729 -988675016 -988661349 -988609297 -988439869 -988383636 -988377966 -988351837 -988339254 -988276056 -988245549 -988199627 -988182718 -988171417 -988165194 -988123773 -988119465 -988111331 -988091351 -988062591 -988034704 -987919785 -987919143 -987918193 -987899243 -987829333 -987789858 -987754594 -987716847 -987665354 -987662473 -987543775 -987540476 -987505843 -987485630 -987467397 -987451918 -987447021 -987405388 -987400325 -987389286 -987382562 -987361428 -987360133 -987335302 -987313149 -987297363 -987270890 -987253094 -987232742 -987188029 -987008517 -986937478 -986927071 -986698443 -986695221 -986695082 -986691964 -986684624 -986579223 -986574711 -986570313 -986554950 -986511268 -986504328 -986442053 -986369988 -986340803 -986321252 -986290420 -986289880 -986283546 -986259659 -986230802 -986223367 -986210151 -986186491 -986164524 -986148580 -986131449 -986076222 -986020093 -985999307 -985951768 -985948994 -985925544 -985921921 -985864039 -985843203 -985839564 -985817609 -985731443 -985691913 -985643594 -985640259 -985608219 -985483022 -985457827 -985414181 -985390686 -985380553 -985333861 -985243616 -985213098 -985199428 -985144154 -985114836 -985110703 -985005395 -984985794 -984947219 -984916275 -984738162 -984726950 -984663886 -984651358 -984570842 -984558735 -984544609 -984387997 -984375491 -984371068 -984273686 -984260803 -984227925 -984214187 -984200499 -984195173 -984127403 -984105886 -984073847 -984043231 -984006152 -983954686 -983808572 -983751770 -983714458 -983712790 -983711043 -983704892 -983695921 -983672679 -983663318 -983555241 -983373902 -983257899 -983255043 -983243604 -983240436 -983173792 -983158297 -983125308 -983059435 -983054390 -982996256 -982987243 -982966511 -982861101 -982858765 -982763261 -982743170 -982724902 -982621067 -982607231 -982602580 -982596613 -982494303 -982473897 -982469558 -982414231 -982412387 -982375881 -982317332 -982233236 -982228912 -982197493 -982176602 -982136062 -982134608 -982112898 -982057560 -982016502 -982012681 -982003292 -981912608 -981905610 -981864622 -981836234 -981828605 -981812348 -981779740 -981766436 -981718196 -981522539 -981512491 -981481496 -981461636 -981459323 -981456470 -981364718 -981295332 -981253202 -981232608 -981228041 -981195204 -981177912 -981151473 -981149965 -981136983 -981134299 -981063125 -981044881 -980936222 -980910357 -980885812 -980882907 -980872779 -980827518 -980760468 -980754103 -980748504 -980724906 -980691289 -980671155 -980564421 -980551213 -980535236 -980526105 -980462374 -980423856 -980412114 -980406220 -980314368 -980265179 -980242919 -980112973 -980008722 -979964138 -979960140 -979913525 -979888088 -979768694 -979736289 -979720063 -979642472 -979616233 -979608859 -979544622 -979500956 -979449506 -979435545 -979393976 -979366226 -979352549 -979294158 -979226575 -979213103 -979211161 -979091716 -979062718 -979028635 -978986456 -978952651 -978942755 -978864724 -978857383 -978808583 -978791176 -978789745 -978563798 -978561715 -978560481 -978553755 -978489383 -978441737 -978410996 -978393195 -978303218 -978227144 -978166134 -978164186 -978157883 -978098152 -978090939 -978087680 -978037878 -978009368 -977966498 -977959485 -977923808 -977902782 -977883828 -977873471 -977799097 -977765493 -977765342 -977728374 -977718595 -977705698 -977698866 -977658699 -977591167 -977548386 -977545824 -977506645 -977479407 -977459766 -977373949 -977280206 -977259060 -977152905 -977109958 -977104145 -977098637 -977066808 -977058537 -977047280 -977037561 -977034525 -977009174 -976981631 -976964393 -976892409 -976882211 -976878652 -976800089 -976778732 -976679702 -976669748 -976656473 -976641463 -976605499 -976520414 -976510245 -976502158 -976426899 -976345303 -976345292 -976343585 -976230035 -976227224 -976179792 -976177050 -976152937 -976124081 -976120658 -976109795 -976097082 -976012944 -975971186 -975950628 -975940638 -975899244 -975892422 -975798764 -975772024 -975766026 -975753891 -975729661 -975693694 -975642582 -975614080 -975560241 -975525063 -975431488 -975378742 -975295583 -975227352 -975226551 -975216092 -975182376 -975041584 -975029532 -974912356 -974846453 -974742906 -974706840 -974647496 -974633752 -974602401 -974553716 -974512494 -974416513 -974366958 -974323794 -974318237 -974269637 -974255200 -974249214 -974198853 -974141259 -974139371 -974112662 -974108468 -974085587 -973887237 -973871248 -973758372 -973753756 -973746020 -973716143 -973706123 -973657170 -973596667 -973585483 -973535288 -973495197 -973448789 -973434412 -973357308 -973322531 -973319419 -973316267 -973302598 -973252236 -973218236 -973185670 -973148030 -973060229 -973051127 -972952838 -972847957 -972807551 -972770133 -972691772 -972667703 -972644218 -972638285 -972577416 -972545446 -972502086 -972445179 -972397788 -972338307 -972337294 -972305832 -972258644 -972146615 -971990171 -971927904 -971828288 -971773058 -971762675 -971619409 -971613826 -971601530 -971588369 -971560617 -971516255 -971495027 -971484889 -971387421 -971300039 -971219230 -971216775 -971209833 -971205911 -971197794 -971193993 -971149745 -971109244 -971064177 -971055708 -971043444 -970928181 -970915736 -970906083 -970900822 -970898809 -970856056 -970827922 -970818956 -970788815 -970783786 -970735300 -970715584 -970702668 -970683998 -970600531 -970574497 -970557612 -970440070 -970421833 -970378067 -970364746 -970278525 -970274929 -970224866 -970214577 -970167264 -970106689 -970065972 -970054231 -970022005 -969954655 -969883935 -969843110 -969841601 -969821100 -969810654 -969810054 -969809236 -969768376 -969758839 -969698873 -969663673 -969610278 -969609930 -969569158 -969540763 -969524983 -969472978 -969428817 -969422132 -969411102 -969380977 -969370549 -969349343 -969339021 -969329698 -969320358 -969289329 -969225450 -969007658 -968998030 -968925308 -968874754 -968724475 -968699851 -968579105 -968554722 -968553531 -968550387 -968541574 -968498111 -968476236 -968399966 -968261542 -968260366 -968238306 -968214583 -968191677 -968117094 -968093233 -968051457 -968035920 -967999631 -967996075 -967993217 -967959035 -967887144 -967875573 -967861486 -967796000 -967758734 -967756545 -967596579 -967524990 -967341140 -967198368 -967173723 -967161889 -967119234 -967006062 -966979844 -966886828 -966859303 -966834443 -966768711 -966631155 -966613002 -966609678 -966600937 -966582371 -966561785 -966502940 -966444768 -966397814 -966378901 -966255198 -966234183 -966234021 -966199921 -966168058 -966122379 -966096120 -966081840 -966070060 -966047066 -966003655 -965984433 -965967446 -965932157 -965852319 -965823663 -965772051 -965661525 -965657840 -965625390 -965605126 -965549277 -965484665 -965410973 -965396930 -965394415 -965354658 -965351753 -965346977 -965329322 -965316276 -965276774 -965275293 -965217754 -965159396 -965124888 -965082362 -965077474 -965039650 -965021801 -964839012 -964731326 -964678884 -964620741 -964582921 -964347800 -964325631 -964223246 -964149224 -964109771 -964040194 -964015853 -963999344 -963983605 -963910490 -963844217 -963833007 -963821023 -963812380 -963796202 -963748043 -963615950 -963570848 -963501075 -963497493 -963490243 -963478059 -963417503 -963310018 -963188152 -963165888 -963102184 -963085120 -962995579 -962973111 -962879866 -962872231 -962869452 -962832123 -962812772 -962763654 -962741660 -962715254 -962680110 -962661800 -962645759 -962620101 -962575945 -962573438 -962509712 -962465526 -962252567 -962198116 -962185947 -962180148 -962157307 -962155620 -962094833 -962088485 -962050678 -962041282 -962020759 -961947042 -961862996 -961836915 -961818119 -961747310 -961696512 -961690224 -961681158 -961651523 -961588423 -961579227 -961566286 -961543013 -961478375 -961457091 -961454963 -961423414 -961340795 -961332644 -961325109 -961293223 -961285707 -961228714 -961220939 -961203339 -961169566 -961108474 -961078203 -961072975 -961047370 -960892904 -960866503 -960827738 -960824917 -960822497 -960784110 -960734445 -960703185 -960632222 -960503580 -960484258 -960374942 -960311786 -960198524 -960170950 -960146454 -960140198 -960127689 -960093608 -960074192 -960048206 -960045674 -959956381 -959930060 -959915562 -959894462 -959808152 -959761809 -959745786 -959732399 -959732176 -959730498 -959690336 -959599656 -959516927 -959502588 -959477164 -959474367 -959454946 -959390332 -959326856 -959301909 -959239383 -959152048 -959091204 -959074411 -959060148 -959043008 -959006976 -958888176 -958859554 -958850311 -958813543 -958801447 -958785364 -958715183 -958638751 -958617447 -958597663 -958574178 -958529259 -958521901 -958492123 -958454861 -958439218 -958425688 -958366375 -958330946 -958320088 -958291703 -958258710 -958173853 -958102267 -958093756 -958010471 -958005530 -957996607 -957981399 -957924543 -957917137 -957893301 -957842796 -957841558 -957787603 -957754620 -957695166 -957677341 -957674725 -957635831 -957539416 -957537074 -957434169 -957380086 -957368190 -957350450 -957325527 -957314736 -957312068 -957303728 -957283427 -957241989 -957233450 -957177535 -957116394 -957102900 -957083758 -956987013 -956977334 -956945344 -956904107 -956840014 -956837816 -956763574 -956703975 -956677809 -956618923 -956585039 -956561789 -956418668 -956418235 -956365452 -956336447 -956310527 -956274418 -956180900 -956134716 -956038243 -956025245 -955971968 -955948763 -955933140 -955785386 -955780073 -955767136 -955722057 -955668057 -955662450 -955617241 -955521735 -955502039 -955400958 -955397769 -955325056 -955313708 -955308336 -955236916 -955218895 -955170290 -955162098 -955121769 -955097848 -955083187 -955079044 -955053025 -954973302 -954971958 -954934970 -954882661 -954877354 -954855073 -954747997 -954704309 -954622031 -954564630 -954524811 -954496729 -954494479 -954493595 -954459499 -954425467 -954420865 -954395701 -954379865 -954369530 -954278730 -954270830 -954248972 -954221338 -954153452 -954143659 -954007581 -953911834 -953897585 -953879595 -953878516 -953807092 -953793542 -953786133 -953758256 -953662284 -953639209 -953599560 -953590941 -953536369 -953465981 -953444948 -953436391 -953419676 -953418671 -953329521 -953274164 -953268778 -953193255 -953173322 -953041167 -953006180 -952987567 -952960571 -952884651 -952842260 -952705244 -952663594 -952587029 -952552648 -952548272 -952537163 -952534821 -952479493 -952437864 -952345418 -952328098 -952280016 -952227687 -952220430 -952220330 -952104986 -952086634 -952038924 -952012348 -951900135 -951892788 -951867746 -951851139 -951777935 -951773188 -951766767 -951763649 -951747588 -951725714 -951716294 -951697635 -951677620 -951611720 -951599489 -951512612 -951453782 -951420994 -951353425 -951317846 -951299713 -951250825 -951174027 -951154275 -951126573 -951106018 -951089249 -951079469 -951073376 -950999707 -950992386 -950951107 -950941713 -950920771 -950868713 -950789627 -950777760 -950751101 -950746963 -950717541 -950659403 -950657348 -950627001 -950601420 -950525297 -950427151 -950405593 -950385195 -950362824 -950347020 -950317333 -950315200 -950307270 -950299663 -950290674 -950261097 -950242559 -950184515 -950149543 -950130636 -950128067 -950124674 -950112346 -950105255 -950094456 -950060788 -950047528 -950039665 -950025274 -949980825 -949949328 -949932175 -949900442 -949877945 -949860026 -949836502 -949834277 -949832995 -949815754 -949788641 -949776609 -949767557 -949606018 -949590963 -949550852 -949504005 -949389857 -949368942 -949362612 -949317243 -949298458 -949285055 -949264050 -949237885 -949230646 -949219600 -949126062 -949119869 -949064264 -948985484 -948970614 -948969363 -948912984 -948910485 -948905807 -948892971 -948872418 -948857701 -948851327 -948825819 -948807668 -948767752 -948729715 -948719893 -948719321 -948718907 -948690869 -948684240 -948644780 -948569247 -948557981 -948474478 -948461635 -948423839 -948356849 -948347172 -948279516 -948274072 -948271947 -948227214 -948172144 -948094434 -948057389 -948044028 -948026818 -947997198 -947946609 -947929522 -947919807 -947909320 -947904226 -947832514 -947768993 -947729156 -947699765 -947674735 -947589757 -947585613 -947573433 -947554674 -947538459 -947520330 -947505121 -947490795 -947459444 -947346747 -947304964 -947284230 -947283815 -947282225 -947234912 -947213538 -947187626 -947167039 -947156162 -947152422 -947129740 -947024763 -947002428 -946981974 -946973383 -946957080 -946878924 -946864331 -946757363 -946729233 -946714973 -946672726 -946610426 -946601677 -946597515 -946561226 -946558592 -946551615 -946522310 -946513762 -946488512 -946488077 -946478341 -946412439 -946379860 -946284445 -946209912 -946192120 -946136951 -946134169 -946101275 -946049877 -946036944 -945980400 -945966410 -945877587 -945837573 -945820803 -945787516 -945725455 -945602027 -945519389 -945469766 -945463484 -945363733 -945329611 -945282063 -945268033 -945128008 -945100412 -945092065 -945080630 -945001535 -944953796 -944927645 -944879801 -944865587 -944811961 -944789441 -944781971 -944774517 -944748099 -944693039 -944676865 -944568626 -944548346 -944542313 -944534019 -944507707 -944457804 -944367031 -944353145 -944349779 -944307076 -944295298 -944293396 -944279366 -944262021 -944248640 -944175467 -944154021 -944017074 -943940105 -943897164 -943865481 -943854561 -943837264 -943763685 -943750537 -943747096 -943707740 -943706092 -943700900 -943536924 -943510987 -943419114 -943410450 -943364138 -943340545 -943319553 -943229606 -943213127 -943155613 -943141702 -943135757 -943116441 -943100696 -943097336 -943061003 -943042443 -943009176 -942952400 -942943992 -942940774 -942865202 -942860761 -942845327 -942825702 -942778789 -942598484 -942575799 -942572940 -942571197 -942567037 -942551433 -942546742 -942507276 -942437882 -942351912 -942346997 -942303353 -942281857 -942266164 -942258281 -942244999 -942242035 -942234773 -942219220 -942189710 -941969312 -941924213 -941921268 -941863764 -941839728 -941839094 -941834769 -941811498 -941766867 -941740037 -941736165 -941699030 -941691646 -941585406 -941565557 -941487183 -941485463 -941473561 -941466168 -941440769 -941435200 -941369992 -941359226 -941339034 -941266806 -941257157 -941231428 -941204006 -941175980 -941159310 -941144819 -941128089 -941119223 -941067439 -941067159 -941064422 -940876284 -940857451 -940826005 -940794104 -940670167 -940666911 -940630727 -940596133 -940581978 -940577055 -940566287 -940398515 -940380139 -940378498 -940320468 -940290963 -940255049 -940210861 -940176034 -940151659 -940051895 -940022171 -939934256 -939904255 -939900837 -939894634 -939831697 -939797713 -939762413 -939677629 -939612643 -939512968 -939425676 -939391749 -939381722 -939375723 -939346653 -939299267 -939295923 -939262931 -939157986 -939106293 -939044058 -939006132 -939004871 -938967059 -938963301 -938923310 -938909383 -938830789 -938724776 -938700746 -938685359 -938461183 -938459036 -938445730 -938393244 -938378708 -938370729 -938362983 -938351154 -938351071 -938345962 -938324670 -938223280 -938216979 -938077539 -937955417 -937947103 -937914792 -937886662 -937826946 -937815925 -937758152 -937729142 -937698150 -937686725 -937626328 -937625382 -937540372 -937530490 -937519589 -937491980 -937474675 -937467773 -937453118 -937337096 -937265802 -937244231 -937220580 -937214334 -937165588 -937096768 -937083585 -937048992 -937009018 -937001312 -936958807 -936953045 -936952973 -936889062 -936866734 -936841080 -936770508 -936695945 -936675469 -936671293 -936536696 -936516637 -936493767 -936468098 -936455863 -936446837 -936386332 -936380277 -936328476 -936244365 -936236423 -936210347 -936184440 -936181725 -936168828 -936138262 -936021281 -936012097 -935984162 -935941573 -935923728 -935921978 -935848645 -935797185 -935791574 -935758599 -935485616 -935437809 -935420393 -935346447 -935306606 -935285376 -935280463 -935278366 -935233761 -935172556 -935155163 -935141834 -935112928 -935102917 -935023902 -935012294 -934995785 -934975093 -934903953 -934895912 -934867408 -934866312 -934825139 -934767194 -934763096 -934760421 -934723974 -934687455 -934564040 -934538497 -934496282 -934492037 -934489558 -934446980 -934438821 -934438393 -934346339 -934265685 -934220463 -934160379 -934089645 -934028799 -934025373 -934014453 -933952156 -933929920 -933861815 -933850082 -933817020 -933815039 -933719189 -933551528 -933541188 -933477461 -933471480 -933458437 -933453373 -933424904 -933400625 -933328635 -933294984 -933289728 -933258364 -933237275 -933203811 -933097334 -933083614 -933069149 -933057055 -933056983 -933005924 -932835817 -932830137 -932799140 -932790718 -932754712 -932740722 -932730725 -932719701 -932682218 -932645484 -932643834 -932579747 -932578745 -932444299 -932440289 -932423018 -932374967 -932325400 -932308414 -932290965 -932269268 -932269264 -932262366 -932242082 -932237671 -932230045 -932210229 -932184844 -932158379 -932098792 -932077236 -932050243 -931970043 -931965465 -931941907 -931929111 -931887721 -931877972 -931873927 -931857184 -931839020 -931803240 -931758781 -931746223 -931736543 -931721548 -931706587 -931705084 -931690906 -931680106 -931674671 -931661829 -931658424 -931584780 -931575571 -931448945 -931424647 -931389524 -931338643 -931332477 -931271774 -931264592 -931164970 -931159935 -931156031 -931113282 -931085427 -931084000 -931030291 -931024329 -931001454 -930943181 -930874047 -930866234 -930860060 -930849124 -930821303 -930818715 -930759453 -930759170 -930751821 -930626415 -930616458 -930594139 -930535116 -930507810 -930494395 -930487040 -930416908 -930375405 -930324292 -930305708 -930244633 -930228938 -930217486 -930191776 -930189643 -930184832 -930114260 -930067941 -930059900 -930057486 -930039874 -929982091 -929948993 -929933984 -929925047 -929878718 -929868754 -929847340 -929777999 -929731533 -929709436 -929693424 -929658115 -929638882 -929575207 -929570200 -929550879 -929549866 -929534204 -929472810 -929469414 -929441877 -929406357 -929324828 -929308306 -929267133 -929255627 -929245955 -929216076 -929194089 -929188282 -929150305 -929135101 -929101167 -929068383 -929064933 -929050132 -929030337 -929019688 -928910030 -928904205 -928806923 -928789003 -928756439 -928753850 -928750749 -928702900 -928683876 -928549419 -928521760 -928497908 -928483364 -928466060 -928408432 -928356194 -928341120 -928331577 -928325386 -928324695 -928293819 -928267441 -928241071 -928118481 -928116045 -928080281 -928071596 -928049223 -928045183 -927942679 -927852718 -927797502 -927779248 -927754252 -927726736 -927695797 -927681057 -927668297 -927607082 -927555804 -927488849 -927455237 -927324517 -927315813 -927277725 -927232047 -927141820 -927108211 -927105295 -927069917 -927045799 -926998989 -926957919 -926887472 -926859954 -926799755 -926797420 -926736782 -926676184 -926645266 -926607040 -926595682 -926594841 -926590754 -926550219 -926508786 -926453434 -926417148 -926378625 -926374381 -926370993 -926328195 -926324749 -926313956 -926308223 -926258109 -926214101 -926213267 -926193122 -926192568 -926156383 -926125705 -926118769 -926036273 -926018636 -925928890 -925897562 -925868383 -925844960 -925841433 -925744468 -925734345 -925729986 -925719435 -925710590 -925695587 -925694146 -925673679 -925668514 -925637015 -925616267 -925615034 -925382144 -925324377 -925311327 -925283744 -925232967 -925201637 -925177186 -925176723 -925106151 -925095381 -925064711 -925057267 -925015816 -924988455 -924974518 -924835315 -924803031 -924795649 -924792818 -924773159 -924759041 -924741549 -924735951 -924642427 -924630641 -924599020 -924584555 -924577743 -924441487 -924418056 -924406933 -924217274 -924212216 -924193119 -924185121 -924131029 -924090573 -924087733 -924056828 -923905481 -923882176 -923865063 -923851137 -923847481 -923787726 -923756237 -923674341 -923608546 -923570549 -923530605 -923485265 -923470117 -923427839 -923398798 -923383144 -923371613 -923342295 -923250351 -923235438 -923211091 -923187473 -923141178 -923053141 -923046066 -923045515 -922994785 -922976881 -922969493 -922903404 -922879386 -922878634 -922827253 -922818944 -922739005 -922738112 -922728730 -922645535 -922631165 -922490185 -922488832 -922459654 -922457273 -922452733 -922387150 -922353046 -922308378 -922258492 -922221441 -922218329 -922208771 -922175719 -922077510 -922046122 -922023072 -921949606 -921948064 -921930196 -921868287 -921830976 -921761962 -921749632 -921718731 -921700668 -921695077 -921667849 -921650497 -921625748 -921550538 -921536280 -921519395 -921460489 -921401472 -921393324 -921358777 -921302382 -921284107 -921276047 -921263495 -921130469 -921096372 -921084826 -921046247 -921037869 -920959552 -920949970 -920909307 -920869434 -920814247 -920813289 -920804142 -920712562 -920680275 -920638399 -920626985 -920617958 -920533429 -920516370 -920508493 -920486196 -920483483 -920455756 -920309019 -920279870 -920214421 -920026173 -920004762 -919988238 -919971749 -919956370 -919940280 -919904720 -919843504 -919767680 -919754133 -919749144 -919630891 -919494264 -919488441 -919488044 -919483229 -919433699 -919428772 -919427708 -919425331 -919373815 -919308437 -919222324 -919206481 -919162811 -919141534 -919105724 -919102573 -919069497 -919021552 -918960563 -918907305 -918889673 -918871549 -918816091 -918793196 -918725802 -918724437 -918713034 -918646346 -918636432 -918596812 -918590540 -918478331 -918453355 -918433613 -918430031 -918421614 -918400195 -918377949 -918157125 -918123081 -918059007 -918010579 -917954900 -917952472 -917933630 -917883782 -917803758 -917789785 -917758751 -917751846 -917750826 -917706614 -917646882 -917587107 -917576322 -917508494 -917487876 -917451127 -917438897 -917436908 -917369605 -917350660 -917329087 -917258809 -917223848 -917185668 -917149818 -917130384 -917091415 -917028736 -916997011 -916937942 -916917687 -916914994 -916849058 -916844016 -916681524 -916671531 -916655259 -916651914 -916643455 -916606309 -916604071 -916589817 -916576869 -916576556 -916560740 -916530063 -916529348 -916505594 -916488819 -916459596 -916448939 -916438494 -916418219 -916398794 -916254878 -916251590 -916183719 -916174181 -916172105 -916159583 -916102824 -916068288 -916057114 -916008465 -915974098 -915954532 -915940962 -915908005 -915868360 -915852610 -915816524 -915804329 -915795871 -915763324 -915751533 -915700291 -915691480 -915687564 -915669435 -915649475 -915641802 -915638330 -915634977 -915527244 -915510737 -915473261 -915467393 -915446950 -915400975 -915361826 -915329984 -915326397 -915191787 -915132287 -915075399 -915052318 -915046415 -914999852 -914984590 -914972949 -914916518 -914807673 -914735460 -914728562 -914674813 -914630294 -914548824 -914532461 -914465798 -914446982 -914426663 -914361381 -914314701 -914255581 -914234053 -914233021 -914196738 -914189957 -914169790 -914101865 -914078642 -913954930 -913859359 -913811146 -913789251 -913773349 -913669048 -913644306 -913631409 -913520383 -913512660 -913477022 -913449495 -913444548 -913344357 -913310934 -913246501 -913173538 -913065547 -913040076 -912994705 -912986420 -912943076 -912933309 -912872886 -912791768 -912769022 -912724419 -912719577 -912627898 -912612358 -912597829 -912557731 -912489156 -912441709 -912389482 -912372117 -912348229 -912281112 -912276073 -912248629 -912199068 -912180065 -912172852 -912156503 -912145895 -912131742 -912103565 -912081076 -912070485 -912053679 -912012386 -911832472 -911788994 -911762233 -911723473 -911719878 -911690728 -911658998 -911642107 -911618495 -911586020 -911542318 -911534529 -911480475 -911458470 -911441516 -911411324 -911396160 -911379876 -911364588 -911340448 -911320792 -911261733 -911179130 -911175775 -911136076 -911103016 -911101171 -911061555 -910918585 -910892769 -910838072 -910810127 -910807035 -910780478 -910768232 -910730661 -910720724 -910645113 -910630014 -910590343 -910588622 -910552034 -910531318 -910520282 -910497277 -910478265 -910470816 -910464096 -910457329 -910456799 -910413951 -910235789 -910150673 -910136385 -910131199 -910110916 -910097344 -910095772 -910039040 -910022291 -910020034 -909994246 -909922463 -909861252 -909791029 -909625522 -909553818 -909517956 -909458264 -909439000 -909395702 -909374183 -909357113 -909342284 -909331782 -909258134 -909208838 -909172020 -909164311 -909159356 -909116160 -909096243 -909076568 -909065115 -909056892 -909007504 -908906326 -908899747 -908891520 -908861847 -908816305 -908804460 -908698990 -908668960 -908655711 -908610229 -908601867 -908598385 -908590234 -908555549 -908526053 -908509708 -908444687 -908418838 -908396162 -908356168 -908349573 -908306352 -908239612 -908209549 -908171077 -908151738 -908149767 -908123237 -908074803 -908074673 -908064321 -908020432 -908011965 -907979741 -907939864 -907891516 -907881812 -907816250 -907799461 -907684754 -907610008 -907504223 -907498411 -907491688 -907474229 -907449097 -907419291 -907418259 -907410233 -907388206 -907364580 -907317887 -907286896 -907117370 -907087123 -907047490 -907036102 -907035696 -907029622 -906991499 -906980361 -906973922 -906929999 -906912457 -906901778 -906825370 -906821968 -906811632 -906791529 -906753541 -906717953 -906706737 -906696972 -906677306 -906664875 -906641944 -906634304 -906610958 -906600879 -906594919 -906583461 -906517872 -906516623 -906491223 -906458271 -906421299 -906402634 -906299339 -906236976 -906161117 -906135582 -906126937 -906028096 -906012542 -906004964 -905998559 -905991309 -905989224 -905984843 -905952115 -905944998 -905670487 -905665294 -905649024 -905627224 -905617979 -905541498 -905404683 -905394093 -905380875 -905379212 -905365956 -905333783 -905186768 -905152835 -905119220 -905110215 -905109301 -905085111 -905077382 -905037089 -905009358 -904926350 -904918126 -904913423 -904882991 -904870650 -904830607 -904815393 -904775792 -904734671 -904730608 -904730294 -904719544 -904699378 -904670719 -904576031 -904546043 -904536182 -904530531 -904520963 -904484277 -904483459 -904452095 -904406195 -904394673 -904360600 -904357380 -904327073 -904286604 -904236634 -904208635 -904170424 -904161299 -904154625 -904150504 -904125365 -904087176 -904056628 -904018355 -904014030 -903900708 -903897691 -903885353 -903883919 -903784550 -903721640 -903716099 -903681331 -903583957 -903439183 -903291948 -903262045 -903235393 -903194110 -903192652 -903156758 -903064839 -903054796 -903041088 -903033875 -902913713 -902908020 -902861612 -902792613 -902735415 -902659549 -902632432 -902622644 -902536794 -902535428 -902486221 -902448650 -902429923 -902420099 -902402378 -902357989 -902177619 -902094182 -902079566 -902010228 -901998502 -901934866 -901923334 -901922174 -901891495 -901849645 -901779833 -901774167 -901760742 -901669283 -901655713 -901644392 -901602333 -901542683 -901496723 -901472115 -901390641 -901381417 -901304253 -901187058 -901172005 -901153944 -901111143 -901035688 -900915271 -900880769 -900833134 -900801763 -900775816 -900740421 -900687634 -900560966 -900522086 -900509297 -900474606 -900376456 -900181198 -900166506 -900144547 -900011276 -899995670 -899963415 -899944221 -899900148 -899887992 -899884194 -899878205 -899855917 -899810499 -899791389 -899752000 -899730955 -899699817 -899666323 -899647357 -899569539 -899558674 -899491942 -899443982 -899439463 -899348116 -899329711 -899314413 -899208706 -899148026 -899085298 -899068167 -898993016 -898986374 -898967321 -898957295 -898878315 -898872635 -898841695 -898753305 -898749503 -898743626 -898726792 -898705807 -898632868 -898604469 -898529916 -898443099 -898415591 -898277314 -898273827 -898246408 -898226747 -898214845 -898166290 -898148821 -898140003 -898113748 -898095339 -898067629 -898063506 -898057108 -898047447 -898047315 -898004798 -897806628 -897749920 -897720577 -897707114 -897624493 -897605030 -897572071 -897555210 -897555120 -897503983 -897498924 -897427752 -897393847 -897349520 -897333235 -897301633 -897274757 -897130794 -897130514 -897118422 -897014481 -896931168 -896846810 -896800898 -896797110 -896791125 -896749853 -896714262 -896708853 -896599999 -896545635 -896526510 -896515334 -896474669 -896464294 -896428721 -896417623 -896351343 -896328086 -896296357 -896267744 -896192121 -896158364 -896139626 -895957010 -895945519 -895920815 -895851486 -895797623 -895788520 -895737116 -895695932 -895666402 -895666241 -895644790 -895621853 -895552746 -895407640 -895373635 -895335037 -895279216 -895256721 -895255349 -895228309 -895217592 -895197148 -895193103 -895158882 -895031179 -895006810 -894963822 -894865234 -894852975 -894814083 -894813575 -894774801 -894763646 -894723223 -894659326 -894598403 -894559652 -894499532 -894422075 -894366073 -894271859 -894263938 -894261336 -894181221 -894168151 -894159457 -894143212 -894105492 -894062194 -893979580 -893933633 -893899522 -893883908 -893848277 -893822168 -893809676 -893771244 -893707567 -893694061 -893673674 -893615578 -893557319 -893553594 -893550417 -893545698 -893516863 -893410146 -893402439 -893361972 -893318676 -893308987 -893303132 -893300268 -893249980 -893182460 -893170753 -893142697 -893129177 -893115967 -893111852 -893078930 -893074913 -893030032 -892933623 -892919760 -892842567 -892775699 -892716469 -892680040 -892674158 -892651003 -892644185 -892547120 -892508124 -892506206 -892445053 -892441044 -892437531 -892422416 -892298666 -892223509 -892187679 -892121295 -892120875 -892082593 -892063408 -892040177 -892012302 -891969491 -891955688 -891952076 -891830569 -891826266 -891790836 -891771855 -891619989 -891607158 -891587702 -891501552 -891489640 -891400793 -891394803 -891301164 -891293233 -891289646 -891289040 -891288204 -891277060 -891268281 -891254681 -891196239 -891160242 -891134344 -891091208 -891025930 -891006140 -890971651 -890919406 -890904000 -890890922 -890688537 -890661677 -890630747 -890596198 -890573589 -890556954 -890467258 -890465808 -890400420 -890366972 -890364996 -890280970 -890255106 -890239525 -890199799 -890180752 -890174600 -890133257 -890129606 -890125375 -890121359 -890092939 -889999744 -889853757 -889853635 -889779155 -889766905 -889711849 -889662516 -889625933 -889619464 -889611833 -889593355 -889576403 -889542321 -889511103 -889455348 -889432627 -889428666 -889323284 -889293700 -889183543 -889157491 -889141018 -889048645 -889012656 -888985083 -888980537 -888894186 -888840657 -888818062 -888775436 -888751797 -888728998 -888723917 -888717322 -888701004 -888609444 -888569258 -888562308 -888547272 -888516308 -888488746 -888369859 -888365708 -888354986 -888344436 -888332477 -888233286 -888227718 -888221733 -888125881 -888121921 -888079671 -888070982 -887963609 -887901452 -887833172 -887800448 -887798462 -887793778 -887752600 -887749093 -887647626 -887516335 -887487156 -887475388 -887386495 -887359841 -887356617 -887316763 -887265256 -887259825 -887223992 -887219113 -887190529 -887168585 -887129500 -887108825 -887086019 -887014526 -887004720 -886972244 -886948465 -886902150 -886829628 -886741423 -886727233 -886680220 -886649016 -886614290 -886602318 -886567547 -886562329 -886515189 -886512803 -886497730 -886466509 -886402168 -886401689 -886273645 -886246436 -886213146 -886196403 -886178969 -886138359 -886096687 -886053263 -885998051 -885995215 -885892338 -885849135 -885773932 -885740065 -885737569 -885733002 -885713067 -885686799 -885554081 -885500776 -885403611 -885397854 -885377247 -885372731 -885293591 -885265675 -885210737 -885144721 -885022368 -884959177 -884926435 -884903161 -884898640 -884898148 -884885694 -884863259 -884798994 -884767042 -884755504 -884749107 -884701673 -884692950 -884580230 -884562047 -884475012 -884472845 -884453549 -884421237 -884403725 -884340529 -884284398 -884259497 -884257899 -884215964 -884198585 -884182075 -884138047 -884076084 -884070851 -884006509 -883989626 -883942425 -883897988 -883844047 -883832103 -883803486 -883798448 -883796750 -883791809 -883778758 -883690466 -883683650 -883679564 -883659773 -883636120 -883506425 -883465140 -883387523 -883332765 -883181653 -883162978 -883136755 -883135356 -883094035 -883070223 -883066019 -883042246 -882993746 -882921420 -882916979 -882777087 -882769688 -882666232 -882665379 -882586277 -882519010 -882481305 -882421876 -882410619 -882301439 -882283257 -882159337 -882143533 -882126189 -882025982 -881973481 -881913766 -881894668 -881840151 -881834939 -881834863 -881809403 -881793951 -881758754 -881717963 -881705146 -881692972 -881668037 -881651373 -881587298 -881558032 -881396460 -881383586 -881325335 -881306581 -881294794 -881227992 -881179376 -881119272 -881079443 -881031104 -881025976 -881025315 -880891379 -880806440 -880795751 -880792778 -880792632 -880767644 -880684852 -880640307 -880544476 -880444720 -880397041 -880306432 -880280669 -880234929 -880140570 -880138262 -880126240 -880122917 -880076934 -880073907 -880054485 -880050574 -880029867 -880027864 -880005179 -880003358 -879985019 -879963282 -879950309 -879928257 -879817029 -879791122 -879751693 -879666932 -879614392 -879555462 -879555416 -879539566 -879502286 -879393373 -879349042 -879328681 -879327551 -879275878 -879253422 -879175816 -879164374 -879108801 -879079440 -878966590 -878955245 -878930656 -878930474 -878900318 -878861403 -878775672 -878773271 -878745139 -878737618 -878710806 -878656854 -878618214 -878348402 -878291643 -878285027 -878241725 -878227291 -878225400 -878201240 -878187099 -878141595 -878138306 -878047879 -878040261 -878030297 -878024160 -878015624 -877939486 -877800189 -877792352 -877790893 -877789026 -877783538 -877746458 -877736949 -877622080 -877471623 -877441451 -877428536 -877420216 -877390624 -877265733 -877211688 -877203809 -877185688 -877169104 -877113432 -877090518 -876992737 -876949448 -876834488 -876821548 -876813930 -876759692 -876713869 -876685718 -876673400 -876636776 -876541169 -876527050 -876508403 -876474841 -876472027 -876438413 -876390963 -876388551 -876358049 -876300819 -876232616 -876039159 -876034247 -876017568 -875736053 -875735590 -875730146 -875714991 -875709160 -875693065 -875590233 -875485074 -875454336 -875445385 -875349466 -875347953 -875330664 -875328324 -875313899 -875312406 -875237810 -874966164 -874939973 -874888345 -874883305 -874878978 -874850673 -874751112 -874737049 -874669629 -874661619 -874560743 -874556640 -874516727 -874428995 -874419284 -874377148 -874364958 -874327925 -874317094 -874224470 -874219216 -874214553 -874172553 -874130891 -874092556 -874088930 -874061996 -874031811 -874019530 -874015900 -873922858 -873903674 -873897455 -873777447 -873770351 -873767111 -873731140 -873731124 -873701693 -873698563 -873678099 -873678028 -873651633 -873608188 -873579493 -873531177 -873492944 -873459472 -873364940 -873297967 -873243500 -873224875 -873093828 -873023757 -873021347 -872886247 -872772543 -872765810 -872672025 -872477939 -872470748 -872426869 -872379909 -872369474 -872264137 -872207487 -872195461 -872188027 -872147433 -871935119 -871865701 -871835289 -871803813 -871789560 -871776514 -871695733 -871621099 -871605980 -871599524 -871503314 -871492648 -871492289 -871489732 -871479579 -871397644 -871299819 -871262919 -871253846 -871182720 -871149466 -871124867 -871031653 -871006353 -871003970 -870924009 -870900591 -870851088 -870760292 -870700770 -870673697 -870613572 -870612725 -870591608 -870527643 -870469998 -870440664 -870389654 -870379374 -870245811 -870223920 -870120992 -870087586 -870076565 -870071576 -870054975 -870035872 -870033822 -870011649 -869962125 -869956352 -869937435 -869901693 -869876992 -869856770 -869836944 -869790947 -869772799 -869757482 -869682996 -869629429 -869583532 -869561838 -869558856 -869552356 -869487219 -869452906 -869435198 -869354597 -869303122 -869302664 -869231044 -869172251 -869128030 -869082220 -869025345 -868981689 -868980340 -868952058 -868837649 -868726380 -868712533 -868696010 -868679416 -868650655 -868623238 -868584254 -868427438 -868307332 -868274459 -868247513 -868180608 -868166874 -868114935 -868044352 -868008520 -868004965 -867982955 -867859299 -867848381 -867656338 -867571281 -867536223 -867528538 -867508621 -867495036 -867476509 -867449882 -867404714 -867397533 -867390367 -867345051 -867339297 -867334651 -867331998 -867328660 -867256493 -867245859 -867237087 -867212658 -867189575 -867160341 -867142429 -867136898 -867038297 -867012510 -867010250 -866915921 -866907002 -866886792 -866866679 -866813831 -866768181 -866749132 -866713683 -866699185 -866694528 -866690972 -866628427 -866620536 -866605328 -866554179 -866523652 -866457135 -866437408 -866223073 -866191758 -866080135 -866072735 -866057060 -865992522 -865972102 -865863765 -865858848 -865832847 -865692777 -865666424 -865653949 -865646881 -865639105 -865590494 -865582853 -865516059 -865504278 -865464994 -865460701 -865449215 -865421150 -865414271 -865381988 -865379673 -865325246 -865250485 -865224283 -865213534 -865203710 -865203126 -865198042 -865047090 -865030811 -864960549 -864908391 -864861069 -864826908 -864799351 -864770406 -864724409 -864702285 -864691561 -864636908 -864570611 -864537808 -864508030 -864410062 -864387331 -864318568 -864296222 -864265997 -864242238 -864217925 -864212609 -864204759 -864198970 -864134089 -864075914 -864037202 -863933855 -863911840 -863738356 -863715021 -863709185 -863702034 -863653785 -863647994 -863647786 -863643247 -863570989 -863552695 -863419928 -863400111 -863364682 -863348594 -863334232 -863315093 -863274165 -863247791 -863238063 -863071972 -863031159 -863007654 -862960764 -862913513 -862888730 -862863496 -862777023 -862769415 -862762861 -862760001 -862703832 -862659032 -862649605 -862483548 -862453725 -862349521 -862342560 -862331033 -862327789 -862300382 -862278678 -862254314 -862236332 -862142969 -862104249 -862101628 -862069060 -861941112 -861925373 -861904335 -861891780 -861862106 -861842371 -861835313 -861799860 -861782110 -861759012 -861739741 -861715711 -861709645 -861705461 -861692885 -861675581 -861665203 -861656022 -861640980 -861570580 -861550964 -861515103 -861439506 -861387537 -861374892 -861335017 -861258943 -861258695 -861252270 -861239513 -861189725 -861120501 -861088341 -861064653 -861063273 -861041395 -860947685 -860861126 -860845688 -860824411 -860810993 -860803015 -860802522 -860802034 -860786866 -860783574 -860766069 -860681496 -860672111 -860618424 -860607243 -860606388 -860565027 -860514401 -860508303 -860499275 -860487955 -860462598 -860446613 -860422632 -860409212 -860368657 -860360402 -860336215 -860260679 -860247202 -860211228 -860197218 -860105618 -860083142 -860050753 -859999359 -859948951 -859899866 -859888585 -859802038 -859775416 -859771442 -859601962 -859580927 -859534454 -859468685 -859467703 -859459785 -859424501 -859407372 -859359613 -859253567 -859232159 -859209415 -859201210 -859181451 -859173938 -859135911 -859135558 -859050219 -858985128 -858878471 -858844144 -858837911 -858829029 -858809439 -858782128 -858772885 -858769375 -858762838 -858723949 -858696806 -858688659 -858687945 -858672115 -858629535 -858620843 -858602022 -858558087 -858535460 -858528813 -858496964 -858479952 -858391358 -858238002 -858236980 -858223177 -858146642 -858101952 -858069089 -858059585 -858049770 -858029785 -858012891 -857997320 -857955433 -857929274 -857890712 -857821794 -857778817 -857776647 -857761589 -857758675 -857743330 -857710927 -857607849 -857602685 -857555378 -857514236 -857483907 -857464165 -857416861 -857414354 -857363138 -857360589 -857308089 -857252310 -857184827 -857182537 -857171437 -857164413 -857127402 -857123277 -857097344 -856896162 -856880477 -856839748 -856755548 -856739107 -856671999 -856648114 -856583416 -856545006 -856541750 -856505623 -856497688 -856453046 -856424428 -856390903 -856342396 -856335255 -856332492 -856277470 -856247628 -856191391 -856063763 -856048857 -856045666 -856000778 -855941209 -855939709 -855899530 -855896714 -855882144 -855842474 -855813460 -855808566 -855755914 -855740588 -855689654 -855673528 -855643183 -855519768 -855505514 -855504220 -855500507 -855441256 -855244249 -855165389 -855124680 -855098504 -855091778 -855047261 -855044521 -854950509 -854929794 -854911701 -854908626 -854899727 -854897254 -854847382 -854824929 -854794424 -854758632 -854744128 -854739864 -854678648 -854635270 -854629218 -854619967 -854617705 -854601248 -854468281 -854456432 -854406715 -854400303 -854347023 -854327551 -854317196 -854314305 -854306467 -854233055 -854189943 -854181983 -854180038 -854168317 -854144338 -854129435 -854110989 -854058314 -854026921 -853897414 -853872462 -853863636 -853843580 -853833336 -853816156 -853816095 -853673230 -853662385 -853606437 -853552134 -853546800 -853512769 -853421640 -853359158 -853322215 -853278111 -853269249 -853200567 -853177544 -853058003 -853048930 -852917168 -852887729 -852777887 -852712610 -852700021 -852696464 -852689710 -852678111 -852657618 -852623816 -852571058 -852532972 -852531796 -852447577 -852428916 -852319625 -852293128 -852244362 -852239047 -852168267 -852120553 -852036521 -851965408 -851902042 -851894644 -851869661 -851848008 -851762023 -851749939 -851661634 -851614008 -851588324 -851574813 -851550923 -851515962 -851402472 -851355986 -851313216 -851297747 -851277410 -851269946 -851258141 -851201339 -851197589 -851072325 -851055227 -850990953 -850986306 -850919721 -850899543 -850803565 -850764209 -850749937 -850746968 -850746291 -850669429 -850643994 -850615219 -850557750 -850466481 -850411115 -850371674 -850364087 -850354425 -850320043 -850233519 -850135761 -850133899 -850103890 -850074733 -850066148 -850057163 -850009280 -849997285 -849945525 -849898131 -849844507 -849813235 -849797546 -849770294 -849684046 -849632263 -849592246 -849584574 -849559651 -849522237 -849485697 -849462974 -849372578 -849363318 -849336530 -849254905 -849179711 -849122129 -849115659 -849051871 -849045915 -849037244 -848978302 -848929056 -848870131 -848844545 -848813202 -848756026 -848752569 -848703099 -848622252 -848507452 -848495658 -848487006 -848432163 -848404982 -848357392 -848337220 -848288199 -848258406 -848254973 -848249569 -848161598 -848121070 -848089689 -848008283 -847977514 -847967978 -847865315 -847819145 -847801751 -847787296 -847773419 -847739709 -847722896 -847696299 -847671109 -847663104 -847639499 -847545019 -847544565 -847507765 -847436850 -847416533 -847412043 -847403251 -847334565 -847320426 -847311931 -847248073 -847229896 -847216745 -847215724 -847209461 -847208322 -847205266 -847189075 -847090397 -847087604 -847059929 -847020907 -847004283 -846999787 -846999552 -846950421 -846928021 -846908625 -846892058 -846855846 -846836018 -846813756 -846778750 -846734480 -846720457 -846678185 -846642519 -846627480 -846546626 -846518216 -846480108 -846468867 -846451391 -846357539 -846340947 -846334729 -846304918 -846255708 -846227983 -846164874 -846127424 -846114938 -846106760 -846079256 -846071197 -846046236 -846043266 -846040062 -846019762 -845979983 -845969033 -845967674 -845940885 -845913558 -845783049 -845776078 -845687050 -845686287 -845657851 -845588824 -845516068 -845510953 -845447910 -845433689 -845421792 -845375550 -845363144 -845356345 -845344144 -845266195 -845225803 -845140823 -845107663 -845013774 -845008845 -844994907 -844971793 -844965258 -844935465 -844923434 -844913203 -844853323 -844844240 -844841425 -844743692 -844605617 -844587611 -844587330 -844486384 -844481461 -844297951 -844268409 -844262388 -844171411 -844105106 -844097237 -844090312 -844066012 -844064337 -844046155 -843812744 -843788922 -843737255 -843612360 -843576097 -843551762 -843468082 -843447748 -843421515 -843331653 -843321821 -843262650 -843238738 -843220735 -843218835 -843068239 -843059811 -842981011 -842931585 -842921481 -842907648 -842903292 -842862330 -842857047 -842811573 -842736733 -842733891 -842597085 -842398825 -842311942 -842302710 -842258884 -842247222 -842178828 -842152318 -842079181 -842076833 -842012499 -841990316 -841973397 -841964105 -841910196 -841887828 -841875128 -841830204 -841778407 -841732499 -841725315 -841702790 -841694275 -841676898 -841651736 -841634009 -841589024 -841571427 -841561981 -841551371 -841522859 -841504407 -841460661 -841423720 -841411813 -841402991 -841363370 -841355428 -841331667 -841245542 -841243962 -841221593 -841155926 -841148575 -841104420 -840964242 -840931674 -840884953 -840849670 -840816585 -840776238 -840764543 -840762254 -840733601 -840716242 -840608056 -840589183 -840556505 -840555181 -840533415 -840519552 -840397397 -840388342 -840213206 -840152003 -840136859 -840132935 -840034128 -840030818 -840003369 -839943938 -839928829 -839892395 -839793880 -839759726 -839731387 -839700935 -839666741 -839566793 -839563587 -839497278 -839491808 -839468465 -839440115 -839406825 -839380495 -839369206 -839350869 -839336768 -839334663 -839320692 -839120199 -839105988 -839094169 -839061012 -839053490 -838984971 -838971003 -838968952 -838954115 -838944959 -838884759 -838758930 -838718840 -838701538 -838674879 -838655147 -838648578 -838555636 -838527919 -838496387 -838486335 -838388692 -838341287 -838317174 -838295740 -838283552 -838270564 -838261238 -838253459 -838240842 -838224753 -838104083 -838086575 -838084711 -838074209 -838064323 -838028781 -838000601 -837892998 -837830071 -837820057 -837806596 -837685135 -837668005 -837662563 -837657986 -837594269 -837575582 -837572713 -837493044 -837460114 -837449986 -837441854 -837422801 -837395321 -837350475 -837327912 -837241634 -837218003 -837203345 -837154394 -837103393 -837039431 -837030402 -837019460 -836987968 -836981449 -836979844 -836976131 -836954481 -836910343 -836882816 -836877908 -836869600 -836781878 -836769773 -836721818 -836680351 -836639932 -836608905 -836601259 -836545198 -836470859 -836462433 -836450235 -836350783 -836334997 -836300762 -836260335 -836241246 -836221927 -836172142 -836069181 -836017106 -836011752 -835986950 -835984685 -835948294 -835869729 -835827568 -835731414 -835723252 -835659259 -835575221 -835550395 -835481311 -835467478 -835445878 -835413357 -835350883 -835334222 -835323121 -835309465 -835130986 -835110061 -835049863 -835044958 -835029411 -834956783 -834792583 -834780169 -834747216 -834673652 -834666457 -834666081 -834635236 -834557618 -834520227 -834515694 -834479584 -834458458 -834450478 -834432071 -834401217 -834358907 -834304517 -834288640 -834263877 -834227811 -834204223 -834178756 -834093695 -834058353 -834017899 -834015783 -833935566 -833918270 -833910256 -833887943 -833862661 -833839742 -833612307 -833600717 -833593851 -833584700 -833582009 -833493790 -833467663 -833456614 -833427075 -833414093 -833410021 -833350085 -833318985 -833306999 -833201622 -833183219 -833125662 -833102156 -832982583 -832952863 -832951497 -832841686 -832775823 -832717610 -832692998 -832687465 -832682217 -832628845 -832580623 -832505707 -832491944 -832472741 -832444233 -832393303 -832327806 -832301680 -832222174 -832129208 -832062708 -832036005 -832029728 -832003948 -831989802 -831923854 -831919019 -831800775 -831754632 -831746594 -831729063 -831713931 -831693254 -831640349 -831565858 -831562452 -831523464 -831493505 -831451020 -831446242 -831411016 -831399452 -831383595 -831382664 -831339881 -831334704 -831282692 -831269513 -831266450 -831224834 -831206317 -831195941 -831162555 -831138179 -831115509 -831104241 -831081388 -831035185 -831023709 -831001411 -830959730 -830888148 -830808298 -830799441 -830798866 -830755408 -830743051 -830728401 -830681761 -830672806 -830645542 -830632607 -830606671 -830546819 -830540067 -830527448 -830465085 -830463675 -830403415 -830401114 -830365119 -830337801 -830304594 -830303602 -830280178 -830230657 -830228530 -830163425 -830156358 -830107947 -830072033 -830038643 -830037804 -830029698 -829902202 -829897441 -829892631 -829864542 -829863288 -829852427 -829796811 -829768046 -829749736 -829694806 -829674457 -829643509 -829624301 -829624144 -829618741 -829608901 -829522354 -829513898 -829489428 -829410206 -829368545 -829365679 -829361448 -829346967 -829303569 -829230939 -829141978 -829096784 -829073208 -828959190 -828957223 -828787766 -828760655 -828754003 -828696595 -828693929 -828681544 -828582143 -828566289 -828492571 -828439622 -828377975 -828357270 -828350415 -828342493 -828334151 -828208243 -828194773 -828164086 -828159702 -828151964 -828127323 -828043619 -828018646 -827936091 -827912555 -827875539 -827858414 -827852479 -827845229 -827778930 -827727847 -827699579 -827688924 -827620601 -827442042 -827408820 -827391344 -827370433 -827298042 -827288143 -827247592 -827136216 -827114532 -827050207 -827005441 -826935190 -826877655 -826862076 -826850575 -826789727 -826781651 -826690368 -826681921 -826671323 -826491145 -826478647 -826439723 -826424348 -826390701 -826382854 -826358731 -826353038 -826342633 -826264466 -826239617 -826231852 -826226401 -826201253 -826169065 -826155368 -825998807 -825980139 -825925871 -825922590 -825849426 -825717522 -825673227 -825631400 -825594896 -825579014 -825569345 -825553657 -825504228 -825431104 -825421461 -825401794 -825315602 -825312556 -825278933 -825271737 -825264599 -825258571 -825251396 -825229037 -825219555 -825213598 -825194125 -825163643 -825147581 -825132714 -825106190 -825049923 -824975275 -824947211 -824897709 -824852886 -824775895 -824748008 -824741098 -824732120 -824624998 -824542134 -824520221 -824498216 -824485026 -824458909 -824433599 -824404974 -824361042 -824342156 -824211640 -824195893 -824193213 -824171873 -824170856 -824130764 -824117212 -824101596 -824092515 -824077137 -824071394 -824070279 -824055095 -824041219 -824024467 -824024466 -823885974 -823877931 -823827258 -823756096 -823731637 -823724390 -823671108 -823659430 -823658047 -823602861 -823571632 -823548293 -823519978 -823519929 -823457930 -823416439 -823390721 -823350271 -823342285 -823331119 -823296546 -823272291 -823231667 -823230103 -823072742 -823065538 -823012770 -822994417 -822847635 -822844412 -822841056 -822834920 -822831990 -822824926 -822742948 -822642924 -822638708 -822578895 -822568951 -822544056 -822470658 -822470206 -822454272 -822451057 -822448222 -822436844 -822386823 -822382349 -822361719 -822348255 -822328796 -822313187 -822231003 -822148351 -822140300 -822065725 -822041657 -821938018 -821921252 -821902308 -821849399 -821824345 -821773470 -821731252 -821677256 -821649618 -821557035 -821516994 -821510786 -821456022 -821376715 -821357604 -821347568 -821275622 -821250349 -821240722 -821188337 -821187781 -821169449 -821158241 -821154885 -821144317 -821130650 -821064081 -821052413 -821044540 -820873010 -820847203 -820770374 -820708857 -820699844 -820623035 -820611823 -820457289 -820446116 -820438274 -820381930 -820379312 -820356133 -820338302 -820334820 -820306515 -820225678 -820182768 -820133010 -820031160 -819989446 -819948451 -819892175 -819871498 -819858639 -819790399 -819772508 -819745986 -819706518 -819653437 -819602650 -819525076 -819504751 -819466949 -819450853 -819446749 -819417008 -819401133 -819400865 -819398164 -819393779 -819253354 -819230989 -819212456 -819194082 -819130112 -819095178 -819079715 -819062490 -819047467 -819019062 -819015286 -818937806 -818916825 -818719375 -818670278 -818648803 -818646814 -818607251 -818602379 -818587576 -818553861 -818499520 -818484005 -818372811 -818315112 -818287352 -818283185 -818275609 -818256649 -818226458 -818220582 -818209343 -818206226 -818201952 -818130255 -818077877 -818032639 -818031566 -817961006 -817934563 -817928984 -817872261 -817853831 -817824760 -817805434 -817723341 -817670561 -817622442 -817555324 -817534636 -817507454 -817494989 -817435602 -817392280 -817293912 -817258861 -817258297 -817253755 -817243654 -817100851 -817056575 -817054054 -817038354 -817027526 -816976159 -816936892 -816897298 -816877158 -816873188 -816869393 -816778265 -816773989 -816734380 -816719565 -816640434 -816610885 -816533296 -816473392 -816461107 -816355928 -816353802 -816322277 -816318854 -816300044 -816296426 -816275202 -816274045 -816264623 -816247508 -816209634 -816205536 -816203931 -816178299 -816170188 -816163030 -816130963 -816112561 -816093105 -816079443 -816053795 -816047928 -816038795 -815998194 -815974743 -815969921 -815807684 -815785812 -815765397 -815759965 -815717202 -815693762 -815685223 -815653316 -815627485 -815536020 -815509787 -815205955 -815165227 -815159785 -815151084 -815059503 -815049540 -815047900 -815028719 -814870000 -814798617 -814728659 -814726465 -814635273 -814471314 -814402892 -814397025 -814337192 -814240018 -814220049 -814198470 -814188917 -814127130 -814072367 -814016103 -814011375 -813996071 -813977530 -813968381 -813952362 -813931008 -813900667 -813862750 -813800139 -813783126 -813695382 -813552278 -813424928 -813406907 -813361842 -813359324 -813303654 -813277577 -813255875 -813251735 -813173672 -813113528 -813059263 -813042917 -813000687 -812967046 -812961447 -812870698 -812858186 -812831968 -812753418 -812645103 -812633461 -812467407 -812411158 -812388314 -812371058 -812363736 -812208828 -812153523 -812114192 -812101721 -812061767 -812014733 -811983105 -811972024 -811965496 -811946844 -811868802 -811837647 -811804029 -811718482 -811708397 -811695143 -811671051 -811639248 -811616725 -811601187 -811582536 -811575121 -811539991 -811537045 -811506177 -811471055 -811468030 -811408513 -811354725 -811307697 -811272047 -811219564 -811159327 -811138210 -811086550 -811061289 -811019069 -811003139 -810996339 -810971696 -810970405 -810951675 -810891717 -810869253 -810843564 -810813568 -810812160 -810802968 -810799089 -810789069 -810761549 -810682314 -810640509 -810514057 -810513142 -810327410 -810321730 -810301220 -810254848 -810199328 -810197776 -810189919 -810116718 -810107968 -810096929 -810085985 -810032949 -810008385 -809973159 -809969305 -809962349 -809938259 -809791186 -809743167 -809668045 -809621110 -809604800 -809580386 -809574182 -809430203 -809424705 -809372439 -809259723 -809197770 -809134567 -809037225 -809030194 -809021971 -808963628 -808942079 -808941075 -808852207 -808820840 -808765846 -808720765 -808692734 -808687282 -808652490 -808563682 -808534819 -808516676 -808504547 -808503656 -808498345 -808487935 -808441454 -808394602 -808384817 -808315687 -808314316 -808274964 -808274350 -808272706 -808271768 -808223019 -808203351 -808143789 -808109145 -808099285 -808028262 -808007485 -807985196 -807978203 -807976647 -807967198 -807956027 -807942914 -807688589 -807669852 -807576603 -807535770 -807448116 -807440927 -807426610 -807406153 -807402933 -807368309 -807354501 -807309734 -807270738 -807253155 -807232180 -807185600 -807180770 -807124191 -807095866 -807051356 -807032749 -807030746 -807008766 -806974076 -806972865 -806966567 -806961047 -806938678 -806933298 -806918847 -806889931 -806785310 -806727350 -806699809 -806695230 -806682522 -806674843 -806638437 -806626897 -806566019 -806525150 -806524642 -806506152 -806502478 -806462196 -806410388 -806407092 -806381270 -806360400 -806276776 -806266645 -806247658 -806238107 -806120643 -806104033 -806042129 -806041311 -806039427 -806014638 -805979600 -805951408 -805940163 -805909970 -805851465 -805820267 -805814952 -805805795 -805719589 -805625372 -805594246 -805592590 -805559029 -805494291 -805476691 -805433033 -805379146 -805369835 -805362324 -805336437 -805299394 -805292898 -805243303 -805240061 -805159618 -805158178 -805157137 -805130011 -805124726 -805096084 -805078330 -805045630 -805029682 -805020556 -805005593 -804895657 -804832313 -804801097 -804771140 -804769858 -804678493 -804615641 -804594375 -804567709 -804513924 -804493586 -804472526 -804342314 -804304275 -804211693 -804175586 -804091612 -804008852 -804003084 -803904678 -803890631 -803779221 -803744230 -803691104 -803673397 -803661484 -803657887 -803563638 -803540949 -803535928 -803491815 -803343749 -803328571 -803328514 -803244432 -803211517 -803203144 -803154844 -803150171 -803101445 -803086645 -803021087 -803020780 -802986979 -802959580 -802955164 -802854338 -802845327 -802840775 -802819984 -802734903 -802666661 -802658518 -802542434 -802489512 -802483444 -802462214 -802448514 -802193390 -802162882 -802142309 -801982830 -801977266 -801976564 -801945679 -801925749 -801918742 -801876033 -801871937 -801833926 -801809943 -801752071 -801748266 -801709936 -801613393 -801563950 -801553677 -801544745 -801544661 -801531280 -801528461 -801452706 -801410154 -801400304 -801372336 -801366412 -801358089 -801354206 -801352210 -801339794 -801327859 -801297940 -801289584 -801194757 -801150670 -801091265 -801067450 -801038674 -801025185 -801006208 -800908381 -800908151 -800891817 -800843132 -800814987 -800797719 -800681577 -800551683 -800536934 -800482835 -800472443 -800434158 -800379413 -800340994 -800323731 -800310353 -800229777 -800223304 -800220686 -800216506 -800215642 -800202238 -800081052 -800067155 -800066396 -800000471 -799988777 -799978527 -799970261 -799935614 -799931703 -799914212 -799909635 -799847977 -799793510 -799711258 -799688407 -799687383 -799666805 -799569270 -799544642 -799505468 -799503658 -799445310 -799384877 -799366897 -799330457 -799240531 -799119579 -799099477 -799073312 -799010744 -798988930 -798952180 -798951987 -798935309 -798917712 -798819692 -798780460 -798773856 -798745521 -798707891 -798686978 -798675397 -798668346 -798591747 -798575809 -798490998 -798462196 -798456420 -798456015 -798383308 -798356280 -798342544 -798273625 -798269080 -798249096 -798233378 -798222490 -798220865 -798169966 -798052617 -798047425 -798044122 -798038187 -798010441 -797953819 -797944687 -797892389 -797865258 -797848026 -797811479 -797810075 -797787868 -797768409 -797768390 -797695003 -797676223 -797649764 -797604724 -797590304 -797561818 -797534987 -797445398 -797424309 -797416037 -797348809 -797320548 -797319972 -797304483 -797289246 -797207667 -797186076 -797136941 -797034114 -797006857 -796997646 -796974962 -796921446 -796917737 -796910440 -796865291 -796850554 -796711007 -796710055 -796676940 -796621187 -796566153 -796500179 -796487184 -796485491 -796427024 -796400608 -796364395 -796363592 -796356514 -796180721 -796122434 -796088948 -796071415 -796061416 -796027915 -796027130 -795988213 -795983849 -795976993 -795968443 -795937971 -795935709 -795790693 -795770173 -795736714 -795698073 -795645252 -795534025 -795513491 -795472863 -795394987 -795388366 -795369231 -795358828 -795339857 -795305822 -795295640 -795181635 -795150105 -795145907 -795103432 -795080909 -795024856 -794955376 -794932846 -794910146 -794887052 -794868151 -794862291 -794844657 -794816199 -794810103 -794711683 -794696804 -794645745 -794636919 -794629992 -794571316 -794561934 -794499377 -794455213 -794414032 -794409454 -794394863 -794381324 -794248373 -794242846 -794203880 -794176449 -794172181 -794164352 -794148292 -794110650 -794107297 -794106286 -794033352 -794016170 -793974232 -793902070 -793881485 -793879752 -793835429 -793810981 -793796750 -793704840 -793683643 -793679871 -793668377 -793658136 -793600149 -793476777 -793451333 -793424354 -793423546 -793417423 -793342074 -793289909 -793245923 -793244426 -793207594 -793139534 -793106378 -793020578 -792928725 -792883419 -792869620 -792858207 -792846203 -792783952 -792777522 -792772944 -792772408 -792756057 -792742074 -792651876 -792600727 -792514559 -792392202 -792372192 -792315912 -792136782 -791984546 -791983757 -791952001 -791888732 -791769617 -791762739 -791720544 -791709641 -791688043 -791637192 -791635400 -791571403 -791441172 -791438709 -791422899 -791411811 -791358643 -791305218 -791229102 -791219615 -791212166 -791203585 -791203270 -791034376 -791033301 -791014349 -790968893 -790935239 -790930205 -790890988 -790833920 -790814748 -790722945 -790713012 -790703331 -790700073 -790693016 -790615676 -790606681 -790586672 -790528547 -790458725 -790415070 -790359813 -790335674 -790326274 -790311559 -790272776 -790240831 -790240213 -790211292 -790196416 -790176810 -790168525 -790141442 -790091828 -790039124 -790037206 -789981053 -789980493 -789833390 -789758006 -789755126 -789741902 -789603422 -789602247 -789583747 -789571220 -789568037 -789557420 -789444627 -789365378 -789352788 -789340467 -789278569 -789263980 -789252105 -789224669 -789220917 -789199742 -789167685 -789150907 -789134159 -789040319 -789035048 -788905099 -788883165 -788882988 -788835533 -788814520 -788813729 -788776951 -788759053 -788712444 -788594429 -788505092 -788497504 -788456391 -788433314 -788428037 -788416355 -788401590 -788359938 -788272010 -788183392 -788151177 -788138766 -788093133 -788063780 -788042609 -787924950 -787890277 -787805974 -787743105 -787707758 -787657843 -787653832 -787652551 -787633329 -787623551 -787589399 -787563105 -787498819 -787431458 -787395781 -787362705 -787326241 -787250194 -787128907 -787101494 -787035722 -787020424 -787012806 -786940584 -786876773 -786856498 -786841298 -786728832 -786708883 -786673448 -786667698 -786660418 -786657389 -786622683 -786597683 -786580247 -786573062 -786559622 -786553253 -786517065 -786456617 -786351525 -786347816 -786287209 -786265806 -786171358 -786170014 -786169620 -786163699 -786129787 -786122706 -786095519 -786086126 -786064857 -785987310 -785984361 -785979060 -785965560 -785960724 -785879387 -785862402 -785856706 -785752986 -785746442 -785717843 -785689438 -785678433 -785627372 -785626780 -785599912 -785596549 -785587204 -785558418 -785552038 -785546754 -785523903 -785486422 -785426019 -785409469 -785383544 -785340704 -785246788 -785235672 -785195242 -785134391 -785062571 -784983914 -784927641 -784901996 -784868423 -784844762 -784826397 -784823577 -784821443 -784758337 -784743898 -784713594 -784707970 -784705496 -784696681 -784677333 -784584042 -784527263 -784512739 -784490975 -784456981 -784422875 -784330649 -784318718 -784303574 -784276660 -784243688 -784223070 -784165825 -784128793 -784121640 -784068511 -784049626 -784035216 -784023849 -784019181 -784003494 -784003188 -783934746 -783932098 -783899535 -783862290 -783857929 -783857790 -783838269 -783804024 -783784884 -783624686 -783615974 -783560462 -783532713 -783514803 -783402375 -783363624 -783313511 -783290526 -783271759 -783251875 -783230036 -783187383 -783183354 -783151974 -783117833 -783068685 -783040056 -783036141 -783036129 -783014113 -783003803 -782972667 -782969349 -782953894 -782792114 -782770827 -782766178 -782759820 -782696481 -782666974 -782623375 -782597105 -782565575 -782539486 -782502542 -782423844 -782388928 -782383263 -782247644 -782244801 -782212570 -782205345 -782160541 -782154442 -782146296 -782102183 -782101410 -782075718 -782053595 -782028283 -781967931 -781948434 -781900459 -781899803 -781894589 -781887766 -781819175 -781814335 -781773834 -781767599 -781765168 -781698752 -781649026 -781648160 -781644958 -781586501 -781510921 -781497797 -781494209 -781441513 -781439038 -781407121 -781405454 -781338602 -781334980 -781303541 -781295835 -781254334 -781227274 -781211645 -781186861 -781181585 -781150276 -781057137 -780999928 -780992022 -780985136 -780918999 -780866945 -780863022 -780822946 -780719238 -780711155 -780696685 -780680633 -780653682 -780622664 -780616707 -780603148 -780596389 -780496493 -780464956 -780449230 -780429520 -780421927 -780386818 -780379397 -780371875 -780353527 -780289856 -780277941 -780253904 -780235700 -780179706 -780156462 -780108928 -780069484 -780059317 -780052267 -779963399 -779962016 -779864945 -779792416 -779776003 -779730507 -779723558 -779665670 -779645408 -779612844 -779581044 -779571893 -779532234 -779513258 -779461596 -779391560 -779312882 -779286085 -779280918 -779268650 -779220611 -779183311 -779162835 -779085178 -779077564 -779076401 -779070577 -779051372 -779015647 -778979520 -778869593 -778856536 -778849101 -778837566 -778725388 -778692393 -778643410 -778642192 -778636663 -778566742 -778478328 -778467580 -778445161 -778383846 -778360107 -778337071 -778312446 -778281712 -778232166 -778220754 -778215014 -778206554 -778191931 -778171044 -778144268 -778143709 -778047010 -778014170 -777961549 -777935380 -777908973 -777862959 -777824341 -777683735 -777660851 -777583587 -777496262 -777494116 -777400155 -777381932 -777378993 -777368990 -777344835 -777249898 -777249547 -777192260 -777183265 -777183178 -777160775 -777036520 -777000369 -776990337 -776980204 -776919055 -776860864 -776811262 -776799087 -776798809 -776779066 -776767740 -776754739 -776746332 -776745828 -776675459 -776612010 -776609404 -776606663 -776605977 -776604306 -776581928 -776564886 -776551570 -776549086 -776525012 -776502562 -776497593 -776446773 -776438113 -776394829 -776360200 -776329655 -776325347 -776252601 -776235087 -776186928 -776119566 -776108501 -776072938 -776037203 -775916243 -775898401 -775844673 -775784551 -775763152 -775450830 -775425014 -775404418 -775370262 -775307541 -775198261 -775135647 -775094758 -774831575 -774802036 -774782740 -774683223 -774679156 -774672063 -774639851 -774577038 -774546350 -774527919 -774486944 -774479892 -774439867 -774366013 -774344707 -774344187 -774333654 -774317699 -774313319 -774089971 -774069514 -774044314 -774024743 -773983306 -773940352 -773901623 -773879303 -773830923 -773763307 -773728114 -773712395 -773695646 -773672259 -773651810 -773648123 -773557885 -773547660 -773495398 -773458254 -773455941 -773417956 -773394291 -773360939 -773354911 -773340685 -773316153 -773248253 -773228799 -773221383 -773164408 -773060640 -773036358 -773029334 -773002162 -772982996 -772905145 -772900070 -772889554 -772833616 -772829042 -772770569 -772705890 -772661485 -772608873 -772605967 -772583853 -772481722 -772457687 -772423435 -772410477 -772397798 -772391346 -772386270 -772370988 -772360591 -772254509 -772252662 -772228666 -772221381 -772220897 -772120968 -772108689 -772102620 -772057016 -772053035 -772040456 -772013346 -772007251 -772004429 -771956969 -771927473 -771914648 -771911362 -771892396 -771890486 -771870568 -771858952 -771779053 -771778167 -771772122 -771771924 -771652514 -771651021 -771594734 -771499779 -771428319 -771361448 -771335064 -771290624 -771271815 -771233034 -771220514 -771106498 -771102562 -771097454 -771088649 -771082648 -771067528 -771061326 -771055856 -771028278 -770993668 -770981332 -770961674 -770950151 -770895457 -770859119 -770849611 -770828894 -770741927 -770656327 -770599449 -770546804 -770503895 -770346464 -770287252 -770268204 -770220593 -770173287 -770108239 -770030428 -770008058 -770004626 -769990234 -769962276 -769934855 -769927068 -769874653 -769869410 -769851841 -769817957 -769760975 -769734957 -769717696 -769715510 -769635377 -769631836 -769623607 -769517143 -769495638 -769489341 -769482815 -769481545 -769478385 -769436085 -769429558 -769254737 -769201000 -769195259 -769125459 -769077272 -768976883 -768963039 -768918262 -768917712 -768870516 -768834337 -768773901 -768748628 -768708241 -768674071 -768644948 -768640315 -768635727 -768627095 -768538108 -768516821 -768488038 -768468809 -768447523 -768441619 -768431171 -768421572 -768401828 -768289318 -768264440 -768237986 -768218781 -768198507 -768197714 -768176534 -768153903 -768141678 -768057484 -768033012 -767985467 -767978878 -767973339 -767925149 -767874516 -767874371 -767795921 -767728392 -767725590 -767678635 -767617259 -767591711 -767561029 -767557477 -767555397 -767550053 -767527094 -767348272 -767231627 -767197781 -767156713 -767085955 -766984960 -766972539 -766956822 -766926003 -766916276 -766880773 -766787306 -766725802 -766712910 -766712664 -766661452 -766654110 -766647094 -766633082 -766564624 -766524331 -766512324 -766501242 -766370005 -766290789 -766285708 -766219266 -766172738 -766152182 -766143039 -766104184 -766077501 -766076095 -766047468 -766033027 -765993559 -765963822 -765915663 -765904432 -765899313 -765887690 -765885954 -765884282 -765875507 -765873805 -765831473 -765695226 -765664185 -765653423 -765619666 -765598847 -765559198 -765528916 -765526823 -765488086 -765458204 -765432328 -765369567 -765339132 -765326301 -765274833 -765232967 -765174014 -765032727 -764873648 -764866252 -764833463 -764797552 -764795532 -764782182 -764691348 -764683496 -764624923 -764580039 -764527273 -764474701 -764449836 -764439967 -764391610 -764359931 -764329950 -764327978 -764303417 -764299483 -764248878 -764236211 -764235051 -764222375 -764213353 -764175517 -764169882 -764162342 -764156633 -764081308 -764061639 -764007893 -764007382 -763995922 -763970236 -763969362 -763911134 -763897027 -763860409 -763841054 -763814322 -763781442 -763769292 -763616735 -763559518 -763525255 -763437099 -763431495 -763382667 -763244263 -763183427 -763179005 -763157694 -763054598 -763020461 -762992254 -762892325 -762879720 -762843791 -762830049 -762792498 -762729750 -762679317 -762661155 -762630940 -762529306 -762522344 -762471785 -762468410 -762466918 -762363452 -762352969 -762298062 -762292903 -762278973 -762254420 -762139543 -762128592 -761978805 -761948783 -761882533 -761765622 -761754647 -761691977 -761683680 -761639085 -761630871 -761618594 -761582672 -761575087 -761552620 -761493250 -761489948 -761482919 -761442115 -761399343 -761398566 -761380655 -761280698 -761278827 -761158247 -761145871 -761101101 -761043031 -761037188 -761022203 -760921065 -760874694 -760849602 -760822946 -760784350 -760783926 -760742195 -760727656 -760722384 -760690379 -760658861 -760517783 -760448823 -760416446 -760353954 -760329693 -760309824 -760309618 -760293800 -760240582 -760198227 -760160413 -760150640 -760127506 -760091167 -760078365 -760051743 -760050864 -760006136 -760002991 -760002932 -759942292 -759893081 -759851458 -759750645 -759736984 -759678143 -759677853 -759593201 -759580300 -759566251 -759538836 -759492678 -759473919 -759439638 -759403362 -759351762 -759241870 -759163689 -759133337 -759098785 -759090825 -759039701 -759035599 -758983843 -758970823 -758949341 -758836555 -758800664 -758720077 -758688717 -758688019 -758674118 -758651575 -758635526 -758632592 -758626307 -758617412 -758612708 -758583635 -758572405 -758467355 -758459621 -758399346 -758394214 -758383108 -758367248 -758342078 -758286845 -758180676 -758164573 -758163092 -758123796 -758118160 -758116690 -758086317 -758060456 -758042345 -757910342 -757892578 -757883803 -757855949 -757842575 -757744571 -757718400 -757717493 -757711526 -757706964 -757705266 -757649552 -757615874 -757597522 -757561484 -757457133 -757409007 -757303626 -757303062 -757289291 -757245738 -757064827 -757050038 -756968741 -756893685 -756893541 -756833461 -756786607 -756761736 -756715985 -756708091 -756673206 -756650149 -756627392 -756544639 -756540044 -756499941 -756489191 -756454748 -756429109 -756393740 -756339371 -756290496 -756078348 -756071211 -756031291 -755994376 -755911133 -755844766 -755832691 -755782966 -755761596 -755754617 -755729883 -755693468 -755614322 -755602395 -755534786 -755531784 -755529066 -755474372 -755398075 -755348735 -755314925 -755276652 -755246729 -755205010 -755184226 -755153149 -755071718 -755034174 -754985803 -754963224 -754957104 -754931646 -754917425 -754883153 -754845852 -754803634 -754742627 -754694470 -754690920 -754675301 -754668814 -754665225 -754577074 -754568003 -754558083 -754517990 -754514495 -754453073 -754411760 -754410030 -754300013 -754295262 -754206267 -754202689 -754199512 -754121503 -754100559 -753980272 -753915736 -753895281 -753863825 -753852694 -753782117 -753761329 -753706463 -753695277 -753649047 -753597413 -753595827 -753460063 -753447356 -753423619 -753388349 -753387041 -753368808 -753367026 -753317247 -753196186 -753186593 -753179657 -753175677 -753166194 -753124798 -753123969 -753121272 -753026425 -752997722 -752964451 -752952275 -752869864 -752868141 -752822256 -752807918 -752699185 -752594798 -752478527 -752458751 -752443012 -752288595 -752285583 -752254649 -752192073 -752118662 -752032811 -751989117 -751954211 -751852017 -751830275 -751821551 -751675627 -751667568 -751664470 -751605533 -751464934 -751428893 -751349494 -751335965 -751233760 -751161667 -751127495 -750970623 -750960340 -750918442 -750899125 -750898669 -750894741 -750838148 -750809768 -750803674 -750784865 -750719552 -750669892 -750556717 -750493611 -750493228 -750455470 -750418142 -750415752 -750389102 -750377866 -750361589 -750352280 -750350803 -750347934 -750334463 -750269981 -750211681 -750104578 -750100916 -750056822 -750000678 -749931274 -749901519 -749861429 -749831935 -749831883 -749829352 -749802913 -749774024 -749741383 -749712547 -749712063 -749709737 -749655643 -749623906 -749511664 -749485170 -749372587 -749314187 -749292481 -749289995 -749231603 -749131776 -749118117 -749108245 -749052708 -748975516 -748972346 -748962541 -748941557 -748895650 -748857840 -748818392 -748756738 -748700883 -748677863 -748661340 -748542685 -748438427 -748437418 -748396807 -748371710 -748301143 -748269817 -748263058 -748223622 -748212453 -748187135 -748061905 -747920460 -747846240 -747782692 -747737077 -747733255 -747727803 -747711372 -747706250 -747693471 -747666950 -747583605 -747544834 -747534795 -747491327 -747466496 -747447383 -747376597 -747355397 -747300634 -747252765 -747244332 -747238202 -747039047 -746922160 -746879605 -746810810 -746799758 -746799310 -746767079 -746743267 -746678973 -746668902 -746633169 -746630644 -746580014 -746571630 -746555459 -746540871 -746518170 -746516030 -746513766 -746510315 -746493793 -746453117 -746430540 -746375311 -746362919 -746332807 -746314569 -746313216 -746311150 -746279837 -746278165 -746252951 -746225477 -746212577 -746202184 -746174059 -746128319 -746114945 -746098864 -746062700 -746040986 -745877678 -745758987 -745738604 -745731599 -745711305 -745705440 -745643513 -745641879 -745620890 -745573341 -745497289 -745496974 -745471096 -745465367 -745444794 -745442975 -745407074 -745392420 -745354552 -745336474 -745313771 -745287097 -745281265 -745275440 -745241878 -745178899 -745169640 -745162965 -745143579 -745057245 -745006853 -745006620 -744985819 -744975684 -744934371 -744894020 -744816571 -744626997 -744615340 -744508944 -744433887 -744414561 -744388120 -744337858 -744297089 -744283666 -744195127 -744180381 -744175164 -744171066 -744072917 -744039379 -744030340 -743941763 -743915934 -743888506 -743867105 -743862613 -743844046 -743834436 -743789785 -743789517 -743788671 -743771357 -743716696 -743691404 -743689385 -743674001 -743618159 -743570311 -743549664 -743515299 -743451971 -743320766 -743314407 -743288622 -743275484 -743243923 -743241373 -743232711 -743232682 -743175921 -743091329 -742994438 -742951678 -742920922 -742882043 -742861755 -742843627 -742834210 -742809888 -742691385 -742666942 -742625190 -742621574 -742586128 -742502861 -742438590 -742431390 -742399444 -742349309 -742344215 -742273433 -742179838 -742170443 -742165830 -742152505 -742148901 -742114040 -742038095 -741982546 -741959889 -741957806 -741828940 -741810695 -741735572 -741729756 -741713074 -741665103 -741662642 -741654473 -741644154 -741578122 -741557741 -741533392 -741475254 -741456859 -741272543 -741262808 -741226323 -741220233 -741202019 -741164831 -741120946 -741056600 -741019967 -740978466 -740972688 -740968274 -740952904 -740920704 -740876499 -740871272 -740866997 -740839599 -740832500 -740828213 -740769217 -740765167 -740758875 -740730376 -740712451 -740704722 -740592281 -740569892 -740566256 -740542595 -740494179 -740471208 -740463632 -740448611 -740428139 -740305320 -740297749 -740252773 -740215836 -740215088 -740177691 -740142045 -740072187 -740036573 -740034459 -740003848 -739994704 -739934568 -739890236 -739884630 -739870284 -739852538 -739603388 -739576403 -739519903 -739507638 -739457150 -739323859 -739294175 -739227475 -739227200 -739193173 -739090236 -739012910 -738984811 -738967217 -738931385 -738897803 -738867451 -738860211 -738779965 -738761457 -738746576 -738725981 -738721538 -738605543 -738566252 -738547895 -738463015 -738435519 -738425092 -738424236 -738395636 -738375067 -738330530 -738305736 -738298021 -738157546 -738153982 -738094626 -738065309 -738060074 -738041010 -738036009 -738028711 -738009497 -737991144 -737957646 -737953357 -737922084 -737914741 -737907549 -737877286 -737847705 -737799375 -737709002 -737680038 -737641155 -737590313 -737576832 -737548552 -737530114 -737487685 -737481973 -737474885 -737441078 -737396743 -737297571 -737261039 -737244161 -737236669 -737180066 -737103495 -737076350 -737052783 -737034256 -737015479 -736992834 -736893632 -736887066 -736882498 -736746662 -736707808 -736671038 -736669654 -736632792 -736604660 -736582356 -736553490 -736490022 -736475159 -736468592 -736434045 -736388952 -736386008 -736371435 -736364361 -736342521 -736324974 -736301446 -736277861 -736231854 -736194464 -736126616 -736097112 -736082259 -735899162 -735784132 -735764717 -735684786 -735677326 -735677191 -735672087 -735652721 -735639027 -735598040 -735586440 -735555290 -735510659 -735441055 -735403229 -735398825 -735391253 -735387127 -735378530 -735323692 -735320866 -735290843 -735237488 -735215246 -735213565 -735097486 -735073700 -735058949 -735041632 -735027687 -734953112 -734949861 -734902983 -734883321 -734869201 -734851308 -734824950 -734771961 -734737632 -734662886 -734644033 -734626801 -734598678 -734575327 -734543032 -734440143 -734426395 -734413499 -734403422 -734388438 -734367649 -734326300 -734321868 -734307837 -734276385 -734259934 -734212367 -734162553 -734070313 -734054626 -733958993 -733926493 -733911120 -733907360 -733825128 -733798200 -733792754 -733787771 -733786421 -733753990 -733665173 -733652731 -733570871 -733538467 -733519897 -733468187 -733467355 -733449895 -733439510 -733363699 -733353860 -733336616 -733335838 -733314179 -733304559 -733304476 -733286730 -733257015 -733252548 -733230129 -733228510 -733207871 -733163435 -733109137 -733107296 -733060034 -733033442 -732988971 -732982623 -732957254 -732886305 -732834528 -732806026 -732753211 -732683503 -732676618 -732638497 -732638357 -732565543 -732543367 -732517985 -732436417 -732425264 -732406496 -732378529 -732356863 -732342040 -732341698 -732330207 -732292575 -732291530 -732226677 -732089190 -732079589 -731761690 -731698584 -731673585 -731650630 -731508868 -731475435 -731473226 -731393066 -731384682 -731366803 -731321053 -731265341 -731260684 -731215152 -731208763 -731189128 -731179284 -731173239 -731140425 -731108788 -731103704 -731098552 -731097225 -731074684 -731063015 -730983671 -730937076 -730924572 -730898823 -730818925 -730810061 -730796672 -730788778 -730728501 -730677260 -730633067 -730523698 -730332020 -730307412 -730288424 -730231229 -730194064 -730188964 -730135730 -730126868 -730045681 -730027139 -729929101 -729895233 -729868173 -729861232 -729861199 -729825253 -729823021 -729768369 -729761974 -729759081 -729733050 -729719062 -729718649 -729703979 -729694900 -729633243 -729598625 -729532249 -729522361 -729505532 -729464477 -729414216 -729329628 -729291862 -729279862 -729183992 -729158703 -729158049 -729096134 -729078894 -729026143 -729003032 -728980628 -728957749 -728929297 -728922707 -728914965 -728815535 -728736046 -728683410 -728645758 -728560225 -728525161 -728435538 -728423173 -728361243 -728299837 -728275396 -728252473 -728221647 -728138114 -728099451 -728020464 -727979967 -727932646 -727909825 -727892770 -727787348 -727753053 -727734995 -727719953 -727636679 -727577346 -727555755 -727525702 -727499571 -727455956 -727438941 -727417901 -727410605 -727409657 -727349180 -727342660 -727265450 -727258575 -727248285 -727216050 -727193471 -727112080 -727100946 -727080311 -727045918 -726927839 -726920855 -726912326 -726754167 -726541898 -726524668 -726514246 -726510188 -726503026 -726483531 -726480883 -726468848 -726426187 -726388020 -726360894 -726321020 -726280132 -726275810 -726272268 -726229153 -726171935 -726122936 -726120155 -726061197 -726053877 -725979193 -725940526 -725914870 -725879236 -725778325 -725777714 -725732344 -725613735 -725570575 -725552980 -725527597 -725520378 -725518496 -725467142 -725416794 -725414632 -725393424 -725385752 -725371694 -725348596 -725319819 -725273245 -725255684 -725235680 -725189707 -725109343 -725094363 -725024165 -724995903 -724987241 -724986216 -724927058 -724904248 -724865912 -724805256 -724652092 -724628814 -724627556 -724569093 -724555331 -724547081 -724510056 -724497166 -724461863 -724445662 -724427936 -724427699 -724351368 -724224377 -724209855 -724207791 -724165872 -724164011 -724160045 -724143666 -724118475 -724100040 -724098735 -724086841 -724086366 -724081856 -724071446 -724065136 -723962697 -723924349 -723903798 -723901588 -723883915 -723829871 -723768264 -723761797 -723732702 -723723973 -723717996 -723701205 -723643248 -723512094 -723484428 -723427884 -723424809 -723404383 -723366745 -723300078 -723279078 -723215240 -723173775 -723146847 -723142975 -723141012 -723130011 -723066683 -722966277 -722939743 -722916077 -722863116 -722748089 -722721889 -722685157 -722675780 -722659877 -722659440 -722646926 -722622176 -722507653 -722495053 -722483850 -722482286 -722476813 -722470133 -722356305 -722345371 -722266280 -722152221 -722146540 -722144586 -722097279 -722033489 -722003618 -721986787 -721953663 -721845513 -721819287 -721750006 -721731128 -721695755 -721534796 -721517483 -721509409 -721473294 -721386123 -721376206 -721362227 -721310594 -721279784 -721273902 -721267220 -721258781 -721244791 -721240420 -721211827 -721181278 -721164974 -721143974 -721028908 -720966428 -720925954 -720915524 -720914932 -720904929 -720836387 -720751489 -720705586 -720700898 -720675346 -720635255 -720596975 -720587305 -720564876 -720487956 -720444906 -720429964 -720359560 -720293845 -720257801 -720231860 -720191729 -720191033 -720189405 -720179309 -720146460 -720094400 -720069341 -720068186 -720059662 -720045215 -720019866 -719987603 -719983055 -719899520 -719896714 -719896140 -719856739 -719841718 -719810989 -719776802 -719771476 -719731347 -719659696 -719570183 -719551244 -719550374 -719485040 -719482096 -719438088 -719414460 -719362169 -719327933 -719325250 -719319168 -719251390 -719234149 -719185085 -719154988 -719135685 -719109147 -718977338 -718917027 -718907620 -718891090 -718883996 -718870961 -718844586 -718832278 -718808589 -718791377 -718790777 -718781083 -718750588 -718680273 -718567988 -718476490 -718383963 -718382908 -718252409 -718227818 -718179489 -718177492 -718159631 -718147962 -718132884 -718132351 -718127760 -717961545 -717959773 -717929364 -717897911 -717889076 -717851183 -717820795 -717794717 -717707005 -717682483 -717678170 -717645694 -717630394 -717571653 -717569344 -717475278 -717454682 -717427979 -717352268 -717335074 -717310034 -717307995 -717287471 -717271704 -717177659 -717098730 -717075069 -717064555 -716995153 -716949133 -716709010 -716680209 -716571067 -716550789 -716507116 -716438634 -716388244 -716380600 -716370768 -716353305 -716346610 -716321906 -716204552 -716081074 -716065178 -715904278 -715801943 -715776384 -715747375 -715707527 -715703126 -715618415 -715566612 -715551107 -715547083 -715533003 -715520272 -715460185 -715429309 -715366999 -715363320 -715352487 -715346475 -715314483 -715246304 -715221871 -715146371 -715101078 -715090907 -714968255 -714956459 -714924555 -714897940 -714867116 -714855711 -714769078 -714752566 -714715600 -714672635 -714668325 -714606748 -714606098 -714585244 -714583871 -714583079 -714569906 -714565838 -714545379 -714490457 -714489342 -714429296 -714377202 -714189601 -714165324 -714164518 -714062697 -713988283 -713975462 -713908002 -713808369 -713773871 -713751352 -713746286 -713744340 -713705896 -713670225 -713628433 -713627591 -713591818 -713522833 -713412736 -713354164 -713353752 -713268022 -713262436 -713254301 -713236108 -713187984 -713187314 -713183001 -713167629 -713147820 -713073478 -713019605 -713019269 -712949240 -712910812 -712884624 -712872044 -712841935 -712793764 -712743834 -712682095 -712631802 -712621912 -712532694 -712527946 -712506920 -712490445 -712451578 -712442729 -712411712 -712215383 -712169767 -712167127 -712147203 -712137264 -712137161 -712099573 -712087293 -712065727 -712053478 -712032878 -712027591 -711994259 -711971803 -711958258 -711953978 -711947132 -711941514 -711922826 -711912926 -711905568 -711866559 -711712102 -711688688 -711672780 -711658814 -711653224 -711594719 -711558370 -711556166 -711542667 -711520560 -711502927 -711485964 -711455028 -711409180 -711367793 -711365324 -711299095 -711247213 -711206680 -711204669 -711126890 -711115343 -711104370 -711100949 -711076747 -711074595 -711051973 -711026262 -710995034 -710988625 -710977663 -710969796 -710928487 -710907985 -710878507 -710875721 -710806331 -710779093 -710778596 -710711015 -710709741 -710685337 -710658158 -710635559 -710631371 -710617089 -710541339 -710525862 -710523233 -710496855 -710487104 -710424589 -710419212 -710347786 -710252291 -710247588 -710244172 -710107766 -710091243 -710081975 -710055016 -710041685 -710021839 -710003804 -709958006 -709951502 -709926154 -709897893 -709872939 -709781191 -709774261 -709757649 -709732454 -709718907 -709713250 -709687016 -709629583 -709620477 -709602081 -709542025 -709533678 -709505108 -709411633 -709363215 -709321070 -709269056 -709219822 -709201676 -709190167 -709168712 -709151063 -709145130 -709136645 -708992007 -708935086 -708928299 -708860974 -708801553 -708772375 -708760739 -708730659 -708703082 -708647128 -708576733 -708502118 -708443198 -708394929 -708328965 -708223211 -708127183 -708043139 -708026610 -707982338 -707941925 -707928329 -707918085 -707817844 -707816611 -707757296 -707738461 -707676603 -707670785 -707668834 -707628166 -707575448 -707541937 -707507746 -707503951 -707464509 -707367906 -707365979 -707289196 -707287028 -707190182 -707148222 -707129347 -707122650 -707092515 -707086939 -707068655 -707003975 -706996340 -706936674 -706930472 -706921750 -706857767 -706724917 -706632610 -706588180 -706582642 -706464722 -706421959 -706394693 -706386455 -706361915 -706214660 -706207805 -706193465 -706151498 -706151345 -706142858 -706081090 -706057653 -706031597 -706025572 -705896419 -705877956 -705874479 -705866310 -705767580 -705764650 -705739158 -705711481 -705579079 -705531864 -705500168 -705496282 -705495207 -705439308 -705388199 -705353161 -705349748 -705277889 -705155698 -705144329 -705137528 -705136389 -705110973 -705102197 -705097192 -704943879 -704937185 -704933680 -704855150 -704853928 -704820299 -704794208 -704770325 -704758160 -704752227 -704698669 -704697304 -704547749 -704466697 -704417461 -704407800 -704384158 -704341235 -704318800 -704316504 -704300910 -704272646 -704261840 -704172120 -704159239 -704034096 -704020548 -704015812 -704006435 -703960877 -703914960 -703908722 -703869822 -703856773 -703805360 -703803377 -703753518 -703748055 -703576624 -703550027 -703514214 -703496276 -703482092 -703468747 -703464590 -703395855 -703344019 -703332913 -703268156 -703222534 -703205786 -703162744 -703159958 -703144550 -703072737 -703028446 -703002090 -702994111 -702881442 -702776345 -702773000 -702638129 -702622852 -702605979 -702595940 -702564871 -702545555 -702382500 -702375906 -702365386 -702080086 -702041649 -702027829 -702027333 -702013328 -701987281 -701965201 -701953041 -701912220 -701911246 -701894446 -701882142 -701754451 -701710058 -701647207 -701629316 -701564741 -701555660 -701550769 -701549645 -701539381 -701536901 -701526858 -701507771 -701497210 -701428017 -701394050 -701375735 -701351625 -701316078 -701273100 -701104949 -701097805 -701091999 -701069439 -701062998 -701062920 -701049001 -700994287 -700989226 -700965223 -700917796 -700870141 -700855829 -700843333 -700790504 -700780338 -700754066 -700733641 -700625402 -700623827 -700615092 -700603208 -700561040 -700423581 -700420534 -700417616 -700402014 -700378932 -700351577 -700345610 -700337195 -700248155 -700238562 -700186427 -700185638 -700143374 -700108630 -700075218 -700073501 -700069239 -700061788 -700012459 -699980552 -699961009 -699909008 -699883640 -699869312 -699804509 -699762301 -699742068 -699732479 -699556526 -699441202 -699370711 -699369377 -699368819 -699355088 -699293835 -699287472 -699260918 -699260091 -699230594 -699201272 -699169635 -699089113 -699050518 -699013246 -698946202 -698939165 -698934533 -698899786 -698887128 -698883930 -698880210 -698838416 -698807649 -698785765 -698700492 -698590635 -698567680 -698547651 -698521483 -698503443 -698477141 -698405048 -698241673 -698231044 -698224279 -698115626 -698110959 -698088829 -698078471 -697988722 -697904482 -697897273 -697895376 -697840072 -697804547 -697795840 -697751597 -697686571 -697649575 -697586425 -697513289 -697484039 -697373267 -697366083 -697270070 -697253541 -697220210 -697200567 -697170630 -697119334 -697076066 -697075689 -697010118 -696989753 -696939918 -696896629 -696831408 -696771734 -696716076 -696675731 -696646682 -696608011 -696534358 -696531442 -696508006 -696498545 -696472708 -696472277 -696364788 -696358888 -696265300 -696110819 -696092575 -696078690 -695952202 -695926701 -695820506 -695703902 -695701925 -695683062 -695669757 -695640393 -695631285 -695568971 -695554169 -695497186 -695492330 -695489574 -695486939 -695454071 -695451020 -695379470 -695377589 -695363243 -695326349 -695263357 -695196276 -695195038 -695188976 -695187991 -695160212 -695128970 -695114747 -695093714 -695091869 -695033553 -694961516 -694881886 -694859724 -694845486 -694771584 -694748717 -694663339 -694586685 -694479324 -694391401 -694352622 -694337284 -694272234 -694240837 -694197045 -694168210 -694085824 -694063994 -694011648 -693996484 -693753416 -693753170 -693752764 -693739043 -693617156 -693547713 -693505829 -693505040 -693418953 -693386190 -693380603 -693354831 -693284504 -693160997 -693129764 -693121004 -693045381 -693038174 -693026506 -693016228 -692891338 -692885951 -692862652 -692851768 -692836132 -692803629 -692783804 -692779124 -692777853 -692775105 -692762948 -692754003 -692696659 -692660800 -692590629 -692585137 -692557104 -692533226 -692431124 -692403515 -692343217 -692315732 -692285428 -692256541 -692209262 -692184491 -692137790 -692095488 -691965915 -691927317 -691892440 -691872357 -691829528 -691820188 -691730304 -691717300 -691692109 -691627820 -691595286 -691591466 -691506563 -691355433 -691340029 -691330846 -691311333 -691272456 -691261843 -691254430 -691208188 -691205946 -691169616 -691142871 -691116986 -691090900 -691025166 -691000980 -690950498 -690944040 -690891633 -690889511 -690799031 -690750834 -690748859 -690741318 -690692103 -690623900 -690576685 -690574036 -690571885 -690568519 -690555344 -690544050 -690542450 -690532113 -690532013 -690420630 -690417320 -690380668 -690333766 -690169606 -690128065 -690110507 -690088208 -690080293 -690050364 -690025910 -689978477 -689900326 -689862910 -689861557 -689832182 -689816590 -689783328 -689773817 -689772015 -689770443 -689761192 -689686901 -689606909 -689582353 -689568047 -689564148 -689406136 -689390635 -689303443 -689205487 -689107601 -689099238 -689078404 -689070195 -689064286 -689031700 -688999922 -688938916 -688937856 -688889783 -688867515 -688778214 -688735323 -688731913 -688721427 -688718238 -688625210 -688573114 -688535036 -688483567 -688434369 -688430789 -688427613 -688424132 -688388049 -688375006 -688352569 -688339763 -688323431 -688277685 -688250370 -688125736 -688121361 -688080982 -688060161 -687920974 -687896042 -687741806 -687730034 -687724708 -687688477 -687506013 -687482814 -687436526 -687370673 -687341805 -687080697 -687079325 -686933610 -686919409 -686886668 -686835552 -686785905 -686749493 -686701328 -686612246 -686578627 -686532964 -686530666 -686504739 -686442261 -686429184 -686380104 -686315093 -686277697 -686251248 -686226045 -686202319 -686152727 -686115590 -686095033 -686093497 -686082476 -686009971 -685860343 -685847985 -685847695 -685728450 -685723027 -685653328 -685615972 -685603284 -685575631 -685571948 -685454598 -685426851 -685419913 -685330881 -685273585 -685201195 -685186141 -685161607 -685152711 -685140973 -685130681 -685116223 -685012247 -684997749 -684967921 -684932077 -684830069 -684822519 -684779731 -684726934 -684717502 -684630879 -684589240 -684587342 -684579523 -684574014 -684488626 -684468994 -684442874 -684419016 -684311671 -684256334 -684204495 -684176323 -684171070 -684110844 -684065064 -684019309 -683954741 -683921320 -683852362 -683838489 -683831930 -683698711 -683695466 -683597828 -683574814 -683518060 -683489752 -683484334 -683465632 -683425326 -683384699 -683336466 -683252180 -683250504 -683216741 -683181686 -683169802 -683164335 -683154272 -683141350 -683080884 -683073440 -682982087 -682956114 -682953203 -682833792 -682806559 -682738654 -682728458 -682721454 -682718338 -682705252 -682680837 -682590288 -682566199 -682453925 -682373247 -682283549 -682253141 -682186625 -682103639 -682098526 -682040471 -681980944 -681977109 -681974227 -681919277 -681899265 -681796465 -681788704 -681687015 -681658053 -681652090 -681631054 -681625588 -681568155 -681565411 -681548727 -681536774 -681513171 -681475617 -681469664 -681403408 -681347962 -681312317 -681261374 -681215794 -681078445 -681021851 -680965122 -680957780 -680919611 -680916851 -680903415 -680888455 -680807852 -680653355 -680613811 -680524190 -680520419 -680516865 -680502607 -680500903 -680486248 -680438215 -680428046 -680420405 -680372881 -680370612 -680356691 -680331118 -680320994 -680226909 -680212359 -680211631 -680186215 -680173791 -680170649 -680149671 -680141701 -680037715 -679959953 -679918562 -679904033 -679845873 -679781270 -679727135 -679692852 -679666493 -679646183 -679642277 -679633352 -679531061 -679500352 -679468284 -679316490 -679242307 -679167959 -679155067 -679135213 -678925698 -678890750 -678855857 -678844005 -678802642 -678800613 -678785974 -678737581 -678707114 -678700190 -678686281 -678649490 -678592276 -678385166 -678270106 -678252763 -678221779 -678207713 -678129230 -678049643 -678042403 -677905175 -677898702 -677842795 -677836129 -677832031 -677822823 -677804933 -677795605 -677705542 -677684512 -677664524 -677642547 -677621149 -677532947 -677529612 -677501728 -677458686 -677431865 -677377384 -677254225 -677203803 -677200442 -677181606 -677134903 -677042353 -676852804 -676788791 -676777081 -676769464 -676759816 -676707783 -676678121 -676668062 -676624470 -676572926 -676551519 -676483567 -676462245 -676427509 -676396635 -676394033 -676334448 -676323209 -676313273 -676280466 -676190411 -676145576 -676129890 -676064304 -676060520 -676058065 -676015164 -676008328 -676003707 -675996943 -675973696 -675969665 -675914869 -675826799 -675786711 -675572969 -675454829 -675430119 -675377765 -675321182 -675275307 -675224349 -675224184 -675200295 -675189772 -675119366 -675099933 -675081305 -675073430 -675051853 -675036186 -674988964 -674983124 -674969127 -674963293 -674896009 -674848838 -674828633 -674781662 -674652410 -674633352 -674560433 -674551683 -674512670 -674500938 -674458122 -674436788 -674399016 -674393140 -674354144 -674325369 -674217622 -674201822 -674169457 -674140147 -674139022 -674076022 -674051400 -673995488 -673966965 -673959192 -673945280 -673896928 -673888189 -673887186 -673882395 -673808749 -673776099 -673770914 -673769275 -673761998 -673753718 -673743314 -673693997 -673681319 -673630973 -673598579 -673523073 -673504110 -673430737 -673422241 -673408445 -673386679 -673358106 -673335281 -673325844 -673185627 -673167083 -673095405 -672960662 -672933483 -672858067 -672786162 -672764121 -672720528 -672705468 -672676514 -672657725 -672619952 -672598046 -672576895 -672553640 -672483467 -672458554 -672457864 -672408323 -672359757 -672356515 -672354700 -672351312 -672295984 -672240166 -672226117 -672223552 -672173070 -672157614 -672125086 -672123607 -672059387 -672058322 -672040850 -672037115 -672023057 -672017529 -671979950 -671957018 -671894459 -671879523 -671853300 -671796049 -671748042 -671743764 -671723899 -671704103 -671702104 -671663762 -671599122 -671584966 -671572862 -671565326 -671517847 -671493899 -671475706 -671452557 -671448751 -671404911 -671325416 -671315610 -671267994 -671201656 -671187093 -671182345 -671176471 -671102677 -671077997 -671005920 -670889734 -670861104 -670827490 -670801661 -670789372 -670754657 -670713035 -670685071 -670625956 -670588299 -670528966 -670528941 -670513978 -670493559 -670475707 -670421830 -670318029 -670274703 -670262563 -670249227 -670239127 -670159262 -670116660 -670089101 -670085137 -670030695 -670029031 -670009798 -669990078 -669963019 -669926401 -669874376 -669841606 -669725733 -669699910 -669620450 -669492170 -669483375 -669478198 -669463260 -669448793 -669427733 -669386210 -669362117 -669331573 -669329716 -669303891 -669257652 -669250560 -669226429 -669155996 -669081888 -669040311 -669008993 -669001901 -668998065 -668975328 -668962974 -668962334 -668939724 -668924694 -668887362 -668856461 -668830654 -668808846 -668794769 -668758354 -668632913 -668603485 -668600039 -668578099 -668577184 -668552650 -668505732 -668439642 -668391027 -668373704 -668345194 -668281304 -668280078 -668275505 -668269037 -668203943 -668166878 -668144985 -668123771 -668093268 -668052719 -668041724 -667990348 -667948462 -667928262 -667871524 -667806680 -667732510 -667673353 -667673008 -667663414 -667616688 -667547602 -667425547 -667409436 -667398952 -667382164 -667370889 -667273872 -667240386 -667226776 -667211571 -667076637 -667073535 -667073480 -667026553 -666903698 -666863140 -666860294 -666851608 -666832488 -666827050 -666813165 -666801211 -666772896 -666768379 -666755836 -666735562 -666732949 -666718491 -666703593 -666672736 -666669667 -666667875 -666647311 -666598656 -666385550 -666378681 -666324380 -666269302 -666255506 -666240773 -666224805 -666224503 -666221758 -666215409 -666208284 -666204376 -666193121 -666161614 -666155931 -666136468 -666133472 -666120960 -666118624 -666109221 -666092939 -665968619 -665957118 -665955787 -665920712 -665884784 -665863406 -665858229 -665818462 -665811570 -665799850 -665784709 -665750658 -665719842 -665660916 -665618708 -665610496 -665575576 -665518285 -665509399 -665494203 -665443952 -665411184 -665384635 -665358288 -665348980 -665347492 -665313718 -665236087 -665177353 -665077402 -665002473 -664999929 -664908374 -664880937 -664816779 -664773741 -664764484 -664759317 -664691309 -664683062 -664661413 -664607457 -664544527 -664470526 -664454567 -664419991 -664406444 -664341673 -664265046 -664192798 -664183565 -664137249 -664126451 -664108071 -664077925 -664054929 -664007122 -663980278 -663908465 -663904353 -663835622 -663829520 -663815513 -663799650 -663759286 -663756969 -663717631 -663706619 -663683506 -663679368 -663660648 -663564915 -663460072 -663438336 -663438303 -663349956 -663346161 -663343728 -663280844 -663223547 -663124405 -663104664 -663069613 -663016809 -662917063 -662906329 -662889495 -662811274 -662779509 -662740718 -662700999 -662678715 -662676183 -662652998 -662621367 -662603708 -662521877 -662451448 -662375755 -662371392 -662361483 -662352854 -662323158 -662313955 -662278190 -662261578 -662113155 -662033407 -662007686 -662005739 -661952318 -661856666 -661828687 -661790002 -661766571 -661709622 -661546604 -661529421 -661523845 -661510589 -661504784 -661496042 -661391951 -661385802 -661365242 -661268615 -661264336 -661152441 -661107140 -661091151 -661082958 -661048896 -661024830 -661006147 -660993047 -660956429 -660936647 -660911453 -660709441 -660708898 -660687398 -660674249 -660643073 -660599017 -660580831 -660573406 -660548950 -660530345 -660517173 -660496576 -660440742 -660392400 -660373163 -660317907 -660314698 -660244334 -660129055 -660119379 -659956744 -659933041 -659867779 -659772757 -659755271 -659668409 -659541296 -659517693 -659463629 -659452332 -659402882 -659370588 -659358356 -659268117 -659167020 -659166641 -659089586 -659072637 -659004977 -658986246 -658940874 -658890762 -658885152 -658849761 -658804953 -658753342 -658708382 -658679858 -658678331 -658616664 -658596769 -658596275 -658581808 -658550457 -658539056 -658490280 -658481017 -658478148 -658466516 -658433133 -658375241 -658370876 -658307402 -658298683 -658270616 -658254808 -658209855 -658207310 -658188318 -658166476 -658082632 -658070530 -658062610 -658049944 -658032989 -658014861 -658000745 -657968512 -657962252 -657950018 -657949251 -657885800 -657885603 -657861050 -657839423 -657824166 -657821968 -657805344 -657794210 -657737951 -657724720 -657672556 -657605475 -657602640 -657546886 -657520828 -657512481 -657496371 -657491703 -657454559 -657448558 -657446993 -657417733 -657415552 -657378914 -657353794 -657338637 -657270482 -657237982 -657126853 -657058051 -657050281 -657035571 -657012319 -656980875 -656912328 -656880252 -656846191 -656837629 -656724234 -656634837 -656507660 -656487793 -656474653 -656432898 -656366653 -656349219 -656331069 -656320529 -656091299 -656080286 -656011451 -656001019 -655866847 -655862952 -655841212 -655840430 -655822303 -655818480 -655800138 -655731284 -655711145 -655610242 -655591159 -655568946 -655485746 -655417341 -655352448 -655325225 -655185798 -655082858 -654954335 -654953855 -654915995 -654904486 -654806492 -654728508 -654720320 -654711760 -654640503 -654632649 -654576663 -654560903 -654553608 -654470109 -654434893 -654395454 -654273340 -654215627 -654214023 -654197419 -654145052 -654090202 -654003908 -653997651 -653997217 -653958766 -653943556 -653921968 -653778904 -653758744 -653715628 -653638531 -653630099 -653617155 -653597458 -653581882 -653574622 -653565790 -653563310 -653540430 -653515872 -653486435 -653444748 -653426585 -653420941 -653420011 -653398134 -653365018 -653321256 -653305297 -653302572 -653302053 -653296873 -653288563 -653288228 -653251577 -653236587 -653214481 -653154824 -653137379 -653076406 -653058125 -653045200 -652984471 -652972257 -652959111 -652916634 -652913083 -652901689 -652884097 -652874633 -652859771 -652823389 -652805983 -652746614 -652724364 -652657954 -652616295 -652500580 -652483204 -652404680 -652385359 -652323473 -652285957 -652269120 -652225352 -652162317 -652161625 -652143486 -652081334 -652010341 -651981877 -651954670 -651938714 -651903782 -651854401 -651804795 -651802382 -651799984 -651799389 -651797454 -651775429 -651742338 -651709480 -651664771 -651656985 -651654698 -651645015 -651573340 -651571226 -651547493 -651477587 -651467938 -651467501 -651458864 -651411690 -651301014 -651268073 -651244391 -651242499 -651226329 -651223305 -651112980 -651090161 -651068390 -651034333 -651033019 -651022155 -650999269 -650929187 -650873416 -650855953 -650819410 -650743040 -650733734 -650698482 -650654419 -650563563 -650551647 -650503819 -650483464 -650441437 -650396825 -650344657 -650276010 -650217734 -650195520 -649930530 -649859808 -649849986 -649822238 -649814144 -649795991 -649792244 -649576758 -649568017 -649534576 -649498864 -649462716 -649434336 -649420641 -649412584 -649362163 -649324535 -649187292 -649149287 -649128452 -649097559 -649093749 -649055853 -649043235 -649020798 -649006397 -648993854 -648967771 -648939962 -648853817 -648837335 -648789052 -648782501 -648760529 -648724719 -648708785 -648643573 -648629465 -648598660 -648593903 -648571553 -648565194 -648556415 -648547036 -648538108 -648534751 -648385662 -648337079 -648325532 -648320426 -648280668 -648266547 -648237152 -648151633 -648120376 -648108551 -648097487 -648065696 -648059669 -648050214 -647940293 -647917866 -647914111 -647876614 -647651326 -647593834 -647498187 -647422481 -647403891 -647282442 -647240046 -647183894 -647127081 -647066535 -647062541 -647028745 -647028375 -647025523 -647023401 -646979378 -646953826 -646946721 -646928268 -646898392 -646859431 -646820297 -646816937 -646798937 -646797602 -646789717 -646779807 -646729342 -646714974 -646635591 -646632660 -646572251 -646537454 -646531425 -646502983 -646490308 -646476328 -646473768 -646434920 -646388962 -646382960 -646369432 -646339622 -646286616 -646155883 -646108350 -646098124 -646097399 -646022690 -646005695 -645985828 -645925073 -645907644 -645884661 -645877070 -645865589 -645841835 -645809610 -645798479 -645778427 -645728814 -645691731 -645603987 -645595974 -645555167 -645540309 -645505386 -645497548 -645486684 -645444761 -645432560 -645429472 -645424662 -645392314 -645362524 -645353023 -645341725 -645305290 -645275867 -645262122 -645236775 -645184694 -645157257 -645141786 -645074932 -645009323 -645003209 -644993166 -644922217 -644904764 -644885028 -644881326 -644866961 -644848087 -644841197 -644746438 -644695923 -644581959 -644574982 -644556902 -644520755 -644516380 -644493836 -644395325 -644365985 -644335235 -644333556 -644296911 -644280507 -644272571 -644244710 -644222801 -644176217 -644131625 -644089127 -644055966 -644007494 -643982332 -643960032 -643934072 -643871840 -643861338 -643852000 -643847627 -643822643 -643818770 -643788671 -643671713 -643624481 -643605203 -643577116 -643574479 -643555448 -643530623 -643523292 -643504748 -643491825 -643426894 -643408632 -643377503 -643366094 -643349900 -643254592 -643252545 -643228039 -643205330 -643195819 -643172830 -643166953 -643061772 -643051775 -643010912 -643003995 -642945152 -642941206 -642864756 -642859308 -642844369 -642721286 -642688472 -642674967 -642622607 -642507701 -642500116 -642472785 -642415959 -642397869 -642392910 -642274608 -642264919 -642227901 -642226879 -642203194 -642146903 -642139678 -642079523 -641944354 -641884903 -641854769 -641843293 -641779357 -641721313 -641701609 -641647219 -641555989 -641550812 -641542788 -641538649 -641453248 -641388343 -641379335 -641355021 -641332937 -641292103 -641280429 -641198337 -641193504 -641112583 -641100437 -641083886 -641050989 -641011108 -640993362 -640882689 -640827464 -640819581 -640796015 -640726776 -640701911 -640692693 -640666205 -640617010 -640544829 -640512281 -640503416 -640393236 -640385506 -640379369 -640368040 -640343918 -640342771 -640337872 -640312937 -640299679 -640243430 -640209303 -640154181 -640122541 -640107886 -640098846 -640083463 -640079147 -640068658 -640003028 -639934292 -639929485 -639913226 -639886441 -639879487 -639870236 -639816755 -639756068 -639717152 -639698404 -639694708 -639603333 -639572179 -639455246 -639396572 -639317769 -639289258 -639215416 -639205459 -639168404 -639136761 -639135151 -639080733 -639046856 -639034838 -639002598 -638973249 -638866140 -638845043 -638837640 -638829451 -638778556 -638761220 -638724418 -638628133 -638578420 -638566142 -638563936 -638422906 -638419193 -638416988 -638416726 -638409572 -638399261 -638381502 -638337159 -638281163 -638212347 -638107616 -638089075 -638030328 -637990322 -637949491 -637929645 -637870383 -637818938 -637818063 -637796864 -637750435 -637709155 -637681766 -637665833 -637624874 -637584990 -637531365 -637521383 -637461820 -637375056 -637360717 -637341828 -637326443 -637262819 -637212578 -637212206 -637192361 -637174129 -637140204 -637072933 -637065835 -636966682 -636910831 -636900359 -636868849 -636768635 -636767697 -636762443 -636754414 -636727626 -636726538 -636723847 -636679342 -636638010 -636562887 -636554856 -636533801 -636522422 -636480521 -636428829 -636428325 -636385518 -636359557 -636305930 -636300657 -636261236 -636256728 -636222369 -636210483 -636148597 -636109672 -636098731 -636008031 -635996486 -635956367 -635917537 -635911555 -635877008 -635855291 -635854261 -635842079 -635831641 -635787348 -635775700 -635730765 -635726285 -635676942 -635676499 -635667841 -635664964 -635581729 -635561381 -635555611 -635550889 -635419834 -635409418 -635403744 -635385443 -635353172 -635288270 -635268915 -635268013 -635209542 -635190798 -635182291 -635125456 -635039902 -635009389 -634923385 -634841752 -634819830 -634747194 -634695459 -634637733 -634577564 -634556576 -634535357 -634523297 -634518514 -634515526 -634506530 -634490352 -634469645 -634429200 -634389340 -634354438 -634263400 -634225527 -634203268 -634116898 -634087532 -634083514 -634049452 -634025121 -634018683 -633989990 -633960934 -633958759 -633949312 -633945787 -633920693 -633847349 -633825950 -633791016 -633758847 -633748746 -633680971 -633658894 -633623196 -633600299 -633593568 -633585298 -633557407 -633557280 -633339085 -633282728 -633252548 -633250634 -633184886 -633168345 -633125171 -633074379 -633019185 -633011154 -632984464 -632948042 -632947684 -632924663 -632876077 -632791587 -632757375 -632693299 -632641076 -632600448 -632562893 -632522088 -632483287 -632473478 -632463890 -632424437 -632397517 -632313300 -632295464 -632213975 -632211189 -632192707 -632161563 -632063986 -632051332 -631940497 -631939340 -631904162 -631673284 -631662056 -631648346 -631619845 -631614616 -631575298 -631544475 -631471827 -631428815 -631401160 -631375767 -631351693 -631328942 -631325928 -631307757 -631302376 -631281417 -631253988 -631239632 -631181490 -631137567 -631117388 -631063336 -631040984 -631035341 -631013675 -631000016 -630983136 -630971317 -630967754 -630937079 -630878297 -630804085 -630765710 -630703031 -630650091 -630635008 -630505840 -630498438 -630490843 -630472854 -630468787 -630417446 -630355857 -630346808 -630332888 -630307234 -630301629 -630295343 -630158002 -630089450 -630083746 -630039279 -630024928 -629941472 -629918619 -629896673 -629778483 -629769816 -629746567 -629745278 -629731960 -629727102 -629700482 -629677819 -629619153 -629582872 -629538425 -629515452 -629482326 -629472896 -629457817 -629334111 -629240310 -629121947 -629078138 -628986453 -628936935 -628923474 -628921122 -628910974 -628860901 -628846801 -628830926 -628792872 -628769277 -628701554 -628677558 -628636549 -628595419 -628542243 -628534320 -628528953 -628525564 -628489453 -628478641 -628426974 -628363290 -628358331 -628341345 -628315859 -628236625 -628223002 -628193735 -628132225 -628112149 -628084594 -628071640 -628063512 -628040286 -628028340 -628020361 -628011045 -628007156 -627986163 -627982162 -627981731 -627889333 -627857046 -627849621 -627799484 -627703558 -627522689 -627506522 -627479483 -627442409 -627378008 -627377585 -627324287 -627322900 -627286721 -627271598 -627258265 -627242525 -627233343 -627232578 -627219950 -627169451 -627074678 -627033794 -626970022 -626907104 -626850486 -626806507 -626763277 -626627764 -626625686 -626584989 -626582611 -626565045 -626557693 -626501852 -626475956 -626401935 -626392387 -626363666 -626360955 -626285208 -626281617 -626213627 -626156782 -626145886 -626141932 -626048277 -626025239 -625994847 -625932298 -625882121 -625795202 -625782436 -625657076 -625594113 -625445257 -625400473 -625358688 -625354777 -625351690 -625346109 -625319786 -625274652 -625271339 -625233031 -625150557 -625108943 -625074456 -625023541 -625020917 -624971557 -624953633 -624940417 -624863303 -624818102 -624789677 -624788966 -624777940 -624680954 -624645386 -624627410 -624561089 -624504389 -624444066 -624425550 -624402200 -624357332 -624347789 -624343023 -624342653 -624339177 -624292478 -624276771 -624259123 -624229635 -624222222 -624126963 -624117817 -624105840 -624019371 -623978334 -623941756 -623936971 -623933302 -623856992 -623839693 -623831889 -623773666 -623660233 -623650537 -623616819 -623608315 -623598649 -623591098 -623590395 -623587952 -623541097 -623477493 -623416384 -623399933 -623392662 -623388486 -623377503 -623342303 -623326994 -623232257 -623225832 -623220674 -623177525 -623068126 -623053455 -622987257 -622982436 -622926454 -622908652 -622904748 -622836884 -622811013 -622807556 -622784424 -622772966 -622754188 -622700868 -622693195 -622691743 -622660105 -622624594 -622566156 -622563661 -622527744 -622516193 -622430915 -622332681 -622267112 -622168191 -622133251 -622110735 -622087993 -622056433 -622045935 -622043373 -622034780 -622031992 -621875367 -621855606 -621782784 -621754933 -621712833 -621703905 -621700214 -621677892 -621610725 -621606787 -621605432 -621589788 -621545388 -621536114 -621527544 -621499833 -621472664 -621385654 -621383931 -621380209 -621344765 -621321206 -621306059 -621230465 -621169760 -621169098 -621120788 -621093679 -621092507 -621088250 -621071766 -621040640 -621008979 -621006201 -620998593 -620983510 -620951301 -620913220 -620903048 -620795371 -620753025 -620747325 -620730336 -620698122 -620689285 -620661929 -620595882 -620571037 -620563525 -620505813 -620489418 -620479520 -620474948 -620434298 -620401803 -620359139 -620290821 -620253043 -620244082 -620221383 -620217608 -620176204 -620169211 -620168548 -620119821 -620110234 -620093047 -620061740 -620004128 -619992346 -619978582 -619933886 -619909468 -619868376 -619829501 -619813097 -619793742 -619751770 -619729613 -619702471 -619655846 -619651091 -619509765 -619504467 -619482121 -619372904 -619324909 -619309996 -619283323 -619282627 -619204228 -619193570 -619160233 -619105842 -619094096 -619087017 -618991716 -618982136 -618943087 -618936525 -618895143 -618863300 -618806449 -618800723 -618767353 -618758199 -618739863 -618733643 -618709941 -618708605 -618573441 -618490367 -618484656 -618460252 -618450448 -618449444 -618413786 -618399817 -618398672 -618376130 -618360007 -618347258 -618335014 -618290157 -618271034 -618221976 -618213298 -618169987 -618166102 -618156563 -618144781 -618122124 -618064963 -618024911 -617951226 -617938492 -617895441 -617895025 -617868747 -617849838 -617692775 -617669827 -617605278 -617596663 -617577348 -617528462 -617458564 -617390473 -617357908 -617356301 -617344645 -617331352 -617145143 -617120125 -617111498 -617092274 -617074857 -617064769 -617037353 -617018598 -616940018 -616901627 -616900827 -616875576 -616782624 -616770933 -616690578 -616650771 -616640280 -616601331 -616557076 -616520699 -616488156 -616484582 -616483379 -616466688 -616376692 -616358407 -616312290 -616251926 -616175856 -616077126 -616070973 -616058560 -615918461 -615913535 -615896259 -615891693 -615887506 -615881142 -615860104 -615807625 -615789332 -615784119 -615741195 -615719813 -615714423 -615688487 -615687068 -615660600 -615629092 -615594939 -615500908 -615496800 -615478095 -615462035 -615436209 -615398534 -615348790 -615266838 -615243086 -615115812 -615114566 -615052440 -615042355 -615031345 -615018325 -614914362 -614900390 -614841217 -614785584 -614734906 -614730083 -614721728 -614714237 -614699727 -614572875 -614497921 -614451272 -614447488 -614443322 -614427920 -614420695 -614380931 -614355058 -614322047 -614320721 -614298666 -614293460 -614252195 -614174867 -614163767 -614156967 -614097633 -614073741 -614063255 -614039351 -614033999 -614006393 -614004415 -613949521 -613945181 -613912566 -613888296 -613878334 -613798587 -613780745 -613672906 -613567356 -613554075 -613542801 -613458741 -613438861 -613405930 -613387104 -613347043 -613264424 -613262366 -613209627 -613196368 -613184072 -613125288 -613084137 -613065220 -613003032 -612895053 -612792741 -612782694 -612731019 -612681939 -612581200 -612564303 -612536391 -612524409 -612497609 -612355586 -612344750 -612343448 -612333274 -612307444 -612298112 -612289221 -612202145 -612131418 -612118099 -612045558 -611985368 -611979673 -611972965 -611941945 -611933447 -611905530 -611883800 -611800234 -611705644 -611660682 -611616530 -611582848 -611573254 -611561789 -611533437 -611510120 -611477792 -611465319 -611364083 -611285540 -611265384 -611244894 -611230239 -611160533 -611160100 -611138059 -611123608 -611104128 -611083343 -611035252 -610861678 -610852616 -610799618 -610708818 -610683084 -610595708 -610580994 -610564192 -610536260 -610412104 -610393537 -610377299 -610374644 -610324339 -610313859 -610219501 -610197263 -610155716 -610070161 -610058701 -610025315 -610009006 -609984968 -609965239 -609879439 -609838571 -609781171 -609775958 -609756611 -609739474 -609697011 -609656417 -609581019 -609518743 -609518316 -609443408 -609398399 -609393420 -609391506 -609360713 -609345366 -609307089 -609244071 -609191273 -609176943 -609140013 -608929989 -608875871 -608869490 -608866699 -608855749 -608735269 -608708412 -608638063 -608610931 -608587508 -608530085 -608516824 -608486784 -608460614 -608239469 -608164607 -608150637 -608112586 -608042126 -607978345 -607955747 -607884802 -607850495 -607821355 -607789039 -607753547 -607724419 -607720624 -607718424 -607715931 -607586437 -607582036 -607579467 -607540485 -607504509 -607469646 -607469051 -607459670 -607440537 -607425751 -607378965 -607286865 -607224643 -607215746 -607206806 -607138973 -607138837 -607138040 -607116412 -607080366 -607068485 -606969581 -606963185 -606951119 -606937865 -606918410 -606914058 -606872674 -606850140 -606835718 -606798593 -606778885 -606755481 -606635401 -606635368 -606613715 -606600081 -606563354 -606487251 -606433997 -606423261 -606380297 -606366061 -606336241 -606267828 -606237558 -606176401 -606170978 -606167010 -606157409 -606125409 -606080488 -606045453 -606039998 -606035469 -606027194 -605987186 -605958832 -605840665 -605788884 -605726025 -605676136 -605662022 -605591202 -605539960 -605478492 -605472331 -605423236 -605337420 -605337382 -605317393 -605270480 -605250047 -605193274 -605141708 -605091033 -605078766 -605029499 -605028490 -604955992 -604931011 -604928589 -604824169 -604815066 -604782046 -604747352 -604673722 -604652705 -604604336 -604600176 -604597517 -604537952 -604492028 -604490590 -604412537 -604408410 -604361688 -604248160 -604234130 -604215556 -604174855 -604150674 -604138243 -604123149 -604030413 -604003815 -603954060 -603953408 -603835005 -603795892 -603763822 -603757217 -603679353 -603656644 -603604613 -603594935 -603577735 -603470338 -603442311 -603326786 -603321920 -603309579 -603288336 -603271717 -603262664 -603092570 -603070941 -603049770 -603046240 -602977874 -602977470 -602941880 -602907403 -602879575 -602862981 -602853312 -602761385 -602760592 -602631481 -602599497 -602563822 -602508471 -602501038 -602452636 -602450149 -602425224 -602384255 -602365498 -602362282 -602350219 -602349900 -602315138 -602314414 -602228070 -602222142 -602213834 -602121856 -602114737 -602038614 -602034833 -602025611 -602010545 -601873691 -601806974 -601802483 -601781457 -601772170 -601543038 -601534448 -601533554 -601522146 -601473082 -601421797 -601343522 -601272011 -601204314 -601194593 -601175074 -601084233 -601065516 -601050492 -601021013 -601007530 -600980534 -600978942 -600978557 -600962052 -600867911 -600637825 -600628445 -600614008 -600579117 -600556332 -600469465 -600459103 -600423399 -600389757 -600363809 -600338089 -600335780 -600334601 -600246247 -600238246 -600228173 -600225582 -600220174 -600150272 -600127492 -600114077 -600074396 -600045218 -599979462 -599935194 -599912770 -599898178 -599811815 -599809980 -599765656 -599753723 -599721555 -599719746 -599708299 -599680684 -599660282 -599634476 -599565130 -599543396 -599507524 -599475849 -599456274 -599434165 -599373385 -599332880 -599331294 -599298688 -599188966 -599157979 -599137334 -599109572 -599081098 -599079502 -599068974 -599067984 -599050373 -599018249 -598991098 -598976255 -598969223 -598839441 -598824652 -598818365 -598812176 -598810184 -598809090 -598775815 -598744771 -598731911 -598714817 -598650208 -598541149 -598505509 -598429763 -598339145 -598271686 -598257713 -598220226 -598206571 -598198154 -598179202 -598154029 -598141104 -598076310 -598074874 -598045376 -598028306 -598020814 -598019918 -597925430 -597916940 -597790992 -597751402 -597565506 -597564001 -597495527 -597471170 -597466866 -597453008 -597372551 -597348097 -597342940 -597310607 -597280665 -597249307 -597227523 -597216993 -597208639 -597201193 -597174455 -597171214 -597143884 -597131120 -597122403 -596995182 -596916943 -596910835 -596881457 -596871177 -596831057 -596827846 -596783510 -596776710 -596762250 -596762203 -596758870 -596737737 -596714456 -596698196 -596685477 -596676941 -596665915 -596601593 -596541584 -596536521 -596536282 -596512631 -596465264 -596376032 -596352154 -596318783 -596305402 -596298040 -596266588 -596216888 -596210535 -596158326 -596154846 -596128780 -596119752 -596102371 -596019530 -595965679 -595884983 -595873678 -595857209 -595853987 -595833450 -595819100 -595777997 -595743508 -595741890 -595738239 -595649075 -595622290 -595601251 -595600644 -595556425 -595539412 -595533924 -595527781 -595516180 -595489017 -595446915 -595430170 -595423794 -595406376 -595391567 -595383961 -595319217 -595310941 -595236099 -595236016 -595229036 -595226401 -595200642 -595155854 -595140704 -595091356 -595071321 -594973296 -594972949 -594968603 -594965056 -594911444 -594877259 -594844440 -594836080 -594783099 -594734272 -594696341 -594675064 -594662461 -594599993 -594589717 -594570312 -594530893 -594508096 -594507542 -594474992 -594449207 -594436305 -594420320 -594393427 -594343650 -594341330 -594317549 -594313106 -594312956 -594299637 -594259556 -594257660 -594248660 -594146178 -594122583 -594118966 -593967748 -593878814 -593797472 -593789892 -593762853 -593746279 -593678596 -593647611 -593645367 -593488796 -593448221 -593442634 -593408401 -593381375 -593331967 -593312671 -593210759 -593191699 -593144833 -593135163 -593129794 -593027828 -593012915 -592864539 -592858687 -592801296 -592758283 -592737597 -592711040 -592579266 -592577069 -592536476 -592521442 -592490233 -592486292 -592481665 -592480425 -592410955 -592382302 -592364672 -592350629 -592338582 -592299798 -592286980 -592211440 -592134317 -592070561 -591996040 -591981856 -591970847 -591908920 -591887670 -591826861 -591806281 -591773368 -591754381 -591748194 -591736484 -591723919 -591704589 -591656942 -591610802 -591605939 -591599232 -591568530 -591491324 -591424688 -591404669 -591334466 -591322883 -591264284 -591232895 -591212336 -591125762 -591057268 -591020579 -591005324 -590998213 -590998045 -590958719 -590854561 -590843078 -590804519 -590772811 -590723653 -590719201 -590703618 -590679852 -590677064 -590660861 -590648487 -590623793 -590602648 -590590113 -590586709 -590584389 -590583742 -590545494 -590506711 -590490534 -590445154 -590409496 -590369817 -590357537 -590347516 -590245659 -590212456 -590178334 -590176897 -590131044 -590110354 -590061532 -590054683 -590027284 -590006930 -589946447 -589936503 -589917872 -589844562 -589797540 -589748759 -589716128 -589679089 -589673105 -589670723 -589614514 -589570558 -589529037 -589521790 -589499021 -589483997 -589483993 -589281026 -589219476 -589176573 -589168050 -589151557 -589141528 -589063078 -589010580 -588985823 -588984577 -588961426 -588910903 -588903621 -588896336 -588775882 -588729488 -588709605 -588696286 -588671317 -588649085 -588630624 -588626069 -588600369 -588530321 -588526653 -588519573 -588495978 -588484673 -588392984 -588375938 -588354083 -588352605 -588243101 -588173167 -588162917 -588050948 -587986563 -587968068 -587964524 -587915338 -587903605 -587875110 -587862389 -587834084 -587814636 -587760039 -587724485 -587712033 -587701780 -587651717 -587589063 -587527931 -587485933 -587386028 -587338652 -587327115 -587276178 -587225287 -587216176 -587191718 -587154813 -587123026 -587084173 -587068757 -587038996 -586959725 -586900115 -586848908 -586808306 -586772454 -586742363 -586741750 -586676901 -586671694 -586521546 -586516458 -586460068 -586401688 -586346933 -586312941 -586303208 -586267537 -586166486 -586143244 -586140209 -586108922 -586082861 -586025272 -585998113 -585985838 -585854066 -585843757 -585780554 -585654925 -585628615 -585622108 -585594364 -585558598 -585543048 -585541492 -585539907 -585530257 -585462017 -585438789 -585332232 -585329692 -585308202 -585256422 -585239751 -585190244 -585083157 -585055349 -585021767 -585006085 -584880825 -584861248 -584823450 -584807524 -584755776 -584745657 -584724119 -584626520 -584618740 -584477960 -584413684 -584412681 -584383589 -584267274 -584242607 -584237430 -584184835 -584177349 -584081405 -583965788 -583919232 -583897136 -583831357 -583787644 -583740080 -583721650 -583714310 -583672231 -583670620 -583633401 -583547369 -583524655 -583467467 -583415225 -583404673 -583225920 -583195575 -583173372 -583083359 -583055485 -582827480 -582816031 -582755118 -582752651 -582740966 -582724047 -582649056 -582529930 -582528416 -582483583 -582461511 -582437862 -582400892 -582261030 -582228903 -582219321 -582200074 -582174565 -582091531 -582076103 -582051104 -582022243 -581904366 -581721494 -581667685 -581613394 -581598248 -581589061 -581533954 -581492018 -581477382 -581466920 -581435091 -581416082 -581375080 -581306443 -581246182 -581176578 -581169044 -581103522 -581028665 -581011055 -581003064 -580995035 -580928404 -580909338 -580879345 -580861855 -580848592 -580830073 -580808926 -580779856 -580729996 -580704787 -580699382 -580687683 -580645989 -580616812 -580555917 -580525616 -580468404 -580431753 -580338046 -580334232 -580297223 -580274617 -580253045 -580228790 -580214135 -580211312 -580175448 -580140866 -580123015 -580077447 -580056058 -579984341 -579964601 -579944934 -579918973 -579906175 -579892419 -579880496 -579824715 -579791279 -579778144 -579774642 -579767086 -579763911 -579731148 -579713045 -579677975 -579645675 -579642899 -579623353 -579602298 -579598745 -579593623 -579527879 -579525235 -579473916 -579440874 -579412998 -579321605 -579299744 -579216337 -579196337 -579188021 -579150050 -579055193 -579025477 -578989119 -578909186 -578899689 -578885070 -578860426 -578853982 -578815106 -578755791 -578724459 -578712899 -578685083 -578667671 -578657960 -578619699 -578610290 -578590473 -578557003 -578530738 -578491925 -578416708 -578388892 -578327825 -578275695 -578262126 -578194976 -578167564 -578134791 -578058397 -578047681 -578033186 -578002281 -577989926 -577916354 -577900578 -577897604 -577837472 -577827316 -577784800 -577716048 -577707683 -577705481 -577675764 -577621597 -577613005 -577605065 -577571681 -577567672 -577549931 -577538422 -577526716 -577481725 -577411178 -577403155 -577363976 -577324499 -577323171 -577294597 -577250411 -577201191 -577185838 -577120417 -577117468 -577114398 -577112399 -577088101 -577076829 -577033368 -576945849 -576937796 -576928724 -576836242 -576772062 -576766447 -576765496 -576763510 -576715709 -576616004 -576569640 -576540441 -576522627 -576513515 -576486321 -576427212 -576398916 -576351175 -576300091 -576294581 -576270600 -576245174 -576231628 -576230441 -576175771 -576162565 -576093227 -576092109 -576088561 -576076959 -576044230 -576036234 -575940592 -575933139 -575914629 -575914035 -575912968 -575902757 -575879775 -575819648 -575779913 -575778899 -575774325 -575765738 -575765226 -575721516 -575711598 -575706596 -575691815 -575605408 -575525458 -575345447 -575315744 -575314376 -575293755 -575278202 -575276377 -575244917 -575195630 -575191547 -575141094 -575139427 -575118936 -575086238 -575069436 -575051761 -574969180 -574903474 -574892460 -574876214 -574858309 -574849021 -574757428 -574714511 -574632548 -574504234 -574492612 -574398948 -574343949 -574287365 -574273969 -574215366 -574208046 -574185529 -574157638 -574149061 -574134672 -574120523 -574072236 -574046562 -573999815 -573975531 -573963911 -573962270 -573834502 -573782095 -573742782 -573712147 -573685614 -573669577 -573643876 -573551553 -573549696 -573545853 -573544997 -573481556 -573479434 -573444192 -573413980 -573402125 -573361746 -573361008 -573346923 -573289269 -573257669 -573215259 -573193100 -573170133 -573141202 -573130076 -573115112 -573039042 -573034015 -572994790 -572985634 -572961832 -572935154 -572925885 -572893622 -572871485 -572788934 -572782793 -572753481 -572693748 -572690098 -572649937 -572638915 -572523194 -572512003 -572505358 -572459211 -572406718 -572311401 -572306117 -572289839 -572250930 -572236451 -572203528 -572196693 -572181013 -572156621 -572106259 -572074756 -572057880 -572002653 -571995455 -571957921 -571956500 -571944447 -571920443 -571919118 -571815135 -571754223 -571724307 -571689659 -571679555 -571674427 -571659378 -571578963 -571562872 -571534096 -571436938 -571424384 -571403334 -571390786 -571374696 -571343086 -571333737 -571331547 -571312192 -571311959 -571254831 -571203488 -571133024 -571096966 -571039250 -570945064 -570941364 -570931606 -570925584 -570878696 -570868022 -570838765 -570774293 -570772377 -570713936 -570695965 -570654791 -570645376 -570568002 -570491400 -570475624 -570473187 -570436586 -570414819 -570359871 -570253508 -570248949 -570225077 -570222064 -570072159 -570028591 -569979272 -569978552 -569970080 -569950857 -569920069 -569883488 -569881702 -569855433 -569851130 -569766909 -569752547 -569728076 -569583314 -569503179 -569455857 -569447742 -569418002 -569403635 -569330238 -569299598 -569284334 -569265236 -569228325 -569195293 -569153046 -568961041 -568939677 -568893304 -568886015 -568856567 -568855045 -568819858 -568756015 -568715898 -568701701 -568697635 -568665136 -568664017 -568594329 -568519451 -568424966 -568339878 -568211974 -568184780 -568184712 -568145495 -568143812 -568102202 -568097880 -568018108 -567982567 -567955964 -567946665 -567845473 -567811842 -567773252 -567728580 -567638369 -567587100 -567552979 -567551268 -567527185 -567506815 -567503079 -567482037 -567475150 -567388097 -567356913 -567296150 -567270019 -567258922 -567240454 -567213475 -566998255 -566993664 -566953425 -566894741 -566831143 -566826114 -566765259 -566742230 -566731128 -566727938 -566721484 -566718923 -566707045 -566704500 -566675286 -566647036 -566631624 -566615093 -566533726 -566532740 -566421800 -566415870 -566393997 -566364244 -566285540 -566283633 -566111122 -566087703 -566074917 -566030135 -566027816 -566001987 -565984743 -565946041 -565851868 -565825569 -565771734 -565765989 -565765741 -565674928 -565628184 -565622206 -565603201 -565587734 -565533513 -565525694 -565523207 -565512977 -565340387 -565286209 -565239938 -565133852 -565050085 -565011743 -564969098 -564950806 -564933707 -564928447 -564846463 -564782267 -564747725 -564704275 -564646538 -564643344 -564623094 -564576185 -564575283 -564541371 -564531442 -564518796 -564496307 -564456341 -564425562 -564418807 -564329668 -564228518 -564222479 -564181425 -564131774 -564115635 -564107248 -564053347 -564020850 -564020002 -563963556 -563962671 -563958635 -563905345 -563890326 -563858203 -563726560 -563719513 -563686940 -563676534 -563675013 -563617462 -563599059 -563536598 -563507272 -563493840 -563435277 -563424090 -563346220 -563328287 -563308749 -563302567 -563296709 -563281931 -563164055 -563143614 -563094843 -562907056 -562888727 -562842463 -562757094 -562721518 -562711575 -562705243 -562634875 -562591504 -562588376 -562570465 -562568556 -562552570 -562538732 -562491865 -562458163 -562372899 -562370655 -562329834 -562328857 -562286327 -562270158 -562244940 -562237490 -562224263 -562153043 -562092722 -562044071 -561866163 -561854602 -561833840 -561737888 -561712118 -561700824 -561671095 -561649276 -561625182 -561592593 -561567623 -561521098 -561388812 -561344960 -561334942 -561296084 -561258255 -561246692 -561217017 -561206821 -561204952 -561201236 -561116258 -561093357 -561070091 -561063980 -561001117 -560978014 -560974369 -560915176 -560908212 -560853194 -560812756 -560799520 -560775458 -560734463 -560720152 -560687390 -560668384 -560644424 -560635754 -560621853 -560613998 -560580660 -560491888 -560469638 -560468914 -560435388 -560429437 -560391603 -560347039 -560323903 -560289521 -560276397 -560190302 -560062604 -560058371 -560024479 -559921642 -559907457 -559801074 -559777218 -559759094 -559687475 -559686053 -559495475 -559479295 -559425432 -559413695 -559398257 -559259816 -559135780 -559124386 -559122165 -558990170 -558955975 -558953711 -558863803 -558817240 -558815029 -558812204 -558726421 -558706106 -558660042 -558633375 -558567463 -558546044 -558535153 -558502437 -558489853 -558436647 -558411383 -558354375 -558161028 -558141275 -558123112 -558112807 -558033579 -558005162 -557988293 -557980108 -557975101 -557912389 -557909916 -557828745 -557758084 -557677341 -557556354 -557548347 -557537798 -557530747 -557469907 -557453043 -557415725 -557401600 -557363380 -557362244 -557244232 -557223986 -557182261 -557177086 -557158472 -557142454 -557133667 -557067505 -557001404 -557000764 -556982582 -556977235 -556958698 -556935141 -556819836 -556775412 -556756574 -556718880 -556643663 -556497910 -556484165 -556435613 -556430231 -556416875 -556384267 -556295225 -556286497 -556220065 -556164146 -556110807 -556110484 -556087430 -556010251 -555989093 -555972849 -555950775 -555947604 -555924626 -555817143 -555809313 -555785372 -555773757 -555766584 -555763892 -555725538 -555689439 -555611037 -555606189 -555590392 -555566577 -555556920 -555513312 -555407203 -555357197 -555354847 -555289448 -555274107 -555210455 -555200019 -555179459 -555156821 -555137000 -554923274 -554863909 -554805323 -554742495 -554636549 -554635325 -554611589 -554596308 -554532044 -554448267 -554369070 -554366311 -554347879 -554290880 -554278798 -554215962 -554207478 -554137479 -554048106 -554026634 -554009108 -553789938 -553689555 -553640720 -553634133 -553597911 -553582334 -553561305 -553526523 -553498571 -553412626 -553402550 -553325907 -553256606 -553255399 -553220264 -553205744 -553199191 -553182571 -553110406 -553052009 -553035035 -552997841 -552973484 -552949961 -552847577 -552802827 -552751621 -552715308 -552704768 -552664211 -552660685 -552657129 -552655989 -552592587 -552547955 -552507486 -552507296 -552494244 -552492144 -552467454 -552444061 -552368208 -552272599 -552255076 -552196852 -552190892 -552165495 -552134753 -552133858 -551873503 -551865105 -551804825 -551803757 -551710493 -551679338 -551548297 -551536793 -551504463 -551483460 -551470103 -551468905 -551461637 -551456672 -551386167 -551344269 -551319543 -551312146 -551298967 -551271703 -551269825 -551216757 -551174440 -551135979 -551124258 -551061953 -551029149 -550962135 -550924793 -550919314 -550896915 -550853289 -550768926 -550763761 -550748015 -550724356 -550701752 -550687544 -550605739 -550567935 -550476761 -550445594 -550423571 -550384689 -550378380 -550353134 -550221941 -550129912 -550117485 -550094849 -550091216 -550079729 -550058429 -550045320 -549925792 -549902306 -549902198 -549881769 -549854599 -549770589 -549744926 -549693955 -549605763 -549602515 -549592773 -549568722 -549566910 -549509356 -549493815 -549493531 -549420076 -549397449 -549388200 -549367708 -549319423 -549312112 -549311775 -549301671 -549256087 -549230800 -549224594 -549199340 -549088388 -549072891 -548993270 -548883934 -548871710 -548867364 -548864629 -548651926 -548647146 -548638106 -548613328 -548558642 -548532229 -548506666 -548505422 -548431454 -548416016 -548404429 -548393341 -548360284 -548356351 -548304536 -548297845 -548242873 -548216274 -548146073 -548144183 -548142369 -548107834 -548099666 -548096544 -548025168 -548012276 -547987024 -547953028 -547948112 -547938347 -547938278 -547893625 -547885718 -547842628 -547816414 -547798464 -547790014 -547761729 -547622087 -547588856 -547562311 -547538627 -547510936 -547507399 -547445220 -547371395 -547319814 -547301108 -547229831 -547175291 -547154162 -547124084 -547116213 -547043532 -547039653 -547000052 -546985122 -546904963 -546811728 -546778438 -546747150 -546734060 -546724338 -546711910 -546572112 -546570425 -546553774 -546510641 -546505450 -546486391 -546408662 -546360809 -546355778 -546305490 -546290479 -546256508 -546157300 -546114669 -546086817 -546077874 -546009930 -546001571 -545908589 -545902101 -545884204 -545862539 -545825058 -545820641 -545815487 -545803645 -545748611 -545739456 -545695885 -545677285 -545661546 -545625444 -545614381 -545610630 -545535191 -545531875 -545502586 -545487333 -545452502 -545411461 -545410777 -545379398 -545337583 -545309576 -545259645 -545065768 -545063109 -545039772 -545024570 -545007699 -544949999 -544893861 -544844352 -544831324 -544820114 -544789378 -544753368 -544686022 -544646797 -544564536 -544562587 -544558970 -544520415 -544485736 -544455476 -544343896 -544331889 -544331556 -544301764 -544253008 -544229522 -544214789 -544207008 -544194911 -544182676 -544170336 -544145408 -544143820 -544122351 -544069752 -544068038 -544047269 -544029618 -544015946 -543937116 -543766846 -543743237 -543725028 -543682488 -543668925 -543662386 -543540767 -543537664 -543532429 -543520577 -543478348 -543453504 -543428493 -543427902 -543414133 -543381834 -543379097 -543324391 -543240369 -543238803 -543118681 -543099025 -543050995 -543011127 -542973401 -542956531 -542906658 -542851397 -542830043 -542808803 -542790353 -542761740 -542733785 -542708882 -542657685 -542631752 -542590020 -542582517 -542561076 -542546673 -542535417 -542468862 -542444004 -542443462 -542438338 -542427498 -542393766 -542375376 -542356968 -542239974 -542225770 -542200281 -542185455 -542136311 -542093259 -542074924 -542045346 -542020603 -542011236 -541961173 -541959999 -541934621 -541911591 -541856429 -541855060 -541838779 -541736727 -541677844 -541671995 -541656930 -541600774 -541568341 -541560399 -541447955 -541423894 -541376396 -541294934 -541265844 -541141366 -541118841 -541111043 -541109560 -541059893 -540984216 -540938686 -540912850 -540888409 -540867646 -540751689 -540726878 -540721961 -540706817 -540663104 -540650926 -540641119 -540639446 -540610378 -540468302 -540379211 -540357923 -540328980 -540316376 -540298122 -540276172 -540259623 -540196440 -540186501 -540167755 -540105428 -540027069 -539931675 -539918992 -539893979 -539825013 -539743985 -539740223 -539728974 -539695371 -539687440 -539578150 -539554365 -539548596 -539522936 -539500990 -539491396 -539426610 -539404849 -539400830 -539377051 -539294315 -539293653 -539266423 -539256617 -539240581 -539168391 -539141202 -539099376 -539061937 -539019206 -539018001 -539017334 -538967404 -538945815 -538858036 -538851697 -538849116 -538843331 -538831930 -538781813 -538780807 -538726807 -538718719 -538707535 -538697224 -538628054 -538594394 -538545173 -538529692 -538340837 -538314532 -538308843 -538276551 -538265635 -538256657 -538214013 -538145908 -538081114 -538051124 -538041122 -538028432 -538020023 -538015580 -537982986 -537968736 -537962271 -537945934 -537869140 -537861836 -537812034 -537781782 -537759149 -537757431 -537693378 -537689072 -537687809 -537671104 -537664091 -537642800 -537640632 -537628009 -537580006 -537452504 -537417162 -537390806 -537364916 -537298768 -537282590 -537276013 -537275701 -537217985 -537174953 -537051086 -537036312 -537009413 -536952688 -536936755 -536913009 -536889500 -536866531 -536843377 -536821638 -536815509 -536725971 -536713917 -536689832 -536688485 -536659483 -536651730 -536639308 -536610210 -536588573 -536588016 -536580594 -536559803 -536535002 -536510359 -536472820 -536453945 -536376452 -536325400 -536289213 -536264603 -536233624 -536229512 -536202409 -536202011 -536190710 -536179449 -536151620 -536124703 -536116181 -536087519 -535962689 -535958413 -535879670 -535873570 -535868216 -535834257 -535741981 -535716689 -535652549 -535642029 -535607412 -535546150 -535489553 -535401999 -535399859 -535370222 -535326755 -535241041 -535104759 -535080595 -535065757 -535046603 -534984654 -534943736 -534917688 -534911243 -534796962 -534749107 -534738419 -534704840 -534704249 -534704111 -534620039 -534593065 -534522942 -534480464 -534462235 -534457928 -534359582 -534309001 -534308551 -534306352 -534280602 -534230163 -534163998 -534127268 -534096197 -534071560 -534040939 -534016804 -533934399 -533901909 -533855343 -533838620 -533778083 -533732567 -533724311 -533701299 -533689583 -533669379 -533641352 -533601167 -533579552 -533569796 -533538847 -533527732 -533430022 -533343475 -533253719 -533250764 -533231234 -533219916 -533197625 -533174377 -533169536 -533129279 -533111320 -533076957 -533074043 -533046471 -533029673 -533028500 -533016444 -532963943 -532936492 -532763513 -532684963 -532605362 -532546217 -532542867 -532516805 -532506784 -532493712 -532481206 -532458890 -532455217 -532432267 -532416496 -532389434 -532366933 -532352037 -532340915 -532329752 -532306179 -532276477 -532271215 -532262301 -532172686 -532143061 -532140419 -532113273 -532101986 -532100363 -532052239 -531981490 -531953110 -531932509 -531878092 -531862917 -531861473 -531860984 -531850771 -531836648 -531807854 -531798256 -531794546 -531793861 -531788117 -531768606 -531763508 -531687112 -531668341 -531652798 -531547572 -531517621 -531491764 -531487302 -531438584 -531405370 -531386176 -531279715 -531240692 -531216104 -531159513 -531154078 -531137564 -531095519 -531062614 -531045486 -530948525 -530943020 -530858941 -530788741 -530705902 -530701084 -530674105 -530650152 -530641476 -530638517 -530612433 -530581463 -530579390 -530550573 -530517818 -530474618 -530473958 -530471036 -530455018 -530434738 -530405660 -530332990 -530296463 -530294415 -530277616 -530232516 -530220709 -530207107 -530201218 -530164564 -530070044 -529983045 -529976135 -529951951 -529895699 -529870582 -529870435 -529865629 -529840503 -529819343 -529814392 -529641765 -529613065 -529607199 -529568858 -529532728 -529531111 -529529431 -529517385 -529459347 -529453257 -529440819 -529328813 -529305639 -529245943 -529226536 -529223614 -529206886 -529170393 -529165775 -529133030 -529112028 -529095971 -529082082 -529069321 -529065340 -529040719 -529024083 -529017604 -528950787 -528849961 -528814651 -528734859 -528726010 -528630309 -528591547 -528568789 -528568606 -528533489 -528520216 -528509942 -528416620 -528345946 -528345060 -528273764 -528256953 -528216901 -528215980 -528210154 -528204824 -528154861 -528148067 -528110857 -528096768 -528065839 -528046198 -528035062 -528029617 -528022215 -528006099 -527925872 -527891569 -527862047 -527784510 -527721521 -527719626 -527705125 -527632437 -527620723 -527604247 -527593978 -527570822 -527549505 -527528176 -527453302 -527407325 -527406535 -527381392 -527338297 -527297666 -527204390 -527182587 -527159861 -527154667 -527116639 -527099640 -526941279 -526930684 -526922380 -526884802 -526843611 -526827596 -526760921 -526729911 -526666283 -526666219 -526620549 -526595622 -526549134 -526501135 -526470920 -526451972 -526386014 -526194176 -526108899 -526096600 -526058146 -526033184 -525989417 -525867104 -525850676 -525815273 -525705935 -525677248 -525644346 -525635323 -525632203 -525575210 -525562904 -525552326 -525511434 -525481883 -525474135 -525447078 -525444506 -525374995 -525364934 -525355935 -525342826 -525255275 -525254815 -525254133 -525179190 -525154651 -525097044 -525080271 -525023704 -525000928 -525000653 -524995736 -524959840 -524946857 -524912715 -524895541 -524891995 -524823505 -524816708 -524809523 -524762401 -524757691 -524604187 -524580054 -524533226 -524520106 -524433641 -524422023 -524401051 -524393951 -524377541 -524317478 -524299180 -524290653 -524278995 -524222262 -524207794 -524163797 -524163230 -524084356 -523972436 -523969708 -523870768 -523826670 -523796658 -523773655 -523646582 -523634795 -523538112 -523510150 -523494116 -523458943 -523433217 -523340840 -523309950 -523293693 -523290588 -523264975 -523254355 -523226105 -523220866 -523130892 -523009046 -522999423 -522994579 -522973262 -522952704 -522814980 -522785891 -522744089 -522712012 -522706787 -522625449 -522608978 -522502707 -522459716 -522406772 -522388509 -522370352 -522317516 -522288549 -522189100 -522155211 -522149205 -522103985 -522097299 -522080692 -522048742 -521999447 -521954344 -521933098 -521866894 -521837330 -521820799 -521741019 -521740466 -521737592 -521725970 -521714162 -521698588 -521679790 -521547910 -521515096 -521497480 -521460718 -521422361 -521394485 -521330955 -521139826 -521037862 -520963405 -520962236 -520855564 -520696384 -520686224 -520657184 -520655636 -520574215 -520560149 -520554892 -520549953 -520539104 -520510375 -520474071 -520463716 -520462240 -520400348 -520396515 -520266224 -520225839 -520203377 -520171419 -520150804 -520073338 -520066572 -520023189 -519997271 -519964805 -519946595 -519924049 -519878058 -519873102 -519852198 -519813282 -519776017 -519775613 -519764593 -519754135 -519749751 -519719669 -519704431 -519671279 -519657248 -519624361 -519546334 -519514704 -519415539 -519404211 -519390080 -519305802 -519302947 -519292218 -519279511 -519261055 -519227425 -519213069 -519148789 -519145252 -519125153 -519065538 -519017110 -519007235 -518961942 -518940999 -518920847 -518881455 -518816835 -518812600 -518699328 -518597317 -518536489 -518535336 -518485712 -518401536 -518400921 -518232527 -518227809 -518217309 -518141751 -518131038 -518101317 -518075364 -518068455 -518059731 -518016449 -517978378 -517928176 -517871281 -517855587 -517815868 -517796859 -517789418 -517747627 -517744361 -517716171 -517700202 -517654407 -517614334 -517587915 -517551996 -517521289 -517454219 -517447832 -517442616 -517354363 -517348646 -517318594 -517273037 -517234339 -517138030 -517130327 -517097267 -516914930 -516890713 -516875105 -516869426 -516867422 -516822328 -516796606 -516765840 -516749768 -516617686 -516611137 -516603285 -516599096 -516556758 -516524414 -516453340 -516447846 -516417950 -516415184 -516402171 -516385671 -516365614 -516361039 -516255672 -516197952 -516192516 -516182933 -516174865 -516072829 -516050283 -515890954 -515884230 -515853425 -515816619 -515642585 -515626843 -515550838 -515421654 -515415786 -515390746 -515331118 -515268029 -515257288 -515233255 -515210583 -515201522 -515151689 -515058727 -515000794 -514991134 -514941518 -514901773 -514848957 -514839667 -514838385 -514823170 -514822571 -514811197 -514796785 -514788564 -514733514 -514730529 -514630373 -514629770 -514613385 -514520618 -514478709 -514427448 -514418298 -514409052 -514384559 -514255628 -514232449 -514168285 -514143634 -514108413 -514106814 -514043358 -514032090 -514007984 -514001452 -513991688 -513981224 -513861416 -513834912 -513831630 -513783430 -513767037 -513763040 -513751153 -513717768 -513584049 -513536720 -513527481 -513461095 -513388851 -513331167 -513306948 -513260625 -513254561 -513221195 -513212838 -513211658 -513207577 -513196820 -513141408 -513109860 -513100557 -513020724 -512990458 -512973806 -512945551 -512902961 -512829121 -512813408 -512741451 -512729179 -512656193 -512613914 -512602229 -512533033 -512513658 -512492486 -512475386 -512431777 -512422137 -512408497 -512343818 -512327994 -512265273 -512237789 -512229480 -512229079 -512179358 -512106681 -512097348 -512005235 -511972802 -511964417 -511950941 -511839662 -511814599 -511795437 -511788513 -511780398 -511750521 -511731581 -511721464 -511676229 -511664996 -511662076 -511619311 -511615417 -511573263 -511538974 -511397216 -511396391 -511391665 -511391639 -511366161 -511337297 -511292890 -511269564 -511240615 -511198388 -511177148 -511074852 -511073404 -511057251 -511039077 -510954191 -510909365 -510813608 -510797097 -510778834 -510776308 -510772206 -510767833 -510721222 -510715388 -510617066 -510530891 -510523610 -510523480 -510518487 -510237341 -510211934 -510159035 -510044477 -510037414 -510004002 -509998492 -509971608 -509945341 -509907008 -509889660 -509882621 -509857007 -509846037 -509829622 -509755641 -509755288 -509741282 -509738641 -509721836 -509717989 -509689917 -509632499 -509598558 -509530020 -509524926 -509494694 -509454570 -509426575 -509381516 -509369809 -509362547 -509358799 -509356936 -509302920 -509170306 -509154110 -509124787 -509107200 -509051865 -508923829 -508904780 -508901897 -508842704 -508840895 -508833944 -508752196 -508748731 -508688102 -508686921 -508666124 -508562101 -508543475 -508311228 -508279390 -508274872 -508256059 -508243621 -508242743 -508237940 -508237375 -508214298 -508212855 -508168152 -508058645 -508047601 -508043473 -508008978 -507969423 -507968257 -507920906 -507910426 -507877390 -507875598 -507869684 -507859806 -507852170 -507827955 -507805287 -507799140 -507702634 -507699855 -507679055 -507663700 -507648931 -507623949 -507597318 -507593851 -507462899 -507446952 -507406034 -507340656 -507286401 -507252470 -507239754 -507231224 -507210211 -507209894 -507204489 -507204186 -507170855 -507152356 -507148874 -507120692 -507078403 -507032361 -506971685 -506874574 -506853689 -506832378 -506832327 -506816961 -506788343 -506745473 -506719411 -506718452 -506702155 -506643832 -506623567 -506603564 -506553734 -506507105 -506504337 -506458378 -506378832 -506371938 -506359415 -506334129 -506314473 -506274429 -506239771 -506236451 -506226923 -506187200 -506162629 -506152552 -506134713 -506072598 -505965782 -505960644 -505959828 -505944423 -505928876 -505789024 -505750169 -505744885 -505734333 -505675065 -505657702 -505639263 -505576477 -505566730 -505555097 -505478563 -505471265 -505449271 -505389579 -505317309 -505276328 -505268128 -505249153 -505212907 -505159702 -505091457 -505073572 -505068650 -504974935 -504974718 -504971077 -504907830 -504904805 -504877355 -504829915 -504808398 -504792460 -504771386 -504669476 -504589385 -504441869 -504423241 -504376856 -504367419 -504367058 -504312544 -504301601 -504298107 -504286648 -504276504 -504053243 -504049739 -504037750 -503896719 -503886178 -503877481 -503852156 -503666188 -503600261 -503529162 -503451183 -503449679 -503438032 -503337505 -503312755 -503261974 -503205073 -503179744 -503179624 -503121001 -503102937 -502837016 -502786679 -502784233 -502764730 -502747041 -502706909 -502679333 -502676902 -502675019 -502659068 -502605015 -502604046 -502590184 -502512352 -502405755 -502359038 -502351601 -502307992 -502278063 -502268017 -502235974 -502214227 -502211014 -502192414 -502189700 -502171769 -502136740 -502077305 -502063401 -502036810 -502035160 -502034727 -502005125 -501946973 -501936812 -501873016 -501872021 -501846879 -501821501 -501752033 -501744117 -501715138 -501706180 -501672074 -501608705 -501578680 -501566956 -501545031 -501532727 -501468758 -501455196 -501449802 -501421207 -501414031 -501318470 -501310690 -501249199 -501117902 -501095238 -501086923 -501009690 -501009097 -501001184 -500925297 -500915328 -500890315 -500882147 -500822561 -500808690 -500728150 -500549420 -500471440 -500455521 -500454468 -500391444 -500374988 -500347236 -500324954 -500237070 -500085241 -500078806 -500034478 -499984544 -499940610 -499938810 -499875327 -499846660 -499735880 -499620036 -499596120 -499591092 -499572867 -499518190 -499494484 -499430516 -499360014 -499290226 -499260964 -499256817 -499241423 -499240220 -499175697 -499130724 -499129880 -498996084 -498966432 -498964408 -498952680 -498931355 -498919708 -498818085 -498792376 -498726275 -498681610 -498667125 -498641034 -498617113 -498606019 -498589899 -498532822 -498482042 -498434026 -498430683 -498337523 -498332365 -498305707 -498265053 -498204194 -498121702 -498050967 -498047856 -497999235 -497995455 -497932329 -497894790 -497881355 -497853058 -497830423 -497827013 -497628246 -497603628 -497537506 -497498902 -497449508 -497401225 -497381990 -497337067 -497323147 -497169112 -497149249 -497134602 -497066708 -497058026 -496982226 -496958404 -496922483 -496846379 -496836611 -496787341 -496762540 -496703473 -496656859 -496622264 -496526457 -496506669 -496463510 -496430597 -496378751 -496352096 -496350001 -496324654 -496322804 -496312051 -496304151 -496298805 -496296848 -496287611 -496276665 -496153296 -496134556 -496116552 -496110871 -496109689 -496106785 -496076194 -495969539 -495941498 -495919306 -495908536 -495818632 -495817427 -495757984 -495750760 -495702237 -495701454 -495694841 -495692392 -495602116 -495583432 -495506232 -495470570 -495406994 -495382355 -495354429 -495334990 -495323620 -495307539 -495296241 -495261527 -495205870 -495172437 -495118291 -495093947 -495007211 -494955348 -494948858 -494930256 -494917946 -494884025 -494868811 -494858743 -494783540 -494718725 -494610076 -494589743 -494572627 -494534950 -494520510 -494491670 -494488998 -494456624 -494370832 -494260322 -494199501 -494188310 -494129401 -494088882 -494012325 -494004396 -493979401 -493968345 -493965071 -493963380 -493928936 -493901915 -493854487 -493832159 -493806483 -493755214 -493543104 -493531275 -493437636 -493322740 -493305619 -493300262 -493245567 -493239596 -493171916 -493145556 -493111756 -493090127 -493063668 -493061167 -493041338 -492973025 -492958079 -492948812 -492944138 -492904585 -492867980 -492864264 -492850210 -492822740 -492807821 -492712381 -492708901 -492618001 -492599377 -492599236 -492587686 -492503086 -492498749 -492408041 -492399123 -492335959 -492326672 -492322991 -492312985 -492289283 -492127249 -492078426 -492072961 -492061864 -492039793 -492026831 -491979488 -491966903 -491922514 -491895722 -491874676 -491719349 -491712030 -491681931 -491653670 -491639865 -491637591 -491599614 -491550577 -491535255 -491443051 -491430367 -491423945 -491394473 -491371361 -491361629 -491221334 -491198744 -491133552 -491133029 -491101787 -491089464 -490939454 -490916751 -490912674 -490909295 -490744061 -490654559 -490546599 -490527725 -490421369 -490420242 -490415229 -490398816 -490391870 -490387584 -490359069 -490341339 -490333592 -490281743 -490267564 -490262807 -490228492 -490225907 -490218631 -490213853 -490206545 -490141928 -490113057 -490090893 -490046255 -490035800 -489998426 -489994997 -489980176 -489978028 -489951331 -489911904 -489800938 -489796920 -489623589 -489601917 -489597303 -489596499 -489584764 -489559325 -489526858 -489513239 -489319136 -489311753 -489292272 -489214139 -489194410 -489098073 -489090373 -489053659 -488991266 -488919954 -488897439 -488890289 -488844048 -488786283 -488736404 -488642671 -488622724 -488589454 -488577437 -488530264 -488484674 -488472521 -488456862 -488405734 -488337142 -488325389 -488324909 -488272369 -488220380 -488202918 -488192494 -488153284 -488132729 -488109347 -488097221 -488051573 -488050819 -488007753 -487992633 -487790682 -487784682 -487771961 -487771526 -487764032 -487689786 -487661847 -487647931 -487637447 -487623096 -487602688 -487554731 -487480871 -487460528 -487448742 -487444311 -487420386 -487271784 -487169398 -487118924 -487056800 -487001672 -486982107 -486973239 -486928114 -486906531 -486818988 -486797132 -486693074 -486658210 -486628952 -486615307 -486580295 -486577707 -486553000 -486530483 -486496645 -486461701 -486456110 -486370939 -486201479 -486176209 -486165605 -486003806 -485957385 -485941510 -485933275 -485932210 -485927523 -485918346 -485909822 -485882851 -485777304 -485720848 -485626709 -485622820 -485610743 -485560479 -485502085 -485474765 -485453973 -485428561 -485288015 -485181932 -485078026 -485022964 -485011728 -484969215 -484956492 -484862045 -484809283 -484732652 -484683701 -484678409 -484667404 -484539960 -484515773 -484494279 -484484910 -484470582 -484372657 -484365884 -484334686 -484332158 -484330679 -484322969 -484300078 -484278117 -484252769 -484246292 -484215717 -484210494 -484209684 -484188429 -484094526 -484066401 -484063000 -484040741 -484010373 -484005944 -484000615 -483986185 -483974061 -483950353 -483945612 -483942643 -483902287 -483875054 -483874401 -483727698 -483683672 -483668404 -483657730 -483650818 -483630270 -483613459 -483559716 -483537431 -483514762 -483461678 -483447650 -483375630 -483357063 -483343092 -483157519 -483126562 -483077420 -483030368 -483004928 -482965310 -482933815 -482914014 -482887706 -482738338 -482654987 -482648665 -482557784 -482508480 -482340836 -482202507 -482196295 -482187542 -482083972 -482056793 -482047435 -481978928 -481974870 -481943299 -481858704 -481821483 -481782603 -481779600 -481757710 -481720582 -481697800 -481691211 -481614161 -481570636 -481557167 -481542804 -481524882 -481474696 -481265785 -481247522 -481209858 -481187966 -481181707 -481166505 -481116801 -481088049 -481055033 -481016710 -480962737 -480956497 -480915217 -480876572 -480834891 -480831885 -480823363 -480799129 -480766462 -480762786 -480731095 -480723665 -480714483 -480711541 -480674960 -480674814 -480651898 -480590099 -480504051 -480494374 -480487971 -480477560 -480442443 -480380412 -480337235 -480287049 -480281530 -480150882 -480080641 -480019361 -480017825 -479954467 -479937751 -479883880 -479838916 -479835242 -479821286 -479818447 -479752925 -479747234 -479729599 -479714546 -479603157 -479545870 -479537791 -479523407 -479503483 -479488417 -479470006 -479444167 -479443543 -479421976 -479323926 -479284526 -479104965 -479088455 -479071684 -479044140 -479017935 -478987335 -478936685 -478913220 -478817042 -478795554 -478681510 -478501263 -478499463 -478469864 -478419425 -478374885 -478363266 -478351858 -478340374 -478259198 -478254845 -478241010 -478226304 -478139880 -478138454 -478124518 -478121941 -478098179 -478060693 -478049061 -478045282 -478035376 -478028802 -478026300 -478026115 -477974175 -477874665 -477768619 -477742775 -477740172 -477655588 -477613035 -477582013 -477579020 -477481167 -477465481 -477457618 -477436633 -477414272 -477390725 -477371864 -477337080 -477334651 -477292835 -477257019 -477239854 -477185521 -477123932 -477089441 -477070831 -476953562 -476944017 -476908935 -476901354 -476879558 -476873577 -476829810 -476826606 -476803723 -476800712 -476762288 -476656466 -476612577 -476575564 -476564025 -476528504 -476505288 -476480799 -476466325 -476460823 -476449092 -476421933 -476389684 -476350643 -476322892 -476279770 -476269496 -476246084 -476209348 -476186557 -476092874 -476006421 -475935493 -475881454 -475839816 -475832280 -475814450 -475708725 -475703962 -475663671 -475653418 -475647076 -475537611 -475528852 -475442385 -475387734 -475387319 -475382742 -475344718 -475316351 -475290922 -475288636 -475230473 -475225424 -475157573 -475147270 -475142605 -475096301 -475074744 -475037551 -474970763 -474909496 -474864328 -474842198 -474801161 -474779911 -474774267 -474734964 -474667472 -474647295 -474632084 -474631205 -474626424 -474603626 -474567505 -474512936 -474400951 -474396001 -474390675 -474368107 -474344379 -474299288 -474298008 -474294802 -474228508 -474214507 -474206726 -474199792 -474162071 -474082113 -474081526 -474046548 -474039135 -474015288 -473941050 -473910606 -473904045 -473856859 -473841578 -473828897 -473820034 -473793855 -473779173 -473769563 -473754530 -473693061 -473659207 -473646471 -473633561 -473606072 -473576130 -473561661 -473556584 -473461338 -473461246 -473383043 -473308984 -473269248 -473219147 -473210881 -473201451 -473187255 -473073817 -473011247 -472999897 -472951504 -472919335 -472838833 -472822247 -472776302 -472765914 -472727764 -472720779 -472535169 -472502411 -472490728 -472479566 -472462864 -472448446 -472403725 -472385922 -472324909 -472318165 -472304212 -472242050 -472201193 -472176912 -472173232 -472166346 -472071422 -472038590 -471991781 -471960672 -471949784 -471842325 -471757327 -471726530 -471679630 -471626540 -471618321 -471616598 -471497183 -471465139 -471456732 -471429562 -471361956 -471355458 -471319474 -471281668 -471281667 -471224497 -471179013 -471171820 -471081292 -471073214 -471069445 -471043276 -470966946 -470858124 -470852116 -470850471 -470834648 -470816474 -470775344 -470768832 -470768651 -470693951 -470599814 -470598788 -470586151 -470556762 -470556088 -470514944 -470465030 -470404227 -470345139 -470282401 -470264144 -470242594 -470221514 -470201214 -470120135 -470071104 -470060865 -470008284 -469923159 -469890865 -469847128 -469819628 -469794403 -469765469 -469740799 -469727845 -469718329 -469675737 -469646091 -469630384 -469490789 -469381564 -469332012 -469291457 -469278282 -469275484 -469250270 -469240195 -469223860 -469185044 -469131988 -469069347 -469054027 -469029140 -469000182 -468972219 -468921343 -468880908 -468859748 -468828784 -468787829 -468723060 -468640220 -468622096 -468599334 -468530720 -468514686 -468469176 -468374454 -468303321 -468298234 -468281494 -468263972 -468245531 -468220173 -468218182 -468217398 -468189757 -468166460 -468148806 -468145584 -468137887 -468109398 -468035725 -468019580 -468019221 -468013513 -467963901 -467958029 -467930478 -467908162 -467894724 -467867383 -467841564 -467705877 -467674552 -467672820 -467628234 -467597680 -467550977 -467505072 -467485207 -467484813 -467477111 -467418747 -467387129 -467287442 -467233221 -467110120 -467106933 -467055918 -466968607 -466903886 -466785397 -466714952 -466636238 -466601529 -466502553 -466495176 -466476847 -466368357 -466338714 -466311780 -466297923 -466293670 -466255102 -466214258 -466128106 -465991750 -465968291 -465967110 -465848406 -465795700 -465768948 -465753849 -465727991 -465646633 -465583746 -465530606 -465438682 -465434749 -465393831 -465240244 -465224743 -465176636 -465167853 -465142694 -465059069 -465054080 -465013201 -464953624 -464885320 -464818551 -464753434 -464734915 -464675511 -464631066 -464582810 -464552972 -464521224 -464505059 -464501931 -464420907 -464403042 -464373581 -464322833 -464291127 -464220328 -464218755 -464205138 -464182442 -464132566 -464132216 -464049253 -464034468 -463947269 -463876322 -463817233 -463813414 -463778389 -463726561 -463703640 -463557440 -463474773 -463382332 -463319240 -463311099 -463281241 -463275247 -463243192 -463156057 -463100649 -463078776 -463073845 -463004617 -462963977 -462898485 -462826445 -462800953 -462662714 -462616296 -462576472 -462569341 -462489581 -462484275 -462473001 -462464005 -462361491 -462352421 -462350260 -462298430 -462267397 -462246152 -462234604 -462231187 -462230091 -462216266 -462215858 -462153626 -462098269 -462067786 -462064569 -462055395 -461988010 -461956582 -461936938 -461850801 -461841657 -461822945 -461748101 -461715245 -461669888 -461649020 -461637031 -461508061 -461499386 -461478294 -461414799 -461398396 -461319229 -461273434 -461193713 -461155286 -461146410 -461144520 -461125387 -461114662 -461095217 -461048717 -460973664 -460937346 -460889007 -460880842 -460875177 -460724575 -460683300 -460682442 -460624360 -460613688 -460574534 -460558426 -460550586 -460539152 -460491370 -460422908 -460355675 -460328623 -460309138 -460244407 -460230072 -460215633 -460164359 -460162909 -460035441 -459967007 -459902595 -459896533 -459824389 -459815585 -459698073 -459669634 -459556561 -459550510 -459480770 -459429995 -459414001 -459343703 -459315390 -459305406 -459304003 -459301461 -459229241 -459213870 -459124186 -459120953 -459100427 -459085248 -459018355 -458978793 -458896895 -458861954 -458841778 -458841528 -458790612 -458741220 -458724109 -458686600 -458669303 -458622091 -458586040 -458576453 -458546511 -458538611 -458458415 -458405198 -458403452 -458370739 -458366505 -458324682 -458294385 -458261047 -458244458 -458214466 -458030608 -458005355 -457966150 -457953069 -457844097 -457832160 -457811941 -457728003 -457722181 -457698731 -457696070 -457695808 -457665952 -457623813 -457597752 -457520502 -457476376 -457467747 -457396089 -457390817 -457375096 -457368463 -457341026 -457306547 -457285242 -457271393 -457206096 -457155527 -457152281 -457145310 -457137119 -457131893 -457079835 -457035211 -457017365 -456978960 -456959060 -456738676 -456714696 -456695374 -456661882 -456599210 -456564703 -456547551 -456513696 -456490975 -456456805 -456454876 -456448681 -456421228 -456405907 -456389146 -456383470 -456280641 -456261305 -456211317 -456198874 -456194840 -456152897 -456126738 -456114004 -456056167 -456039925 -456028725 -456025270 -455977372 -455896253 -455883394 -455856398 -455820849 -455736908 -455723282 -455655910 -455649310 -455647247 -455642460 -455620560 -455584734 -455520465 -455479180 -455467826 -455458799 -455410160 -455409518 -455321512 -455317344 -455299511 -455127851 -455123992 -455111608 -455099849 -454997319 -454924918 -454874670 -454759741 -454736890 -454699543 -454650418 -454629461 -454624351 -454593002 -454545647 -454529970 -454515265 -454503244 -454489422 -454398416 -454383454 -454380106 -454371321 -454369181 -454346618 -454337194 -454333913 -454306967 -454209566 -454191542 -454129574 -454055949 -454005411 -453967111 -453876849 -453827250 -453790746 -453757897 -453719514 -453633679 -453629104 -453594477 -453576962 -453506659 -453362617 -453198345 -453187918 -453148944 -453124248 -453078064 -453076645 -453053510 -453012167 -452994968 -452945755 -452936119 -452923642 -452896417 -452837924 -452811224 -452787090 -452731928 -452487268 -452484894 -452446396 -452424053 -452395707 -452374593 -452353082 -452330764 -452317687 -452285611 -452272185 -452260310 -452225693 -452155902 -452130120 -452113972 -452093636 -452085277 -452042400 -451932192 -451925637 -451894999 -451843423 -451828045 -451743915 -451742324 -451733702 -451678522 -451547084 -451542273 -451420653 -451411968 -451388128 -451372908 -451370623 -451363098 -451310667 -451281316 -451275176 -451253885 -451184913 -451151748 -451145289 -451131676 -451119133 -451082348 -450967893 -450927491 -450892644 -450866657 -450860366 -450855763 -450841339 -450832914 -450813288 -450811149 -450698224 -450641050 -450636625 -450621591 -450594202 -450563217 -450428769 -450232564 -450196851 -450142847 -450135921 -450124763 -450106661 -450078043 -449977708 -449931913 -449912999 -449888662 -449883319 -449851356 -449844989 -449738263 -449722748 -449686463 -449658175 -449616185 -449607297 -449537832 -449448990 -449438574 -449362011 -449330165 -449296322 -449292586 -449241117 -449229705 -449213217 -449197328 -449165333 -449063228 -449009200 -448907597 -448865381 -448802964 -448786752 -448748264 -448743526 -448680798 -448676573 -448667631 -448648423 -448641587 -448616932 -448570880 -448540411 -448535942 -448480231 -448453827 -448367527 -448304496 -448259296 -448172086 -448162623 -448151514 -448143438 -448098693 -448055228 -448053128 -448044956 -448019953 -447992095 -447985480 -447947930 -447939770 -447922914 -447792972 -447789598 -447773196 -447752106 -447720473 -447698499 -447649106 -447624672 -447590540 -447526993 -447502399 -447497288 -447476946 -447470576 -447459938 -447424467 -447419808 -447364377 -447326774 -447308776 -447292919 -447292397 -447224461 -447183033 -447131812 -447113332 -446905705 -446886652 -446856737 -446824009 -446764818 -446747976 -446736093 -446708054 -446583638 -446523590 -446505300 -446478419 -446410024 -446329184 -446199191 -446121458 -446078302 -446055348 -446049920 -445929754 -445888342 -445886245 -445882183 -445827533 -445826641 -445809301 -445801154 -445747326 -445620591 -445605670 -445593786 -445573676 -445570359 -445527328 -445471122 -445453359 -445390795 -445371670 -445219564 -445093383 -445058542 -444966964 -444965200 -444915433 -444910617 -444900818 -444899362 -444762671 -444750481 -444724819 -444675692 -444637102 -444585449 -444578750 -444567593 -444545146 -444537184 -444531306 -444490831 -444449328 -444448958 -444417207 -444398901 -444317631 -444313550 -444239155 -444226234 -444180897 -444145627 -444122727 -444003406 -443905724 -443889594 -443864588 -443814750 -443797087 -443784233 -443780527 -443754542 -443737140 -443726356 -443665144 -443574286 -443559199 -443550879 -443506250 -443487079 -443464779 -443447408 -443419816 -443384886 -443363481 -443304176 -443300906 -443297432 -443252138 -443194458 -443120560 -443033374 -442982672 -442902455 -442890335 -442887470 -442869627 -442851443 -442715052 -442686594 -442685924 -442596749 -442540895 -442524219 -442511744 -442507391 -442410399 -442386903 -442384259 -442375838 -442342175 -442333880 -442306168 -442300730 -442294492 -442252944 -442196579 -442108944 -442095615 -442058292 -441972431 -441903460 -441848934 -441840156 -441724425 -441705705 -441623729 -441608340 -441601977 -441576782 -441541050 -441427307 -441297495 -441214284 -441195124 -441194697 -441188277 -441186034 -441183257 -441101852 -440983435 -440972409 -440937937 -440922123 -440920329 -440915882 -440890027 -440841031 -440787943 -440760127 -440706057 -440664682 -440654987 -440645911 -440530804 -440515097 -440499685 -440476176 -440443342 -440345168 -440323091 -440290090 -440258880 -440231456 -440192635 -440191955 -440160271 -440146818 -440109784 -440105220 -440082207 -440078551 -440043858 -439962099 -439952324 -439871996 -439865181 -439843549 -439836723 -439818358 -439813241 -439799771 -439731325 -439713769 -439691775 -439684892 -439673653 -439646307 -439632920 -439576882 -439523386 -439487080 -439470258 -439413928 -439370555 -439368853 -439362913 -439355236 -439214920 -439208880 -439204519 -439163887 -439140366 -439095404 -439076816 -439024260 -439003117 -438983393 -438967032 -438938265 -438864771 -438809098 -438808779 -438793407 -438777825 -438765366 -438611861 -438563598 -438475203 -438474931 -438455083 -438429245 -438331467 -438312994 -438245372 -438211833 -438181495 -438174552 -438169225 -438148322 -438145109 -438123255 -438113282 -438093609 -438084426 -438042910 -437985649 -437980531 -437941607 -437929828 -437859496 -437768696 -437764982 -437758089 -437689776 -437679526 -437646419 -437541418 -437518690 -437415622 -437270884 -437230283 -437203985 -437183096 -437165587 -437161446 -437135634 -437108366 -437056881 -437047784 -437043684 -437035389 -437031478 -437024037 -436959665 -436950164 -436903637 -436869452 -436799847 -436748021 -436740679 -436666206 -436647626 -436622574 -436612091 -436525526 -436509478 -436432998 -436414617 -436407549 -436401484 -436343538 -436341213 -436327884 -436304029 -436271823 -436167680 -436147872 -436138834 -436131099 -436110910 -436019415 -435972488 -435962794 -435826791 -435815171 -435804207 -435768110 -435695271 -435671058 -435656869 -435587904 -435527118 -435392178 -435297929 -435284855 -435255969 -435234081 -435198638 -435170829 -435144087 -435131564 -435119983 -435108880 -435105289 -435097116 -435086144 -435078924 -435026307 -435016089 -434970191 -434864744 -434841730 -434789450 -434753909 -434731379 -434702815 -434631117 -434606762 -434595086 -434589024 -434568246 -434547096 -434541262 -434518994 -434484020 -434482713 -434436757 -434412773 -434388922 -434336655 -434308889 -434276567 -434181007 -434151828 -434063789 -434042483 -434019914 -434009293 -433978341 -433970158 -433940372 -433909717 -433872483 -433868010 -433847075 -433823130 -433804904 -433738890 -433688322 -433675115 -433653241 -433626427 -433617414 -433578504 -433569509 -433530201 -433528837 -433483760 -433344152 -433339829 -433324491 -433315597 -433299744 -433262856 -433242727 -433229848 -433227472 -433214013 -433113284 -433082443 -433025037 -432987499 -432922781 -432907516 -432874774 -432796328 -432753118 -432729040 -432721761 -432697152 -432629474 -432555430 -432534305 -432508065 -432422549 -432373352 -432371404 -432358145 -432240650 -432240067 -432165708 -432155815 -432151074 -432091816 -431934827 -431831635 -431733127 -431729477 -431658765 -431574037 -431556699 -431554983 -431532034 -431529180 -431528304 -431511450 -431500455 -431500066 -431443325 -431357148 -431284732 -431272966 -431114529 -431071242 -431069432 -431020734 -430998333 -430940406 -430903129 -430866018 -430845799 -430833820 -430814170 -430695784 -430685781 -430670891 -430664079 -430594846 -430581192 -430510836 -430507306 -430480688 -430420464 -430407994 -430389263 -430379613 -430372318 -430365139 -430325770 -430312086 -430285659 -430265330 -430240843 -430104275 -430099711 -430075456 -430056171 -430007777 -429963198 -429955496 -429889032 -429761328 -429748751 -429708307 -429677465 -429653083 -429649496 -429644328 -429551466 -429550425 -429545155 -429427517 -429425600 -429420835 -429415237 -429394686 -429381551 -429344850 -429287830 -429263425 -429250270 -429245611 -429229949 -429178633 -429138743 -429103483 -429075909 -429065242 -428947652 -428932459 -428892535 -428871102 -428864159 -428723302 -428623820 -428589552 -428578990 -428559976 -428504980 -428461389 -428446765 -428322989 -428275563 -428264740 -428221074 -428191877 -428172943 -428161343 -428131806 -428107991 -428081406 -428065954 -428046583 -428019387 -427989529 -427976294 -427971704 -427786782 -427781836 -427683697 -427679191 -427542352 -427458767 -427393866 -427354994 -427334155 -427323065 -427312036 -427291935 -427234781 -427230177 -427212382 -426973742 -426958993 -426933850 -426908031 -426896543 -426858660 -426834009 -426833861 -426813823 -426797009 -426749069 -426706830 -426641121 -426636809 -426616322 -426614479 -426531651 -426515817 -426481678 -426472504 -426446381 -426407367 -426390447 -426298078 -426180006 -426120017 -426065759 -426061308 -426031677 -426016062 -425976054 -425957931 -425896009 -425860383 -425847737 -425807805 -425796132 -425790482 -425750412 -425736009 -425685742 -425672673 -425668555 -425620928 -425601144 -425522545 -425498161 -425492445 -425384581 -425344462 -425342576 -425337689 -425310411 -425299861 -425295275 -425276080 -425208218 -425182339 -425180859 -425179430 -425157684 -425147665 -425088316 -425085672 -425075197 -424987404 -424947071 -424923419 -424893418 -424869854 -424857362 -424855427 -424839114 -424824593 -424778152 -424776152 -424748760 -424734612 -424704935 -424636276 -424631405 -424564019 -424535339 -424487390 -424477376 -424399435 -424371069 -424336433 -424327779 -424311958 -424297591 -424206887 -424202734 -424187155 -424165793 -424115441 -424114512 -424028177 -423980118 -423956443 -423929985 -423879420 -423866979 -423866335 -423586715 -423579358 -423525372 -423480105 -423466419 -423451282 -423448257 -423431509 -423401840 -423296840 -423289122 -423262950 -423252887 -423166361 -423162934 -422988369 -422891438 -422866723 -422844393 -422832374 -422738659 -422688576 -422634638 -422540651 -422393568 -422355990 -422353176 -422260219 -422258839 -422173130 -422150550 -422146388 -422049904 -421950796 -421887013 -421869883 -421864773 -421824320 -421768532 -421742390 -421589994 -421500575 -421391332 -421368422 -421346051 -421301795 -421291004 -421222283 -421187831 -421145971 -421133683 -421109800 -421036758 -420996606 -420960562 -420949000 -420894094 -420864987 -420849328 -420841333 -420814608 -420768841 -420734140 -420710731 -420701223 -420699485 -420677897 -420609981 -420584632 -420570840 -420570679 -420553142 -420523109 -420522781 -420504082 -420472547 -420422489 -420236153 -420208605 -420203785 -420196584 -420185439 -420110213 -420107366 -420099441 -420057830 -420020716 -419982511 -419924910 -419916779 -419915889 -419891308 -419849350 -419834223 -419766496 -419763950 -419762717 -419706796 -419702094 -419602326 -419591697 -419540558 -419466440 -419465768 -419448209 -419432914 -419430650 -419371636 -419316038 -419314622 -419276255 -419274346 -419237764 -419172107 -419164717 -419081047 -419065381 -419054900 -418889317 -418871761 -418855624 -418835562 -418739147 -418723372 -418708691 -418707001 -418694761 -418668133 -418644945 -418618811 -418534375 -418443682 -418438683 -418423484 -418419382 -418385494 -418367405 -418363203 -418338167 -418309706 -418286463 -418261470 -418250534 -418232731 -418215813 -418120960 -418058296 -418000477 -417960597 -417864735 -417767142 -417708439 -417658363 -417658031 -417656985 -417565714 -417523039 -417510224 -417494200 -417445081 -417412467 -417391714 -417335756 -417334732 -417324964 -417237126 -417156545 -417154890 -417150465 -417035383 -417033110 -416982997 -416892666 -416882877 -416853530 -416850255 -416829638 -416825504 -416805525 -416728934 -416724716 -416719257 -416713553 -416705946 -416684458 -416653438 -416637181 -416608073 -416560326 -416556413 -416528285 -416433404 -416401940 -416381715 -416379816 -416359518 -416331288 -416318118 -416312029 -416151541 -416143403 -416124059 -416063174 -416059774 -415933657 -415919926 -415894312 -415890443 -415836937 -415811642 -415810544 -415776801 -415758459 -415754976 -415699401 -415665474 -415630767 -415629914 -415592491 -415591836 -415527158 -415526527 -415502391 -415407328 -415401232 -415399093 -415395390 -415310017 -415250779 -415221212 -415218156 -415155908 -415128195 -415110144 -415092373 -415046592 -414976915 -414932924 -414927129 -414921588 -414888913 -414856840 -414841452 -414803296 -414768041 -414765571 -414734848 -414717719 -414713480 -414695192 -414658642 -414645603 -414537416 -414435734 -414430461 -414375207 -414348411 -414333309 -414332257 -414324468 -414303397 -414272617 -414227439 -414223094 -414209912 -414182483 -414063352 -414006215 -413957383 -413940138 -413900398 -413887398 -413872874 -413847410 -413845932 -413801115 -413775540 -413757569 -413742761 -413723871 -413682450 -413594057 -413582063 -413539011 -413526362 -413454911 -413445110 -413444719 -413435290 -413419060 -413412193 -413343465 -413334538 -413294386 -413288595 -413280393 -413274503 -413240055 -413237074 -413215301 -413210838 -413210258 -413127823 -413120083 -413104971 -413097869 -413088593 -413078803 -413077383 -413069827 -412977015 -412835900 -412814226 -412801957 -412783953 -412768409 -412766454 -412750194 -412650512 -412601969 -412577258 -412404091 -412352283 -412338449 -412260996 -412241827 -412227808 -412203654 -412177435 -412126805 -412101857 -412091004 -412083879 -412064336 -412048597 -411979698 -411964430 -411964016 -411923597 -411836547 -411804710 -411791668 -411764143 -411745992 -411717130 -411687720 -411508332 -411490287 -411485407 -411436846 -411348740 -411347410 -411290522 -411268669 -411262708 -411180426 -411147394 -411140306 -411106475 -411027171 -410960542 -410954726 -410933148 -410908757 -410894337 -410852372 -410813360 -410808193 -410778318 -410768743 -410683345 -410645843 -410626393 -410598624 -410572948 -410528111 -410522177 -410512857 -410411666 -410345724 -410328624 -410323658 -410306548 -410293679 -410291619 -410161434 -410158576 -410147640 -410042665 -410018024 -410017989 -410003392 -409994707 -409970344 -409909980 -409885182 -409878963 -409839901 -409686063 -409671075 -409589093 -409548369 -409508109 -409498422 -409486865 -409486088 -409424515 -409292002 -409265924 -409252388 -409216902 -409213832 -409210514 -409169322 -409160274 -409145096 -409093772 -409082916 -409070194 -409040124 -409016139 -408964440 -408963512 -408943809 -408834881 -408821746 -408781085 -408755960 -408722014 -408665903 -408655309 -408602548 -408596080 -408574160 -408547091 -408528286 -408482875 -408467543 -408447502 -408443992 -408396373 -408371661 -408367960 -408348551 -408336238 -408335661 -408285245 -408251073 -408132046 -408124379 -408064759 -408034592 -408015775 -408013483 -408005674 -407983167 -407847620 -407802968 -407801129 -407791863 -407612890 -407598134 -407511089 -407460501 -407410887 -407383913 -407307865 -407292056 -407224570 -407173978 -407172432 -407098167 -407093773 -407065507 -407064549 -407046518 -407032284 -407011512 -407000389 -406995928 -406989501 -406934714 -406905079 -406899441 -406796342 -406759665 -406745713 -406687469 -406651478 -406622700 -406603730 -406584537 -406573699 -406554963 -406471126 -406461277 -406456886 -406424458 -406417712 -406365327 -406312189 -406267659 -406251924 -406215085 -406146636 -406124119 -406073088 -406057420 -406043512 -405984410 -405933351 -405931722 -405904922 -405864105 -405858378 -405835882 -405828807 -405814393 -405795469 -405783645 -405741994 -405707180 -405705213 -405695736 -405690373 -405633651 -405616082 -405482801 -405456089 -405452223 -405442562 -405401182 -405395863 -405345566 -405344399 -405342422 -405289957 -405242086 -405183800 -405181258 -405154141 -405135054 -405075090 -405051421 -405050884 -404979577 -404952161 -404916801 -404769764 -404742879 -404684061 -404629277 -404588288 -404497494 -404392918 -404347801 -404303637 -404284917 -404258714 -404073039 -404067925 -404002994 -403989421 -403975782 -403904201 -403889876 -403827171 -403826721 -403803135 -403800993 -403772139 -403758383 -403684137 -403660317 -403643136 -403627062 -403589223 -403554451 -403520530 -403504694 -403480075 -403453130 -403439353 -403432623 -403392597 -403265090 -403251565 -403197959 -403180592 -403112315 -403088540 -403082328 -403046660 -403030233 -402969157 -402957181 -402892851 -402875788 -402825407 -402809923 -402778690 -402704447 -402567092 -402510974 -402475958 -402461872 -402447375 -402446485 -402433260 -402427463 -402427013 -402421978 -402384666 -402349970 -402347143 -402336968 -402277392 -402262621 -402250377 -402174816 -402146604 -402121134 -402039387 -402005404 -401985580 -401959284 -401892428 -401736072 -401700044 -401586603 -401566868 -401542521 -401505869 -401480723 -401455596 -401232424 -401182719 -401176711 -401165333 -401034606 -401027187 -401011824 -400994978 -400861750 -400856227 -400849378 -400848381 -400841385 -400809894 -400801926 -400782436 -400770792 -400743052 -400702463 -400691428 -400636589 -400605896 -400542902 -400540470 -400531669 -400509891 -400438707 -400368161 -400363796 -400362638 -400351363 -400350749 -400276701 -400249465 -400198711 -399987527 -399982805 -399964192 -399963666 -399963210 -399941631 -399915576 -399885769 -399871156 -399838108 -399791894 -399785434 -399717231 -399703659 -399514118 -399411491 -399385328 -399382248 -399380318 -399373140 -399326196 -399309281 -399301419 -399278930 -399244646 -399242858 -399202106 -399199588 -399199228 -399173414 -399172056 -399117804 -399098421 -399097094 -399038447 -399030068 -398890748 -398813375 -398812357 -398810947 -398751332 -398750966 -398742915 -398714537 -398541607 -398539826 -398539403 -398516854 -398503002 -398443623 -398426395 -398423863 -398407782 -398359074 -398353807 -398351811 -398333374 -398296017 -398276040 -398254281 -398247853 -398240568 -398223729 -398123822 -398110698 -398075774 -398046324 -398017655 -397988911 -397971484 -397920604 -397904898 -397879368 -397862443 -397849932 -397810871 -397761460 -397747432 -397681606 -397638928 -397634507 -397624489 -397607160 -397509349 -397508493 -397391395 -397376318 -397307674 -397278294 -397250942 -397226345 -397201827 -397142884 -397121055 -397066339 -396871911 -396839022 -396760451 -396705179 -396692190 -396673025 -396657576 -396638597 -396604969 -396533426 -396518984 -396476093 -396421776 -396325438 -396298636 -396298464 -396259458 -396253366 -396233302 -396147839 -396113692 -396065953 -395979790 -395954900 -395891012 -395881718 -395867353 -395841672 -395829564 -395766898 -395766316 -395743004 -395568763 -395541181 -395521694 -395451286 -395445245 -395442637 -395378916 -395345074 -395331595 -395303283 -395259879 -395258806 -395253012 -395228957 -395139709 -395072643 -395068333 -395059951 -395052379 -395008928 -394995999 -394961734 -394946779 -394852647 -394844986 -394830102 -394801816 -394797568 -394778452 -394766753 -394752154 -394732691 -394684189 -394623284 -394594714 -394547258 -394518105 -394514467 -394486818 -394481563 -394474454 -394445218 -394318533 -394218908 -394162904 -394097092 -394024193 -393909438 -393858320 -393842729 -393831573 -393829420 -393776839 -393776544 -393730363 -393701622 -393650157 -393612086 -393607915 -393588111 -393577934 -393520954 -393441769 -393405787 -393378903 -393304868 -393300411 -393274620 -393221905 -393201816 -393111038 -393102389 -393015276 -392998277 -392968739 -392965114 -392960416 -392942038 -392907822 -392905831 -392876333 -392845740 -392824178 -392816440 -392809006 -392805332 -392799441 -392799135 -392769547 -392700783 -392692757 -392687278 -392681152 -392569037 -392544887 -392543604 -392527488 -392520352 -392506634 -392433097 -392406102 -392334775 -392334337 -392333629 -392331028 -392218530 -392204021 -392195409 -392187777 -392186949 -392166823 -392121885 -392113428 -392096477 -392072812 -392041976 -392029804 -392009811 -391986733 -391949166 -391914968 -391881142 -391876702 -391870630 -391855491 -391829876 -391820333 -391812152 -391762652 -391745772 -391678415 -391583773 -391575783 -391559316 -391535315 -391470964 -391422086 -391406481 -391402147 -391386336 -391350792 -391254324 -391160792 -391154376 -391132390 -391112889 -391073922 -391053682 -391051205 -391025202 -391008942 -390914651 -390880112 -390792571 -390785316 -390753207 -390724032 -390676400 -390650041 -390630042 -390552835 -390548060 -390515628 -390397217 -390323379 -390296793 -390279933 -390275365 -390207849 -390184661 -390141356 -390126908 -390114709 -390084129 -389996595 -389860040 -389786277 -389741000 -389640185 -389536173 -389532923 -389528026 -389520913 -389502850 -389483285 -389425381 -389386597 -389381914 -389370852 -389327659 -389314814 -389303644 -389295760 -389271854 -389256108 -389182457 -389167281 -389166071 -389111911 -389082978 -389023732 -389015349 -388958344 -388954595 -388954428 -388945336 -388910334 -388899690 -388881142 -388854778 -388804162 -388685771 -388662150 -388655123 -388632295 -388559208 -388541946 -388531164 -388497424 -388464344 -388419766 -388406507 -388339660 -388302608 -388284263 -388255565 -388130234 -388118548 -388118455 -388115194 -388098105 -388060155 -388001446 -387977927 -387849817 -387843742 -387741395 -387711521 -387671169 -387624262 -387594743 -387567609 -387553983 -387545862 -387530646 -387513808 -387494811 -387490813 -387483307 -387467136 -387463448 -387379092 -387330832 -387307245 -387275063 -387214912 -387138000 -387048147 -387045831 -387044856 -387026306 -386972722 -386944878 -386882314 -386857066 -386849270 -386782701 -386643549 -386607603 -386587814 -386579379 -386579176 -386475294 -386467393 -386464594 -386398580 -386389921 -386374327 -386292940 -386278319 -386251864 -386200927 -386145511 -386134324 -386025162 -385976354 -385928791 -385927054 -385862846 -385789081 -385759093 -385740165 -385680665 -385606173 -385590022 -385586234 -385509621 -385408732 -385386036 -385347054 -385339805 -385303126 -385220345 -385143670 -385130255 -385063892 -385035793 -385035791 -384976414 -384899209 -384892084 -384841076 -384827940 -384752689 -384715616 -384691420 -384565769 -384555666 -384548340 -384535486 -384513141 -384502391 -384393338 -384384972 -384373890 -384327902 -384317117 -384300356 -384270290 -384201653 -384194186 -384121254 -384092133 -384050977 -384030392 -384019927 -384008980 -383925671 -383895813 -383893242 -383827197 -383799475 -383797980 -383786859 -383783728 -383781791 -383725451 -383717672 -383703619 -383697164 -383628453 -383590063 -383574209 -383557523 -383528992 -383517552 -383471308 -383451119 -383414705 -383399721 -383398046 -383388420 -383368219 -383298977 -383267782 -383267349 -383258382 -383200180 -383162837 -383160284 -383144987 -383106020 -383085403 -383055007 -382976481 -382962255 -382930997 -382897270 -382896918 -382829038 -382754507 -382745147 -382720784 -382719667 -382704323 -382687727 -382663354 -382639814 -382635198 -382608255 -382583602 -382571710 -382502226 -382501073 -382457474 -382405100 -382331446 -382322261 -382253652 -382240670 -382227326 -382212512 -382128909 -382089527 -381986506 -381947416 -381899063 -381880924 -381840433 -381823870 -381800062 -381761056 -381676145 -381659902 -381528674 -381512687 -381473407 -381472030 -381430442 -381383462 -381382211 -381332114 -381328518 -381286633 -381283233 -381269905 -381220115 -381217494 -381207042 -381139509 -381130964 -381124871 -381093339 -381057189 -380985348 -380949852 -380918433 -380917890 -380884372 -380875833 -380819487 -380802329 -380766219 -380757106 -380754825 -380674097 -380606080 -380603046 -380581713 -380570183 -380524088 -380471768 -380427880 -380374861 -380329565 -380306453 -380295556 -380289980 -380275063 -380270952 -380243671 -380219495 -380190308 -380186727 -380166779 -380143308 -380142681 -380057259 -379904091 -379902064 -379886183 -379858289 -379811300 -379788077 -379760699 -379757163 -379585963 -379571881 -379561309 -379538959 -379530757 -379521507 -379455402 -379295398 -379180635 -379177948 -379131565 -379039143 -379026690 -379024522 -378951944 -378934720 -378915482 -378897839 -378797533 -378784422 -378753402 -378724799 -378720649 -378707528 -378701691 -378696530 -378658681 -378613210 -378602634 -378570054 -378551051 -378544038 -378533146 -378466350 -378435772 -378246125 -378204695 -378163252 -378112934 -378066426 -378031739 -377969624 -377952722 -377895403 -377834022 -377825418 -377803885 -377547162 -377523924 -377514957 -377482098 -377479901 -377386058 -377271136 -377211916 -377129308 -376965948 -376952159 -376921955 -376869511 -376869113 -376867957 -376748457 -376729485 -376728060 -376720531 -376689842 -376654928 -376650964 -376570119 -376562768 -376458253 -376422853 -376404178 -376279702 -376256122 -376222391 -376191200 -376186665 -376182161 -376165747 -376164274 -376161132 -376045407 -376041862 -376011120 -376009141 -375968895 -375944197 -375913003 -375884790 -375866825 -375742955 -375726989 -375696855 -375655039 -375646697 -375598613 -375573911 -375472203 -375434212 -375422810 -375387496 -375364553 -375324487 -375307549 -375303388 -375277169 -375253578 -375246135 -375228142 -375170627 -375149911 -375090391 -375074712 -375036359 -375022443 -375015694 -374994617 -374977558 -374936428 -374683228 -374665244 -374642114 -374483930 -374481045 -374444985 -374432213 -374404024 -374247178 -374218917 -374217219 -374177870 -374154235 -374140813 -374016799 -374016453 -373953598 -373878766 -373874012 -373776508 -373727461 -373658351 -373614079 -373590389 -373586019 -373583486 -373550688 -373535970 -373500197 -373449827 -373395227 -373373983 -373365227 -373287869 -373272664 -373237552 -373237005 -373214597 -373173418 -373159420 -373137489 -373089722 -373062603 -373057093 -373045787 -372999474 -372984811 -372949619 -372943460 -372889472 -372865235 -372853393 -372779704 -372767892 -372736172 -372703432 -372698493 -372682357 -372671610 -372624856 -372601970 -372575325 -372568037 -372504642 -372475263 -372330124 -372314465 -372231000 -372197511 -372143672 -372120321 -372105206 -372066723 -372066335 -371955843 -371840176 -371804271 -371782845 -371759578 -371553984 -371539193 -371492847 -371422425 -371365043 -371358209 -371318050 -371297353 -371277014 -371226681 -371207716 -371190011 -371107826 -371090012 -371084315 -371076083 -371037327 -370967323 -370950536 -370931033 -370914573 -370794843 -370790290 -370764210 -370737022 -370705417 -370678384 -370645933 -370625370 -370587609 -370563301 -370526154 -370475526 -370308332 -370297805 -370234651 -370222334 -370198893 -370186515 -370182773 -370152780 -370145891 -370133030 -370095522 -370028353 -369986232 -369946790 -369913792 -369872390 -369863009 -369838398 -369789862 -369784881 -369771757 -369735176 -369692611 -369659885 -369654520 -369645574 -369611289 -369552063 -369534083 -369529515 -369511177 -369454122 -369280424 -369241582 -369241445 -369217742 -369212361 -369196450 -369182046 -369167990 -369128752 -369080216 -369056900 -369011418 -368923179 -368880227 -368778428 -368753616 -368640192 -368626536 -368592293 -368575582 -368569832 -368525642 -368445969 -368416026 -368408106 -368401884 -368357955 -368326928 -368306042 -368284023 -368221698 -368218264 -368186714 -368150444 -368122212 -368117267 -368063856 -368021172 -367977201 -367961592 -367954951 -367954744 -367949083 -367946783 -367934340 -367863449 -367801524 -367679084 -367678753 -367677576 -367615165 -367564991 -367541744 -367533013 -367512485 -367480737 -367410450 -367382643 -367365546 -367282168 -367268077 -367255283 -367244016 -367088500 -367013613 -366881529 -366860109 -366790043 -366775600 -366735792 -366713469 -366688229 -366607379 -366592112 -366576850 -366549599 -366544337 -366495109 -366413044 -366386290 -366316792 -366295121 -366231774 -366186651 -366114350 -366092338 -366004948 -366003083 -365878147 -365874754 -365869988 -365845950 -365826636 -365764322 -365660278 -365608240 -365589163 -365574915 -365545557 -365519158 -365516137 -365469489 -365461620 -365432004 -365407735 -365388755 -365385253 -365384038 -365382828 -365359305 -365307871 -365293094 -365281085 -365242150 -365227125 -365226516 -365177915 -365159203 -365115967 -365072320 -365019342 -365008712 -364966554 -364806781 -364702671 -364696873 -364690364 -364574996 -364514593 -364462630 -364462433 -364422527 -364398799 -364385945 -364308344 -364229193 -364129722 -364047234 -363995917 -363966583 -363891511 -363835350 -363820411 -363807790 -363730200 -363724330 -363706849 -363683521 -363662751 -363577420 -363549869 -363522777 -363493854 -363478425 -363414477 -363326852 -363291938 -363270123 -363266225 -363255832 -363253772 -363174609 -363168953 -363153693 -363146350 -363123225 -363053806 -362946370 -362905764 -362894508 -362887895 -362752346 -362746071 -362695894 -362671427 -362589556 -362533926 -362500165 -362446760 -362313393 -362299448 -362264591 -362257584 -362256022 -362239713 -362213051 -362127623 -362092099 -362058317 -362029741 -362026911 -362011342 -361938574 -361875340 -361850685 -361806321 -361731976 -361719887 -361692350 -361680855 -361657446 -361654949 -361634983 -361540292 -361514406 -361493445 -361479950 -361453542 -361312022 -361222112 -361180054 -361173430 -361098722 -361083719 -361073064 -360981318 -360949026 -360899796 -360861020 -360854828 -360801661 -360727861 -360690060 -360645071 -360600727 -360591077 -360566786 -360546265 -360495620 -360464238 -360443676 -360377478 -360315234 -360277193 -360273069 -360260750 -360255006 -360170145 -360150213 -360051232 -360024101 -359997615 -359988987 -359939723 -359888398 -359870222 -359756737 -359749318 -359716822 -359714316 -359665918 -359579738 -359562914 -359514239 -359429405 -359379079 -359360923 -359314374 -359279615 -359138643 -359095621 -359057759 -359042202 -359041213 -359027058 -358977968 -358951500 -358904503 -358775981 -358725191 -358529090 -358478514 -358427709 -358380730 -358358122 -358344815 -358326012 -358323793 -358322703 -358273609 -358249638 -358148597 -358119746 -358074376 -357999256 -357987063 -357912340 -357901174 -357885305 -357864095 -357858413 -357831629 -357829159 -357814702 -357748324 -357716576 -357679829 -357646530 -357645258 -357645063 -357582589 -357582533 -357582345 -357368048 -357366367 -357332404 -357324672 -357231570 -357188669 -357180735 -357100698 -357062922 -357019815 -357010499 -356951779 -356862808 -356837917 -356799767 -356720043 -356706802 -356614646 -356598434 -356582045 -356436930 -356435249 -356351375 -356339641 -356314889 -356291164 -356224967 -356201783 -356166419 -356078044 -356066524 -356060693 -356038682 -356014795 -355993603 -355989145 -355957164 -355935282 -355896882 -355892117 -355873153 -355846182 -355836863 -355791814 -355789880 -355686450 -355640648 -355630982 -355611328 -355587841 -355563016 -355557168 -355516287 -355467795 -355453088 -355386639 -355378056 -355373943 -355349889 -355289019 -355284265 -355250178 -355247539 -355226815 -355179555 -355166606 -355149577 -355128868 -355103511 -355070690 -355040661 -355028051 -355027618 -354967924 -354864195 -354856462 -354753719 -354752170 -354731055 -354726294 -354665372 -354657628 -354597590 -354573847 -354531135 -354520650 -354508613 -354504664 -354490966 -354465192 -354423386 -354419686 -354371432 -354349674 -354320478 -354304984 -354235260 -354147657 -354134930 -354094824 -354024219 -354020106 -353972992 -353971392 -353936125 -353935908 -353917883 -353910457 -353884454 -353712229 -353706549 -353694955 -353658969 -353650026 -353614927 -353580288 -353539700 -353528451 -353521253 -353510593 -353501109 -353395877 -353327408 -353250341 -353240230 -353123336 -353097223 -353085620 -353044013 -352913411 -352891221 -352863851 -352857639 -352755318 -352658147 -352617100 -352614341 -352514403 -352484058 -352473209 -352459845 -352415686 -352392978 -352292240 -352284820 -352208947 -352196320 -352150870 -352149287 -352080992 -352045216 -351887302 -351874650 -351861722 -351837844 -351739330 -351736925 -351734658 -351533777 -351510954 -351495664 -351461162 -351459265 -351429425 -351367753 -351353427 -351348594 -351286944 -351282148 -351272925 -351242698 -351195476 -351158342 -351121942 -351098713 -351077653 -351063532 -351021626 -351019298 -351001052 -350950427 -350779665 -350762810 -350729286 -350673910 -350600078 -350546371 -350527796 -350515739 -350497251 -350420812 -350409468 -350387740 -350366318 -350316280 -350304836 -350281710 -350277109 -350227174 -350165150 -349995658 -349947757 -349915300 -349877247 -349831277 -349734262 -349635139 -349604544 -349577676 -349529965 -349512010 -349489869 -349449457 -349438965 -349398187 -349372987 -349287018 -349231696 -349227277 -349146539 -349122883 -349067387 -349042506 -348999141 -348997662 -348894939 -348886328 -348880860 -348827187 -348753445 -348730729 -348717581 -348692130 -348624227 -348620978 -348611222 -348598167 -348589132 -348562460 -348518789 -348477671 -348449026 -348444526 -348421735 -348393843 -348373297 -348365934 -348364667 -348280835 -348255043 -348202558 -348148758 -348148340 -348129310 -348045558 -347952443 -347917267 -347901544 -347872609 -347810215 -347792569 -347780010 -347722714 -347698770 -347695096 -347694018 -347527020 -347517718 -347496745 -347489705 -347488301 -347481727 -347460722 -347458946 -347432801 -347399821 -347356233 -347317978 -347299503 -347225310 -347155097 -347139892 -347092769 -346998967 -346975806 -346969738 -346933350 -346921693 -346893634 -346841498 -346747241 -346722139 -346702486 -346603687 -346548101 -346496800 -346483177 -346476942 -346471521 -346425180 -346410534 -346357403 -346265002 -346255952 -346237370 -346202409 -346148097 -346111917 -346107455 -346079377 -346035284 -345968129 -345904755 -345883545 -345880688 -345802023 -345780490 -345746440 -345655993 -345550079 -345540510 -345410556 -345395919 -345389930 -345365118 -345297716 -345244782 -345087992 -345067391 -344921087 -344876287 -344808733 -344789289 -344697650 -344649694 -344635016 -344574225 -344558305 -344506334 -344498485 -344476319 -344467538 -344304236 -344251838 -344233808 -344178185 -344176488 -344122568 -344063600 -344029832 -344022983 -343998091 -343973680 -343949510 -343913382 -343896839 -343867932 -343851285 -343812738 -343718204 -343716199 -343564905 -343506451 -343504943 -343498331 -343487199 -343479890 -343479425 -343333307 -343257065 -343252241 -343250543 -343218199 -343152573 -343121560 -343036045 -343033670 -343013529 -342991141 -342988198 -342939966 -342933974 -342892603 -342879414 -342867146 -342751531 -342737590 -342663732 -342597919 -342588669 -342588524 -342511557 -342462915 -342412726 -342378563 -342366857 -342363049 -342317754 -342313654 -342298592 -342157712 -342119932 -342118766 -342110906 -342089376 -341952491 -341937321 -341911041 -341833126 -341798526 -341717461 -341713637 -341686182 -341648581 -341641380 -341623567 -341600604 -341592101 -341493684 -341470824 -341424995 -341400675 -341388163 -341340126 -341315862 -341298000 -341291716 -341165619 -341136675 -341128609 -341116818 -341097535 -341078707 -341041055 -340989505 -340944590 -340922490 -340880525 -340733255 -340677286 -340664867 -340638631 -340619476 -340579143 -340572819 -340560222 -340530935 -340491957 -340484316 -340470486 -340450968 -340438715 -340429506 -340421046 -340259436 -340256122 -340242607 -340182767 -340162272 -340143116 -340089561 -340019344 -339990552 -339902799 -339841513 -339809482 -339733365 -339723206 -339674049 -339627299 -339605657 -339578386 -339520451 -339488911 -339458800 -339425911 -339407166 -339366481 -339297763 -339196797 -339182755 -339083187 -339053024 -339037592 -339025008 -339017031 -338974648 -338950181 -338868700 -338843723 -338826661 -338824046 -338716339 -338716237 -338676639 -338636241 -338630981 -338616629 -338614075 -338613208 -338572751 -338558213 -338479106 -338430127 -338372835 -338358212 -338353312 -338273968 -338273618 -338271412 -338261169 -338226759 -338222184 -338170777 -338133185 -338066741 -338031558 -337991092 -337972732 -337953197 -337940596 -337926065 -337892004 -337889390 -337831215 -337814509 -337803521 -337751641 -337744535 -337723075 -337653117 -337650163 -337618032 -337527830 -337525149 -337466895 -337435485 -337357605 -337329230 -337297452 -337294118 -337291632 -337285800 -337230807 -337205209 -337175408 -337167903 -337025376 -336985073 -336972072 -336926632 -336924341 -336923005 -336796293 -336793084 -336757456 -336744906 -336724605 -336683992 -336665704 -336646448 -336637055 -336619459 -336611840 -336573637 -336572655 -336564331 -336521486 -336511934 -336427605 -336407581 -336400836 -336380673 -336320776 -336275493 -336249110 -336233366 -336224492 -336079114 -336067088 -336056374 -335955754 -335888607 -335887763 -335816216 -335768491 -335735222 -335730013 -335716023 -335662540 -335614337 -335595905 -335575027 -335565815 -335564204 -335494531 -335398945 -335369203 -335326276 -335254770 -335162468 -335127095 -335110122 -335085534 -335084808 -335045001 -334964801 -334958003 -334880850 -334852472 -334767166 -334754012 -334682708 -334676295 -334666513 -334621728 -334567125 -334560637 -334530241 -334491346 -334485651 -334427230 -334342441 -334326608 -334323564 -334320140 -334271688 -334245274 -334159405 -334012603 -333973889 -333958469 -333958426 -333934713 -333909826 -333828739 -333815973 -333779976 -333764338 -333667939 -333661571 -333619805 -333552026 -333428052 -333395734 -333393497 -333307802 -333250538 -333225739 -333184608 -333176585 -333165059 -333148302 -333139858 -333137440 -333107069 -333050857 -333049996 -332941444 -332903985 -332894429 -332864519 -332846205 -332826743 -332767430 -332700659 -332676751 -332551094 -332481201 -332397494 -332308847 -332299665 -332234053 -332206223 -332125438 -332104047 -332075768 -332070394 -332043277 -332004782 -331962313 -331905452 -331896142 -331872794 -331864804 -331778423 -331763803 -331753703 -331727594 -331714899 -331668343 -331664837 -331631696 -331605152 -331575409 -331516653 -331314743 -331311626 -331282838 -331174731 -331105238 -330990732 -330968880 -330934339 -330812604 -330795438 -330785413 -330783037 -330647110 -330626635 -330589411 -330561414 -330520534 -330511515 -330507607 -330435122 -330414660 -330408514 -330310807 -330309952 -330239583 -330187310 -330147223 -330102030 -330085773 -330062954 -330059533 -329970769 -329927268 -329914552 -329873309 -329802056 -329783280 -329779348 -329749597 -329730404 -329671226 -329653393 -329651089 -329574688 -329561485 -329515370 -329493153 -329481202 -329478982 -329383450 -329305766 -329293229 -329280388 -329245334 -329186398 -329179114 -329168914 -329162943 -329157712 -329078594 -329063817 -329055633 -329024397 -329017852 -329014039 -328959823 -328941338 -328926030 -328901022 -328852842 -328837629 -328765776 -328762550 -328697994 -328693800 -328540931 -328517878 -328507945 -328502404 -328487387 -328482772 -328481342 -328421741 -328402715 -328366803 -328349746 -328347826 -328341105 -328296529 -328294283 -328278722 -328241691 -328158425 -328099861 -327945578 -327873599 -327741028 -327734598 -327675924 -327666607 -327606148 -327597215 -327591506 -327580827 -327568554 -327506724 -327384316 -327380088 -327280011 -327198293 -327176974 -327147762 -327114983 -327104060 -327092498 -327067765 -327027025 -326948603 -326944346 -326917105 -326855382 -326834382 -326797182 -326723386 -326702622 -326608255 -326601197 -326584011 -326463419 -326434203 -326402086 -326328721 -326259037 -326246605 -326183952 -326182711 -326176647 -326175233 -326153879 -326145864 -326137163 -326065687 -326045153 -326036860 -325969394 -325919842 -325874201 -325799254 -325532281 -325531878 -325518480 -325495177 -325487777 -325467520 -325446653 -325421695 -325371695 -325352218 -325325037 -325100819 -325089579 -325073856 -325002012 -324962730 -324957392 -324898791 -324871049 -324867438 -324829193 -324799676 -324745162 -324693771 -324675831 -324645451 -324641148 -324609187 -324598288 -324580346 -324572148 -324563298 -324509763 -324498004 -324475197 -324466521 -324455417 -324435565 -324412030 -324405313 -324393954 -324374556 -324289812 -324109672 -324048296 -324000641 -323972198 -323916377 -323871664 -323864484 -323850474 -323840022 -323799277 -323764434 -323713325 -323678282 -323614890 -323577450 -323509676 -323485646 -323458043 -323438283 -323415369 -323402570 -323358769 -323354566 -323323429 -323301315 -323255248 -323249529 -323214241 -323197962 -323189085 -323185235 -323167656 -323134701 -323114445 -323097828 -323096666 -323069848 -322914181 -322905473 -322862247 -322851148 -322822319 -322772665 -322755223 -322742784 -322741335 -322728687 -322694174 -322665440 -322521705 -322510237 -322506375 -322482805 -322478297 -322378897 -322351225 -322319430 -322281376 -322264142 -322204375 -322165652 -322122801 -322045411 -321989352 -321964336 -321925972 -321893466 -321870462 -321818828 -321791333 -321732901 -321701517 -321697329 -321685205 -321683135 -321611756 -321610938 -321543494 -321524736 -321521304 -321463634 -321400779 -321397702 -321297698 -321283940 -321274962 -321241725 -321241674 -321239782 -321225339 -321181017 -321135002 -321117124 -321088224 -321082796 -321048851 -321026467 -321005063 -320998893 -320969472 -320888916 -320881747 -320859802 -320838393 -320832406 -320794342 -320786090 -320730963 -320678315 -320656318 -320584020 -320539453 -320521846 -320436625 -320433620 -320377881 -320325724 -320318331 -320302164 -320301024 -320236644 -320185457 -320150798 -320147583 -320141590 -320137002 -320130397 -320074159 -320039651 -320039036 -319974287 -319914552 -319912525 -319879196 -319845572 -319832061 -319820384 -319797672 -319788771 -319785548 -319763732 -319718293 -319703193 -319585619 -319424465 -319416968 -319379834 -319364178 -319348414 -319308019 -319239859 -319238633 -319186632 -319098800 -319095250 -319022232 -318993405 -318988269 -318967173 -318908672 -318907846 -318893661 -318891448 -318888565 -318856961 -318818467 -318804984 -318760496 -318724243 -318666719 -318653246 -318632463 -318608733 -318600924 -318553321 -318528645 -318523801 -318482597 -318450152 -318393268 -318380856 -318337914 -318334094 -318304357 -318269606 -318217554 -318168572 -318153446 -318089534 -318075451 -318027236 -317990758 -317975055 -317921355 -317887493 -317873114 -317863798 -317797822 -317792416 -317777701 -317712101 -317696684 -317689177 -317645884 -317605718 -317548203 -317533299 -317515643 -317507931 -317443797 -317432809 -317394557 -317375096 -317328727 -317269017 -317215408 -317181282 -317178743 -317120603 -317112233 -317088735 -317081018 -317051735 -317028529 -316960676 -316934621 -316924568 -316856150 -316854257 -316836417 -316794888 -316782913 -316731372 -316729616 -316702148 -316686932 -316614385 -316613866 -316528276 -316520960 -316433780 -316335269 -316319682 -316285752 -316238544 -316205563 -316187989 -316165619 -316120281 -316094900 -316055619 -316041963 -316034835 -316007765 -315965842 -315963263 -315925350 -315895294 -315883020 -315854070 -315823451 -315803766 -315680394 -315658150 -315635881 -315626357 -315608012 -315575883 -315536532 -315530703 -315479119 -315431381 -315397978 -315321415 -315212215 -315146351 -315128368 -315037879 -315012887 -315012309 -314998981 -314989331 -314959492 -314950410 -314916138 -314809155 -314798731 -314773327 -314754101 -314676932 -314647579 -314624731 -314623996 -314620150 -314493509 -314462611 -314460573 -314457950 -314451362 -314381341 -314376317 -314317486 -314317273 -314299596 -314297819 -314246085 -314222197 -314201324 -314195442 -314174085 -314152071 -314146744 -314101121 -314086450 -314081393 -314030794 -314015601 -313994027 -313951006 -313949760 -313869793 -313822198 -313725929 -313656188 -313635705 -313630542 -313564986 -313541087 -313521586 -313443630 -313426928 -313425846 -313393362 -313391268 -313384064 -313355740 -313344302 -313254186 -313250455 -313195559 -313190774 -313189835 -313162496 -313121707 -313095927 -313087326 -313041906 -313031244 -313029652 -312989884 -312988650 -312971693 -312944537 -312923447 -312830517 -312819910 -312737545 -312676336 -312640813 -312515146 -312367088 -312341081 -312307782 -312299722 -312289895 -312261857 -312258319 -312242868 -312241708 -312212517 -312210469 -312200056 -312103836 -312035913 -311964089 -311954538 -311950247 -311928990 -311926705 -311886074 -311814923 -311751905 -311738887 -311734114 -311564409 -311549866 -311473015 -311382307 -311377018 -311300150 -311263856 -311238400 -311133758 -311108884 -311105658 -311086361 -311016313 -310992308 -310969255 -310966912 -310925489 -310832594 -310734214 -310730055 -310710003 -310659864 -310605315 -310603242 -310585234 -310577761 -310576655 -310571949 -310540861 -310525038 -310510687 -310491970 -310475045 -310460371 -310424759 -310391935 -310334017 -310307568 -310199592 -310126537 -310109693 -310097484 -310073234 -310063617 -310058399 -310019159 -309944107 -309930392 -309910038 -309872694 -309872069 -309841256 -309837043 -309799660 -309761429 -309717411 -309662531 -309555486 -309486624 -309469815 -309452399 -309412448 -309404145 -309401113 -309341367 -309297979 -309292864 -309283083 -309232970 -309211242 -309175078 -309172299 -309133157 -309124304 -309075198 -308972825 -308949039 -308932297 -308927167 -308923521 -308818523 -308815301 -308795746 -308793991 -308757873 -308733102 -308709846 -308701178 -308686746 -308672356 -308652786 -308652184 -308533386 -308520248 -308489674 -308441432 -308391779 -308384166 -308344332 -308309589 -308246074 -308162487 -308136124 -308135380 -308110940 -308094423 -308091158 -308069420 -308059328 -307757797 -307690618 -307637580 -307574595 -307562402 -307527614 -307511572 -307467195 -307454964 -307453828 -307450463 -307273190 -307270732 -307232874 -307227028 -307128482 -307080232 -307066650 -307033256 -306994005 -306962661 -306932508 -306885346 -306874892 -306869087 -306821773 -306810794 -306796546 -306767720 -306696418 -306689022 -306675281 -306670433 -306669516 -306616443 -306569903 -306486487 -306452195 -306405025 -306389006 -306373409 -306342573 -306250212 -306088078 -306082196 -306002714 -305979836 -305905727 -305762707 -305715370 -305706814 -305680064 -305662958 -305612858 -305565873 -305564843 -305552393 -305550197 -305493793 -305485955 -305444923 -305443564 -305426927 -305379130 -305346884 -305283092 -305207253 -305194223 -305159427 -305159191 -305105492 -305088486 -305083485 -304997689 -304989676 -304989061 -304985602 -304981989 -304962635 -304944528 -304944168 -304880664 -304787325 -304784687 -304760151 -304722417 -304714749 -304704153 -304591358 -304588446 -304537098 -304507010 -304288892 -304161179 -304135605 -304127687 -304070079 -304069900 -304024689 -303950644 -303942556 -303839180 -303834934 -303787735 -303661596 -303487930 -303467068 -303363173 -303329885 -303289799 -303269434 -303259096 -303242371 -303202427 -303045725 -303022797 -303013562 -302968377 -302945827 -302923997 -302784874 -302744071 -302696852 -302678171 -302665155 -302653818 -302603169 -302592628 -302584327 -302526336 -302505876 -302487999 -302474757 -302444319 -302435599 -302429030 -302419721 -302390665 -302368653 -302335200 -302331380 -302317061 -302274044 -302252944 -302241813 -302227418 -302187339 -302185887 -302165592 -302155644 -302081450 -302072106 -302064861 -301969856 -301901842 -301879538 -301810689 -301808447 -301788920 -301674997 -301571560 -301543405 -301418648 -301353856 -301351717 -301287147 -301271233 -301155816 -301140634 -301138560 -301108401 -301107939 -301066251 -301052361 -301051040 -300999404 -300997257 -300912288 -300820290 -300645286 -300519054 -300484223 -300463129 -300425642 -300405570 -300385079 -300365184 -300356676 -300260852 -300242145 -300124558 -300120550 -300090549 -300022412 -299986346 -299981985 -299908117 -299898784 -299897664 -299768166 -299695142 -299685628 -299676805 -299665347 -299639180 -299588563 -299586724 -299532342 -299470813 -299443716 -299442009 -299434874 -299331602 -299151715 -299145651 -299067463 -299053264 -299048972 -299046677 -299014168 -298924313 -298847872 -298841298 -298803665 -298767039 -298730584 -298659052 -298593920 -298516581 -298448718 -298414934 -298365591 -298356773 -298307400 -298161136 -298149415 -298139284 -298099207 -298074014 -298050861 -298045966 -298040966 -298032068 -298002893 -297980625 -297947479 -297917213 -297906341 -297902702 -297887978 -297882432 -297804214 -297738176 -297682826 -297622954 -297601798 -297559270 -297546161 -297505210 -297500612 -297452331 -297428051 -297425666 -297394152 -297373878 -297342887 -297294515 -297289153 -297282927 -297272045 -297238473 -297221513 -297216161 -297202876 -297201198 -297179338 -297146049 -297144823 -297140786 -297132712 -297100804 -296959722 -296941835 -296830032 -296828431 -296804049 -296787735 -296692096 -296655604 -296567326 -296564018 -296512876 -296504562 -296483154 -296480921 -296461710 -296450632 -296450479 -296436274 -296373127 -296337900 -296303852 -296264244 -296248340 -296231911 -296230886 -296193192 -296190673 -296171950 -296129021 -296100020 -296094529 -296081754 -296038818 -296034599 -296014335 -295958434 -295957468 -295939203 -295934125 -295908842 -295878606 -295832321 -295814589 -295784891 -295782941 -295769352 -295723779 -295710449 -295675622 -295656936 -295647505 -295622872 -295545089 -295528619 -295503920 -295455379 -295438191 -295279907 -295257153 -295245784 -295224534 -295198092 -295195925 -295192728 -295149183 -295147029 -295087824 -295083485 -295012472 -294975166 -294957534 -294950520 -294917299 -294852139 -294746004 -294718431 -294677337 -294676255 -294632177 -294567969 -294563580 -294530103 -294524293 -294514947 -294401861 -294365276 -294357389 -294324328 -294292901 -294282444 -294234825 -294222869 -294200939 -294178101 -294114105 -294067529 -294005887 -293985172 -293973227 -293961196 -293872294 -293806177 -293788346 -293741837 -293738129 -293734777 -293730367 -293664288 -293663161 -293662367 -293606179 -293605539 -293589505 -293568522 -293509637 -293478184 -293445233 -293412702 -293391094 -293319494 -293282031 -293276150 -293253567 -293203207 -293164811 -293137346 -293127643 -293101060 -293018812 -293018809 -292959106 -292918160 -292904423 -292873771 -292873008 -292801604 -292798542 -292796068 -292702118 -292700976 -292689240 -292605762 -292508872 -292494975 -292358340 -292357733 -292343285 -292332672 -292212557 -292190036 -292170672 -292085033 -292060984 -292038981 -292021500 -291983304 -291928613 -291918790 -291912201 -291784711 -291694937 -291678878 -291642549 -291581890 -291559130 -291442014 -291432047 -291412859 -291330769 -291275371 -291148281 -291115225 -291114156 -291067095 -291066728 -291065620 -291051850 -291020979 -291008985 -290992311 -290973588 -290972829 -290967724 -290959623 -290918080 -290913272 -290843848 -290834384 -290747266 -290663735 -290652160 -290651534 -290649798 -290592748 -290577645 -290555903 -290539343 -290525939 -290445786 -290438270 -290416047 -290412098 -290402246 -290401084 -290398337 -290393980 -290356461 -290351906 -290343742 -290288904 -290262076 -290231487 -290099879 -290007397 -289954335 -289940681 -289911861 -289888758 -289855630 -289776355 -289761807 -289736280 -289665923 -289597750 -289553845 -289535823 -289519311 -289347293 -289322684 -289287395 -289284168 -289213175 -289210540 -289118996 -289079006 -289073697 -288985659 -288952205 -288928790 -288923203 -288902235 -288902062 -288880195 -288872134 -288767764 -288743335 -288682612 -288677533 -288576724 -288528772 -288521909 -288508282 -288496898 -288493816 -288488191 -288412129 -288392479 -288368159 -288307778 -288307140 -288234336 -288173712 -288092796 -288070494 -288067302 -288049304 -288039350 -288034254 -287939591 -287903910 -287871641 -287815119 -287813608 -287770984 -287742545 -287727188 -287723960 -287719226 -287692589 -287681434 -287659232 -287559250 -287391213 -287341880 -287341542 -287329209 -287256224 -287110177 -287109783 -287103610 -287100422 -287066192 -287049275 -287015678 -286995095 -286949253 -286929194 -286896195 -286827902 -286827251 -286736577 -286721013 -286713795 -286709999 -286697208 -286672581 -286618976 -286454504 -286380082 -286227492 -286152642 -286047671 -285994101 -285987090 -285941770 -285938363 -285880839 -285841788 -285827114 -285818796 -285776527 -285740817 -285723674 -285699857 -285696049 -285659573 -285654927 -285641486 -285538306 -285518015 -285462380 -285443438 -285402599 -285402199 -285386915 -285365739 -285270219 -285134910 -285093895 -285071316 -285065362 -285041477 -285026780 -285014166 -284984095 -284962765 -284944666 -284890855 -284818363 -284735256 -284715814 -284686719 -284684434 -284557504 -284540301 -284486653 -284468093 -284465858 -284385838 -284378321 -284351224 -284350130 -284326724 -284310770 -284267858 -284233361 -284205024 -284126741 -284114798 -284104107 -284026927 -284003553 -283993645 -283921817 -283849217 -283797448 -283787531 -283741199 -283696943 -283687526 -283684277 -283628442 -283601666 -283580106 -283554231 -283553595 -283539316 -283537738 -283508925 -283436912 -283419940 -283389222 -283346701 -283346311 -283232743 -283186906 -283115777 -283106826 -283059852 -283059442 -283016809 -283000940 -282988277 -282935965 -282897828 -282860101 -282853024 -282828727 -282811427 -282639599 -282563790 -282534838 -282487797 -282443923 -282412533 -282350582 -282303901 -282240952 -282166571 -282142636 -282076645 -282002380 -281949737 -281906821 -281890846 -281876299 -281871558 -281869202 -281825330 -281822981 -281818718 -281800540 -281778670 -281778110 -281762669 -281759796 -281744455 -281742535 -281657794 -281520022 -281489301 -281434853 -281402400 -281361110 -281338212 -281306178 -281299421 -281289464 -281239532 -281230438 -281143912 -281068764 -280981518 -280977798 -280911270 -280889405 -280845543 -280836721 -280826234 -280819113 -280785379 -280748600 -280720387 -280637537 -280584765 -280545566 -280539701 -280533762 -280501063 -280500193 -280486503 -280467500 -280420057 -280398758 -280308663 -280274018 -280204662 -280204465 -280198549 -280196606 -280182596 -280129103 -280083868 -280031834 -280012460 -279922467 -279893132 -279892327 -279882443 -279856213 -279715125 -279694463 -279641953 -279622573 -279529890 -279521481 -279436322 -279432907 -279373807 -279342856 -279335913 -279332840 -279330145 -279315238 -279233653 -279232097 -279220290 -279164089 -279160368 -279155695 -279111841 -279104983 -279085722 -279043447 -279041159 -279003363 -278986103 -278975854 -278973564 -278966737 -278942455 -278940437 -278882271 -278869607 -278794298 -278788901 -278749719 -278703177 -278635312 -278627310 -278615564 -278600052 -278593787 -278591839 -278574405 -278553418 -278428566 -278423016 -278335103 -278318124 -278255473 -278109502 -278053818 -278024774 -278006980 -278002173 -277947184 -277799614 -277794810 -277790567 -277773960 -277766607 -277695164 -277675435 -277666276 -277614477 -277602338 -277579819 -277486636 -277429339 -277423916 -277416315 -277378375 -277372904 -277356403 -277304345 -277286242 -277246264 -277186669 -277184395 -277179379 -277103793 -277095094 -277068178 -277046362 -276987032 -276876290 -276870119 -276782596 -276723847 -276721675 -276644774 -276536692 -276535164 -276513806 -276501992 -276429705 -276393417 -276364056 -276361980 -276353841 -276291025 -276272624 -276271726 -276182657 -276120856 -276072590 -276024413 -276019823 -275980942 -275966878 -275887143 -275869034 -275846178 -275811817 -275801927 -275787834 -275774133 -275764609 -275672389 -275653222 -275638031 -275586265 -275573483 -275546074 -275529586 -275511393 -275470831 -275455485 -275306822 -275271127 -275233202 -275124312 -275076371 -274988941 -274968988 -274796710 -274795139 -274793225 -274706830 -274618623 -274612892 -274594535 -274575161 -274530099 -274474447 -274414601 -274414305 -274392146 -274349711 -274325121 -274323933 -274298007 -274294619 -274150523 -274123159 -274107613 -274076962 -274060423 -273889668 -273823236 -273809823 -273798883 -273697184 -273644738 -273551549 -273550226 -273435071 -273324688 -273276489 -273239791 -273228642 -273226396 -273222656 -273211268 -273093785 -273091907 -273090019 -273029680 -272986171 -272962316 -272779259 -272759729 -272737656 -272702049 -272686001 -272615745 -272587281 -272435205 -272333729 -272322122 -272299949 -272255889 -272210333 -272182647 -272136619 -272135614 -272131040 -272121924 -272064904 -272035899 -272032144 -272031377 -272019668 -271982245 -271839532 -271819811 -271806997 -271746142 -271709999 -271650467 -271520478 -271514698 -271431088 -271404264 -271390800 -271360782 -271325016 -271314589 -271298875 -271286015 -271281343 -271256858 -271247894 -271220142 -271213758 -271180448 -271169986 -271156180 -271155775 -271012069 -270921828 -270921040 -270912113 -270898405 -270892482 -270793076 -270790056 -270776830 -270738395 -270733847 -270675387 -270658079 -270563625 -270396543 -270395056 -270276381 -270273228 -270223792 -270195087 -270180022 -270139878 -270031036 -270023530 -270010256 -269982179 -269920169 -269835760 -269817226 -269799676 -269714345 -269648524 -269626665 -269554543 -269537422 -269528951 -269501864 -269480269 -269467754 -269466491 -269441878 -269438742 -269402765 -269336475 -269331832 -269329003 -269286726 -269214787 -269199259 -269193511 -269186916 -269153361 -269067397 -269009579 -268972526 -268916525 -268792554 -268714043 -268685251 -268596601 -268536648 -268532590 -268529107 -268521720 -268520749 -268507408 -268493451 -268486922 -268476671 -268456191 -268407605 -268333941 -268295180 -268290724 -268227460 -268181119 -268166476 -268061495 -268050520 -268022805 -267984472 -267953457 -267899733 -267873749 -267855775 -267842552 -267721610 -267710435 -267621917 -267619680 -267594430 -267529041 -267418547 -267364142 -267350280 -267349141 -267295642 -267259389 -267240755 -267232611 -267178058 -267147764 -267127437 -267087603 -267054759 -267054185 -267021547 -266996335 -266926506 -266823163 -266785026 -266742280 -266689039 -266549663 -266538361 -266507378 -266466103 -266464513 -266416940 -266411468 -266325567 -266317089 -266316537 -266257286 -266188667 -266155816 -266155046 -266142650 -266124227 -266112472 -266106445 -266093111 -266034356 -266027936 -265965210 -265931822 -265914006 -265899853 -265899074 -265838741 -265779121 -265764555 -265752201 -265737773 -265649844 -265635776 -265618449 -265612939 -265565083 -265506979 -265472842 -265389216 -265386749 -265325462 -265252040 -265237734 -265222564 -265205616 -265205216 -265164916 -265129651 -265038166 -265036091 -264985453 -264963492 -264933019 -264912797 -264887266 -264869174 -264745152 -264744235 -264738093 -264727571 -264628021 -264539070 -264473731 -264453310 -264405345 -264314200 -264279900 -264220195 -264201262 -264172798 -264126818 -264092467 -264067244 -264012167 -264008009 -264004653 -264003297 -263978746 -263887408 -263885417 -263857879 -263784664 -263702713 -263696153 -263582903 -263579699 -263577880 -263575020 -263572203 -263556455 -263534661 -263453480 -263360690 -263347078 -263333309 -263320691 -263283174 -263261415 -263248494 -263245469 -263170878 -263070858 -263054038 -263023436 -262986484 -262889788 -262876965 -262807993 -262802342 -262773871 -262750601 -262680406 -262667975 -262610463 -262510084 -262484988 -262470826 -262469840 -262448018 -262319811 -262290898 -262203863 -262186479 -262061252 -261962558 -261921646 -261914261 -261889758 -261879882 -261875467 -261801348 -261785460 -261771884 -261715949 -261715153 -261669648 -261640734 -261546914 -261484375 -261404671 -261331548 -261324756 -261274773 -261229099 -261168917 -261167675 -261162346 -261158011 -261128449 -261100741 -260956371 -260899903 -260886265 -260871544 -260865390 -260816011 -260778697 -260756149 -260711356 -260669022 -260629102 -260607882 -260586510 -260583098 -260581050 -260573576 -260478498 -260384449 -260380899 -260352145 -260293365 -260284482 -260263836 -260251541 -260241458 -260194112 -260193262 -260032890 -259982278 -259939382 -259936122 -259756918 -259756858 -259692137 -259690026 -259688384 -259674470 -259621719 -259620116 -259513562 -259466220 -259421255 -259421189 -259392880 -259369743 -259320506 -259317277 -259309084 -259277447 -259260189 -259201081 -259168145 -259147741 -259120706 -259094067 -259064425 -259054241 -259034481 -259019224 -259013500 -259007986 -258961982 -258944436 -258937501 -258859550 -258845571 -258751726 -258747330 -258738901 -258725469 -258705205 -258685442 -258655383 -258643549 -258625202 -258525595 -258410888 -258400257 -258381424 -258372359 -258362175 -258354234 -258337256 -258308486 -258279655 -258232111 -258181609 -258039792 -258028429 -258009330 -257935589 -257857406 -257837990 -257812461 -257771033 -257768780 -257759003 -257642496 -257613670 -257607796 -257603805 -257543522 -257493549 -257461987 -257438229 -257403578 -257390497 -257319903 -257318839 -257293785 -257273544 -257252850 -257215360 -257214109 -257211474 -257205531 -257197553 -257183076 -257161536 -257130613 -257046833 -257004878 -256938515 -256936095 -256900130 -256856905 -256819495 -256802236 -256775805 -256750959 -256682687 -256676526 -256633115 -256577730 -256564077 -256519043 -256472052 -256440845 -256387975 -256375917 -256373885 -256291287 -256264606 -256191169 -256163200 -256129223 -256116954 -256042471 -256037430 -255919034 -255915768 -255879329 -255790142 -255758135 -255617572 -255572888 -255502968 -255488793 -255480353 -255478714 -255416707 -255381614 -255316552 -255284041 -255241887 -255217652 -255204741 -255173564 -255150322 -255127155 -255002520 -255001401 -255000356 -254982688 -254905672 -254896136 -254855256 -254736330 -254592946 -254544952 -254534267 -254524156 -254509661 -254382041 -254355775 -254341426 -254288091 -254230268 -254197072 -254140677 -254119332 -254034793 -254018173 -253951251 -253911833 -253893988 -253891948 -253876662 -253856143 -253850663 -253849702 -253788930 -253753059 -253728393 -253616752 -253569322 -253540200 -253524892 -253486724 -253467143 -253461979 -253430638 -253429810 -253420161 -253419970 -253332713 -253318916 -253237540 -253219418 -253145958 -253145266 -253139310 -253118860 -253108541 -253042483 -252963799 -252899944 -252869666 -252843589 -252842609 -252835732 -252822636 -252785433 -252781432 -252773318 -252749757 -252733507 -252715881 -252664533 -252659798 -252650475 -252620450 -252559291 -252489957 -252412137 -252373903 -252354307 -252344488 -252323385 -252307068 -252286503 -252263864 -252244856 -252129462 -252093914 -252089483 -252049931 -251981711 -251972072 -251943554 -251915623 -251731822 -251661622 -251612717 -251585731 -251546612 -251506096 -251486194 -251468088 -251421176 -251381356 -251345043 -251279290 -251263177 -251218095 -251143428 -251065834 -251041151 -251025746 -250993104 -250976463 -250964154 -250940910 -250895392 -250830381 -250808338 -250789126 -250774075 -250688022 -250584375 -250552694 -250437672 -250434413 -250426651 -250359012 -250354922 -250250556 -250202739 -250162928 -250100432 -250005067 -249994173 -249937225 -249913391 -249877568 -249868044 -249822109 -249811844 -249744473 -249736482 -249722645 -249533643 -249530236 -249511809 -249445414 -249388948 -249387720 -249205717 -249144151 -249105617 -249093240 -249071687 -249042674 -249022301 -248970433 -248956644 -248929463 -248916121 -248915782 -248883901 -248853268 -248786352 -248753977 -248737961 -248710516 -248668956 -248626235 -248552482 -248545877 -248511084 -248438127 -248394631 -248360124 -248359988 -248356822 -248347055 -248311373 -248305574 -248273000 -248221660 -248143007 -248142170 -248024540 -248002114 -247827954 -247755455 -247725093 -247692258 -247597085 -247579604 -247552392 -247482369 -247439020 -247391135 -247388319 -247361389 -247340013 -247229295 -247174355 -247167846 -247154766 -247086468 -247085575 -247054046 -247042803 -246892520 -246875513 -246863520 -246804346 -246796888 -246746886 -246742296 -246710807 -246657747 -246648830 -246633150 -246619258 -246612381 -246597419 -246526559 -246483775 -246482253 -246471800 -246458448 -246392636 -246384197 -246376070 -246327927 -246312346 -246307428 -246222181 -246201368 -246132849 -246129143 -246073014 -246017380 -245992273 -245974731 -245945469 -245891779 -245882484 -245795667 -245757431 -245736944 -245710750 -245658596 -245633769 -245605815 -245539846 -245483950 -245469366 -245459792 -245388789 -245374605 -245357287 -245356475 -245316042 -245313569 -245271076 -245253415 -245112714 -245110415 -245103261 -245042385 -245013390 -245004084 -245003328 -244982617 -244972206 -244899731 -244885990 -244864345 -244799526 -244746305 -244729959 -244722347 -244703264 -244703130 -244694536 -244532312 -244526121 -244485736 -244447777 -244411537 -244392781 -244320269 -244298783 -244283979 -244248120 -244016327 -243976792 -243899936 -243880228 -243874512 -243836740 -243800307 -243727804 -243666441 -243610271 -243605150 -243556209 -243538336 -243492348 -243451669 -243401212 -243278242 -243183654 -243159010 -243147727 -243117460 -243104515 -243015249 -242983990 -242961843 -242942062 -242884658 -242830925 -242778634 -242746540 -242743233 -242741043 -242718618 -242716170 -242691142 -242604202 -242555724 -242547353 -242520369 -242517016 -242459170 -242445297 -242272062 -242168531 -242166164 -242158324 -242110578 -242079581 -242073856 -242052468 -241982348 -241971976 -241965196 -241956205 -241837368 -241755864 -241644872 -241638750 -241602800 -241524133 -241520768 -241496251 -241468981 -241259652 -241192583 -241173485 -241139072 -241137368 -241091153 -241085571 -241075469 -241069012 -240931997 -240909899 -240867884 -240859847 -240831536 -240705871 -240627417 -240589614 -240560272 -240547452 -240497835 -240476455 -240423821 -240401233 -240395606 -240340751 -240299150 -240189343 -240104435 -240050426 -240008223 -239941198 -239858491 -239858450 -239852788 -239813957 -239813665 -239804362 -239736265 -239724548 -239688359 -239670581 -239582949 -239535898 -239388846 -239332777 -239328934 -239314419 -239313136 -239203266 -239191535 -239172081 -239119806 -239094329 -239077604 -239073760 -239060000 -239036550 -239020891 -239011141 -238986971 -238956481 -238942585 -238836590 -238834876 -238820318 -238795346 -238747175 -238733926 -238608665 -238608007 -238593199 -238566411 -238557780 -238552891 -238469311 -238455703 -238455480 -238426408 -238393618 -238392028 -238375666 -238358244 -238239817 -238207380 -238083983 -238034225 -237949442 -237940363 -237911472 -237906761 -237905097 -237904411 -237889746 -237793246 -237784424 -237661197 -237579987 -237562260 -237557143 -237541747 -237519643 -237454348 -237439808 -237417282 -237390407 -237343306 -237320768 -237307269 -237284734 -237257340 -237255355 -237244777 -237230491 -237048898 -237030229 -237029949 -237027824 -236991086 -236941827 -236908616 -236884920 -236832304 -236832087 -236778242 -236769183 -236752889 -236752642 -236687556 -236659807 -236654211 -236637425 -236625899 -236602283 -236559588 -236481396 -236479258 -236474165 -236462081 -236452884 -236308311 -236295111 -236293342 -236262606 -236182515 -236058764 -236050191 -235987757 -235924589 -235878655 -235877039 -235857417 -235856184 -235793076 -235681766 -235670986 -235562736 -235561476 -235544323 -235539142 -235503853 -235500349 -235497355 -235482620 -235446456 -235391989 -235274200 -235247937 -235243115 -235243008 -235227197 -235162952 -235141821 -235008191 -234973907 -234934624 -234911770 -234905559 -234791528 -234785791 -234683776 -234665936 -234635075 -234613976 -234598785 -234598735 -234543283 -234482278 -234465219 -234427220 -234420272 -234350757 -234282961 -234248356 -234244994 -234160959 -234150823 -234145921 -234055914 -234051752 -233948632 -233837016 -233802145 -233776319 -233758106 -233741113 -233736869 -233709889 -233693994 -233685328 -233665399 -233663161 -233655363 -233642093 -233581610 -233574920 -233552901 -233501248 -233470836 -233436262 -233421626 -233361951 -233355907 -233310284 -233301568 -233273349 -233227098 -233177558 -233160276 -233127754 -233113630 -233071280 -233052603 -232972772 -232963677 -232949972 -232930290 -232791031 -232748635 -232686095 -232661682 -232647622 -232619050 -232614073 -232594188 -232539068 -232473453 -232294059 -232216759 -232208355 -232192052 -232190931 -232174526 -232163118 -232135404 -232100507 -232064212 -232050884 -232014347 -231978074 -231960784 -231919855 -231859973 -231842920 -231820619 -231747648 -231726222 -231709726 -231692335 -231677282 -231627419 -231611747 -231594371 -231567752 -231565488 -231554754 -231545032 -231537502 -231513434 -231512743 -231397483 -231359924 -231355498 -231344809 -231313927 -231290838 -231230279 -231165441 -231091813 -231055016 -231045612 -230993233 -230992181 -230990502 -230962736 -230917224 -230867035 -230862399 -230814914 -230785995 -230769572 -230715326 -230691414 -230484991 -230483531 -230471100 -230458328 -230401265 -230366043 -230363383 -230354505 -230315385 -230308109 -230286381 -230284807 -230282721 -230257690 -230147880 -230080787 -230071902 -229921598 -229836275 -229795322 -229778076 -229766260 -229736738 -229735689 -229718040 -229715722 -229696766 -229607561 -229595709 -229583072 -229558786 -229515892 -229478955 -229445725 -229430424 -229350779 -229327196 -229280987 -229188177 -229187740 -229183099 -229153322 -229123369 -229056265 -229037575 -229003511 -228912068 -228880186 -228860462 -228750838 -228739126 -228738902 -228727642 -228681401 -228679914 -228655038 -228645068 -228603094 -228549247 -228543113 -228523361 -228516793 -228459920 -228430165 -228345797 -228334405 -228323824 -228230391 -228230299 -228196970 -228190418 -228188763 -228137855 -228126550 -228094035 -228080607 -228073276 -228069009 -228021928 -228001069 -227992938 -227983716 -227969133 -227784506 -227784469 -227759163 -227739362 -227729453 -227709859 -227696158 -227666874 -227663040 -227616579 -227589820 -227534323 -227528352 -227516156 -227468165 -227450783 -227413134 -227409963 -227388101 -227382366 -227349774 -227334483 -227232109 -227229173 -227185766 -227111771 -227075183 -227057584 -227004434 -227004182 -226935496 -226924757 -226762082 -226722657 -226682887 -226578469 -226556035 -226509933 -226501700 -226489096 -226474511 -226459322 -226458243 -226398227 -226345425 -226332965 -226319784 -226319526 -226278759 -226242962 -226235332 -226221602 -226212732 -226148393 -226137335 -226120235 -226094176 -226028296 -225988154 -225910440 -225889851 -225817834 -225797488 -225645388 -225528512 -225489367 -225411573 -225369999 -225367091 -225357462 -225350140 -225284164 -225270674 -225235577 -225209307 -225173803 -225170714 -225102844 -225086354 -225055321 -225016533 -224991822 -224982935 -224877080 -224862380 -224859983 -224820631 -224774966 -224723087 -224722823 -224666450 -224619311 -224512798 -224481710 -224453374 -224411887 -224353318 -224349974 -224342742 -224333549 -224296562 -224223186 -224155729 -224130545 -224104138 -224103772 -223952986 -223948986 -223903616 -223801235 -223588692 -223587499 -223473466 -223399840 -223383815 -223350080 -223346183 -223260160 -223253238 -223243807 -223168279 -223152711 -223112302 -223103693 -223046455 -223016663 -222950303 -222934311 -222922860 -222889633 -222886110 -222878141 -222878104 -222849837 -222815943 -222785651 -222772496 -222748748 -222744618 -222743652 -222686480 -222663440 -222644520 -222498036 -222475036 -222458810 -222329277 -222298050 -222283632 -222251985 -222236300 -222133282 -222056327 -221797928 -221778114 -221774669 -221589630 -221586244 -221507223 -221475649 -221457706 -221427000 -221348310 -221345436 -221338426 -221260986 -221194611 -221146733 -221088210 -221079785 -221007035 -220939150 -220849530 -220833513 -220831060 -220806859 -220721284 -220700519 -220673073 -220601052 -220569327 -220567749 -220528469 -220424522 -220354979 -220327732 -220325181 -220316418 -220205193 -220191106 -220136144 -220100911 -220087952 -220073242 -219915875 -219901220 -219846023 -219770888 -219685969 -219674763 -219668889 -219655954 -219620954 -219592963 -219535415 -219516287 -219512364 -219439387 -219429659 -219375237 -219330071 -219285359 -219228402 -219119309 -219060670 -219053513 -219023511 -218986082 -218950319 -218938934 -218928520 -218902896 -218881199 -218858246 -218850921 -218842777 -218798996 -218760443 -218710554 -218699412 -218642203 -218620895 -218601280 -218596095 -218578679 -218456470 -218450617 -218383619 -218382912 -218375571 -218313107 -218307547 -218242646 -218233731 -218199075 -218191738 -218049448 -218032070 -218018236 -218007341 -217993535 -217965546 -217924570 -217852589 -217850156 -217830632 -217776434 -217736137 -217719377 -217711909 -217668740 -217643411 -217619060 -217585222 -217582266 -217535147 -217457969 -217434627 -217403912 -217391792 -217321485 -217293493 -217287440 -217252263 -217228416 -217227303 -217212484 -217046309 -217000777 -216834334 -216781009 -216676301 -216633885 -216613933 -216611689 -216607470 -216563710 -216489046 -216393784 -216391739 -216306366 -216193775 -216180434 -216162973 -216131233 -216096690 -216030120 -216015077 -215987414 -215976863 -215972187 -215883440 -215860815 -215849845 -215842023 -215801399 -215757705 -215688317 -215687384 -215596219 -215586393 -215585307 -215474485 -215460937 -215432857 -215432434 -215432420 -215381682 -215380054 -215363088 -215330820 -215282790 -215173561 -215142583 -215130780 -215082694 -215067092 -215017706 -214889482 -214833899 -214805074 -214782097 -214628093 -214620143 -214606451 -214583332 -214570589 -214542219 -214488753 -214448103 -214446002 -214425824 -214320511 -214272893 -214208125 -214155973 -214111190 -214066408 -214046196 -214034729 -213938965 -213838322 -213833222 -213811595 -213801607 -213717063 -213676728 -213667064 -213643762 -213634664 -213629874 -213619564 -213486344 -213479775 -213428936 -213379124 -213296475 -213291189 -213286969 -213262838 -213192393 -213077864 -213062431 -212980316 -212949580 -212946660 -212941947 -212921904 -212891996 -212858650 -212849024 -212805329 -212729850 -212728969 -212726388 -212722446 -212699429 -212661480 -212656026 -212647424 -212625430 -212591144 -212554449 -212553085 -212539178 -212520599 -212508486 -212499104 -212476294 -212443180 -212391451 -212370598 -212354371 -212272565 -212271690 -212221233 -212140844 -212125771 -212116819 -212105796 -211974640 -211917546 -211870209 -211857620 -211856907 -211856738 -211725976 -211721914 -211601744 -211580730 -211534985 -211475129 -211415694 -211393090 -211388193 -211317806 -211316145 -211312755 -211305765 -211250373 -211141283 -211091413 -211017975 -210988992 -210974559 -210967994 -210957086 -210952858 -210940554 -210902867 -210817041 -210813724 -210811375 -210736759 -210719694 -210640506 -210583425 -210551078 -210537821 -210467068 -210358136 -210329942 -210197432 -210131305 -210073362 -209985034 -209934366 -209927407 -209918729 -209902393 -209861269 -209823234 -209817199 -209790288 -209773119 -209732487 -209688410 -209668457 -209658915 -209592066 -209556392 -209533642 -209532426 -209513486 -209314282 -209211532 -209139285 -209063892 -209025106 -209022953 -209021498 -208907334 -208875857 -208864722 -208855302 -208791236 -208755749 -208713650 -208689160 -208616740 -208568200 -208547735 -208541271 -208471488 -208432311 -208389276 -208384860 -208372789 -208321148 -208318878 -208306983 -208272972 -208159908 -208132526 -208090375 -208066424 -208033475 -207885294 -207862767 -207831066 -207816062 -207799288 -207785200 -207783662 -207767130 -207719167 -207677842 -207657283 -207632460 -207580880 -207553740 -207543109 -207533260 -207530337 -207507166 -207474742 -207470701 -207441325 -207430657 -207374961 -207287979 -207277195 -207275252 -207266059 -207254553 -207194390 -207180709 -207172517 -207137868 -207044912 -206979012 -206911370 -206902972 -206886599 -206828064 -206777349 -206752832 -206711458 -206566224 -206539136 -206469063 -206411780 -206400989 -206342873 -206276434 -206267841 -206206289 -206187400 -206186388 -206170971 -206163396 -206159341 -206127721 -206106783 -206082859 -206061785 -206033276 -206019840 -205984200 -205982872 -205973502 -205928336 -205882217 -205832921 -205820345 -205817452 -205799552 -205752567 -205727603 -205702589 -205583035 -205496682 -205468590 -205446768 -205435006 -205398352 -205339824 -205306441 -205303111 -205300004 -205261240 -205257919 -205240987 -205205097 -205117817 -205059638 -205058146 -205020694 -204912250 -204906286 -204881913 -204867033 -204861743 -204857621 -204800671 -204757925 -204756097 -204700883 -204685002 -204672260 -204671243 -204650098 -204640199 -204559416 -204505401 -204482577 -204380109 -204370518 -204317454 -204268056 -204256471 -204225962 -204183710 -204176052 -204166717 -204075554 -204037073 -204016409 -204003471 -203988378 -203969160 -203954581 -203937284 -203897960 -203865067 -203819504 -203790866 -203478614 -203447775 -203439423 -203396399 -203346884 -203322477 -203252739 -203243784 -203171130 -203170216 -203130320 -203129363 -203076177 -203045186 -202956689 -202948902 -202917852 -202894268 -202823994 -202815927 -202796903 -202786765 -202766815 -202755514 -202752498 -202713781 -202699444 -202697680 -202691379 -202644991 -202627802 -202609899 -202549986 -202504329 -202459898 -202433426 -202430332 -202428790 -202352149 -202340046 -202332770 -202331290 -202313399 -202191513 -202180625 -202172288 -202158030 -202142276 -202116454 -201998626 -201985918 -201955824 -201935643 -201934416 -201868160 -201859056 -201835814 -201714183 -201680432 -201641987 -201611693 -201575552 -201559909 -201538015 -201499882 -201496168 -201446822 -201433077 -201415439 -201264242 -201166424 -201152602 -201129326 -201013596 -200970703 -200883122 -200798373 -200780630 -200733038 -200719549 -200665771 -200616415 -200574105 -200541286 -200495481 -200457209 -200397452 -200392607 -200370442 -200346562 -200333427 -200330086 -200286698 -200285672 -200282883 -200192285 -200149791 -200090106 -200052720 -200052694 -200011828 -199947997 -199866054 -199790377 -199772861 -199710906 -199654174 -199648536 -199629152 -199595314 -199559773 -199556972 -199553381 -199536765 -199514566 -199487288 -199419098 -199390133 -199351127 -199339279 -199334779 -199328486 -199314987 -199312667 -199209850 -199073827 -198970815 -198955533 -198953841 -198944830 -198935378 -198929918 -198910031 -198893624 -198885673 -198871750 -198849491 -198758686 -198742513 -198736691 -198647908 -198639570 -198617887 -198563885 -198497437 -198472332 -198464708 -198409595 -198377825 -198362686 -198310965 -198278487 -198197366 -198185323 -198177119 -198175597 -198170878 -198141411 -198098407 -198067764 -198024291 -197997398 -197988227 -197929304 -197880549 -197819565 -197803502 -197738875 -197708266 -197669958 -197626512 -197598177 -197595560 -197593505 -197590859 -197590581 -197575749 -197569149 -197553099 -197544139 -197538964 -197521792 -197521500 -197514584 -197513449 -197436867 -197405675 -197382241 -197381380 -197363582 -197325858 -197262482 -197253208 -197228269 -197203558 -197158330 -197156125 -197149513 -197103566 -197007648 -196872345 -196837053 -196809253 -196763873 -196698029 -196644839 -196642028 -196590049 -196541203 -196512269 -196475611 -196403745 -196330314 -196262376 -196259972 -196214782 -196194396 -196091316 -196058554 -195942098 -195894719 -195866059 -195845544 -195715949 -195695290 -195694540 -195650013 -195622874 -195615414 -195607819 -195525426 -195466899 -195447832 -195423742 -195385875 -195376639 -195340143 -195333684 -195330716 -195320303 -195310794 -195306980 -195304730 -195293945 -195283429 -195266561 -195181595 -195178973 -195165060 -195010985 -194875951 -194869093 -194841965 -194815927 -194752371 -194711042 -194644144 -194636428 -194561583 -194536004 -194502130 -194485340 -194469093 -194456747 -194452441 -194388208 -194357710 -194256468 -194255222 -194232123 -194229741 -194192103 -194120352 -194075630 -194064235 -194056561 -194015573 -194014494 -193976057 -193889854 -193885326 -193870517 -193868064 -193836773 -193830104 -193822336 -193809892 -193770246 -193769724 -193752880 -193731753 -193655121 -193640007 -193621975 -193609681 -193596289 -193459833 -193444457 -193421878 -193401255 -193399738 -193337308 -193316405 -193299441 -193216983 -193209411 -193137532 -193031020 -192946750 -192934786 -192931550 -192894828 -192891298 -192830131 -192804487 -192778099 -192776461 -192771510 -192739088 -192710831 -192707867 -192653543 -192615607 -192552532 -192490416 -192475138 -192367834 -192202211 -192195705 -192162792 -192162449 -192091902 -192062889 -192057358 -191911015 -191803266 -191794144 -191781927 -191558438 -191535689 -191487474 -191478172 -191473831 -191457493 -191451287 -191429863 -191415636 -191370530 -191360161 -191319389 -191315905 -191309967 -191281932 -191270363 -191263577 -191249876 -191243585 -191207360 -191166170 -191143007 -191124640 -191119085 -191081555 -191070216 -190964458 -190936968 -190929247 -190920468 -190868716 -190765159 -190740612 -190661676 -190614995 -190595027 -190574521 -190527133 -190521318 -190505933 -190483785 -190451776 -190322450 -190291076 -190142928 -190123938 -190077295 -190013248 -190001974 -189970701 -189964665 -189890322 -189843929 -189793916 -189729071 -189703654 -189651523 -189650747 -189579245 -189548058 -189506603 -189505585 -189466988 -189451084 -189433266 -189408083 -189389929 -189312058 -189310473 -189295539 -189174504 -189164440 -189152920 -189150913 -189141848 -189108898 -189099959 -189082434 -189073602 -189022582 -188982848 -188945997 -188890567 -188886330 -188854719 -188840368 -188777202 -188755095 -188732534 -188706860 -188672923 -188671512 -188627822 -188612672 -188588735 -188551862 -188488603 -188486057 -188409126 -188405974 -188399541 -188389592 -188373420 -188369817 -188319102 -188315280 -188260660 -188201326 -188194894 -188169906 -188136402 -188049795 -188030491 -187985100 -187983424 -187936448 -187932629 -187877141 -187847775 -187751429 -187714759 -187619613 -187607258 -187603458 -187573284 -187542054 -187495955 -187481135 -187479836 -187475682 -187462671 -187433475 -187428376 -187411316 -187327153 -187278944 -187192804 -187137303 -187120155 -187115506 -187014397 -186891741 -186865531 -186823042 -186822016 -186818105 -186800121 -186756556 -186716286 -186671031 -186662545 -186647055 -186600442 -186580200 -186558777 -186535851 -186533847 -186471520 -186318638 -186240258 -186239614 -186229208 -186209560 -186206779 -186170515 -186143055 -186135627 -186024592 -186013474 -186003534 -185988213 -185934880 -185934523 -185931732 -185861049 -185836202 -185826659 -185824599 -185762817 -185730286 -185726904 -185695675 -185673700 -185668276 -185596660 -185524925 -185512754 -185502117 -185477293 -185471655 -185468354 -185464724 -185415388 -185395308 -185383106 -185369108 -185344518 -185331316 -185324942 -185300540 -185257719 -185106842 -185064224 -185007636 -185006659 -184981304 -184926817 -184919054 -184856300 -184846297 -184835050 -184736029 -184665905 -184658369 -184644176 -184627836 -184617862 -184617175 -184577582 -184568407 -184554210 -184532367 -184428413 -184329567 -184326281 -184321602 -184305265 -184288704 -184275386 -184269378 -184243863 -184193925 -184115793 -184102373 -184056590 -183960580 -183931209 -183918723 -183883471 -183766549 -183762421 -183714990 -183682884 -183658217 -183572442 -183454704 -183448585 -183414457 -183390861 -183389354 -183367877 -183297700 -183272718 -183254296 -183196348 -183122499 -183111550 -183103422 -183090120 -183075527 -183012561 -183000840 -182925973 -182924432 -182891489 -182885737 -182867841 -182839228 -182818278 -182812288 -182806988 -182795203 -182793722 -182793096 -182699843 -182697920 -182650687 -182552153 -182460369 -182425872 -182368337 -182331234 -182309114 -182298160 -182295725 -182218453 -182178682 -182125644 -182098977 -182064071 -182005890 -181883417 -181868515 -181850988 -181847503 -181760502 -181719530 -181649500 -181623333 -181550894 -181505645 -181498558 -181498101 -181493203 -181478166 -181461611 -181456133 -181446905 -181254992 -181223521 -181222585 -181221308 -181192557 -181183620 -181103620 -181099770 -181077433 -181021677 -180933048 -180874409 -180872165 -180868531 -180835870 -180778014 -180750162 -180742838 -180695857 -180651296 -180637093 -180614886 -180594268 -180548948 -180495296 -180475128 -180463900 -180300643 -180134779 -180131413 -180087685 -180070280 -179968145 -179966722 -179948376 -179866748 -179836551 -179800418 -179773342 -179760888 -179721771 -179711703 -179682304 -179661999 -179618052 -179587462 -179505236 -179440215 -179404498 -179368541 -179341144 -179340617 -179328920 -179216144 -179213688 -179159943 -179131028 -179129346 -179112214 -179094977 -179068075 -178973760 -178957447 -178950587 -178931096 -178895070 -178850354 -178804969 -178804500 -178716433 -178589186 -178558069 -178506041 -178500347 -178490304 -178418919 -178267938 -178127399 -178115550 -178062529 -178032429 -178021904 -177989638 -177984741 -177974240 -177969182 -177945608 -177908910 -177895236 -177775517 -177746637 -177721864 -177714631 -177693999 -177668187 -177648735 -177637652 -177609983 -177609560 -177572852 -177535019 -177525780 -177489140 -177444684 -177409659 -177348750 -177337985 -177316135 -177300149 -177256149 -177254328 -177236510 -177151895 -177140734 -177066885 -177025707 -176950930 -176847987 -176790182 -176753433 -176704494 -176678416 -176648617 -176603086 -176543466 -176445931 -176441734 -176409094 -176376272 -176336920 -176315284 -176311922 -176310621 -176296873 -176280734 -176263553 -176243906 -176182228 -176169359 -176149688 -176129055 -175997925 -175993814 -175965054 -175951228 -175869600 -175868043 -175786159 -175776835 -175766458 -175730061 -175711768 -175688799 -175659105 -175636979 -175590290 -175573454 -175519575 -175509195 -175501630 -175327120 -175314723 -175310997 -175309785 -175304717 -175272263 -175183549 -175069296 -174975053 -174925970 -174884605 -174860303 -174859583 -174779538 -174710607 -174666713 -174661819 -174636430 -174588590 -174565265 -174561024 -174558470 -174516469 -174498547 -174371702 -174356238 -174349712 -174303389 -174285818 -174270248 -174239933 -174168985 -174076171 -174056223 -174050736 -173999885 -173986883 -173873947 -173861557 -173805238 -173788994 -173773035 -173760737 -173737556 -173727154 -173681035 -173630494 -173620346 -173618648 -173584458 -173516474 -173486730 -173372903 -173371261 -173220109 -173178527 -173130911 -173109677 -173054887 -173052227 -172978439 -172958420 -172840430 -172834278 -172781158 -172763048 -172726877 -172721916 -172649628 -172634688 -172626210 -172608434 -172583979 -172583932 -172578338 -172524358 -172450342 -172425672 -172393424 -172389343 -172379197 -172322926 -172318265 -172274724 -172229608 -172158150 -172094829 -172077900 -172065036 -172058387 -171994049 -171961347 -171957777 -171887680 -171856065 -171824858 -171787006 -171730447 -171724045 -171711850 -171696212 -171655405 -171651195 -171620523 -171591238 -171557892 -171480829 -171460129 -171427098 -171299049 -171280311 -171263453 -171190417 -171179174 -171175568 -171040040 -170992885 -170916247 -170877632 -170873303 -170805457 -170765820 -170693751 -170688526 -170628499 -170601851 -170586970 -170441621 -170415246 -170388360 -170313122 -170268624 -170225415 -170193711 -170035128 -169999091 -169955379 -169885101 -169844040 -169810705 -169786645 -169701284 -169612889 -169586374 -169533634 -169457274 -169448610 -169409142 -169372565 -169344823 -169331034 -169213153 -169150483 -169080383 -169066786 -169064536 -169058030 -168973431 -168963695 -168962716 -168954989 -168898348 -168851070 -168845578 -168843387 -168834887 -168825901 -168807120 -168646071 -168571306 -168452757 -168448844 -168369274 -168350586 -168241404 -168218420 -168217153 -168187981 -168000045 -167991348 -167975725 -167962095 -167935843 -167916205 -167902501 -167879653 -167858830 -167787973 -167735120 -167684255 -167675582 -167571640 -167561091 -167544159 -167506623 -167498629 -167467481 -167408397 -167386313 -167357423 -167350279 -167324491 -167315384 -167297726 -167263891 -167252726 -167212802 -167170653 -167162261 -167058278 -167041088 -166987362 -166790851 -166770837 -166752963 -166734033 -166723801 -166680119 -166665397 -166659941 -166636304 -166627577 -166598069 -166595555 -166592278 -166542090 -166533584 -166497081 -166482895 -166431852 -166427864 -166421503 -166289348 -166260281 -166231518 -166208289 -166180221 -166164534 -166137824 -166099823 -166057388 -166005704 -165947380 -165851478 -165779876 -165772886 -165759432 -165682214 -165657632 -165636423 -165620035 -165579263 -165519126 -165517096 -165463467 -165434988 -165366443 -165316949 -165298738 -165249098 -165247194 -165237775 -165195690 -165188314 -165150078 -165115442 -165092811 -165016174 -164988778 -164986995 -164927258 -164915491 -164875788 -164863538 -164851146 -164838587 -164835066 -164718832 -164711125 -164701448 -164680774 -164677776 -164650958 -164593559 -164584204 -164540543 -164535722 -164532437 -164462954 -164444125 -164437917 -164330435 -164319682 -164316223 -164279543 -164230758 -164170530 -164005252 -163988197 -163979477 -163971842 -163955819 -163847803 -163818194 -163802093 -163795759 -163749812 -163739753 -163696093 -163689840 -163683009 -163614028 -163497654 -163493886 -163412938 -163369685 -163343686 -163247834 -163244777 -163225282 -163167993 -163130915 -163113041 -163095573 -162993127 -162908372 -162835710 -162807258 -162765361 -162763880 -162734380 -162688646 -162677415 -162654337 -162639881 -162612917 -162539175 -162534059 -162491591 -162474907 -162417876 -162415525 -162243162 -162077180 -162073345 -162070815 -161912674 -161874713 -161839947 -161734878 -161723178 -161722206 -161715993 -161686666 -161672664 -161671711 -161656106 -161651235 -161609959 -161599097 -161596618 -161549374 -161529426 -161501083 -161487318 -161473655 -161460232 -161447636 -161378266 -161318350 -161289517 -161284598 -161271091 -161265406 -161247539 -161245076 -161229058 -161212544 -161199019 -161165529 -161144213 -161030796 -160976844 -160922832 -160900436 -160860366 -160816719 -160776832 -160771477 -160766765 -160744364 -160708581 -160688890 -160688013 -160645129 -160626648 -160587896 -160558181 -160448359 -160441055 -160429041 -160355887 -160325103 -160304157 -160287135 -160271776 -160205949 -160160605 -160120770 -160098670 -160073065 -160048407 -159972960 -159962605 -159962470 -159892084 -159881449 -159850055 -159821470 -159806680 -159804179 -159785019 -159784134 -159743036 -159706153 -159629241 -159626459 -159592001 -159520160 -159495658 -159495524 -159471832 -159324618 -159267034 -159226928 -159134049 -159086149 -159050122 -159049579 -159006558 -158982946 -158968064 -158955105 -158941214 -158802869 -158746226 -158704207 -158630150 -158564528 -158550573 -158546659 -158545584 -158545456 -158511369 -158509685 -158391526 -158361889 -158351877 -158327179 -158269274 -158256242 -158111551 -158106905 -158105024 -158056071 -158019471 -157975350 -157971148 -157970644 -157942001 -157928422 -157842231 -157809927 -157769089 -157765004 -157737500 -157697267 -157663816 -157649502 -157592140 -157587565 -157494479 -157406086 -157371019 -157357252 -157301374 -157270618 -157270432 -157218351 -157178445 -157167141 -157160379 -157154296 -157076826 -157044734 -157040521 -156988149 -156949026 -156942569 -156887249 -156887038 -156837871 -156831960 -156734048 -156718404 -156696025 -156534378 -156503306 -156430780 -156397800 -156390867 -156309676 -156229695 -156205957 -156178270 -156125708 -156077515 -156072664 -156064852 -156055582 -156042510 -156042403 -156008338 -155982591 -155903106 -155881407 -155850144 -155818925 -155753769 -155732401 -155723673 -155687868 -155675098 -155661206 -155616878 -155616621 -155556951 -155544336 -155531239 -155521760 -155483717 -155452349 -155402018 -155400012 -155389153 -155356536 -155345003 -155266803 -155216402 -155214299 -155211626 -155176436 -155154366 -155085817 -155047739 -155037420 -154896622 -154895674 -154822152 -154797943 -154675273 -154652811 -154566148 -154546995 -154514747 -154449180 -154351592 -154343276 -154317935 -154257424 -154226699 -154164166 -154153572 -154143656 -154091613 -154067727 -154052958 -154034937 -153978587 -153974707 -153960515 -153952551 -153916017 -153901029 -153872275 -153813664 -153725222 -153637970 -153606989 -153538254 -153530012 -153465228 -153404567 -153347332 -153311215 -153303101 -153274664 -153268878 -153249477 -153225478 -153167513 -153149243 -153115658 -153031868 -152952866 -152940460 -152833292 -152824793 -152804453 -152769797 -152761756 -152716125 -152704760 -152678687 -152628748 -152618634 -152596286 -152590744 -152584131 -152581890 -152459613 -152448897 -152437270 -152353482 -152321868 -152315100 -152184250 -152173600 -152165160 -152138538 -152132562 -152000698 -151997037 -151931581 -151930379 -151907361 -151881305 -151851010 -151841741 -151766046 -151692718 -151630398 -151613126 -151612303 -151564685 -151537119 -151475860 -151455562 -151392981 -151279803 -151267611 -151217781 -151147563 -151030912 -150969141 -150901140 -150806969 -150694622 -150625336 -150624507 -150609078 -150577804 -150561488 -150551649 -150538991 -150468018 -150417166 -150374641 -150217787 -150216631 -150199601 -150180260 -150179416 -150167580 -150143777 -150138576 -150067709 -150066314 -150028294 -149934591 -149913619 -149911310 -149851548 -149820996 -149806107 -149797697 -149787444 -149781641 -149724752 -149670597 -149655384 -149630817 -149616759 -149565800 -149407306 -149390067 -149388387 -149382568 -149363372 -149352941 -149316111 -149220624 -149058115 -149026285 -149023507 -149014387 -148989644 -148983370 -148927015 -148923290 -148846712 -148831986 -148777529 -148764331 -148709808 -148707707 -148696665 -148656997 -148620587 -148611077 -148590683 -148584655 -148500267 -148482608 -148447447 -148437441 -148386179 -148360076 -148305259 -148285872 -148278286 -148205587 -148183844 -148146413 -148120327 -148085272 -148052685 -148005526 -147997100 -147982613 -147941365 -147910160 -147877656 -147856036 -147780344 -147770789 -147754683 -147747576 -147713963 -147703034 -147660965 -147623979 -147560570 -147549412 -147539933 -147396433 -147342712 -147332958 -147301882 -147285977 -147283316 -147226375 -147148197 -147142246 -147124049 -147117421 -147096880 -147086039 -147064645 -147054982 -147043232 -147014194 -146800175 -146766089 -146735532 -146711337 -146701525 -146521264 -146506413 -146504294 -146417039 -146405860 -146360773 -146349012 -146322984 -146321709 -146185820 -146166885 -146132492 -146114107 -146106133 -146096846 -146091161 -146086516 -146082878 -146045131 -145969647 -145948456 -145888633 -145885337 -145885326 -145884216 -145813656 -145781399 -145757662 -145736179 -145618545 -145609208 -145605754 -145597835 -145565613 -145559036 -145555821 -145432116 -145430505 -145413945 -145413628 -145382717 -145367705 -145281352 -145260434 -145246720 -145217182 -145178090 -145150561 -145120745 -145085687 -145037514 -144971271 -144867749 -144814168 -144795768 -144764010 -144679668 -144677072 -144668661 -144666804 -144636149 -144630917 -144578906 -144575441 -144563517 -144474723 -144373798 -144354393 -144291028 -144266246 -144219861 -144181134 -144165237 -144102277 -144090863 -144070845 -144061033 -144037991 -143963624 -143937729 -143878781 -143866442 -143863042 -143859308 -143844854 -143808696 -143808250 -143724779 -143716367 -143698063 -143684964 -143639626 -143570127 -143495181 -143484180 -143461827 -143424845 -143374711 -143282321 -143253921 -143246515 -143205106 -143150542 -143140676 -143081663 -143074539 -143042947 -143018830 -142998956 -142992465 -142989682 -142934775 -142901856 -142889243 -142820895 -142795980 -142782017 -142775657 -142750990 -142733644 -142733432 -142732854 -142731707 -142674847 -142639398 -142574909 -142555622 -142524460 -142496646 -142487338 -142486062 -142484862 -142447594 -142417925 -142334455 -142330448 -142311752 -142303770 -142287231 -142275864 -142244709 -142221291 -142124889 -142113984 -142064062 -141988237 -141971159 -141967304 -141936809 -141933612 -141874567 -141863243 -141806575 -141801506 -141773215 -141696297 -141651066 -141650758 -141639261 -141632299 -141618097 -141603171 -141579901 -141467012 -141414208 -141356056 -141343620 -141282453 -141244161 -141228197 -141158022 -141129003 -141108055 -141083468 -141076787 -140991618 -140951713 -140650168 -140609021 -140608233 -140606400 -140566324 -140548277 -140507106 -140499989 -140479671 -140453699 -140430905 -140377309 -140357973 -140342911 -140331674 -140251540 -140190140 -140161825 -140120993 -139996702 -139989837 -139977668 -139973403 -139936405 -139903778 -139809843 -139797273 -139762672 -139717521 -139645171 -139625708 -139620957 -139619221 -139612866 -139548429 -139460211 -139435740 -139374112 -139319724 -139263316 -139234621 -139108419 -139002717 -138798853 -138735384 -138705638 -138577877 -138571677 -138536211 -138463885 -138336828 -138325200 -138299503 -138216100 -138106700 -138018389 -137995308 -137940600 -137864779 -137846542 -137832788 -137756519 -137746653 -137686524 -137646413 -137641459 -137632217 -137597872 -137578428 -137556689 -137530101 -137513491 -137509005 -137427625 -137408369 -137393070 -137353648 -137353253 -137326965 -137309150 -137262689 -137242529 -137218846 -137199362 -137120044 -137108219 -137100066 -137063411 -137037725 -137031659 -137012767 -136981453 -136974909 -136933556 -136918923 -136910447 -136859153 -136858453 -136795053 -136794861 -136780839 -136763839 -136751256 -136699971 -136673484 -136669793 -136665962 -136652630 -136634166 -136603822 -136597344 -136547430 -136490576 -136487834 -136475260 -136452208 -136426508 -136368322 -136258199 -136253501 -136251384 -136230650 -136153821 -136149546 -136117648 -136069983 -135985085 -135953762 -135867690 -135861735 -135843259 -135834624 -135793751 -135780211 -135776662 -135745060 -135625679 -135599034 -135516470 -135423829 -135381166 -135318154 -135317523 -135284407 -135249011 -135240325 -135196201 -135186128 -135113119 -135005834 -134999920 -134972818 -134943716 -134927818 -134805320 -134797997 -134797971 -134772681 -134753634 -134736296 -134719948 -134528735 -134501821 -134499705 -134481572 -134445891 -134437781 -134392164 -134379991 -134351646 -134315955 -134300408 -134235698 -134186127 -134117125 -134094483 -134090702 -133994186 -133927425 -133896323 -133842706 -133828857 -133794148 -133749192 -133718472 -133706593 -133699371 -133639871 -133619889 -133596565 -133529513 -133518313 -133513061 -133484337 -133465973 -133425847 -133419022 -133376389 -133333569 -133233605 -133193935 -133190377 -133099640 -133012526 -132856085 -132846299 -132814195 -132747861 -132740687 -132735490 -132676583 -132643837 -132622130 -132602636 -132488048 -132430846 -132398492 -132369388 -132313215 -132260198 -132242006 -132062743 -132011050 -131976873 -131966041 -131962081 -131917257 -131910873 -131899764 -131893612 -131876792 -131861457 -131856769 -131850367 -131783390 -131758362 -131751443 -131718370 -131694968 -131686692 -131648106 -131633612 -131631078 -131630223 -131559422 -131489627 -131448999 -131431015 -131400626 -131326699 -131238409 -131149540 -131106926 -131094802 -131053228 -130975109 -130971254 -130958601 -130945369 -130902273 -130792937 -130779024 -130649954 -130645391 -130566648 -130530018 -130422157 -130396908 -130388974 -130252240 -130235699 -130214842 -130198270 -130175659 -130141820 -130083072 -130065388 -130047282 -130014857 -129975416 -129947346 -129923488 -129882740 -129870573 -129675005 -129662181 -129594248 -129567726 -129564620 -129554349 -129536730 -129519998 -129490178 -129480774 -129466839 -129367786 -129288001 -129247585 -129208340 -129203367 -129186065 -129153085 -129065595 -129004231 -128994041 -128989206 -128915197 -128854135 -128807565 -128759963 -128712283 -128695979 -128594628 -128529775 -128438932 -128405835 -128396883 -128351095 -128278024 -128269754 -128269665 -128251067 -128216092 -128210727 -128182450 -128172457 -128169039 -128145436 -128127069 -128089098 -128054634 -128054478 -127916027 -127891094 -127870916 -127869201 -127814301 -127813100 -127807057 -127765466 -127758783 -127742555 -127707700 -127690384 -127663196 -127659716 -127643186 -127499446 -127383877 -127372859 -127327453 -127317593 -127310576 -127289572 -127284055 -127265313 -127235758 -127211783 -127135586 -127077699 -127042603 -127022870 -126976163 -126904085 -126878453 -126717462 -126649183 -126638263 -126560646 -126557767 -126537788 -126525841 -126488207 -126482286 -126469213 -126434674 -126376111 -126363954 -126337075 -126261818 -126203973 -126103088 -126094058 -126080986 -126069961 -125980166 -125956164 -125955085 -125927867 -125902798 -125895197 -125883451 -125876236 -125871062 -125842167 -125831248 -125815119 -125797841 -125698988 -125677749 -125645834 -125542600 -125456888 -125431270 -125396478 -125395982 -125321362 -125287928 -125287078 -125183255 -125137828 -125135934 -125110658 -125101065 -125029843 -125028204 -125022638 -125021663 -125003973 -124943420 -124932655 -124907359 -124839464 -124822277 -124814950 -124813440 -124810345 -124808184 -124763550 -124741456 -124737902 -124715384 -124680895 -124671596 -124656582 -124613648 -124578400 -124572552 -124532404 -124517023 -124482963 -124441297 -124397627 -124331686 -124307656 -124282970 -124239199 -124224675 -124168370 -124121121 -124083590 -124050173 -124040643 -123988530 -123905376 -123860167 -123820684 -123815710 -123795991 -123724353 -123596257 -123592119 -123582110 -123541266 -123537899 -123535162 -123534306 -123513881 -123362162 -123347877 -123287791 -123274724 -123269275 -123241644 -123221574 -123212070 -123191810 -123085938 -123068224 -122881491 -122878024 -122851138 -122850428 -122847800 -122834574 -122753042 -122713830 -122699376 -122670542 -122654372 -122602705 -122600377 -122551022 -122534044 -122412548 -122381356 -122355664 -122296099 -122287785 -122217277 -122148443 -122136989 -122131645 -122130024 -122125498 -122116244 -122095603 -122071314 -122065012 -122058921 -122041272 -122041065 -122039121 -122026045 -122007196 -121965167 -121946827 -121944376 -121932933 -121871236 -121822736 -121789711 -121746925 -121701887 -121674769 -121644881 -121549228 -121535631 -121480745 -121423381 -121411052 -121374899 -121351278 -121301036 -121286907 -121284931 -121282468 -121277819 -121198972 -121190263 -121142185 -121113686 -121049039 -121033905 -120993691 -120987670 -120979246 -120977305 -120968343 -120966107 -120954242 -120951604 -120922340 -120869439 -120806236 -120804664 -120791065 -120674801 -120658253 -120631405 -120523015 -120373139 -120300188 -120272769 -120268635 -120188439 -120129414 -120110333 -120106015 -120061378 -120007019 -119920800 -119912394 -119856339 -119821348 -119816556 -119752539 -119750423 -119745074 -119700428 -119699848 -119619599 -119607284 -119543934 -119541701 -119530723 -119518232 -119496283 -119389225 -119365744 -119360564 -119358210 -119355777 -119259674 -119257511 -119245681 -119223338 -119217482 -119202063 -119187724 -119169647 -119155381 -119151324 -119025130 -118966980 -118946444 -118882578 -118877803 -118861284 -118858330 -118820345 -118815409 -118757779 -118753419 -118632319 -118542056 -118453819 -118424959 -118378409 -118353559 -118337376 -118325376 -118310920 -118265988 -118227861 -118202962 -118167342 -118152462 -118097988 -118073695 -118054687 -118051439 -118042588 -118016529 -117985379 -117968570 -117952851 -117949433 -117899094 -117896392 -117892782 -117853129 -117834322 -117826518 -117820485 -117811754 -117810791 -117804113 -117755101 -117625654 -117600026 -117545515 -117519987 -117493378 -117459832 -117417091 -117402465 -117381441 -117346327 -117329969 -117321667 -117262143 -117115420 -117111203 -117071589 -117058258 -116985452 -116908952 -116905343 -116860336 -116850909 -116783518 -116753797 -116738944 -116638604 -116633926 -116598460 -116589258 -116584741 -116558330 -116536003 -116520498 -116501821 -116480051 -116310059 -116240848 -116221695 -116194793 -116132781 -116128899 -116123930 -116006128 -115950906 -115927946 -115891055 -115871409 -115868744 -115858759 -115819586 -115696756 -115644174 -115637490 -115605835 -115574774 -115546821 -115525223 -115522952 -115504398 -115500767 -115474349 -115436593 -115359389 -115322470 -115318429 -115288617 -115223744 -115163632 -115159709 -115132793 -115119273 -115106962 -115031661 -114963439 -114946356 -114822362 -114618013 -114601363 -114584360 -114403628 -114392738 -114336160 -114312173 -114270407 -114178435 -114158537 -114155903 -114141047 -114100728 -114006727 -113968463 -113958899 -113956432 -113941822 -113922394 -113899627 -113809435 -113793491 -113746511 -113667289 -113629286 -113605683 -113546733 -113515834 -113499171 -113493724 -113330969 -113321627 -113248699 -113234274 -113158176 -113143778 -113106329 -113039451 -112974056 -112955242 -112955235 -112923594 -112907804 -112887805 -112873545 -112858455 -112794960 -112774043 -112748678 -112731690 -112730195 -112640674 -112606776 -112566882 -112529878 -112483739 -112461515 -112356655 -112334338 -112309916 -112307350 -112215453 -112150610 -112137951 -112132317 -112091754 -112051703 -111954557 -111950368 -111936547 -111922120 -111723520 -111721638 -111705741 -111688712 -111683068 -111623440 -111621648 -111613725 -111563860 -111555444 -111553171 -111537673 -111499768 -111490851 -111466184 -111460838 -111455321 -111447429 -111373268 -111356534 -111268052 -111237409 -111226729 -111188469 -111159320 -111144700 -111138949 -111129653 -111107406 -111081308 -111071531 -111068076 -111016754 -111012107 -110993555 -110970055 -110870407 -110868394 -110860936 -110843893 -110805458 -110790434 -110723664 -110710798 -110707286 -110634787 -110619552 -110594424 -110528196 -110499143 -110473933 -110454575 -110401527 -110340112 -110317705 -110316030 -110244199 -110206031 -110164313 -110157259 -110146985 -110124967 -110059479 -110018029 -109973818 -109849936 -109848861 -109831209 -109829397 -109821941 -109805883 -109797734 -109764764 -109713725 -109684501 -109648978 -109616741 -109572734 -109503346 -109492825 -109488430 -109485652 -109326761 -109274178 -109259252 -109206353 -109130694 -109064242 -109037103 -108963013 -108920622 -108915173 -108877573 -108831248 -108826477 -108806798 -108804467 -108613782 -108586651 -108584235 -108560400 -108427070 -108424087 -108384515 -108382447 -108370781 -108348689 -108338406 -108307692 -108271130 -108218927 -108163074 -108125208 -108104199 -108071688 -108038738 -108020358 -108016938 -107917982 -107880587 -107626326 -107608154 -107601025 -107589325 -107561667 -107559667 -107548328 -107531910 -107504382 -107498817 -107469680 -107463640 -107441910 -107423091 -107414918 -107396359 -107359564 -107320325 -107307297 -107111756 -107023716 -107016369 -107013360 -107010851 -106955763 -106902078 -106800359 -106707569 -106693868 -106628613 -106581889 -106577566 -106517492 -106494724 -106421314 -106382850 -106345072 -106284591 -106177208 -106161100 -106159811 -106143568 -106139980 -106056045 -106048429 -106033594 -105955703 -105948002 -105947187 -105914091 -105884894 -105872910 -105834371 -105819398 -105768662 -105690303 -105665699 -105624821 -105573396 -105558707 -105549069 -105519766 -105492717 -105411399 -105409343 -105335554 -105290768 -105247800 -105226602 -105224771 -105221275 -105188859 -105121558 -105105684 -105098366 -105078992 -105034120 -105032143 -104993629 -104948283 -104917538 -104916513 -104913927 -104896112 -104890638 -104886255 -104884951 -104798143 -104790268 -104721464 -104710341 -104697950 -104643854 -104603152 -104597772 -104557927 -104464127 -104443737 -104440497 -104439301 -104329914 -104325940 -104274747 -104256253 -104202249 -104141292 -104091368 -104020579 -103961920 -103908359 -103790601 -103725825 -103724238 -103703055 -103594504 -103532481 -103495203 -103468542 -103403013 -103397497 -103389028 -103365912 -103321986 -103268420 -103212715 -103150475 -103067899 -102984563 -102970685 -102857955 -102780880 -102776622 -102722415 -102686659 -102668142 -102628496 -102564301 -102543137 -102540965 -102491861 -102451586 -102415826 -102347946 -102347843 -102312078 -102296036 -102290540 -102266285 -102187462 -102140116 -102075556 -102066598 -102018961 -101964021 -101913862 -101912372 -101895451 -101869417 -101845386 -101802628 -101758376 -101747385 -101718817 -101672458 -101664974 -101606121 -101605071 -101560746 -101540028 -101530927 -101489570 -101483275 -101438515 -101379818 -101372275 -101353494 -101294407 -101277390 -101258242 -101175191 -101126124 -101044780 -100992035 -100947327 -100924191 -100923299 -100913836 -100911676 -100849716 -100819410 -100799708 -100781579 -100736965 -100713124 -100672841 -100621756 -100549787 -100536768 -100495702 -100482518 -100471071 -100470167 -100457294 -100454084 -100400819 -100326908 -100320572 -100319006 -100291252 -100281293 -100264686 -100263680 -100235901 -100222390 -100125978 -100078725 -100056810 -100030542 -99978879 -99947006 -99907307 -99870771 -99842054 -99837933 -99816292 -99816240 -99812264 -99811525 -99810970 -99796628 -99759268 -99657872 -99566598 -99555289 -99505945 -99404844 -99377339 -99335079 -99287059 -99285239 -99283099 -99282602 -99273137 -99100519 -99037529 -99027567 -99023060 -98968245 -98945241 -98905192 -98892971 -98883923 -98871662 -98868857 -98854269 -98832524 -98799120 -98795453 -98765405 -98743567 -98732840 -98711401 -98678160 -98643239 -98615436 -98598154 -98469498 -98389454 -98341446 -98292294 -98249184 -98226316 -98119786 -98109937 -98109488 -98099095 -98084766 -98039863 -97999029 -97972900 -97900781 -97818946 -97773142 -97718284 -97675672 -97673584 -97608283 -97555533 -97476861 -97461260 -97424229 -97415783 -97386108 -97378042 -97362468 -97359243 -97349892 -97323304 -97313071 -97298854 -97296387 -97277294 -97113851 -97088151 -97065170 -97022475 -96974542 -96911575 -96902695 -96855830 -96814394 -96750859 -96682991 -96645362 -96631406 -96629223 -96576234 -96532811 -96517649 -96514423 -96471298 -96455693 -96441272 -96370814 -96339638 -96331967 -96304780 -96284482 -96259354 -96225766 -96211917 -96181383 -96149109 -96139727 -96070868 -96045760 -96014045 -95946018 -95934073 -95915353 -95913206 -95892605 -95869923 -95843380 -95836756 -95783566 -95769697 -95764869 -95729801 -95708534 -95701813 -95683781 -95629071 -95546779 -95510406 -95486510 -95486414 -95486133 -95447941 -95443090 -95323762 -95276933 -95241988 -95223467 -95089214 -95080135 -95050547 -95021045 -95002137 -94975514 -94958407 -94936828 -94928101 -94882140 -94869507 -94797052 -94773831 -94744811 -94715832 -94673122 -94647582 -94618068 -94615124 -94607349 -94588788 -94570943 -94444032 -94381536 -94332677 -94294856 -94256683 -94207910 -94125028 -94062281 -94039136 -93997503 -93929195 -93909204 -93889726 -93833641 -93814159 -93780907 -93780027 -93768316 -93745553 -93709938 -93680544 -93646268 -93639421 -93570548 -93497200 -93448464 -93417103 -93341188 -93331033 -93271498 -93202294 -93200173 -93187626 -93152334 -93146334 -93133595 -93131177 -93078529 -93066431 -93063745 -93049240 -93001126 -92985640 -92984197 -92908257 -92907030 -92874289 -92853695 -92808933 -92777494 -92742186 -92723914 -92717431 -92691052 -92576621 -92506679 -92453597 -92316137 -92307680 -92290604 -92187289 -92186808 -92167557 -92145660 -92079095 -92076599 -92072040 -92041377 -92031344 -91950284 -91942500 -91937958 -91918579 -91865648 -91813841 -91773010 -91726322 -91716697 -91712400 -91659380 -91495202 -91345628 -91308971 -91241413 -91239523 -91220152 -91190684 -91171701 -91099094 -91095703 -91041564 -91030649 -90942954 -90892303 -90883793 -90866156 -90777857 -90729061 -90654844 -90496500 -90447259 -90435918 -90399323 -90344693 -90307597 -90211598 -90208707 -90196804 -90173702 -90165380 -90164020 -90108461 -90101293 -90041212 -89970287 -89935908 -89926889 -89885670 -89860441 -89821774 -89799933 -89770327 -89764670 -89728900 -89710342 -89592972 -89561007 -89557878 -89549879 -89451167 -89389983 -89379941 -89301463 -89285363 -89202170 -89148924 -89141017 -89132300 -89089121 -89019420 -89007008 -88994299 -88880450 -88814102 -88733084 -88671701 -88668802 -88654862 -88642138 -88641724 -88637218 -88620143 -88592314 -88588399 -88573053 -88545857 -88437791 -88361748 -88271548 -88234317 -88194238 -88176723 -88140498 -88133867 -88126590 -88087751 -88068875 -87961233 -87958506 -87926575 -87904751 -87894689 -87881730 -87826809 -87812547 -87735698 -87724357 -87679493 -87632326 -87630116 -87614160 -87546408 -87534528 -87532876 -87527412 -87471906 -87450907 -87379425 -87344887 -87296602 -87263077 -87232748 -87180590 -87171308 -87163063 -87125389 -87112495 -87110897 -87103014 -87086312 -87085915 -86988109 -86964483 -86858425 -86801629 -86798931 -86789895 -86753917 -86731915 -86678352 -86668978 -86668976 -86608283 -86603099 -86589588 -86570661 -86437401 -86398990 -86376477 -86374250 -86328887 -86265862 -86167363 -86104165 -86081212 -86069276 -85999609 -85952478 -85948707 -85918267 -85876114 -85836148 -85829831 -85798435 -85773994 -85772759 -85763058 -85671211 -85643232 -85586492 -85557382 -85549180 -85541974 -85500998 -85492907 -85359239 -85358012 -85309786 -85290837 -85264751 -85246425 -85192096 -85183547 -85144788 -85127719 -85116850 -85075312 -85062722 -85041847 -85023387 -84965667 -84963780 -84952705 -84884307 -84863130 -84844896 -84752712 -84710166 -84691119 -84673330 -84550088 -84485711 -84406643 -84395819 -84351940 -84269048 -84266033 -84182343 -84150084 -84097062 -84080330 -83941282 -83922840 -83915878 -83909412 -83898545 -83885042 -83847186 -83844923 -83829773 -83796135 -83685460 -83631041 -83598957 -83505911 -83486587 -83479311 -83395464 -83384074 -83354964 -83206455 -83203004 -83118770 -83072984 -83071505 -83021730 -83001019 -82981211 -82975228 -82930780 -82895110 -82877039 -82867400 -82844368 -82776236 -82762804 -82750416 -82746704 -82741825 -82633103 -82603514 -82584350 -82565500 -82418088 -82401993 -82365362 -82356047 -82348898 -82338973 -82330485 -82284554 -82210530 -82210224 -82113932 -82098923 -82041957 -82036973 -82024830 -82010110 -81950015 -81925334 -81900639 -81853174 -81807950 -81799807 -81783723 -81777306 -81733976 -81718834 -81681169 -81658407 -81646281 -81601101 -81566288 -81543347 -81530061 -81527555 -81508964 -81497320 -81433644 -81352242 -81349820 -81341941 -81303246 -81267178 -81249544 -81145121 -81131793 -81093632 -81010196 -81009168 -80978607 -80932145 -80919179 -80866175 -80854140 -80786014 -80777763 -80756892 -80661170 -80582957 -80566052 -80497344 -80452109 -80418998 -80380468 -80369863 -80257068 -80233052 -80194005 -80128264 -80041961 -80027575 -80003640 -79997101 -79977101 -79964333 -79921727 -79906616 -79904949 -79885303 -79876896 -79870486 -79844691 -79791583 -79769953 -79766125 -79721102 -79701259 -79644508 -79540861 -79475057 -79446874 -79444895 -79443289 -79440500 -79401440 -79379396 -79358525 -79349684 -79233207 -79205163 -79200870 -79125985 -79085455 -79016910 -78994473 -78992444 -78965007 -78862951 -78860364 -78804992 -78794354 -78787348 -78786854 -78722303 -78721116 -78714330 -78707487 -78702397 -78584355 -78536734 -78471254 -78402147 -78368730 -78359397 -78353815 -78321024 -78319437 -78316148 -78254426 -78225688 -78203907 -78130450 -78117092 -78086668 -78068652 -78060903 -77940631 -77906201 -77830816 -77827083 -77809498 -77781900 -77774516 -77748876 -77738370 -77709201 -77690233 -77683074 -77631063 -77556798 -77506664 -77494615 -77484162 -77366899 -77337566 -77331440 -77328081 -77288024 -77285955 -77197649 -77141464 -77044464 -77041451 -77040767 -76980372 -76962650 -76867247 -76820543 -76803675 -76793524 -76787225 -76780002 -76748869 -76676698 -76641083 -76634446 -76573961 -76551719 -76533152 -76498913 -76454704 -76399136 -76329039 -76302015 -76290604 -76289800 -76278760 -76277122 -76247025 -76192947 -76169571 -76167953 -76160731 -76153896 -76143107 -76137225 -76064003 -76024845 -75998056 -75981895 -75956544 -75930900 -75867602 -75817178 -75783852 -75782964 -75762842 -75711357 -75684665 -75639447 -75623187 -75602578 -75598163 -75584901 -75499821 -75303332 -75284042 -75148927 -75120365 -75070867 -75064644 -75013109 -74980420 -74936386 -74879401 -74826281 -74814272 -74798602 -74782819 -74760470 -74750137 -74748836 -74739067 -74670006 -74668099 -74661557 -74621854 -74610539 -74588247 -74552086 -74547604 -74522323 -74456394 -74389984 -74377871 -74209153 -74208086 -74117863 -74106461 -74083524 -74069139 -74052943 -74024760 -73853353 -73815634 -73791273 -73544785 -73402911 -73386908 -73381616 -73367086 -73296054 -73277450 -73265594 -73182310 -73171401 -73157251 -73090792 -73090232 -72987571 -72873571 -72861364 -72755860 -72751675 -72725710 -72717875 -72608235 -72603466 -72600737 -72537226 -72454725 -72309790 -72292411 -72271376 -72241806 -72226975 -72201954 -72195201 -72145058 -72123462 -72109180 -72108946 -72088277 -72083220 -72050519 -72001894 -71958111 -71877451 -71859996 -71846051 -71822915 -71809552 -71766344 -71761392 -71677085 -71503420 -71470438 -71406680 -71399489 -71394343 -71393204 -71325770 -71098449 -71017933 -71014455 -70973367 -70954653 -70896577 -70872194 -70825844 -70790455 -70785670 -70755429 -70741107 -70730324 -70690051 -70680915 -70677205 -70652533 -70652270 -70636079 -70627916 -70618239 -70579935 -70447425 -70438898 -70438129 -70414464 -70388834 -70350129 -70335613 -70278296 -70219973 -70163152 -70126811 -70020383 -70002370 -69907599 -69884417 -69862544 -69846520 -69752020 -69687472 -69637118 -69584155 -69578219 -69533477 -69516957 -69479097 -69311343 -69300206 -69222944 -69194748 -69190276 -69187505 -69149749 -69117213 -69095975 -69095453 -69093424 -69044245 -68983448 -68878014 -68755254 -68724276 -68690971 -68684523 -68679546 -68632499 -68606322 -68591071 -68457320 -68403657 -68378797 -68338619 -68322371 -68289005 -68203433 -68190320 -68160289 -68095227 -68081506 -68077766 -68065277 -68057612 -68037002 -67985965 -67959600 -67947065 -67918028 -67915721 -67909083 -67851531 -67823668 -67796123 -67782476 -67752086 -67749876 -67727046 -67705913 -67652220 -67514618 -67490126 -67476977 -67457009 -67450632 -67410627 -67399264 -67364057 -67319456 -67199288 -67154896 -67141781 -67066965 -67022949 -66950165 -66856083 -66759862 -66731656 -66665715 -66654766 -66566008 -66523987 -66510252 -66448290 -66429850 -66400660 -66385716 -66345653 -66340246 -66152958 -66133727 -66123959 -66095214 -66080220 -66042597 -65957863 -65947765 -65945477 -65837533 -65825425 -65822926 -65770655 -65707094 -65704148 -65700958 -65688804 -65683294 -65649646 -65598781 -65593506 -65566303 -65559419 -65502902 -65487154 -65423969 -65408630 -65404182 -65343943 -65287373 -65263792 -65221519 -65210996 -65186255 -65095869 -65000039 -64979421 -64959161 -64873221 -64821028 -64812362 -64781479 -64753151 -64702753 -64629424 -64598160 -64593607 -64511665 -64466561 -64460475 -64439898 -64433970 -64385666 -64369234 -64338668 -64291479 -64289638 -64278624 -64222911 -64161661 -64132012 -64115318 -64109943 -64093192 -64087516 -64073559 -64004423 -63927691 -63906304 -63878537 -63876731 -63817404 -63804156 -63788246 -63787413 -63785035 -63731230 -63658135 -63527595 -63519745 -63448989 -63401151 -63386301 -63355854 -63345866 -63275723 -63236085 -63202384 -63105628 -63086860 -63072612 -63030796 -62934574 -62932797 -62911424 -62899372 -62872446 -62832963 -62831861 -62799057 -62791473 -62715245 -62671698 -62601891 -62588898 -62577591 -62551474 -62532390 -62489010 -62485497 -62483939 -62453207 -62450598 -62434266 -62429815 -62420056 -62370327 -62317634 -62285685 -62259829 -62203421 -62177550 -62061434 -62054903 -61906708 -61899555 -61834563 -61831673 -61725747 -61638330 -61604042 -61532488 -61520508 -61490343 -61484052 -61480010 -61475989 -61447231 -61439835 -61407779 -61393783 -61387987 -61386833 -61327008 -61311923 -61290583 -61282903 -61243222 -61236251 -61110453 -61092244 -61045406 -61043428 -61033506 -61003166 -60894061 -60860653 -60751871 -60707050 -60703690 -60702013 -60692075 -60639916 -60615074 -60614175 -60571867 -60561291 -60511865 -60483558 -60476347 -60455673 -60431617 -60408751 -60367308 -60356392 -60333984 -60306543 -60300394 -60248662 -60238102 -60189109 -60175613 -60064526 -60043421 -59985925 -59961409 -59913570 -59875083 -59855931 -59847000 -59817705 -59714293 -59702682 -59681033 -59624260 -59570681 -59542406 -59535824 -59535013 -59522823 -59381844 -59373271 -59358755 -59300668 -59160993 -59074370 -59065172 -59049167 -59028612 -59014903 -59008395 -58952649 -58926546 -58822684 -58821354 -58741444 -58733337 -58709101 -58696315 -58675563 -58661505 -58608964 -58598450 -58591044 -58574985 -58567671 -58517992 -58480620 -58476824 -58450724 -58439117 -58406593 -58332764 -58312013 -58222516 -58175313 -57996736 -57947297 -57930662 -57892855 -57827583 -57759673 -57752203 -57746110 -57587778 -57534542 -57522853 -57476030 -57468171 -57426137 -57331436 -57322596 -57315597 -57309849 -57287576 -57191940 -57186234 -57155861 -57074070 -57068375 -57035593 -57017232 -57010829 -57004638 -56998704 -56905976 -56871249 -56863577 -56820054 -56791344 -56735758 -56674316 -56668072 -56654290 -56606331 -56560783 -56552677 -56502857 -56419364 -56391960 -56342767 -56337871 -56310896 -56286684 -56238201 -56128195 -56108773 -56054158 -56032888 -56030855 -56008286 -55995503 -55982579 -55977366 -55922072 -55912742 -55855973 -55827821 -55719714 -55679854 -55665699 -55647620 -55642304 -55628115 -55601504 -55584084 -55528620 -55509494 -55488981 -55483905 -55469072 -55443626 -55369889 -55365357 -55356162 -55236333 -55216681 -55207152 -55162751 -55137449 -55112005 -55062187 -54973652 -54895470 -54888598 -54887561 -54886751 -54863144 -54801085 -54736256 -54689939 -54680660 -54666467 -54562975 -54537803 -54440617 -54435916 -54366978 -54356614 -54332447 -54280252 -54271241 -54258205 -54243159 -54229087 -54208677 -54166044 -54163694 -54078753 -54060628 -54053475 -54005441 -53985283 -53963458 -53948906 -53941941 -53901866 -53869940 -53823668 -53820592 -53726440 -53691963 -53676935 -53614174 -53581973 -53563960 -53554450 -53514810 -53472057 -53406498 -53405672 -53339082 -53325808 -53303440 -53197714 -53148025 -53143963 -53096044 -53093255 -53068265 -53046350 -52988955 -52938546 -52913312 -52869195 -52850024 -52804467 -52799398 -52798626 -52795775 -52786457 -52743767 -52738627 -52729950 -52660112 -52637493 -52627560 -52587525 -52545152 -52545023 -52528999 -52522930 -52509755 -52480161 -52458660 -52446757 -52436076 -52289847 -52201295 -52134382 -52108611 -52100523 -52087147 -52022329 -52021184 -52013790 -51949210 -51945016 -51874494 -51843035 -51783909 -51770861 -51715561 -51646153 -51595922 -51527343 -51464679 -51461207 -51456772 -51408187 -51390181 -51328549 -51309246 -51301592 -51251262 -51240739 -51220951 -51212350 -51095249 -51093769 -51067306 -51045027 -51009514 -50981671 -50888304 -50886505 -50878664 -50855518 -50821726 -50801667 -50792938 -50763539 -50761391 -50758797 -50745925 -50728869 -50676945 -50663480 -50651531 -50632513 -50627504 -50612772 -50607039 -50484306 -50438209 -50423773 -50289542 -50245202 -50177265 -50169350 -50142351 -50128578 -50113412 -50051738 -49962190 -49957303 -49906451 -49848096 -49821280 -49816306 -49814662 -49702009 -49689200 -49659627 -49654959 -49651329 -49646900 -49633701 -49590438 -49563907 -49505597 -49501511 -49489299 -49486764 -49435532 -49321576 -49301918 -49269725 -49256367 -49234111 -49197357 -49196687 -49120662 -49064288 -49024071 -48947938 -48876718 -48832220 -48790456 -48735502 -48712210 -48684448 -48675342 -48643689 -48642281 -48641705 -48637159 -48606263 -48563904 -48509805 -48434853 -48428380 -48401634 -48397312 -48308362 -48278442 -48255901 -48197647 -48174958 -48158575 -48135587 -48132726 -48107368 -48088765 -48081551 -48050088 -47952931 -47949502 -47943953 -47852236 -47703057 -47655975 -47358334 -47357648 -47354044 -47346899 -47289520 -47262767 -47230008 -47222741 -47206884 -47122793 -47118029 -47061674 -47051080 -47034865 -47020150 -46991596 -46973324 -46928056 -46837032 -46755374 -46704239 -46665761 -46651762 -46633608 -46583816 -46512634 -46455365 -46450534 -46446654 -46443727 -46419922 -46362466 -46339167 -46204901 -46171557 -46157233 -46155220 -46070263 -46058013 -46034492 -45936131 -45933327 -45920749 -45893493 -45860896 -45844758 -45842670 -45782324 -45716005 -45645438 -45638548 -45629117 -45620440 -45609868 -45589387 -45534115 -45493755 -45473379 -45462079 -45367138 -45318888 -45297267 -45286029 -45248438 -45222063 -45164575 -45137025 -45135248 -45129845 -45094933 -45055291 -45054171 -45016894 -44977476 -44957449 -44930647 -44926099 -44818829 -44814025 -44789975 -44782979 -44748643 -44748165 -44741931 -44660980 -44660654 -44650188 -44641427 -44615378 -44573629 -44488934 -44433564 -44399904 -44396141 -44316691 -44297276 -44273087 -44264948 -44161009 -44135549 -44120442 -44102204 -44050148 -43982081 -43979940 -43960345 -43955288 -43890039 -43873234 -43856687 -43846520 -43844978 -43842647 -43798924 -43787985 -43779245 -43769681 -43679461 -43666626 -43616618 -43601587 -43581950 -43572057 -43549479 -43537667 -43535267 -43527272 -43462826 -43428239 -43401204 -43346321 -43303604 -43267219 -43192150 -43178210 -43147842 -43071017 -43024309 -43011312 -42819988 -42780967 -42752612 -42730643 -42724116 -42693087 -42630243 -42627675 -42596740 -42573240 -42556980 -42526106 -42461241 -42396299 -42340206 -42174397 -42154954 -42117715 -42100416 -42100234 -42067686 -42061374 -42039402 -42010171 -42009221 -42006445 -41929020 -41890870 -41885599 -41884657 -41853497 -41767340 -41753105 -41746813 -41744836 -41739998 -41739434 -41729326 -41723624 -41689921 -41660855 -41578356 -41569961 -41553731 -41546821 -41546635 -41508423 -41358380 -41338682 -41329696 -41285563 -41266958 -41200526 -41185571 -41151594 -41142353 -41089582 -41073225 -41038050 -41027624 -41018440 -40954370 -40948436 -40890061 -40874778 -40801454 -40706719 -40635825 -40633911 -40567037 -40562632 -40453350 -40432549 -40299345 -40285643 -40188292 -40172597 -40166778 -40009676 -40006511 -39980130 -39922278 -39866252 -39827336 -39820458 -39793007 -39758063 -39630153 -39605475 -39552002 -39367760 -39303616 -39302797 -39282242 -39255093 -39252614 -39245432 -39228875 -39166271 -39154104 -39132499 -39112644 -39035463 -39026369 -39019182 -39014967 -39010170 -38942850 -38913176 -38908923 -38837227 -38827807 -38753787 -38740042 -38664230 -38659201 -38595594 -38577570 -38535235 -38457493 -38377283 -38323024 -38297068 -38274906 -38256022 -38238164 -38212113 -38163508 -38135322 -38123518 -38109960 -38101705 -37993222 -37983835 -37911561 -37906174 -37888301 -37886965 -37831625 -37824762 -37809097 -37771667 -37700541 -37649797 -37617296 -37510419 -37507084 -37503297 -37428348 -37421855 -37407596 -37294201 -37287480 -37277378 -37251051 -37248779 -37234174 -37217091 -37210131 -37021866 -36901792 -36886908 -36704576 -36681765 -36631134 -36523913 -36508971 -36499769 -36495320 -36487716 -36482763 -36466223 -36462471 -36461786 -36455295 -36454464 -36425266 -36407035 -36403633 -36395584 -36362608 -36320454 -36299756 -36247452 -36234843 -36229473 -36227986 -36126383 -36124168 -36122628 -36122170 -36101461 -36078058 -35993981 -35984523 -35947365 -35889486 -35794767 -35769405 -35754974 -35745516 -35733611 -35725527 -35693687 -35669987 -35616136 -35612309 -35576967 -35505932 -35484139 -35465261 -35452751 -35438805 -35430638 -35387893 -35345029 -35281838 -35220866 -35209193 -35198670 -35182887 -35180568 -35091332 -35069234 -35056272 -35026992 -35011574 -34932768 -34889821 -34873189 -34830537 -34819377 -34806242 -34754324 -34738565 -34708252 -34677023 -34670284 -34641600 -34618955 -34540712 -34520628 -34471244 -34465623 -34396708 -34240219 -34211176 -34201986 -34134148 -34118613 -34095106 -34022174 -34008714 -33988164 -33924991 -33900654 -33836719 -33827625 -33807279 -33713394 -33704106 -33647965 -33558531 -33547018 -33530862 -33461629 -33410374 -33256160 -33219499 -33200958 -33196342 -33143781 -33132846 -33122306 -33061931 -33032469 -32944916 -32929527 -32925123 -32887668 -32863630 -32856207 -32785891 -32779117 -32756263 -32731820 -32644271 -32643801 -32568940 -32526965 -32488387 -32403122 -32380934 -32368098 -32206739 -32156232 -32114526 -32078405 -32046472 -32024662 -32021112 -31984408 -31982664 -31972571 -31971798 -31871287 -31849678 -31826136 -31760899 -31662650 -31643966 -31611411 -31584710 -31540771 -31489955 -31418076 -31358962 -31309828 -31288798 -31240165 -31149783 -31131662 -31065021 -31046355 -30984254 -30824303 -30711643 -30674007 -30672369 -30573315 -30470029 -30352190 -30289647 -30265002 -30218434 -30161000 -30132073 -30093148 -30007016 -29979352 -29919801 -29892696 -29867791 -29813903 -29714860 -29676375 -29605985 -29591760 -29587393 -29558866 -29555045 -29488384 -29486401 -29478999 -29445887 -29420843 -29412719 -29405869 -29391131 -29225428 -29207227 -29123709 -29100596 -29079486 -29075568 -29064566 -28996811 -28976646 -28968776 -28896176 -28855271 -28802619 -28795767 -28785628 -28732529 -28731579 -28688628 -28631426 -28629376 -28597892 -28568940 -28535488 -28475289 -28434817 -28415101 -28413680 -28411862 -28407062 -28398132 -28391512 -28380088 -28289757 -28284761 -28264403 -28225115 -28212692 -28163193 -28154315 -28098348 -28095538 -28072198 -28055611 -28030446 -27861750 -27844336 -27836217 -27787443 -27773444 -27756438 -27740711 -27716267 -27695326 -27689403 -27668461 -27660896 -27653809 -27623951 -27611593 -27540596 -27535554 -27524583 -27502055 -27407649 -27381315 -27358014 -27353246 -27311597 -27309259 -27307450 -27294500 -27291332 -27270501 -27149027 -27117050 -27089331 -27035817 -27031968 -27022380 -26987090 -26985152 -26978443 -26932803 -26900551 -26894517 -26862815 -26820117 -26705204 -26692171 -26689356 -26683863 -26537713 -26511299 -26451581 -26440716 -26431591 -26397245 -26364344 -26316371 -26281622 -26267181 -26228310 -26166437 -26125836 -26099215 -26045828 -25970013 -25891547 -25594977 -25542884 -25541428 -25505487 -25471964 -25441958 -25388649 -25375055 -25358282 -25348713 -25159658 -25147495 -25119172 -25096311 -25045118 -25012217 -24997057 -24993944 -24978284 -24921054 -24909480 -24854116 -24852516 -24830693 -24781631 -24766065 -24731750 -24717169 -24711332 -24703126 -24598296 -24499990 -24460670 -24454304 -24419633 -24345078 -24299581 -24248924 -24157877 -24089536 -24064597 -24004135 -23973776 -23901815 -23892278 -23858080 -23854008 -23829504 -23809386 -23781750 -23755863 -23691192 -23642251 -23632214 -23563830 -23545655 -23530130 -23526316 -23519888 -23366688 -23326740 -23304255 -23300765 -23238904 -23171250 -23149745 -23128578 -23119542 -23096942 -23049622 -22998296 -22990430 -22985340 -22974053 -22961678 -22821559 -22814122 -22648009 -22589413 -22535097 -22457284 -22453746 -22433977 -22415921 -22383083 -22377249 -22352933 -22332605 -22318868 -22272157 -22253174 -22173742 -22123404 -22088733 -22082807 -22072740 -22049570 -21993750 -21922983 -21914772 -21865649 -21836737 -21813093 -21740090 -21726222 -21725007 -21643078 -21621121 -21609752 -21601790 -21547119 -21511059 -21461965 -21446017 -21422048 -21395466 -21391142 -21303111 -21285485 -21269251 -21263975 -21164367 -21163204 -21146827 -21058807 -21030527 -21005722 -21003183 -20997581 -20994049 -20975425 -20952240 -20929651 -20928500 -20911585 -20887452 -20861602 -20758434 -20680053 -20667299 -20638647 -20523196 -20483607 -20471277 -20455349 -20397639 -20317495 -20315336 -20292995 -20271402 -20197600 -20097784 -20095669 -19840209 -19818162 -19789930 -19714142 -19648727 -19647284 -19623948 -19602035 -19597280 -19587910 -19504288 -19417502 -19408395 -19385961 -19376980 -19361550 -19349000 -19347140 -19332465 -19314497 -19300785 -19205889 -19100961 -19068760 -19061296 -19041947 -19022953 -18967001 -18958350 -18944181 -18914713 -18902342 -18898070 -18708578 -18689099 -18666388 -18657191 -18630910 -18614174 -18598886 -18577018 -18560297 -18535716 -18471112 -18421564 -18409247 -18408661 -18336813 -18331851 -18321249 -18214347 -18200258 -18190448 -18183868 -18148182 -17940411 -17935144 -17906716 -17880635 -17835397 -17819026 -17805744 -17803429 -17790473 -17697682 -17657670 -17619669 -17545556 -17483303 -17458424 -17456127 -17448568 -17440334 -17437893 -17416206 -17330590 -17253027 -17246724 -17194286 -17049169 -17036016 -17031901 -17014216 -16996478 -16928864 -16914536 -16910701 -16910371 -16907849 -16861372 -16855968 -16787890 -16784756 -16681116 -16633037 -16615440 -16525689 -16520027 -16475798 -16474994 -16466348 -16462060 -16441543 -16428505 -16328697 -16223690 -16215883 -16207471 -16198748 -16046998 -16037634 -16033888 -16027313 -16008622 -16006768 -15972186 -15961680 -15900716 -15881076 -15796160 -15754854 -15722335 -15692737 -15654925 -15648381 -15646991 -15532924 -15504260 -15495779 -15484330 -15429034 -15404030 -15313517 -15275337 -15256750 -15245968 -15244701 -15225559 -15151692 -15072673 -14970732 -14962022 -14956398 -14903892 -14818364 -14802397 -14786083 -14775241 -14695718 -14669262 -14656363 -14587741 -14535267 -14382455 -14362195 -14320071 -14255823 -14193427 -14027908 -14005097 -13938770 -13868910 -13843912 -13747581 -13742969 -13691477 -13690680 -13633779 -13601712 -13585133 -13571716 -13536995 -13534218 -13454973 -13346361 -13345271 -13277493 -13248717 -13226769 -13207982 -13126031 -13077712 -13069254 -13066606 -12981057 -12973318 -12893381 -12872840 -12869571 -12866162 -12835870 -12806941 -12804810 -12788257 -12746377 -12726707 -12714349 -12696349 -12696268 -12674469 -12654340 -12653003 -12643781 -12567529 -12542882 -12539296 -12534488 -12467170 -12459940 -12428446 -12379274 -12340542 -12293548 -12245767 -12235401 -12193899 -12174411 -12097731 -12060338 -12037167 -12022532 -12012295 -11993443 -11981051 -11976355 -11892846 -11884796 -11873101 -11841053 -11795009 -11783189 -11744295 -11674302 -11671282 -11646032 -11617336 -11614066 -11609563 -11576908 -11562537 -11550926 -11527415 -11525818 -11506001 -11500645 -11477822 -11472672 -11469418 -11465807 -11417861 -11359133 -11348176 -11333461 -11322633 -11296932 -11249992 -11243896 -11233587 -11219842 -11176736 -11062422 -10983649 -10974834 -10925346 -10906895 -10877508 -10868840 -10836407 -10831407 -10797587 -10791472 -10786852 -10759751 -10756693 -10720118 -10536056 -10526789 -10497888 -10493767 -10302332 -10292538 -10285770 -10265672 -10257279 -10194696 -10183312 -10097434 -10072324 -10064655 -10063545 -10062004 -10049527 -10045511 -10034757 -10025851 -9905831 -9901563 -9886516 -9852045 -9801423 -9764374 -9677959 -9612601 -9602974 -9590950 -9575049 -9543352 -9487592 -9451300 -9439600 -9407282 -9397873 -9356741 -9324750 -9265200 -9261314 -9261099 -9249903 -9244243 -9229961 -9193327 -9173473 -9099614 -9053036 -9028250 -8984771 -8935414 -8927806 -8868493 -8856851 -8817176 -8776044 -8763418 -8761596 -8733088 -8705439 -8553788 -8540879 -8536186 -8514392 -8508272 -8470407 -8463020 -8306750 -8300264 -8269874 -8261365 -8249907 -8231890 -8226981 -8170205 -8158262 -8136523 -8132589 -8025040 -8015647 -7972026 -7969017 -7892911 -7843422 -7819420 -7758800 -7627406 -7581869 -7542695 -7477013 -7421163 -7409827 -7334529 -7329186 -7302663 -7246782 -7237731 -7235437 -7155397 -7029511 -7024294 -6902133 -6836649 -6797875 -6674281 -6672419 -6657629 -6626983 -6527813 -6511098 -6456939 -6417480 -6411837 -6374949 -6321223 -6306945 -6232961 -6181599 -6157874 -6136726 -6090395 -6088457 -5946476 -5848400 -5844618 -5834182 -5772970 -5763346 -5754090 -5716147 -5693854 -5670746 -5626463 -5595884 -5580860 -5542931 -5518461 -5464323 -5452528 -5416754 -5353301 -5343392 -5338752 -5246553 -5205863 -5173096 -5170771 -5028929 -4982852 -4976603 -4970256 -4956345 -4943837 -4885612 -4880487 -4870235 -4849478 -4841263 -4774488 -4771675 -4760122 -4722348 -4714344 -4688780 -4647391 -4634857 -4623234 -4531117 -4528861 -4524221 -4520653 -4500434 -4488513 -4484745 -4422747 -4417794 -4405478 -4358123 -4353088 -4349246 -4322889 -4305299 -4287017 -4200784 -4178000 -4156704 -4138689 -4103874 -4095770 -4079317 -3981448 -3955682 -3874315 -3837983 -3836940 -3827109 -3803105 -3788674 -3773568 -3765682 -3700554 -3687842 -3677110 -3669077 -3620126 -3528963 -3489377 -3479683 -3461507 -3439977 -3420237 -3415016 -3360028 -3342558 -3308967 -3265715 -3211748 -3141445 -3137111 -3127894 -3125408 -3119247 -3055767 -2999043 -2930377 -2849948 -2822662 -2795809 -2761170 -2720474 -2719521 -2713414 -2702202 -2696292 -2691899 -2515222 -2515074 -2511602 -2496301 -2442136 -2431553 -2406393 -2398892 -2343178 -2331879 -2330285 -2325425 -2324528 -2304240 -2241543 -2226312 -2160652 -2147512 -2137366 -2040049 -2032865 -1956600 -1956379 -1924220 -1900153 -1897521 -1882967 -1852581 -1781520 -1758341 -1703271 -1702058 -1679116 -1574117 -1544668 -1514158 -1492264 -1477922 -1459118 -1331702 -1311373 -1309691 -1284258 -1248694 -1212129 -1099936 -1099467 -1093873 -1040400 -1025490 -987800 -970442 -955905 -919430 -815433 -801593 -759930 -740926 -716431 -677366 -671347 -621643 -605857 -535942 -499103 -497131 -455436 -415315 -380592 -378412 -363933 -344522 -277241 -273937 -230070 -165564 -137904 -63156 -28672 -10707 39677 82500 100904 180276 201701 222931 247634 289722 313498 327304 358619 367023 399110 403411 430638 469175 479654 515838 520293 578325 686511 693545 701871 733664 745586 780474 828573 829267 833987 977474 1002030 1021191 1088934 1142260 1148630 1154985 1177714 1181923 1205695 1239677 1272068 1279465 1300718 1330192 1347687 1375691 1401067 1449398 1512095 1515454 1520781 1538519 1553375 1581322 1619342 1633133 1646402 1659268 1713209 1839687 1873944 1971432 1985208 2016324 2028117 2061297 2146292 2176259 2176643 2176933 2184252 2218400 2231546 2244319 2247070 2255129 2265684 2352913 2359669 2362516 2362524 2397874 2407555 2428045 2431172 2518786 2556430 2591445 2591852 2607639 2624360 2633716 2671855 2718358 2730363 2775247 2777407 2781041 2789505 2810383 2850922 2857630 2864631 2879453 2880323 2892775 2907911 2982572 2988845 2998060 3036650 3231853 3235027 3248680 3322776 3332783 3360873 3416040 3416829 3511635 3512237 3537833 3565582 3572375 3690190 3742926 3762193 3822355 3823708 3888375 3891709 3899969 4041312 4042997 4068089 4068723 4070888 4158936 4172134 4177334 4186317 4231374 4250091 4316305 4366026 4373043 4574130 4606535 4672039 4700781 4726998 4731460 4731527 4860140 4906040 4946076 5052021 5065538 5071041 5079186 5092139 5096057 5138464 5177944 5223369 5286865 5341794 5350536 5350648 5550767 5592389 5624182 5645160 5649174 5657222 5747032 5791679 5823250 5895679 5929172 6083480 6091139 6104159 6143858 6258985 6329049 6395613 6417605 6482464 6483278 6531890 6543584 6565741 6576038 6577386 6580767 6587268 6629873 6713071 6725562 6772860 6790115 6843767 6879880 6885890 6905258 6952841 6957896 6971143 7167128 7197230 7230389 7266993 7271166 7282166 7293859 7304975 7318484 7340499 7347043 7370231 7408923 7437536 7465297 7469204 7482154 7488982 7505339 7540051 7553186 7572499 7618953 7654955 7669758 7681242 7683423 7698240 7704555 7709213 7752047 7819514 7826039 7842191 7964627 8010280 8087607 8092708 8092761 8123246 8149097 8187912 8241128 8299529 8302278 8338362 8360454 8400043 8430507 8462840 8488145 8554902 8569934 8578323 8597394 8602909 8616566 8649732 8687293 8698083 8721056 8768841 8786201 8854966 8875817 8930876 8945783 9022821 9062609 9172117 9175136 9181068 9184526 9192656 9206930 9264347 9295794 9334011 9335777 9381734 9386817 9387648 9432516 9514475 9521482 9546431 9587577 9601509 9608100 9662332 9702670 9721627 9735884 9741126 9778534 9790192 9853008 9857642 9866977 10088440 10152130 10152251 10248533 10255969 10258665 10338915 10346994 10403699 10529715 10556689 10572753 10574982 10603417 10610105 10637817 10650864 10672227 10692288 10701642 10847891 10849552 10855390 10940404 10941741 11003708 11009231 11025906 11030285 11135120 11147466 11170077 11272548 11286585 11292738 11310151 11334905 11369920 11406232 11463824 11471063 11473969 11498620 11500409 11521441 11542947 11549135 11573935 11583223 11592060 11598148 11628632 11688854 11700642 11760474 11764681 11765007 11813889 11844886 11856176 11864239 11927519 11990428 12006530 12025915 12036079 12071333 12091198 12125350 12152375 12155135 12177783 12187554 12278137 12420053 12462318 12548539 12618171 12631765 12681911 12780047 12787221 12795702 12797053 12816494 13003937 13154867 13158118 13195849 13213398 13274122 13284353 13328522 13349113 13354284 13544789 13548010 13640615 13644999 13661970 13666691 13693492 13736822 13771769 13855189 13974163 13979765 13999592 14049988 14057877 14077574 14114028 14190303 14192395 14298306 14333657 14403573 14456268 14462163 14470409 14474819 14612998 14681014 14691433 14725134 14798960 14833493 14885737 14914667 14990391 15024633 15072821 15076488 15104345 15108785 15135236 15172368 15196436 15199607 15246435 15257725 15331056 15342891 15406494 15485351 15522900 15610188 15619905 15663570 15712561 15718133 15735585 15756180 15822527 15870911 16043531 16044610 16089452 16089725 16092604 16094328 16096482 16105765 16156159 16194472 16205123 16281480 16323251 16379281 16400694 16488933 16527104 16550161 16577854 16703200 16837506 16869587 16889925 16967570 16980780 17058687 17106162 17136580 17298933 17309860 17345553 17366971 17483709 17514810 17521354 17526113 17547715 17557120 17629335 17633506 17648261 17757332 17770455 17806636 18084032 18100001 18109882 18152161 18237330 18265210 18273108 18339490 18343636 18379014 18392189 18421962 18541610 18548566 18554989 18563912 18581857 18634861 18671189 18789886 18796038 18833241 18863158 18911738 18973413 18976813 18977052 18978193 18985050 19003855 19114265 19150686 19160180 19166389 19231078 19438426 19440181 19476649 19487304 19564117 19651239 19698725 19701121 19706175 19706666 19718063 19838131 19839919 19882779 19932620 19951603 19982173 20006776 20024576 20077314 20104660 20123740 20154376 20163848 20186019 20244895 20248721 20296230 20314667 20359067 20371618 20416932 20435776 20486317 20498226 20503899 20526085 20594495 20610939 20659622 20720517 20735113 20752197 20777761 20783050 20784518 20795121 20826198 20848246 20857036 20886423 20899527 20924133 21001990 21023410 21115161 21128327 21159118 21168016 21256316 21307099 21340481 21345292 21405361 21448204 21465836 21467789 21480730 21519511 21531878 21633980 21667317 21695549 21762319 21839870 21867812 21869730 21897179 21906506 21995284 22015485 22196782 22212914 22243377 22429656 22440227 22518660 22519539 22615342 22708726 22753757 22760848 22763606 22771890 22783967 22791255 22803269 22807301 22823261 22827978 22842814 22921030 22944643 23025386 23030062 23034168 23045665 23110619 23152322 23198751 23244967 23246665 23343227 23350640 23356325 23366120 23466098 23475550 23499209 23506569 23595038 23625169 23650418 23666232 23698174 23743999 23758369 23852883 24017314 24024137 24052996 24081747 24102463 24110584 24169339 24218323 24220447 24272143 24286886 24318631 24373170 24513323 24529176 24531853 24537145 24539914 24544590 24632216 24737732 24771528 24811274 24823679 24858995 24864043 24900145 24925591 24966217 24971293 24974141 25001074 25005258 25056009 25057175 25061088 25121313 25182026 25244396 25271920 25316818 25338430 25338564 25347653 25366355 25378996 25395881 25445606 25480397 25499536 25736726 25789669 25874778 25879378 25904061 25905621 25962228 25968844 25978951 26022607 26040052 26044231 26120947 26182539 26212329 26230606 26242257 26301939 26307013 26322593 26333722 26346008 26382920 26400833 26412595 26417043 26424305 26455210 26498825 26594335 26595978 26706141 26757284 26759770 26808002 26855607 26855802 26868727 26895058 26912477 26915846 26920348 26970380 27092504 27093900 27095074 27207115 27242831 27263338 27277571 27304444 27341258 27454550 27497072 27545467 27584844 27602096 27733289 27763661 27765355 27785139 27810897 27872111 27873275 27912561 27913293 27931822 28002983 28016803 28056746 28075023 28107763 28153632 28186443 28193842 28218769 28230735 28275886 28308135 28313549 28365847 28474101 28524201 28554755 28571749 28675284 28681675 28713415 28766868 28780513 28800236 28823426 28838858 28840184 28929513 29029457 29070293 29072428 29076481 29108504 29155493 29168962 29175031 29186206 29206672 29316176 29331657 29449895 29480023 29481304 29508230 29574644 29662509 29763559 29827465 29863055 29945384 29946108 29952672 29977179 29979785 29980440 29985724 29994990 30023552 30100964 30101162 30150023 30184294 30236955 30240110 30262796 30334885 30338756 30371245 30405736 30501869 30503551 30522600 30569940 30570857 30612104 30635190 30666289 30734004 30736484 30740200 30762531 30823006 30873164 30910985 30978842 31022084 31024931 31042242 31061173 31076991 31212648 31230905 31236270 31260107 31297333 31354174 31387721 31387807 31396268 31404169 31413124 31457576 31465748 31517989 31525347 31625455 31659939 31746675 31800936 31846808 31873286 31886994 31937166 32011022 32029851 32046809 32046987 32059278 32070254 32075471 32194120 32204042 32208531 32215995 32275555 32382903 32385689 32400296 32433100 32474476 32489614 32494405 32639543 32672701 32675790 32681528 32691951 32693914 32722342 32742695 32757441 32778789 32820480 32845029 32879950 32886499 33046350 33067311 33080136 33190365 33225306 33226137 33255710 33261922 33292724 33300691 33361598 33553989 33555340 33584043 33650421 33670407 33701215 33706818 33748945 33790759 33837386 33884738 33899660 33912460 33920898 33926219 33932126 33957360 34040751 34067335 34165071 34187139 34214110 34246137 34327110 34374341 34569584 34596628 34630092 34701554 34705403 34773622 34789511 34803221 34933714 34949242 35145451 35167705 35186008 35196270 35309739 35397724 35459619 35528780 35589278 35599757 35603453 35671185 35690095 35742872 35747656 35791046 35792275 35805434 35817250 35825948 35834949 35846708 35875973 35881215 35935259 36018196 36110683 36256117 36371827 36447303 36452527 36464226 36470426 36487826 36515515 36526767 36593319 36828752 36833367 36848968 36883254 36919044 36925565 36971443 37031457 37082813 37123606 37128529 37131044 37138588 37193820 37204583 37229711 37295816 37321012 37321504 37444680 37501301 37559828 37567703 37615601 37622465 37649346 37688491 37771448 37792280 37867325 37872161 37937112 38036875 38045524 38056544 38061387 38077964 38100073 38164181 38166268 38259010 38275881 38326733 38359565 38399842 38448077 38456537 38553202 38580846 38714269 38788849 38802844 38814073 39039189 39041003 39225195 39263669 39361399 39410726 39477216 39508391 39557233 39590844 39694210 39721131 39795752 39804813 39829279 39839040 39868976 39970205 39970783 40049556 40075547 40179576 40220387 40254436 40260114 40279867 40370635 40381780 40402580 40416891 40468817 40520602 40543615 40554235 40603703 40607000 40635288 40644823 40667702 40736818 40746026 40912555 40992484 41028359 41038637 41100445 41102829 41124929 41165042 41170689 41174107 41186944 41190238 41192404 41213573 41233242 41262394 41328988 41425825 41433292 41491208 41539447 41684741 41711917 41718243 41752322 41759942 41786503 41845769 41871355 41917742 42039343 42072689 42075079 42099012 42206685 42211682 42239283 42242670 42265017 42275664 42282484 42305242 42320895 42329446 42413871 42432015 42433251 42445574 42448698 42569675 42595177 42632526 42633419 42722844 42731967 42770372 42960943 43083350 43126037 43135371 43221671 43244929 43263245 43336535 43340904 43343262 43373214 43414838 43416064 43453997 43463767 43553630 43567682 43648859 43659123 43697449 43754800 43760013 43825206 43955428 43976448 43983370 44019236 44036792 44041695 44083464 44138923 44142412 44167611 44169239 44188878 44192214 44203661 44206535 44214332 44218576 44255426 44272442 44303773 44358835 44389959 44399958 44473127 44512153 44537496 44543624 44549279 44551788 44600052 44655773 44680409 44709108 44814429 44843546 44844477 44898543 44944665 44959534 44975128 44983379 45005059 45020201 45021033 45063778 45173782 45188671 45307078 45381399 45398800 45449227 45486506 45517657 45520646 45547110 45551038 45668922 45669162 45699236 45712254 45741245 45784917 45850444 45895158 45906102 45998732 46042176 46126028 46223273 46226545 46354848 46396707 46444678 46445367 46520669 46539130 46607479 46697732 46711969 46801735 46866229 46884231 46898848 46933130 46980625 46985158 47019467 47045474 47175000 47189489 47211137 47261466 47275426 47300324 47302145 47324142 47324195 47412703 47432023 47453200 47491126 47544588 47557542 47582350 47604105 47665447 47701079 47758633 47786111 47861848 47901882 47905345 47955460 47963055 47971232 47973291 47987380 48000496 48064786 48187620 48190520 48199861 48235015 48296428 48312091 48324078 48352516 48447900 48509801 48513559 48579603 48586836 48592841 48649336 48693602 48813065 48882747 48898947 48916112 49011552 49018710 49047075 49064531 49183762 49225880 49256129 49303977 49315890 49340339 49378975 49391938 49424478 49489618 49509603 49531470 49576713 49765837 49820244 49824556 49835620 49837711 49873921 49910884 49926600 50005140 50008768 50014497 50043377 50054384 50156296 50190146 50202884 50244408 50335144 50335423 50488866 50489138 50521882 50552233 50566628 50618208 50638684 50674674 50703335 50704099 50797578 50818989 50842686 50859540 50906804 50919756 50927343 51103515 51126924 51176792 51182055 51302990 51392251 51414280 51536167 51588798 51594887 51652215 51735137 51735525 51744270 51906242 52116157 52117711 52130494 52142682 52150488 52158411 52231276 52240165 52274905 52283764 52370472 52393924 52496652 52534289 52551259 52605007 52643825 52683941 52685723 52707438 52747391 52820317 52916580 52920417 52930881 52958977 53047363 53114663 53171895 53210926 53215476 53351126 53464591 53464667 53528340 53644794 53677128 53751976 53755377 53793907 53819876 53911491 53921717 53923061 53967314 54081211 54109002 54135061 54137770 54140539 54146090 54162925 54181835 54231320 54302674 54307421 54368328 54379790 54399123 54451315 54484803 54532594 54543015 54553868 54592556 54606161 54610575 54660744 54679022 54698498 54722268 54769649 54853796 54905109 54926748 54927941 55075809 55133508 55146776 55153370 55190515 55216385 55228337 55266575 55270618 55353599 55415725 55423504 55423759 55443267 55475206 55489337 55540196 55606773 55640731 55672457 55752957 55778116 55846782 55883396 55918953 55934743 55995246 56044085 56070713 56086493 56110840 56145420 56172675 56189347 56199021 56298615 56367965 56470430 56492464 56507699 56516873 56553885 56560774 56580464 56647419 56676204 56704255 56751622 56799605 56892727 56895644 56897338 56924204 56984538 56990988 57066358 57113530 57120232 57129083 57134824 57137159 57194063 57228599 57295672 57331975 57346090 57396464 57426869 57539379 57567143 57590497 57602041 57611635 57623821 57649207 57656028 57677538 57685913 57697642 57709957 57732662 57766217 57849596 57857522 57937777 57947444 57980767 58019751 58044670 58078725 58106180 58155152 58180131 58214856 58233698 58396164 58415363 58465360 58475717 58489530 58504235 58528904 58569750 58593612 58622050 58688150 58737183 58839204 58850861 58864630 58932460 58949086 59041851 59183458 59199800 59238354 59311435 59334126 59387119 59426603 59473991 59494421 59505247 59516283 59656677 59657254 59671298 59683731 59760678 59770675 59784432 59815378 59822695 59823090 59869508 59870743 59988955 59995731 60050365 60118016 60124650 60158189 60158274 60164614 60167379 60218566 60264769 60339523 60343822 60356069 60357675 60376380 60390216 60391452 60420677 60428366 60459059 60519531 60603373 60620134 60627643 60890012 60921840 60924980 60967622 61034498 61110523 61244277 61316781 61389298 61392403 61397503 61440919 61495217 61520101 61524480 61527647 61601158 61604169 61607546 61642795 61703020 61711188 61722460 61734273 61760861 61786211 61802450 61807304 61849961 61891148 61921940 61965011 61996002 62016491 62074206 62094754 62109365 62111684 62117485 62202749 62234960 62238177 62297221 62309306 62333305 62334064 62334368 62390961 62508528 62625318 62678792 62698353 62698781 62751688 62751904 62755971 62758643 62802200 62963222 62987721 63007575 63096054 63109397 63134417 63140750 63172799 63174015 63306185 63320781 63349550 63364206 63380179 63399720 63402501 63435890 63437674 63446102 63478063 63510253 63515640 63523445 63565669 63581659 63583780 63627519 63649610 63654551 63715154 63749697 63801917 63803364 63872729 63965054 64130160 64252885 64276922 64326070 64333379 64381210 64387821 64465383 64509523 64526981 64533662 64564558 64631820 64700434 64745709 64853551 64891774 64959706 64978298 65003571 65013778 65014491 65026653 65148960 65161026 65161121 65187760 65195660 65207043 65213689 65248117 65295895 65310434 65317418 65326201 65352845 65454454 65466132 65469334 65485138 65578753 65664476 65760025 65785816 65848766 65901135 65983083 66039489 66057090 66100389 66118461 66145588 66147455 66150744 66154269 66174126 66181586 66251354 66258490 66434401 66466652 66485072 66499944 66499964 66514859 66553844 66608025 66632176 66818516 66824580 66872584 66899771 66939283 66985971 67038234 67185609 67201922 67311343 67319872 67464842 67469833 67471118 67483478 67531455 67538533 67625821 67641645 67660413 67668722 67689551 67696072 67751112 67787595 67821634 67854350 67907728 67934664 67936607 67941898 67951032 67986134 68070890 68077003 68077227 68084100 68173142 68210537 68212013 68220535 68229434 68246150 68272503 68280500 68321303 68396350 68399667 68420507 68447701 68449684 68479093 68496523 68501272 68616502 68629569 68635350 68668367 68684253 68689460 68740938 68774483 68780616 68836555 68851954 68858479 68886180 68889499 68932815 68959416 69010562 69012406 69030884 69033999 69095396 69101607 69124881 69136241 69227096 69253561 69298129 69383023 69458386 69534092 69591220 69660011 69693845 69696017 69757116 69760573 69763698 69768066 69816526 69818985 69861648 69931249 69942721 69964155 69969992 69992234 70056917 70078576 70088554 70099737 70147036 70160189 70164600 70171158 70187514 70198534 70235852 70330045 70343319 70347018 70356732 70362883 70374069 70404148 70460621 70489075 70548293 70603130 70641156 70651271 70698132 70701766 70731411 70764970 70791609 70868716 70877920 70889299 70903056 70903521 70912301 71088963 71129802 71215459 71220617 71294968 71299814 71337028 71346743 71384751 71388158 71429819 71498081 71601929 71676099 71730959 71734117 71749531 71815447 71854968 71868222 71964856 71991792 72016762 72046554 72049033 72081939 72145129 72179450 72195103 72216686 72265357 72272633 72330499 72357528 72437910 72481698 72499830 72528171 72592054 72595394 72624053 72662728 72675455 72693004 72751769 72765895 72772223 72775021 72875002 72933091 73001553 73001913 73047417 73054172 73061367 73062339 73092800 73103720 73164349 73254189 73275707 73309460 73319987 73409363 73411069 73446287 73486505 73528237 73549403 73596050 73675428 73697402 73701192 73715182 73856094 73877799 73925820 73948654 73970971 73976290 73995471 74002358 74082931 74103846 74107591 74120006 74179027 74184226 74193159 74221807 74249038 74272044 74277620 74294122 74330830 74334702 74365307 74375002 74393103 74477446 74490949 74496886 74560719 74626465 74630277 74633071 74663075 74714160 74814791 74834689 74963192 74963716 74973314 75024442 75033352 75050045 75057304 75123531 75146238 75158264 75184752 75234130 75257254 75292252 75320439 75343065 75356208 75404651 75406286 75434123 75492761 75542936 75586336 75600237 75607064 75608233 75727152 75828856 75837173 75847079 75853532 75940864 75992352 76047491 76058626 76080073 76086712 76114409 76156334 76158411 76197491 76259578 76351939 76407469 76425146 76542011 76577982 76611430 76680741 76700096 76777690 76854843 76860308 76906997 76927996 76989837 77056547 77079099 77079356 77080720 77092642 77137653 77153054 77206509 77283458 77285152 77291720 77356514 77368500 77418158 77435876 77447103 77457995 77458143 77532336 77603010 77652930 77666453 77699681 77738697 77740267 77742952 77816635 77821393 77849323 77945682 77951136 77952655 78005262 78054532 78108904 78115925 78121704 78236220 78263559 78287510 78310131 78321662 78371006 78437879 78442454 78457568 78536064 78569670 78582392 78678330 78689610 78690440 78724762 78747628 78753006 78837369 78848690 78871490 78895306 78906386 78975151 78975930 79169537 79177864 79218145 79291571 79299077 79331595 79461324 79513561 79574432 79580416 79612864 79614977 79629957 79683305 79729915 79733307 79778930 79803735 79877671 79885738 79891285 79899470 79927249 79985671 79989427 80010556 80094325 80107925 80125689 80143460 80193740 80217519 80297598 80324847 80340679 80348661 80361872 80455602 80528108 80573612 80608164 80668413 80671251 80693451 80724084 80756401 80764786 80780867 80794823 80824456 80831215 80895847 80996457 81023729 81030370 81070226 81106766 81125354 81174678 81217754 81273634 81389085 81397383 81506943 81530111 81573971 81614168 81620007 81706280 81726839 81741743 81751518 81858375 81928901 81979308 81994820 82002922 82037513 82102777 82122218 82237520 82244396 82257876 82296786 82427525 82499558 82519320 82555956 82572135 82663693 82666334 82686200 82709833 82718095 82729763 82820181 82881396 82903164 82908654 82920648 82920865 82940353 82943163 82985166 83040783 83182649 83197206 83265159 83332479 83333554 83348560 83356264 83374862 83431067 83436138 83449906 83453786 83476786 83502263 83575582 83611220 83739350 83782452 83872999 83881194 83885761 83944908 83968504 84018770 84020981 84033021 84038333 84058802 84083540 84111381 84157842 84172507 84186446 84210206 84226325 84254749 84312975 84331549 84366591 84377945 84415039 84453233 84480092 84676150 84699791 84720479 84735717 84757222 84801531 84835463 84854093 84905416 84942462 84989934 85033268 85045790 85071343 85094951 85106097 85107238 85108265 85187383 85202647 85281744 85334786 85368185 85412844 85419491 85435647 85498731 85518575 85523117 85533372 85535617 85548029 85560722 85586414 85587629 85603502 85617263 85618287 85621915 85657759 85661264 85665505 85758914 85766502 85821109 85881480 85961292 85986244 85987468 86008311 86012183 86019871 86043528 86074674 86090317 86117536 86131184 86144361 86172877 86214815 86234400 86358605 86359323 86371872 86404620 86461060 86535719 86611455 86693674 86749792 86758543 86811581 86839531 86847125 86891239 86966115 87030989 87086246 87127107 87180683 87184980 87200076 87251320 87289393 87329239 87384614 87441004 87478252 87483210 87522934 87526544 87526909 87559730 87565243 87593661 87605364 87605725 87638493 87639095 87658673 87675147 87760295 87813011 87820373 87844278 87919621 87982438 87987295 88093448 88165056 88172374 88204141 88218567 88226264 88239857 88260920 88280195 88311216 88380107 88423705 88569041 88672026 88672844 88771197 88825728 88829867 88838429 88838718 88871333 88878344 88998016 89029822 89042269 89043092 89104911 89139696 89148674 89233842 89238300 89256460 89321339 89376597 89386218 89434456 89478201 89507154 89507764 89542784 89628080 89666199 89667097 89712751 89719943 89768358 89834046 89899721 89940720 90010778 90030361 90074768 90086135 90086237 90088882 90145053 90179862 90214965 90250545 90260236 90275762 90285731 90355631 90445995 90466112 90474440 90487318 90517967 90622222 90634091 90648979 90693760 90725875 90765611 90772615 90789637 90820188 90885527 90887793 90955102 90984003 91024267 91025387 91027662 91032356 91047083 91047173 91068198 91117920 91145045 91147847 91152818 91165737 91173040 91221920 91291017 91366514 91389124 91410767 91475907 91478518 91489674 91496928 91533203 91575110 91583873 91612240 91703736 91712598 91720633 91762274 91787569 91790014 91821806 91842261 91887163 91965590 91986487 92018098 92029218 92069284 92137563 92144930 92148443 92227130 92243824 92282458 92288412 92393539 92403991 92418416 92530479 92549084 92610298 92616213 92675571 92721556 92724423 92776134 92810162 92935951 92948981 93030234 93034646 93048196 93055083 93168020 93258189 93298646 93458341 93595460 93595641 93681300 93687728 93699757 93742071 93825621 93837209 93900519 93911224 93911462 93948731 93983466 93987403 94038377 94053652 94078721 94079980 94149811 94160435 94170758 94255906 94293399 94375584 94502204 94562138 94618780 94653976 94672523 94706298 94720043 94750555 94766557 94820209 94938433 94960184 95008852 95046098 95054244 95061464 95067793 95077862 95105338 95164782 95263444 95350425 95372515 95491010 95500278 95575224 95585420 95653324 95663249 95671932 95686950 95810221 95892537 95924611 95926914 95974866 95986120 96018622 96047172 96063587 96101846 96182805 96218528 96350387 96435665 96464741 96466289 96518659 96595969 96631088 96670594 96711865 96722565 96778342 96896772 96996510 96999662 97212843 97239616 97324164 97378307 97476401 97479002 97532993 97544124 97547401 97550663 97579724 97589815 97605193 97678700 97688083 97732873 97757458 97758685 97864388 97893514 97912434 97985242 98077020 98119840 98217539 98219378 98243119 98277717 98314437 98492100 98494581 98499630 98520588 98667030 98672622 98673967 98732203 98741955 98766682 98767162 98776598 98804094 98938905 98955164 98986241 99056296 99105248 99125854 99130064 99138938 99144199 99147242 99152623 99181044 99198482 99207562 99248855 99251558 99280647 99429322 99529133 99549396 99568467 99583034 99595763 99604832 99662307 99697485 99715874 99723099 99767847 99783621 99860811 99911918 99917951 99932790 99945510 99965989 99970934 99987163 100063932 100159767 100174371 100183887 100249536 100313588 100315380 100434686 100456605 100462077 100601948 100646710 100686073 100695971 100740452 100743284 100767183 100774032 100776931 100782199 100850605 100876920 100927448 100936322 100957901 101039935 101169970 101190706 101193582 101297639 101307712 101312962 101337779 101363766 101400478 101431472 101438687 101443122 101473160 101505519 101508880 101513051 101515597 101563838 101631588 101675864 101693047 101721567 101761570 101777243 101796332 101809431 101812918 101813597 101833732 101881249 101898015 101959948 102009218 102124702 102181132 102189565 102204787 102208675 102211823 102214890 102344132 102357833 102365036 102368542 102392836 102462664 102488856 102513715 102564206 102568251 102637809 102662304 102677729 102707777 102739612 102772164 102772431 102778635 102803902 102808060 102860805 102891369 102926483 102962367 103030477 103079124 103114334 103218204 103332307 103370453 103408959 103426811 103561456 103613002 103642859 103657607 103699294 103706576 103739642 103744004 103785442 103795975 103811021 103865164 103885156 103992985 104014832 104021626 104022079 104040004 104095160 104099743 104133282 104143781 104176979 104181181 104194651 104197034 104246432 104283066 104352972 104364751 104392510 104449254 104457016 104457447 104463298 104488434 104603435 104656350 104665884 104680607 104749430 104768362 104780755 104787406 104799746 104806778 104814553 104816697 104842046 104928296 104928637 104948123 104957984 105026807 105033269 105083862 105116089 105148634 105152788 105194191 105248362 105264493 105299253 105342219 105493040 105577407 105585937 105609774 105612929 105620123 105623976 105783323 105842084 105842322 105875371 105908918 105940704 105980826 106004810 106022889 106252441 106279036 106307152 106380678 106393093 106400279 106400282 106403490 106488427 106496303 106520740 106533346 106535375 106558277 106581421 106621988 106657322 106684678 106703622 106716093 106746985 106778632 106794333 106795539 106851503 106993930 106994340 107008111 107045312 107050768 107100153 107106041 107162424 107176336 107182161 107202434 107224325 107269677 107285869 107391354 107396655 107445017 107472232 107523003 107534799 107704509 107705094 107720556 107735338 107843103 107862026 107881615 107980096 108016622 108016977 108019818 108022622 108064868 108075118 108080971 108094836 108190242 108201881 108234144 108254561 108349993 108451232 108490141 108532357 108535761 108602138 108635108 108660303 108668435 108689901 108702358 108733362 108747585 108775298 108832908 108867599 108868495 108883216 108886004 108922397 108937303 108942259 108975129 108981638 108984529 109026784 109100225 109130059 109191684 109209829 109212271 109301610 109308000 109313024 109335105 109336044 109382328 109382909 109385058 109425689 109432119 109471178 109471446 109492976 109497492 109563060 109563783 109578220 109597570 109627435 109681183 109752741 109755219 109785520 109790035 109885753 109886220 110025424 110036971 110043135 110104614 110140434 110165682 110203307 110216695 110265893 110318729 110321916 110364536 110423402 110485935 110487841 110488475 110501331 110532167 110654192 110661079 110713569 110716266 110729579 110748261 110758997 110777402 110843612 110896855 110917377 110949152 111042665 111104929 111110345 111179199 111205132 111211074 111214967 111234929 111244509 111284243 111394162 111406875 111431449 111451929 111544103 111622468 111633069 111636488 111671637 111707186 111748840 111813361 111814821 111851914 111883780 111918921 111952114 112011007 112027557 112034954 112051627 112054400 112209804 112308488 112357213 112361375 112384176 112384326 112395893 112416728 112480673 112524230 112556952 112583734 112584660 112586347 112586720 112612424 112615002 112705332 112717482 112735461 112760186 112792438 112811630 112831033 112904405 112917487 112932580 112938732 112969156 113084679 113088516 113248210 113261337 113265717 113306810 113335913 113361045 113362041 113397195 113456172 113462963 113525987 113588144 113607288 113649516 113731906 113753138 113762165 113797819 113799040 113812026 113816488 113824214 113901526 113950239 114269561 114293150 114306138 114386855 114431241 114439289 114463666 114511621 114550967 114554340 114586652 114637091 114671258 114717405 114783302 114829719 114860980 114955712 114970194 114979947 114985226 114985811 115008973 115084463 115097999 115168889 115200797 115234426 115251729 115280215 115298982 115393019 115519137 115528507 115562451 115617317 115630401 115633773 115649439 115696345 115734267 115872480 115894169 115937993 115952069 116001889 116031515 116063285 116233543 116237389 116268792 116291261 116460744 116470541 116510496 116572287 116589194 116595693 116703387 116734216 116793011 116845555 116860082 116872046 116873194 116898624 116951064 116971477 116989478 117045834 117123314 117126288 117136832 117140509 117187983 117205403 117272512 117291563 117356129 117372573 117403798 117417753 117426388 117467632 117493148 117500202 117539967 117548285 117562362 117583948 117586140 117601432 117668990 117686055 117695087 117711783 117764388 117773792 117840877 117881080 117884054 117935839 117950307 117998820 118019380 118038732 118058944 118066539 118101364 118122226 118163017 118240797 118275438 118315676 118323023 118334421 118350391 118370774 118384143 118405766 118440978 118450732 118474871 118544676 118552241 118591584 118753349 118761699 118789057 118803160 118853999 118901867 118910361 118932102 118991624 119059948 119071282 119071634 119093848 119102364 119125561 119159079 119231965 119240482 119243588 119244254 119263067 119297516 119301172 119370204 119371260 119415072 119469748 119502085 119543076 119598031 119603760 119634150 119637315 119674391 119792761 119802486 119802510 119858359 119882119 119904988 119926042 119938801 119961545 119979997 119981666 119982413 120037289 120069121 120117082 120174997 120187493 120267911 120398201 120434041 120445080 120546238 120602216 120605503 120686306 120693229 120695469 120733329 120793912 120796513 120818259 120823507 120835384 120857531 120858782 120904471 120941734 120951213 121049295 121064297 121291262 121357710 121366298 121386294 121420666 121454754 121458319 121483229 121484125 121492987 121493406 121500021 121552118 121617638 121682142 121706212 121758760 121765355 121798949 121816674 121820940 121836111 121881696 121915303 121979275 121989525 122050344 122136009 122140680 122247003 122304967 122328857 122390537 122494240 122505793 122521627 122558832 122637302 122664904 122691621 122782845 122812234 122823201 122839851 122843075 122852386 122959642 123070988 123179524 123195984 123271010 123276711 123333516 123335659 123371758 123386226 123428029 123449298 123489624 123544933 123550483 123605719 123646265 123669480 123670625 123704086 123706104 123723789 123768771 123808590 123838953 123854567 123863889 123903168 123912734 123934205 123951750 124000200 124033534 124045613 124080445 124085579 124191920 124208792 124212094 124268548 124283279 124287914 124297325 124330168 124337621 124344216 124348302 124418179 124428186 124439063 124440459 124443288 124481400 124513662 124524862 124617594 124663109 124686295 124699985 124706786 124752271 124842725 124883571 124945932 124960193 124996762 124999428 125035415 125046811 125075371 125079037 125098457 125113912 125204987 125226766 125228513 125232448 125240030 125266756 125325284 125328455 125406848 125437623 125497938 125503634 125503668 125533914 125621923 125640021 125710013 125800227 125857591 125859367 125872968 125938000 125973438 126025191 126026365 126033533 126047350 126093358 126239655 126281837 126289985 126291687 126399380 126405129 126453233 126494468 126509631 126530021 126558503 126585712 126616431 126682818 126690984 126747312 126752056 126759684 126760900 126807739 126814995 126906715 126941300 127001530 127113222 127153487 127208903 127209950 127220787 127295830 127345063 127423539 127446364 127454187 127478364 127504207 127575795 127599476 127647903 127652614 127660643 127660791 127734445 127736738 127761836 127802566 127981297 127983855 128002431 128027820 128028417 128030445 128060566 128082164 128093289 128112861 128135757 128194483 128212759 128239245 128248853 128266827 128297541 128321016 128351790 128386906 128398698 128464830 128482949 128512679 128568095 128708775 128736895 128759528 128760412 128809732 128900443 128901485 128916602 128950425 128977846 128980375 129044977 129055144 129072754 129084954 129095944 129099297 129170778 129182916 129198009 129222380 129231990 129359903 129397485 129444146 129551185 129641001 129646461 129663878 129723365 129732514 129760269 129810521 129811246 129826307 129924505 129970135 129979150 130053749 130085924 130095483 130113657 130125839 130174174 130176951 130192562 130229679 130243892 130277627 130337886 130381125 130384039 130385351 130446544 130468336 130480227 130491674 130499612 130505871 130515651 130518134 130529203 130552212 130604036 130659151 130740673 130815647 130830931 130881765 130988362 131140512 131140837 131192138 131203748 131267156 131302471 131320916 131354955 131372677 131384077 131419820 131533603 131616495 131641944 131670396 131783604 131879358 131976255 131997216 132022594 132038559 132059360 132068846 132103186 132144069 132193099 132329149 132331621 132358907 132453607 132458420 132484305 132486929 132579128 132625234 132655464 132668639 132716443 132756845 132811591 132839288 132853889 132858731 132913864 132978690 133009048 133049229 133052121 133057520 133062976 133073481 133097686 133131331 133182106 133193568 133203039 133257592 133291278 133309954 133326471 133456785 133472248 133489717 133519125 133528723 133549893 133551756 133578558 133605333 133606506 133632381 133654214 133705597 133788163 133828994 133849460 133852678 133863456 133865699 133871213 133899000 133902397 133913324 133915696 133917941 133938337 133940869 133959966 134052895 134089953 134146266 134295808 134299168 134392177 134419133 134512110 134526726 134590098 134590216 134603200 134637033 134668725 134736589 134759026 134781057 134799283 134811174 134855489 134856620 134870448 134882311 134908749 134976142 135000217 135007641 135040639 135069338 135074258 135153077 135200487 135262026 135267755 135335264 135355402 135435954 135463847 135478661 135538252 135613315 135614481 135629816 135678813 135689847 135801862 135873947 135877051 135900401 135905112 135909332 135921396 135942187 136057371 136104139 136223522 136254502 136334076 136395183 136399482 136471761 136477229 136521137 136535511 136574217 136639737 136665868 136727106 136749183 136782931 136801946 136916955 136955321 136994538 137024225 137024428 137111824 137219248 137221777 137244766 137278963 137289740 137307219 137372145 137390124 137411247 137427601 137442572 137550635 137553956 137557323 137594734 137608073 137620629 137653855 137777638 137824167 137846675 137918983 137967672 137974202 137998161 138069758 138080067 138152324 138176285 138191065 138214630 138248469 138305386 138329193 138454274 138470842 138487152 138530671 138577634 138602721 138663264 138795712 139004994 139191868 139200172 139244933 139274320 139299346 139337005 139342497 139354848 139373802 139401822 139403303 139462753 139498157 139512496 139573383 139594707 139616774 139912954 139917181 139953033 140039327 140066085 140096077 140104339 140104972 140167294 140226574 140234492 140236101 140246576 140265139 140295505 140392166 140424469 140455843 140537635 140587784 140599440 140599716 140608728 140625914 140708083 140710521 140747865 140780287 140787602 140840399 140872465 140884483 140912508 140977224 140977893 141000849 141057521 141115754 141143837 141146919 141149876 141166348 141212222 141216439 141272456 141273644 141286796 141320370 141379846 141468019 141505813 141518150 141582158 141606293 141631780 141685203 141689334 141733445 141764119 141816416 141822005 141866298 141886759 141897152 141937426 141986693 142029171 142123007 142128078 142130465 142200429 142222283 142263613 142300357 142302475 142302710 142342293 142387748 142414491 142490118 142511557 142556006 142585410 142623019 142722135 142732341 142736377 142746099 142756573 142825077 142831144 142838907 142867753 142907993 142913641 142931951 142932276 142959523 142964475 142970025 142970892 143050740 143150923 143180441 143251748 143318370 143341274 143344467 143376588 143415551 143482440 143482536 143540540 143569055 143637872 143638620 143681047 143730624 143759075 143918613 143940504 143947797 144038357 144059222 144125844 144210205 144232938 144238732 144419073 144459432 144530335 144534596 144545052 144555242 144563644 144642853 144700064 144749832 144783922 144811561 144857769 145005227 145018108 145051441 145069929 145071011 145071072 145097254 145131461 145131586 145283402 145357741 145382486 145404799 145421264 145433539 145462770 145508243 145511044 145528502 145557360 145607867 145633282 145676591 145705321 145710329 145816711 145841942 145859632 145881584 145882981 145923791 145968039 145982846 146025626 146045367 146064636 146091929 146111935 146118077 146118572 146119539 146191378 146288866 146298600 146352234 146368989 146408792 146584320 146603302 146604879 146616803 146675372 146680953 146699082 146784518 146792430 146796166 146850839 146862711 146864290 146883615 146909596 146916909 146955553 146989594 147014771 147017439 147030289 147063096 147125169 147130796 147317428 147390278 147440867 147487394 147543071 147555021 147585749 147618858 147624818 147632365 147641439 147675764 147701143 147846012 147848439 147897919 147899003 147946542 147969561 148017526 148130920 148138080 148163819 148178008 148195056 148209466 148230379 148287396 148294094 148317642 148354896 148389487 148395007 148464985 148491730 148525595 148561505 148565753 148578642 148669149 148683252 148783574 148827592 148851393 148903015 148987488 148988664 149012814 149027328 149091433 149107778 149123013 149154999 149161013 149192919 149209937 149215650 149239179 149326640 149366859 149383573 149393985 149500433 149506525 149548704 149641785 149680312 149795998 149824003 149870386 149878794 149911762 149915387 149964195 149983982 149994539 150062703 150092431 150162793 150179076 150255894 150261690 150299744 150335797 150434158 150445441 150448522 150509470 150511195 150513548 150569181 150586075 150588770 150592408 150627299 150771067 150793857 150823710 150846893 150913901 150980825 151009352 151066872 151124005 151154197 151271018 151283131 151357290 151383334 151389131 151422880 151495883 151638018 151676027 151790519 151801881 151813554 151862127 151896134 151896462 151911402 151982787 152023025 152023178 152049127 152086434 152089562 152097183 152148042 152159241 152172670 152202687 152227461 152240266 152293668 152298891 152310540 152351447 152367552 152392524 152400799 152404004 152413827 152433373 152440617 152478378 152496624 152574600 152575279 152591456 152679348 152696219 152710899 152794259 152815610 152858334 152872603 152905553 152949201 152953210 152984278 153057592 153090513 153109508 153164867 153180083 153190797 153217175 153220431 153401584 153419476 153424564 153559487 153621572 153621622 153748028 153816941 153823150 153831300 153837149 153848366 153860534 153886154 153890737 153924882 153936184 153947101 153987298 153994405 154047396 154071845 154089077 154107518 154136640 154142153 154156763 154193301 154195841 154231626 154239805 154262816 154329702 154339705 154355849 154366513 154402615 154417580 154430402 154498477 154500942 154518227 154535183 154706173 154712714 154759173 154769746 154782491 154785749 154792465 154815931 154835517 154839431 154850302 154880230 154935005 154970610 154976141 155039815 155063188 155166855 155173968 155233410 155252439 155258884 155275613 155340105 155433753 155440906 155489023 155498074 155548287 155598307 155659171 155673973 155675821 155719163 155758488 155761181 155823153 155837350 155875348 155887176 155913814 155930239 155945387 156054488 156076274 156087762 156111656 156156063 156156961 156277981 156282500 156318939 156350392 156378898 156517616 156568143 156583083 156636169 156638404 156640606 156652364 156704037 156711123 156753242 156813911 156865769 156889168 156917359 156930845 156953240 157022420 157100806 157141263 157146407 157176908 157194116 157204984 157220661 157261535 157277454 157282540 157298236 157377656 157439974 157459496 157497537 157507220 157525216 157541897 157550271 157628532 157629067 157689120 157694772 157697295 157752707 157782877 157808100 157822552 157826379 157832540 157882449 157990073 158002511 158008555 158048294 158062314 158073706 158096229 158143909 158147128 158154910 158164498 158167200 158312396 158340627 158401207 158456161 158484127 158545539 158553886 158587004 158621317 158693345 158767914 158911825 159028009 159090453 159105534 159142355 159179675 159184470 159224764 159294544 159320293 159357362 159393494 159424924 159449985 159482616 159483371 159502144 159511676 159559276 159594980 159626071 159639948 159643553 159652628 159737518 159760108 159761737 159825822 159848710 159890281 159893889 159900998 159902376 159910967 159926554 159959871 159985400 160025436 160060552 160090146 160098318 160137169 160145474 160271972 160287480 160311599 160321706 160332798 160357659 160362103 160374318 160399443 160401663 160452616 160518404 160529083 160560478 160589904 160618164 160793451 160816981 160854386 160860390 160865178 160936488 161003379 161011627 161013731 161076687 161115573 161130216 161168227 161173290 161222475 161236857 161240623 161315085 161319880 161322875 161342602 161374721 161480505 161486183 161501031 161538765 161601013 161618965 161632936 161686166 161712039 161717988 161755092 161818938 161818984 161844060 161847911 161869329 161870664 161960187 161964597 161978302 161984331 161989413 162037922 162066731 162068123 162103737 162106412 162136070 162139872 162247907 162307827 162311452 162323141 162340091 162366834 162397476 162420774 162430735 162445465 162507141 162569220 162617023 162680089 162710344 162711996 162815553 162829634 162877063 163069160 163102715 163142474 163167188 163315000 163354576 163362880 163437908 163492935 163568685 163569175 163623067 163627425 163631306 163652669 163696362 163709293 163817167 163870363 163883346 163972745 164010380 164046808 164052447 164054251 164061574 164065465 164111608 164164994 164273195 164304209 164331480 164368903 164380871 164486172 164507201 164552435 164631489 164690864 164726005 164770747 164805429 164806613 164827787 164880133 164983523 164994805 165005847 165114864 165138318 165155237 165178109 165203029 165281609 165283094 165314763 165335014 165339896 165387910 165395803 165399750 165417408 165443961 165483307 165546773 165701037 165709285 165712761 165868563 165906634 165951876 166028143 166028375 166052569 166084763 166091767 166098181 166098437 166115396 166144505 166170160 166186801 166206034 166267331 166384932 166410265 166439380 166466414 166490194 166493584 166518029 166520473 166521943 166557702 166579074 166599330 166643772 166674460 166687417 166702893 166716795 166735191 166880299 166933584 166943189 166947707 166985180 167006062 167056662 167062740 167074984 167154571 167154740 167171865 167212462 167244765 167269503 167276406 167428707 167431748 167458579 167500390 167505272 167770568 167776148 167779624 167821559 167846455 167858012 167902167 167920259 168019955 168061980 168246582 168280953 168441617 168443649 168447566 168568476 168584213 168649567 168657686 168690194 168715494 168735690 168757039 168831194 169018597 169133649 169138441 169140153 169222962 169274515 169279886 169401797 169412880 169451013 169467317 169518581 169557353 169628305 169641376 169642011 169681973 169684229 169753514 169764095 169867463 169886981 169929162 169993516 170010229 170065348 170099436 170240578 170269270 170334414 170405588 170406583 170431586 170456940 170487659 170496502 170509150 170565106 170649322 170661411 170692825 170713269 170763879 170790647 170811602 170848193 170878171 170896074 170997800 171007991 171060446 171092984 171155391 171190855 171200490 171203049 171216884 171229346 171243430 171258566 171296269 171300979 171345194 171360688 171431160 171468027 171499851 171542506 171553459 171590857 171656652 171658844 171694855 171737890 171766370 171781006 171801077 171866107 171906555 171981574 172026211 172035433 172107217 172109887 172137805 172184304 172202252 172259874 172279100 172414579 172447507 172450920 172535790 172605951 172619903 172623385 172630534 172634976 172637190 172678415 172836778 172838840 172864102 172864273 172923580 172980433 173008193 173130020 173165165 173188033 173190187 173200990 173248724 173306381 173349058 173369589 173371255 173463480 173531728 173695149 173771767 173788872 173803238 173816242 173911005 173928772 173928985 173929820 173997517 174053718 174066828 174120931 174146824 174173550 174238428 174262174 174336586 174350587 174428855 174434384 174493170 174523984 174525934 174587890 174646407 174680001 174680540 174705438 174815193 174873304 174884807 174905172 174912544 174939986 174984317 174994669 175041377 175048095 175051227 175061801 175118404 175181097 175251011 175256266 175304201 175315491 175355176 175360096 175367566 175390017 175448439 175451611 175457138 175505041 175516351 175532924 175549169 175581301 175585924 175593548 175600183 175632580 175740303 175746111 175813545 175864997 175909298 175925062 175943151 175954218 175988793 176000186 176077515 176088169 176216065 176217773 176218214 176223754 176258210 176297473 176450299 176456402 176459177 176504653 176524996 176526979 176538269 176545884 176628447 176642000 176680821 176699913 176718704 176760052 176791058 176812132 176871441 176888658 176894032 176910147 176916239 177014178 177071133 177133501 177163903 177174413 177178530 177235119 177306309 177327091 177358374 177421219 177421419 177465635 177507082 177580170 177627126 177675270 177686874 177687135 177697370 177742681 177783439 177811097 177854836 177892719 177893635 177940477 177950750 178042147 178047571 178121238 178163331 178204319 178212625 178247025 178250367 178272772 178342465 178394832 178399911 178404250 178422512 178521643 178586379 178605730 178716802 178752189 178779057 178791173 178842560 178858093 178870606 178877675 178904601 178984984 178995106 179015623 179023642 179031920 179033242 179139027 179145120 179167894 179212842 179214723 179234092 179269183 179276057 179322166 179397484 179416931 179438508 179583135 179628423 179746301 179754545 179760988 179801006 179864587 179890788 179910039 179944980 179967932 180002010 180003410 180045888 180050948 180130586 180224100 180308316 180337125 180361253 180407466 180588119 180612755 180631362 180649989 180656162 180687253 180717585 180721891 180755715 180756536 180844559 180864594 180868656 180871507 180889507 180966536 180983993 180998728 181017023 181058683 181065798 181073759 181120843 181144601 181163254 181193422 181255066 181263383 181326846 181340969 181356127 181373506 181475062 181477954 181484695 181503016 181504914 181576661 181583578 181596218 181641236 181658705 181665054 181672488 181674563 181680353 181737305 181752537 181804915 181825256 181850243 181868310 181992054 182082388 182112004 182122752 182199485 182234076 182234984 182242756 182296399 182332213 182427660 182429589 182454606 182564074 182624585 182668835 182686873 182790101 182815356 182841653 182875850 182892804 182933420 182963102 183051718 183090498 183117529 183163008 183171169 183181055 183234666 183289333 183330544 183361638 183601792 183689423 183689718 183708740 183775752 183783947 183820039 183976111 183990334 184005155 184017469 184018066 184075479 184097719 184116936 184134512 184136131 184175610 184312499 184326103 184378178 184389760 184399144 184415342 184415758 184454947 184549106 184564311 184600125 184666675 184726618 184762634 184818102 184819814 184878503 184894530 184978802 185107385 185141333 185182697 185184534 185213400 185233241 185285337 185347937 185352125 185385932 185436410 185445092 185513275 185570551 185679007 185680942 185706151 185712492 185771484 185834039 185835579 185835997 185871599 185927295 185941864 185956622 185967654 185984329 186018352 186049006 186104704 186105949 186189955 186215667 186225238 186280153 186297782 186298783 186343903 186353493 186403310 186439453 186549236 186564249 186600259 186652505 186656350 186689689 186690268 186705131 186705446 186736907 186772719 186782644 186783212 186801805 186808595 186852704 186909143 186941447 186978998 186996204 187013688 187087232 187183218 187224705 187229877 187237298 187332149 187381967 187389998 187399986 187465189 187499370 187501704 187506009 187506916 187553297 187645238 187648128 187686898 187703691 187956063 187993730 188010406 188013668 188016618 188082314 188161355 188193838 188242515 188258391 188309082 188353752 188420937 188423511 188445156 188471371 188473858 188487861 188521487 188528108 188559632 188564289 188672098 188680941 188682199 188797750 188804548 188812771 188819395 188870043 188912204 188947194 188965296 189034607 189037785 189118468 189135730 189176635 189186359 189203158 189220407 189268344 189324488 189338583 189355257 189366652 189407482 189436783 189441213 189449342 189529618 189531950 189568730 189614265 189682074 189692233 189722345 189790067 189805183 189824218 189836795 189853928 189873156 189874325 189904649 189919182 189938841 189972635 190058754 190134966 190143449 190147986 190161966 190166555 190172169 190253975 190260169 190290840 190293011 190394272 190406117 190441940 190527215 190562818 190592151 190603506 190724714 190747006 190765709 190818912 190823057 190837518 190870733 190929958 190948344 190982537 191037661 191048899 191111421 191244681 191265327 191300058 191338299 191385455 191457603 191516127 191516513 191524016 191537096 191559263 191580833 191647718 191655236 191744318 191776968 191795768 191827385 191832929 191834338 191956992 191976820 191985982 192066003 192167815 192253990 192268644 192314865 192322400 192338191 192352394 192399174 192407669 192574642 192578752 192594426 192601411 192649791 192658499 192761333 192796945 192822173 192874320 193005929 193097649 193114523 193116909 193129342 193251190 193327883 193369885 193560670 193582484 193599307 193618872 193693724 193714507 193717135 193763962 193767250 193774004 193777089 193815580 193859836 193876119 193889755 193918726 194011401 194015316 194086630 194129526 194244100 194284585 194391822 194437905 194438385 194526158 194531128 194625358 194645327 194660331 194668117 194693569 194718524 194721294 194733235 194773462 194804143 194865067 194872945 194893655 194923638 194933180 194963541 194967502 194981767 195024169 195034804 195092451 195165662 195186415 195212567 195232441 195242936 195282785 195307413 195348987 195367918 195371048 195434338 195440045 195502721 195516665 195580883 195609345 195621517 195636753 195652405 195688585 195717711 195717783 195741406 195837279 195840346 195873056 195914815 195923220 195924865 196020204 196022235 196034314 196065360 196071302 196073350 196078568 196083556 196114068 196140441 196154385 196162784 196170604 196185604 196202588 196205473 196239754 196245871 196246603 196326658 196380917 196392076 196402385 196410928 196415460 196456931 196477160 196519123 196534474 196592388 196606192 196661503 196667204 196673554 196691732 196736329 196742962 196744837 196775614 196788055 196820870 196822922 196880778 196908708 196925011 196929772 196965983 197116254 197124871 197142955 197300554 197305043 197346328 197389914 197395881 197447105 197531403 197614289 197631346 197687183 197707736 197729188 197758919 197767179 197774014 197784853 197798618 197801238 197875317 197892016 197908673 197945950 197962920 197975039 197996209 198027691 198078874 198230279 198244253 198297065 198345959 198478794 198505927 198544875 198595962 198626871 198679086 198713747 198717340 198717721 198736060 198799029 198836971 198854426 198944736 198955416 198971258 199115044 199127309 199195954 199201381 199206246 199210106 199349957 199362433 199379268 199419351 199453678 199487708 199499700 199500679 199534457 199576091 199580337 199611703 199718954 199720369 199733849 199782145 199796601 199809350 199817245 199826479 199953687 200071314 200081190 200118184 200130016 200167916 200169559 200204770 200214561 200216243 200341861 200361826 200398155 200409554 200490053 200525256 200532491 200643480 200670862 200678064 200679957 200729405 200765586 200829588 200831334 200954261 201043260 201065250 201087034 201097127 201121083 201129105 201155034 201191141 201207310 201227081 201270321 201277028 201289963 201309700 201383581 201384615 201387503 201403903 201431633 201439632 201439912 201460924 201487087 201498449 201505988 201617778 201710886 201761969 201777104 201785308 201962219 201992717 202011892 202022607 202176146 202190215 202216055 202218214 202227782 202401068 202530358 202557114 202564682 202608743 202618355 202638989 202697694 202700382 202937414 202983191 203014885 203023472 203028227 203078739 203087848 203200816 203291238 203302079 203333229 203388940 203433469 203451919 203454156 203527086 203577119 203605910 203620075 203645255 203673272 203823865 203832624 203868550 203910055 203959546 203995959 204004516 204022033 204028255 204051255 204086531 204097156 204109135 204128289 204174132 204198160 204243688 204287041 204345741 204354640 204381469 204439362 204476964 204610852 204648289 204673686 204681067 204718348 204791509 204802030 204818715 204821544 204840769 204936793 205013960 205028579 205046784 205207787 205272232 205338693 205403352 205549554 205557116 205670192 205709539 205755252 205775955 205776240 205805542 205812193 205845431 205869617 205917408 205924990 205941540 205952159 205962916 205965654 206044314 206110125 206231504 206234438 206237414 206253887 206334602 206357117 206398697 206433104 206582810 206584118 206627106 206720486 206743889 206780998 206804619 206901888 206906156 206935668 206953401 206954455 206998735 207021511 207063832 207084220 207100574 207198529 207202870 207206736 207208331 207255895 207264933 207329619 207393570 207403418 207443863 207470063 207538145 207539252 207551352 207596431 207607144 207630914 207645799 207706693 207743184 207752123 207758863 207809772 207833165 207885333 207909172 207944918 207951930 207996778 208003270 208039856 208126402 208201131 208207514 208212714 208284590 208285432 208360061 208383716 208389041 208413228 208417516 208488095 208504762 208569782 208632261 208704879 208709977 208762928 208764124 208815696 208816070 208816731 208888586 208898123 208910593 208925479 208927801 208947662 209006808 209055683 209080894 209291875 209309595 209330987 209372770 209421707 209424412 209455689 209506411 209580825 209621991 209631824 209671215 209724968 209829646 209871382 209915059 209919644 209925829 209950385 209993288 210015255 210041997 210064964 210149264 210212955 210233626 210246282 210295773 210346157 210420508 210422570 210465647 210474749 210477911 210483007 210524405 210576808 210641451 210792911 210819783 210845475 210850541 210873406 210891985 210938697 210945763 210994834 211098614 211154230 211318840 211332782 211337744 211388408 211436274 211440675 211455222 211465835 211554258 211586176 211674951 211683606 211686726 211713513 211769837 211831789 211886984 211898218 212018493 212059706 212086942 212115487 212166247 212187667 212232190 212352172 212356687 212408535 212495243 212501511 212507679 212552459 212553374 212574371 212636383 212644657 212668575 212753608 212794306 212850469 212883598 212983503 213047195 213079841 213087373 213129939 213133787 213195878 213265864 213358304 213363785 213369166 213374841 213391943 213407461 213463984 213528849 213548243 213554050 213648772 213658434 213709757 213733403 213761785 213774396 213798383 213840422 213841132 213843051 213884086 213886067 213886089 213905980 213962981 213993651 214024609 214061900 214065043 214066934 214068337 214090814 214126970 214148401 214196159 214277836 214321019 214408354 214484074 214584663 214613058 214620700 214719612 214778994 214956199 214975633 215054410 215250994 215346933 215375185 215408427 215440105 215446417 215481708 215557826 215570322 215639057 215657956 215660876 215666550 215781157 215784590 215796803 215831735 215842626 215868980 215879345 215997962 216008653 216036587 216083287 216091597 216130727 216163421 216242408 216268824 216366128 216399005 216444025 216465630 216519219 216537501 216538054 216545085 216627002 216632883 216639243 216661512 216665162 216682445 216840048 216854930 216922370 216937540 216939209 216969653 216999512 217151462 217189763 217192182 217265523 217304675 217369372 217369721 217409338 217445075 217468658 217532864 217550565 217745726 217797633 217809643 217904260 217904449 217906698 217914277 218040301 218092694 218153597 218222528 218249475 218267995 218279867 218299109 218313747 218344273 218350593 218370751 218407108 218543546 218562042 218573389 218602025 218631079 218702630 218716165 218737799 218744556 218795667 218795878 218796342 218803755 218898943 218912654 218920845 218933474 218982872 218998730 219032454 219186963 219197936 219289562 219308740 219368057 219427739 219432103 219441508 219549576 219563743 219600420 219621037 219638210 219656615 219679440 219713953 219853711 219867113 219882684 219896577 219915049 219929480 219988574 220058366 220059300 220071090 220099898 220299385 220302736 220338863 220350575 220418219 220442057 220448303 220556966 220573740 220634553 220655128 220662682 220696488 220698336 220748951 220750024 220767764 220819444 220827812 220848111 220848584 220902307 220967831 220974736 221005765 221020054 221084374 221145426 221213123 221253456 221301533 221304759 221327357 221346771 221361609 221398805 221411547 221436535 221488712 221496285 221567341 221604787 221623553 221634593 221637822 221740562 221783278 221837508 221903700 221907772 221951800 221953254 221964009 222049493 222165973 222208006 222212339 222351426 222392468 222394599 222398127 222414429 222525254 222533140 222572526 222593271 222715672 222720687 222749764 222758292 222770257 222895479 222955083 222970692 222994634 223039341 223044028 223118042 223158562 223207224 223270451 223278088 223289896 223371016 223395878 223422930 223487643 223577748 223645463 223649771 223653558 223666059 223685177 223730123 223744647 223791016 223805567 223842274 223909262 223911449 223970792 224015174 224042461 224057809 224080115 224082075 224096768 224141898 224156637 224163834 224206949 224209776 224212774 224218398 224280894 224281923 224324223 224464860 224483052 224541636 224625411 224628869 224663884 224702188 224704127 224723040 224723514 224747459 224839852 224857429 224868501 224992224 225189427 225207649 225222798 225260210 225278389 225292182 225326781 225335747 225340427 225372619 225423482 225445439 225523264 225567590 225621373 225663836 225722543 225785608 225902162 225934613 225955001 225972336 226054029 226175039 226298391 226345446 226370781 226441939 226501220 226557333 226576887 226622434 226657998 226668683 226725650 226743479 226816570 226839119 226909837 227007479 227017306 227072467 227086163 227094446 227105026 227146946 227181586 227349789 227350181 227369733 227382739 227386540 227422627 227457708 227703157 227706340 227743229 227765301 227787312 227831104 227854217 227857558 227871945 227950289 227952223 227954721 227980160 228016780 228068383 228130778 228145963 228170209 228214560 228226082 228457968 228515654 228554380 228580583 228590887 228604336 228610306 228670120 228672582 228714369 228722653 228736287 228795227 228795946 228842001 228842254 228886814 228895584 228910637 228941246 228944518 229090715 229129494 229150617 229175615 229184561 229185482 229197259 229242831 229292340 229298471 229299177 229359317 229421023 229427875 229482977 229548319 229562498 229643234 229716895 229726072 229731290 229749788 229765051 229796422 229800416 229942534 229948936 230016802 230066937 230104031 230105775 230236274 230263053 230266562 230284601 230312541 230317155 230331573 230387887 230406546 230439855 230618048 230627417 230656295 230746435 230777025 230883875 230971339 231034186 231044298 231075936 231102694 231161228 231219165 231240928 231301881 231316539 231402644 231666843 231692778 231712190 231720291 231796696 232027580 232155702 232186012 232227573 232243470 232249948 232297052 232482834 232561401 232567570 232716979 232718904 232751238 232808629 232820531 232828792 232831867 232911965 232919925 232930210 232969347 232974253 232991480 232995249 233072291 233174434 233179758 233202145 233251517 233262012 233351102 233358459 233387871 233402951 233429634 233449979 233492258 233503381 233505415 233506289 233516866 233525979 233589092 233615882 233631246 233649183 233728167 233729154 233733868 233752339 233763190 233810203 233884303 233885765 233907888 234006550 234025444 234041381 234056262 234097314 234109337 234113793 234167800 234213833 234285625 234304665 234317438 234341793 234434872 234457004 234480784 234507396 234520836 234595837 234597756 234691442 234761045 234785540 234793722 234836179 234902728 234915516 234927081 234960833 234960837 234968852 234970745 234975282 235045504 235073093 235074238 235084624 235104500 235123425 235194415 235209342 235251589 235277292 235382589 235394387 235409510 235519830 235531368 235634563 235671588 235674133 235725285 235755746 235768710 235816226 235818539 235820574 235851983 235891847 235903059 235907594 235958666 236012151 236049695 236108142 236109633 236172360 236270521 236277364 236360360 236411580 236419975 236596797 236621217 236637720 236685068 236732407 236755983 236780017 236953779 237010342 237024070 237047362 237112990 237216424 237250709 237289043 237294557 237296722 237454583 237480666 237524145 237560488 237643175 237650194 237659815 237673579 237675892 237793596 237834459 237844745 237875978 237919641 237939888 237995949 238035037 238046087 238054447 238185346 238200829 238214184 238217909 238224379 238245124 238251475 238263625 238283649 238290139 238290248 238301821 238435917 238441559 238476225 238483483 238551773 238563561 238568996 238577089 238619648 238621219 238628045 238636977 238652986 238655248 238709717 238713198 238732064 238734487 238758123 238805225 238888259 238908052 238952371 239005437 239084194 239154369 239160501 239209255 239215684 239238273 239286526 239330180 239335378 239361366 239367895 239409405 239480276 239483141 239484211 239501489 239528774 239532821 239586551 239598617 239602313 239619075 239636310 239643568 239672012 239676911 239745157 239764308 239801917 239814457 239880956 239891557 239929105 239973012 239978813 239985004 240001077 240027499 240076128 240120857 240154002 240179258 240218231 240259312 240304099 240320941 240433759 240469508 240474803 240512548 240550322 240576839 240581656 240652617 240734583 240759576 240778446 240813064 240946972 240973067 240981889 241037102 241057303 241069373 241085718 241086886 241110466 241151365 241162306 241174965 241180042 241191610 241280255 241314623 241381420 241416048 241424783 241433547 241466957 241508659 241530840 241590532 241610537 241636074 241724173 241918011 241919571 242025969 242044658 242104485 242105986 242130445 242145187 242148004 242206882 242223409 242235245 242318761 242400849 242437537 242454710 242467193 242474619 242507039 242544270 242649616 242668781 242708430 242732838 242740140 242740227 242802525 242805842 242806514 242886366 242902653 242951614 242951961 242960198 243029583 243077893 243121550 243157904 243202934 243231680 243239683 243332507 243337182 243419818 243505436 243508239 243540876 243543658 243660148 243739326 243771957 243854862 243948455 244015102 244041332 244075007 244086691 244091295 244098544 244164316 244166358 244190291 244214157 244248051 244255442 244281277 244293064 244322425 244336656 244373645 244516377 244534505 244553285 244566345 244579055 244608791 244650629 244673883 244753062 244842702 244848190 244865679 245001096 245035955 245036458 245055437 245059396 245061564 245071659 245104001 245159846 245210068 245213305 245217502 245293638 245313954 245327969 245375215 245475972 245584984 245619161 245625334 245741612 245835741 245876620 245956175 246063522 246111505 246154031 246211536 246236580 246268494 246305051 246307704 246351327 246353035 246392702 246410456 246492196 246494798 246578991 246634792 246635297 246719687 246720598 246736455 246775362 246812336 246823022 246834294 246885544 246890780 247027510 247134636 247171090 247196460 247217500 247273071 247289656 247365198 247437737 247464797 247535591 247575500 247605206 247817701 247855594 247859520 247876697 247899404 247960871 248076521 248089591 248178761 248237994 248302485 248314181 248429002 248431021 248445388 248447933 248456052 248474796 248539199 248548955 248587180 248587235 248623402 248648763 248657070 248793090 248820903 248825155 248901703 248926293 248964351 248994796 249027196 249047909 249080689 249117423 249134387 249136737 249161992 249166895 249171072 249177073 249202177 249258902 249388493 249402598 249419727 249549927 249562925 249571591 249631118 249665144 249670853 249671039 249686531 249808842 249854650 249892931 249900421 249905066 249910220 249917122 249928650 249990138 250035179 250040009 250066768 250080329 250132335 250137314 250173482 250178569 250217606 250256716 250288922 250318111 250348053 250384750 250402003 250463127 250510229 250534646 250540778 250557720 250673277 250675588 250755329 250771301 250852970 250901860 250983653 251005201 251010745 251045471 251086383 251136676 251147661 251206579 251299200 251344872 251357173 251395123 251436730 251447234 251553147 251602717 251764287 251859786 252008889 252162385 252169994 252208991 252294477 252350692 252361232 252370905 252372942 252377431 252387767 252410902 252452782 252474037 252474186 252498158 252565194 252644792 252686619 252764549 252775312 252788664 252789131 252796601 252798808 252904731 252911191 252921682 252924299 252926639 252964515 252974314 252974537 252997126 253085127 253170384 253195910 253260683 253360290 253377643 253424530 253529068 253589291 253594564 253671105 253714894 253748886 253788744 253835619 253896283 253901253 253907419 253935291 253938462 253968520 253984839 253994725 254070543 254136825 254138072 254172545 254208576 254293519 254320462 254340477 254420338 254425325 254540331 254578230 254607798 254615505 254623600 254731679 254752732 254776008 254780563 254800947 254857882 254862648 254887475 254925318 254925435 254934124 254944266 255037989 255039836 255048317 255099391 255120578 255151107 255225011 255268926 255290506 255361161 255401332 255479460 255506176 255506323 255526768 255536213 255591966 255592844 255603695 255642634 255652042 255712962 255739133 255758295 255798327 255803747 255834281 255885377 255973084 256010730 256027366 256044337 256052973 256109581 256113524 256120875 256134111 256185673 256260212 256275644 256285429 256302092 256330325 256343567 256401390 256434019 256462103 256464986 256493508 256497456 256498021 256524405 256595482 256634194 256634824 256690071 256712004 256822332 256870721 256882701 256887633 256920154 256935393 256984709 257151364 257170883 257181068 257192561 257271217 257312738 257320216 257353680 257357410 257373245 257375392 257404129 257439560 257463866 257510020 257555195 257564445 257612365 257620835 257664803 257760872 257813190 257853386 257866932 257894618 257895905 257907804 257908884 257910198 257910533 257978031 258030448 258038657 258088393 258142324 258162344 258184489 258249679 258279671 258281487 258286054 258363970 258401266 258408316 258419768 258642155 258692411 258803995 258836040 258876471 258881403 258905321 258913604 258964498 259012592 259026992 259036326 259061760 259139648 259292311 259307828 259358704 259532389 259540410 259647377 259689848 259717505 259801798 259815046 259823246 259841282 259863117 259916104 259929905 259965408 259966069 259984718 260011624 260029480 260044070 260056275 260057577 260073774 260080501 260133989 260134053 260149279 260171529 260186574 260217009 260250971 260269739 260417710 260433351 260481970 260544353 260569680 260587735 260590886 260649961 260650386 260815552 260852707 260972674 261067746 261136599 261153553 261177761 261234211 261323948 261333337 261388576 261403188 261406650 261433286 261437353 261446830 261458612 261562391 261585717 261669331 261706646 261730505 261766289 261851909 261856038 261878285 261924039 261989530 262032047 262080874 262121143 262216723 262219015 262397034 262419175 262468500 262475725 262510910 262584781 262595272 262607705 262608895 262641617 262707222 262713078 262759652 262828066 262859796 262870332 262887304 262948957 262961191 262964710 262991668 263006071 263059256 263059332 263091614 263180301 263215227 263291198 263299184 263480754 263485430 263555339 263562628 263571474 263635219 263675485 263694776 263694991 263920286 263948268 263998636 264039676 264100074 264176164 264176685 264286178 264355643 264382149 264385785 264478118 264531498 264535372 264536890 264614764 264636839 264677509 264701922 264736659 264790617 264796337 264798519 264825940 264868431 264870919 264934975 265015541 265059476 265104480 265117622 265147661 265176631 265183784 265261883 265285778 265293136 265299824 265313195 265353140 265356489 265383469 265423577 265438228 265452695 265471731 265475172 265497909 265504512 265521437 265540982 265570566 265642991 265649644 265662890 265671572 265676329 265727781 265749018 265791878 265797971 265825296 265831990 265844123 265880175 265944073 265949369 265953581 265976663 266007188 266016618 266023769 266049910 266094574 266120532 266164433 266180395 266182722 266214683 266271843 266382844 266454791 266563052 266583255 266608761 266609345 266623153 266630252 266647430 266657049 266718307 266740842 266761908 266770542 266777417 266789124 266799441 266810932 266820222 266863593 266902851 266935481 266967028 266969473 266989778 267045318 267090883 267125994 267159575 267218664 267218824 267219400 267237926 267259747 267261967 267284980 267299155 267335092 267336460 267410431 267424324 267452352 267511239 267573839 267672224 267735946 267823221 267873151 267947057 267982490 268014977 268017944 268092934 268126996 268128264 268149314 268182317 268211064 268249488 268291384 268317823 268351327 268423597 268435058 268449688 268477265 268517156 268580361 268594215 268707721 268730647 268786878 268824615 268837486 268853749 268873796 268906660 268950365 268978678 268982151 269062758 269079493 269086501 269091772 269170067 269269398 269298149 269396358 269437165 269517043 269525779 269589031 269647392 269658609 269662214 269677804 269698964 269708918 269769690 269790073 269822303 269845446 269869639 269879886 269885417 269897880 269936995 270047995 270108420 270153883 270166213 270178006 270208964 270216405 270254291 270282468 270330741 270351843 270355683 270369253 270379109 270417634 270532921 270553371 270566374 270635522 270644736 270686223 270718719 270757008 270844559 270852096 270901810 270902325 270915005 270973586 270979334 271025510 271030824 271090418 271138496 271152767 271167278 271175431 271189222 271245360 271285886 271299294 271326715 271335246 271399565 271413123 271484196 271488427 271513743 271527709 271531534 271609949 271677508 271766792 271812228 271969668 272008864 272029940 272089205 272114774 272174449 272250811 272276046 272284445 272295987 272305828 272363764 272393520 272399534 272407262 272450318 272474404 272517676 272684905 272725299 272734813 272740678 272788568 272801193 272823929 272832763 272844424 272905919 272910296 272911731 272999673 273035252 273067241 273070494 273108234 273122612 273125954 273145960 273192888 273222411 273238354 273268362 273356287 273398003 273407827 273409615 273451449 273461245 273468001 273582606 273647289 273671909 273681655 273720394 273727895 273728750 273868383 273935698 273987508 273993163 274019754 274097500 274105305 274115811 274149209 274150660 274152511 274229382 274239407 274269427 274281349 274323906 274345178 274367383 274379834 274381558 274480769 274487049 274490904 274544715 274640608 274641942 274651422 274656936 274679574 274717460 274734375 274754119 274809467 274835879 274915334 274928157 274949455 274973394 275054758 275087215 275092987 275120996 275165797 275378838 275471218 275501629 275528134 275533359 275538314 275652126 275668960 275677500 275683079 275725879 275777787 275792353 275826560 275839054 275840011 275850288 275884223 275952351 275954962 275987809 275989884 276026808 276081617 276169610 276170795 276175309 276208875 276333249 276336459 276342870 276350443 276354738 276355807 276361287 276375092 276428601 276430929 276434801 276440552 276446124 276522296 276633671 276771560 276772485 276800581 276808722 276830830 276846091 276865356 276889922 276927380 276950809 277073490 277079895 277128844 277200203 277204782 277241013 277241690 277262810 277280839 277330238 277404890 277476326 277537643 277557072 277564091 277586454 277590712 277599172 277653937 277661555 277794796 277805096 277818587 277827872 277833972 277834672 277848093 277863108 277888709 277899128 277946908 277953620 277961683 278073361 278077341 278090832 278100258 278118690 278121783 278123916 278143206 278171046 278224528 278237391 278259479 278265836 278313018 278365135 278405246 278496698 278523141 278584442 278595382 278611239 278668792 278736079 278747308 278780793 278781590 278817266 278897253 278956467 278958315 279055031 279059504 279108780 279124613 279160030 279194923 279226085 279245691 279280293 279282930 279315866 279367159 279387978 279389972 279557201 279562923 279571557 279581315 279601154 279622637 279700537 279720737 279725083 279814538 279880794 279968080 280014908 280086656 280130074 280135949 280222177 280237724 280287959 280322567 280327379 280346555 280425583 280433972 280463355 280499976 280549382 280549768 280642883 280658604 280665857 280714950 280727298 280803462 280804148 280815396 280832524 280849025 280875825 280949276 280961437 280996993 281010758 281018927 281043571 281058762 281096116 281153890 281160532 281174203 281190599 281209721 281222457 281223938 281234680 281287890 281292924 281308885 281320540 281353418 281377430 281436878 281460476 281491990 281592878 281698500 281718822 281724824 281760973 281784359 281787455 281797713 281820515 281887693 281908445 281914338 281934396 281954003 281964853 281974253 281979456 281981953 281991153 282057945 282138872 282138994 282177533 282184742 282264953 282279360 282332036 282337506 282352406 282375666 282469798 282544984 282551572 282555587 282633360 282660521 282673297 282687287 282714333 282720800 282788981 282803735 282804124 282826972 282882812 282892807 282910908 282945869 282968876 282969662 283078126 283106400 283132271 283219199 283275914 283326082 283344465 283496300 283496875 283617986 283619975 283632887 283652148 283717907 283723842 283776972 283818721 283854418 283857961 283936012 283947143 283950414 283996427 283997413 284055239 284063557 284156716 284170686 284176478 284286857 284383496 284449876 284505771 284578912 284742672 284762022 284867321 284914107 284914801 284933354 284943597 285062477 285098868 285124640 285141117 285157945 285312018 285329641 285382301 285406501 285416966 285473454 285511357 285517217 285604552 285610675 285632591 285642750 285659751 285664683 285675389 285735291 285752904 285866862 285951190 285964610 285999518 286000055 286002186 286053321 286067664 286130337 286180404 286199596 286203948 286213453 286230989 286281440 286466201 286500120 286521016 286525042 286653727 286774147 286797540 286797969 286835969 286855096 286866233 286876103 287003429 287075813 287093018 287110329 287301027 287311051 287312261 287320878 287354357 287374707 287434203 287463955 287471682 287502232 287551940 287565145 287679044 287728063 287736974 287737413 287771994 287793415 287801257 287802485 287935483 287967699 287989834 288017580 288032121 288057200 288146199 288150335 288153796 288246868 288284158 288374295 288386893 288432864 288443249 288462338 288484542 288487518 288512574 288529681 288549604 288673758 288689121 288704868 288768726 288889074 288991711 289062039 289063588 289076735 289221139 289243890 289283789 289303536 289316525 289325166 289353503 289417381 289505156 289564142 289564284 289595243 289632497 289693549 289696708 289732093 289792154 289799124 289934831 289937506 289963420 289988626 290000314 290006439 290046377 290154283 290167674 290191540 290207415 290235605 290238658 290251701 290318731 290330564 290344073 290355350 290357800 290365532 290374163 290405381 290444448 290450655 290567891 290598614 290632457 290641867 290705703 290721021 290831781 290875512 290881211 290882431 290886701 290920245 290985582 291003159 291005011 291087476 291100914 291118287 291132485 291207969 291244060 291439712 291439988 291468236 291550859 291552112 291633745 291695532 291741758 291769729 291788336 291803238 291861963 291910857 291914846 291944898 291983833 291989049 292027133 292044884 292067197 292134162 292183046 292202163 292250654 292349123 292374398 292385292 292431876 292445294 292494230 292556544 292585360 292587838 292591040 292675755 292803471 292805129 292881703 292912875 292970179 293004167 293137161 293145135 293241274 293259022 293259617 293290776 293305977 293321654 293348478 293381671 293389530 293426348 293444694 293493800 293496769 293527032 293602174 293612422 293636273 293694493 293750683 293780690 293808287 293820701 293899734 293907817 293944349 293958977 294045014 294142458 294150583 294210457 294221784 294342432 294379575 294402337 294411038 294427764 294439730 294442966 294449109 294530750 294543904 294565288 294600653 294609827 294668189 294736889 294780184 294781905 294841225 294861860 294889644 294952939 294968882 294977348 295034956 295047157 295113306 295120858 295175363 295215502 295239430 295269849 295292602 295361813 295416031 295434567 295468105 295505535 295590215 295595587 295626998 295641894 295761076 295764654 295827786 295849784 295867570 295959662 295962603 296027214 296053390 296055745 296066996 296092066 296098179 296142359 296205478 296259831 296308601 296308887 296333306 296360596 296381152 296429210 296448717 296561212 296571687 296650774 296722587 296772763 296787326 296860358 296880293 296967293 297010739 297038989 297061455 297121938 297129620 297139513 297142135 297182772 297285967 297382466 297410023 297443602 297564978 297582510 297630357 297640373 297670079 297804446 297886800 297942105 297964755 297965078 297987789 297992943 298019393 298046211 298139344 298156413 298260393 298267201 298360669 298376121 298501591 298536904 298648697 298658279 298711700 298735543 298781347 298808861 298835422 298836399 298838408 298858878 298897624 298909880 298971221 298972733 298997277 299047222 299131597 299159761 299190052 299225023 299295817 299333778 299345128 299379691 299396576 299405372 299417083 299420199 299430418 299446256 299457237 299461363 299519875 299520967 299542127 299549025 299555861 299625282 299661376 299685140 299689273 299713961 299724055 299742244 299744205 299752084 299783180 299792373 299810871 299830084 299843913 299871136 299917712 299935846 299984928 299992305 300119516 300122760 300156796 300188679 300202453 300214933 300217667 300223862 300261060 300378920 300413645 300449137 300589877 300601300 300608596 300630484 300636155 300695100 300712191 300749415 300791423 300847496 300857583 300860402 301129088 301170446 301181924 301244757 301258535 301276149 301295770 301299144 301340496 301408765 301420518 301422180 301429419 301453683 301503813 301526645 301564189 301582044 301616238 301677305 301770283 301872647 301966262 301996991 302031827 302043703 302059423 302085317 302094059 302139385 302177263 302180069 302222016 302241378 302252335 302297788 302301123 302313895 302352641 302456045 302476209 302529048 302561383 302616216 302754488 302771626 302806122 302869911 302890183 302924602 302963731 302979899 302980240 302987132 303002064 303178601 303184051 303242572 303285745 303304140 303321500 303346673 303425353 303462209 303601156 303672559 303775788 303775856 303847808 303925860 303977149 304056088 304062941 304136470 304159101 304190479 304233878 304359516 304464787 304483244 304567220 304590036 304608292 304639685 304643851 304739315 304749392 304782300 304840908 304883768 304917575 304921151 304948287 304950000 305012725 305029156 305034169 305168811 305212124 305252715 305267640 305291373 305329042 305457505 305468254 305490514 305537604 305631785 305652748 305652942 305664259 305669086 305749198 305766629 305812498 305815787 305823261 305875730 305878654 305912257 305968052 305970137 305979274 306018301 306021477 306065564 306079911 306128729 306149034 306160677 306186417 306219355 306282431 306358821 306406570 306413911 306458327 306509596 306530001 306535946 306548422 306551968 306571743 306586444 306604146 306632234 306646862 306647134 306716732 306796779 306797150 306827190 306887670 306952293 306975209 307065581 307080137 307089655 307196190 307228805 307286584 307291597 307293805 307342633 307345049 307358918 307395360 307436961 307447073 307450202 307451867 307543529 307620373 307697414 307716705 307730531 307766309 307769101 307793004 307800681 307803010 307810297 307824376 307855284 307855764 307865051 307890388 307913000 307963603 307968761 307982791 308009731 308035262 308077724 308167159 308218160 308274283 308366089 308385869 308421885 308427985 308459883 308470740 308482222 308487815 308533825 308585891 308588110 308637086 308655073 308664992 308783050 308795066 308838872 308851722 308897740 308949131 308965474 308966182 308966680 308980541 309034356 309096476 309118229 309138239 309152640 309226731 309235828 309264567 309276150 309307649 309465308 309536667 309543561 309554306 309575180 309605976 309635759 309649932 309654382 309682786 309692058 309921317 309932088 309937132 309941295 309962732 310041062 310044100 310065554 310166898 310175000 310251984 310276050 310392076 310395407 310443643 310496872 310514326 310523673 310533463 310664970 310706555 310759144 310776208 310778556 310840007 310864432 310915221 310921006 310935134 310983660 311029322 311031826 311056001 311056963 311057201 311105696 311195800 311209404 311214799 311264621 311281829 311326189 311340176 311365498 311378255 311397108 311475686 311486290 311494303 311515210 311556004 311573864 311629991 311639403 311706432 311741492 311776987 311808757 311813885 311853964 311897543 311906059 311914683 312001907 312021083 312028698 312038551 312158388 312173501 312365359 312387880 312527660 312651713 312688776 312710737 312733738 312735994 312742809 312766630 312852304 312854952 312901031 312926471 313019728 313026669 313089423 313129437 313159879 313248836 313258084 313380448 313389143 313402253 313408707 313433224 313443396 313463500 313473247 313489550 313494694 313518675 313534246 313575328 313639638 313658161 313665509 313695479 313700230 313719042 313723027 313757342 313762005 313767128 313786766 313805813 313828669 313840187 313845019 313984553 314042469 314068392 314117560 314241883 314251234 314362851 314391303 314445950 314467113 314472999 314502600 314559875 314579209 314602385 314609784 314613646 314627156 314665014 314746610 314803053 314827887 314893512 314914471 314980369 315013097 315049852 315060246 315098118 315102136 315255425 315301070 315326396 315332898 315374228 315386929 315406235 315410793 315426832 315447560 315540382 315578549 315589858 315630546 315641740 315722153 315746158 315780979 315857173 315867219 315928150 315968706 315996737 316089668 316105500 316181860 316272576 316341040 316377644 316474695 316511635 316531004 316872743 316874479 316925780 316963890 316980411 317003790 317081877 317133613 317137116 317165800 317172034 317222292 317240117 317290456 317306360 317333846 317340042 317340987 317377577 317413306 317424695 317442077 317459213 317467980 317495306 317514899 317533242 317612318 317635703 317674644 317691522 317724057 317801299 317801993 317831016 317843767 317901470 317906326 317911895 317912806 317922894 317931998 317961627 317964630 317998655 318025274 318032660 318044399 318091153 318092915 318096072 318098258 318098906 318101356 318108848 318183558 318183894 318196287 318205820 318225727 318233588 318266437 318288886 318308775 318488213 318490629 318500150 318548287 318599154 318604559 318622790 318647344 318675922 318741880 318745089 318753958 318766423 318809458 318811233 318840258 318882818 318958190 318975245 319016306 319019349 319039089 319091883 319165842 319242979 319245068 319303046 319310581 319347049 319393135 319456364 319478333 319481929 319577236 319617691 319779064 319798798 319809029 319859459 319867646 319892389 319908411 319970647 320011882 320019909 320024393 320054641 320080750 320108276 320175368 320209315 320233172 320272756 320377092 320440771 320485547 320586756 320602399 320665487 320674551 320676712 320720045 320812163 320813475 320864414 320905155 320914873 321072062 321126226 321128384 321223114 321236561 321250746 321267680 321293006 321363747 321376715 321387830 321445995 321449542 321460023 321487799 321614808 321652534 321786532 321868366 321870948 321918923 321954992 322002520 322054816 322067480 322096910 322117636 322138756 322194165 322267593 322280950 322307361 322378587 322411570 322430932 322432236 322532414 322538984 322576950 322579424 322781374 322789332 322877651 322932106 322937795 323072413 323136647 323159502 323228407 323263713 323266041 323274819 323315890 323325699 323332369 323429825 323549506 323602876 323610185 323627381 323642067 323775017 323812520 323832650 323837373 323883571 323890166 323893756 323923434 324001603 324010897 324051414 324075617 324088137 324143094 324190332 324202617 324251442 324254409 324257894 324275813 324276026 324280994 324341748 324354191 324411053 324463118 324491384 324511588 324521300 324595302 324661588 324714918 324717334 324777963 324874304 324876409 325019108 325049042 325097803 325109433 325127523 325129536 325135443 325188984 325200817 325372855 325381768 325385769 325391502 325401440 325487136 325571885 325576763 325742741 325753400 325757899 325805770 325833246 325892914 325899090 325933201 325935656 325945050 326061134 326072125 326129487 326187808 326225793 326257706 326309249 326435050 326494620 326506539 326577840 326584905 326603075 326609818 326637511 326677237 326710117 326752375 326883453 326884518 326891931 326914484 326932579 326980425 327045399 327048706 327080011 327083955 327102063 327107297 327255684 327269208 327291208 327303457 327340590 327355090 327384060 327389898 327399455 327402051 327426543 327455968 327461617 327464940 327497723 327629039 327660269 327663561 327684561 327692883 327714432 327734650 327825320 327908471 327920865 327941433 327993232 328075278 328102928 328135887 328153577 328244734 328246147 328251674 328253136 328296100 328309184 328472602 328505988 328569515 328702058 328711581 328798600 328799803 328840098 328919336 328967594 328987642 328989906 329030571 329099431 329200589 329208809 329289353 329293750 329300463 329340974 329395559 329407156 329496717 329503952 329535614 329542239 329586523 329599671 329670054 329683306 329704454 329755788 329781007 329832392 330019935 330021947 330038330 330095420 330118286 330268644 330304765 330435536 330473598 330498488 330498932 330524710 330544621 330572880 330585395 330663704 330682704 330682846 330707987 330765576 330781309 330790559 330793391 330821895 330852837 330924803 330953287 330983032 331077103 331146014 331175913 331208460 331317213 331344497 331346378 331357363 331398154 331438424 331451079 331467703 331468168 331674514 331678445 331682036 331683608 331724621 331743958 331846077 331910127 331950806 331956524 332064745 332125491 332245999 332254589 332349931 332383228 332405523 332436630 332440415 332476406 332488973 332492749 332493169 332524970 332535927 332709618 332732307 332812945 332881331 332949860 332978087 333123220 333131280 333148759 333154563 333196651 333256766 333260285 333268524 333299510 333301934 333314029 333454928 333464156 333503386 333526898 333536102 333645609 333760920 333837847 333974198 334012443 334086944 334205160 334214267 334376274 334393942 334402163 334458408 334528396 334647142 334721363 334725550 334758281 334815670 334823523 334837382 334878312 334956743 334990134 335028114 335074932 335105080 335142587 335155910 335157051 335200903 335269397 335285590 335294714 335365704 335369267 335406519 335513631 335522784 335527487 335539644 335549690 335566115 335752861 335834110 335837514 335869633 335941272 335995220 336001290 336010902 336020560 336094820 336115073 336163103 336175454 336199484 336209278 336262267 336288819 336297651 336333998 336394179 336402318 336410497 336441382 336496980 336525683 336535276 336539421 336546553 336552934 336623346 336772540 336793621 336835201 336841466 336963564 337002424 337033763 337082390 337084742 337159293 337210390 337213275 337261297 337282320 337287458 337303905 337326946 337340989 337343233 337419063 337468830 337538179 337675178 337689351 337730692 337761117 337768750 337944074 337962189 338011848 338016177 338056617 338116529 338170719 338180202 338205219 338230260 338237088 338275452 338366108 338452845 338469438 338510641 338519611 338549605 338552295 338553192 338563418 338563688 338566997 338626178 338651719 338656873 338696113 338711186 338718066 338761743 338865485 338935301 339017874 339038924 339098916 339130897 339189647 339209748 339210142 339234574 339320154 339324724 339369529 339509661 339545528 339550659 339705523 339710325 339737171 339756852 339793030 339793161 339809794 339844344 339895137 339957162 339959010 340052719 340081564 340086428 340095832 340121531 340137021 340144906 340145480 340184527 340185437 340188251 340190408 340309302 340341750 340357609 340474410 340584908 340618621 340702346 340710949 340757376 340799246 340825699 340850934 340918394 340925327 341015623 341049908 341057623 341069340 341083737 341103152 341112721 341119876 341128224 341140154 341146029 341193282 341202309 341217676 341255030 341286865 341298129 341316777 341330596 341372369 341508483 341532192 341710710 341762160 341783458 341842423 341865803 341866075 341932995 341949779 341985885 342015330 342023987 342031237 342038769 342057426 342058779 342084811 342110076 342136831 342160906 342206722 342240265 342242216 342395507 342436301 342497871 342506591 342613308 342627140 342628268 342715831 342790041 342829862 342844693 342857197 342860311 342887662 342981498 343009019 343061665 343072778 343145899 343148317 343237179 343289710 343290705 343309522 343314163 343345268 343345526 343360964 343495421 343548226 343567082 343581862 343622480 343631792 343693955 343704031 343739261 343744965 343755200 343912247 343944855 344006696 344023050 344033198 344067864 344119532 344128925 344140312 344161273 344245959 344270485 344365674 344383964 344391963 344434694 344488005 344624091 344661117 344662835 344662979 344775142 344794452 344830211 344842839 344864706 344886271 344892494 344894043 344939388 344947889 344956948 344976748 345015356 345031358 345050470 345086287 345135291 345176582 345201836 345223951 345314361 345351461 345366188 345407948 345438381 345465929 345488779 345496190 345556141 345573867 345603886 345611748 345614359 345642453 345672043 345681547 345686775 345690002 345728886 345732991 345747670 345829612 345884832 345924784 345942933 345983095 345998990 346058313 346122781 346158021 346163028 346208405 346222144 346310225 346412367 346460846 346461796 346574328 346607109 346683219 346697758 346708405 346747117 346765172 346770966 346822982 346913121 346925882 346979105 346983621 347009381 347046763 347288061 347301739 347314329 347399950 347416182 347418692 347420226 347421245 347736808 347747309 347748277 347756917 347793667 347807853 347865313 347930902 348002837 348057653 348117894 348130641 348130922 348146308 348210282 348284077 348293503 348355092 348414865 348415423 348511868 348667193 348750412 348761999 348767249 348867940 348884248 348924092 348927056 348933730 348948253 348954071 348973696 348982114 349002082 349016421 349022917 349024966 349079755 349084665 349097940 349132134 349145460 349155279 349155604 349234227 349251466 349317535 349338318 349411627 349438559 349439906 349522623 349534169 349558608 349627004 349734471 349794462 349804327 349872083 349889517 349974609 350075971 350086692 350130901 350186851 350202931 350209874 350261916 350431390 350478898 350496721 350508643 350544209 350565196 350567338 350570368 350587837 350649847 350676652 350685440 350723124 350742484 350744747 350787901 350825800 350873804 350914025 350967755 350985715 351088063 351099737 351108533 351141044 351160466 351224092 351243238 351250491 351276857 351303933 351363716 351404430 351419377 351462269 351466404 351479835 351484384 351586651 351616581 351707044 351721390 351732872 351733019 351755676 351768520 351783155 351912666 352011200 352089507 352139522 352185592 352239364 352260294 352269627 352292108 352298078 352313606 352332686 352349244 352419274 352420011 352430629 352456572 352470487 352557937 352558571 352566753 352700390 352703313 352787682 352862677 352872047 352887584 352970119 353099085 353107354 353135383 353141745 353222054 353231599 353302463 353321767 353338694 353381026 353429378 353451912 353515387 353548532 353560251 353565632 353620504 353702204 353746046 353753812 353768470 353770873 353787873 353790563 353831864 353844715 353939843 354024336 354086582 354137067 354140328 354147582 354151228 354211465 354213061 354265734 354371029 354432173 354437245 354446319 354522500 354524399 354559766 354590949 354703788 354721719 354724935 354728953 354748720 354798897 354819947 354847753 354875531 354882561 354920848 354928029 354953469 354962208 355019450 355070344 355084861 355128363 355133408 355152616 355215169 355229613 355236577 355241165 355280364 355307407 355333171 355452481 355539641 355578855 355665124 355710558 355718318 355733763 355773969 355855593 355877976 355965288 355967977 355976580 355986528 355996787 356003583 356115222 356176817 356191637 356192933 356195731 356197350 356207163 356290947 356381027 356441569 356447526 356484456 356490535 356497629 356550010 356585404 356596355 356690920 356740356 356768070 356791196 356845564 356875733 356898433 356915016 356975374 356994771 357087402 357088278 357091940 357106836 357166951 357172389 357184935 357185621 357233013 357263186 357273946 357278041 357297110 357325187 357333293 357343568 357344662 357380899 357391487 357393818 357492597 357498962 357527861 357570945 357578338 357595239 357605937 357614669 357645704 357788957 357809062 357829834 357893192 357903876 357939967 357984147 358018392 358050812 358184578 358198188 358304855 358365539 358371805 358393227 358405833 358422611 358504953 358516841 358525933 358586815 358633726 358679489 358734149 358782992 358807565 358816531 358842426 358920533 358940795 358942199 358949049 358958561 358970295 358990727 358990912 359007694 359044840 359047464 359103543 359127656 359137393 359145936 359165458 359181495 359229180 359393774 359400702 359462727 359494476 359577762 359639532 359708573 359765600 359792512 359860630 359866854 359878182 359888378 359907622 359932664 359936628 359949726 360023328 360054346 360094348 360179543 360180620 360201856 360201907 360263733 360317412 360377882 360406943 360459821 360512982 360548636 360553566 360560744 360579793 360587739 360625993 360677997 360707645 360709405 360716515 360717157 360752547 360756286 360797820 360799958 360806781 360849757 360856365 360869200 360889883 360945382 360946072 360982397 361245981 361295997 361333128 361348170 361390967 361425656 361453536 361496686 361505172 361527413 361534128 361563170 361646461 361661313 361672188 361693963 361743688 361749251 361753488 361758983 361833622 361836149 361846103 361883190 361890233 361907335 361926671 361946533 362019985 362103857 362152903 362170920 362189508 362208295 362274257 362290180 362343897 362406171 362428412 362520720 362531847 362538119 362579151 362597158 362715977 362726415 362732564 362744279 362777585 362833531 362864906 362875729 362888286 362911539 362926678 363013929 363017639 363056911 363076993 363087609 363103400 363107116 363118271 363119656 363139277 363167710 363247452 363267045 363319701 363341126 363354303 363455944 363529089 363590346 363610708 363641711 363691426 363743274 363773988 363830194 363909381 363980886 364006826 364030641 364039400 364169611 364185599 364213972 364228003 364305779 364412691 364468378 364516925 364518123 364534779 364588876 364646325 364681244 364731709 364817826 364828239 364879306 364881072 364971116 365013118 365021083 365035105 365047314 365101543 365147689 365194606 365225858 365231642 365250615 365314969 365330896 365369884 365391284 365406357 365454270 365518075 365584648 365621542 365639356 365652626 365670701 365736549 365806496 365875387 365908535 365928371 366002928 366033135 366111012 366185846 366194902 366202037 366210298 366254334 366281826 366324174 366409461 366421255 366433003 366512028 366548797 366641583 366679315 366680352 366680539 366749322 366897681 366919644 366955718 366969240 367009100 367027559 367033595 367141872 367162503 367202166 367219343 367251234 367272028 367348748 367353977 367363168 367380950 367391377 367392459 367422671 367446429 367463000 367555722 367595646 367741596 367743479 367816498 367857520 367862065 367920315 368029782 368037433 368042669 368068341 368126664 368164328 368169800 368250491 368278779 368337183 368387057 368427732 368454166 368462157 368485693 368495138 368544057 368573475 368578690 368597885 368615638 368636706 368657199 368683835 368728624 368731073 368975058 369024188 369034401 369108351 369124430 369125970 369201451 369212462 369265168 369339907 369473181 369484623 369514923 369596860 369604993 369634848 369657478 369679379 369697255 369728757 369826245 369841860 369863958 369902444 369926280 369992864 370018533 370033344 370116242 370126558 370140843 370208864 370230303 370259219 370280236 370389145 370435604 370445802 370457407 370484220 370486021 370493091 370502731 370514751 370519818 370520287 370545966 370560881 370567927 370641073 370673990 370682436 370696688 370738438 370761216 370784970 370831063 370901569 370950727 371058327 371146458 371267783 371358755 371377878 371425629 371434478 371507406 371516249 371526728 371620200 371645916 371732445 371740930 371746766 371752676 371788558 371806177 371826512 371832397 371849467 371850184 371867874 371968736 371983618 371990141 371995524 372018202 372018341 372064861 372116530 372145583 372160406 372217597 372278714 372340965 372362205 372391096 372419055 372490636 372523556 372609836 372673578 372717519 372820214 372851652 372854108 372879678 372881608 372903867 372917165 372936266 372940130 373014785 373136958 373197876 373229572 373235118 373250257 373311187 373322784 373384931 373533467 373555050 373582488 373612547 373643672 373677287 373791700 373833871 373862867 373869679 373884645 373903739 373954258 373995181 374041300 374054220 374068946 374081157 374086726 374098067 374103953 374197623 374208403 374212347 374246988 374293071 374310122 374333691 374348680 374360391 374386463 374386836 374428935 374442052 374494666 374543591 374552223 374564084 374569815 374599928 374620670 374673884 374702701 374754984 374757288 374771077 374808318 374832159 374857984 374863405 374945393 374949049 374962134 375005797 375096335 375132902 375167022 375172825 375288657 375330039 375390012 375411612 375432570 375436020 375450370 375521109 375523301 375614668 375617764 375664273 375687558 375691314 375707510 375724454 375767359 375784181 375792383 375799096 375811494 375864184 375872666 375949126 376017115 376031458 376044582 376066743 376124689 376167500 376179306 376270357 376298236 376350484 376366955 376372462 376392179 376394522 376470931 376493697 376501330 376574246 376578051 376613133 376683686 376706585 376712983 376734000 376735168 376747444 376785857 376797673 376832565 376845321 376886378 376931082 376970402 376980732 377059727 377131690 377270813 377299482 377329410 377360367 377377598 377378174 377392397 377394794 377397331 377431796 377486734 377547663 377588687 377677034 377718168 377727311 377738496 377783399 377840112 377910246 377959233 377967859 377997138 378009191 378012193 378098433 378126441 378129500 378297826 378298573 378330792 378332167 378334261 378339948 378347708 378483180 378613150 378630080 378755428 378891385 378916667 378939100 378950460 378965759 379014535 379024262 379169547 379179630 379219365 379288621 379327133 379328165 379356924 379357151 379387751 379406174 379467066 379497242 379542797 379572968 379576802 379577221 379578166 379640150 379659070 379687160 379690547 379699879 379761990 379790834 379844931 379869838 379963829 380109462 380112747 380128275 380151569 380169877 380202163 380319104 380323249 380351676 380438385 380494421 380496363 380512015 380513860 380537709 380590206 380619858 380704620 380720048 380749144 380755130 380807807 380811965 380849993 380919517 380982903 380993748 381004822 381008512 381068646 381146273 381146534 381147631 381177977 381206859 381225838 381317840 381347347 381350681 381415563 381474177 381494687 381616698 381737135 381741848 381776242 381777122 381791500 381805116 381814257 381829567 381904029 381906129 381919781 381934527 381951079 381978632 381985296 382074927 382090404 382149642 382225848 382254615 382256713 382260959 382264276 382274143 382333254 382340531 382394148 382414209 382416082 382423960 382426661 382453597 382462999 382590467 382635694 382668019 382668409 382706622 382710315 382721931 382728785 382909513 382935222 383109749 383173859 383240468 383305172 383324512 383346520 383356666 383393087 383443553 383451612 383470330 383470465 383480382 383506877 383521631 383536923 383537236 383595950 383617058 383636538 383664724 383684086 383697792 383705562 383721564 383734694 383740482 383796178 383847995 383889933 383905072 383915281 383926924 383928772 383957084 383957190 384011161 384026103 384033893 384041439 384080176 384081266 384092881 384123896 384186548 384273275 384373374 384384860 384385043 384465701 384543286 384576806 384641124 384656832 384670418 384676643 384677798 384824099 384844889 384867034 384892849 384968078 384989361 385013501 385079259 385150086 385150954 385164370 385174120 385188289 385211284 385261034 385267140 385277666 385312081 385323825 385423126 385438754 385441926 385448743 385532469 385546179 385626152 385630854 385638697 385662450 385684051 385689469 385697048 385732183 385746937 385780986 385789105 385789156 385847313 385891782 385918348 385966547 385981686 386021195 386030868 386034139 386046056 386098676 386133621 386147763 386176694 386212602 386309653 386334685 386356397 386393286 386439752 386441231 386458274 386525928 386527418 386579711 386608771 386659773 386690976 386704127 386735405 386778974 386807020 386807991 386850912 386927744 386941409 386963895 387063432 387219904 387232565 387277305 387280935 387281230 387359284 387385418 387402015 387454094 387520772 387641739 387682970 387718260 387730144 387731099 387734396 387758851 387811739 387815279 387825098 387873472 387900492 387904386 387948664 388037249 388061261 388073149 388076071 388080726 388088144 388212565 388230561 388347504 388377841 388398032 388410702 388482837 388495183 388518882 388539654 388644245 388652663 388731463 388832662 388863980 388865134 388923957 388924052 388929094 389008095 389039203 389223023 389252817 389282894 389368166 389387924 389395951 389398814 389439199 389439331 389442445 389450130 389459492 389462831 389619746 389639894 389643690 389668547 389704640 389761230 389787697 389876171 389882611 389899554 389905675 389905743 389915755 389943250 389983470 390053059 390139378 390156469 390198527 390236323 390263394 390273075 390289913 390302886 390370903 390372801 390386414 390444327 390491535 390520057 390526859 390616404 390662195 390668637 390679528 390684653 390744069 390757056 390770120 390920148 390921643 390925831 390969318 390977076 390994190 391091327 391122165 391143831 391152895 391178482 391216833 391296877 391318073 391325905 391370841 391492789 391504232 391514758 391547172 391557444 391587110 391604365 391619316 391626031 391627184 391667932 391691074 391704040 391753232 391773098 391856840 391894677 392040527 392107845 392109665 392120858 392124088 392196053 392303887 392353062 392368978 392415562 392435144 392440795 392477196 392567738 392568332 392598734 392650221 392658741 392660313 392663749 392692633 392741328 392874737 392953810 392970497 393000637 393027298 393038614 393040637 393089661 393121440 393126328 393129579 393153930 393166375 393180718 393212189 393241102 393242456 393427314 393465072 393704792 393710321 393763865 393802592 393811865 393903576 393911177 393931909 393970717 393975778 394078765 394079123 394252415 394268772 394377482 394430816 394434336 394542689 394589826 394639425 394751776 394758783 394764428 394859405 394946298 394962101 394975698 395028464 395030000 395035008 395062178 395122538 395185551 395342458 395504638 395533362 395540484 395553298 395600187 395693680 395696695 395714658 395738052 395741340 395792772 395802678 395833222 395965938 395966242 396014624 396044544 396052127 396101419 396156571 396196448 396259637 396485290 396531957 396545329 396557145 396627759 396632901 396679783 396744389 396754024 396755526 396779012 396779266 396782672 396837436 396922393 396936171 396942901 396972097 396992233 396997183 397061829 397073188 397125007 397133631 397179552 397212699 397253257 397295778 397406979 397427954 397448634 397524613 397535307 397680927 397693468 397746099 397806828 397821293 397920796 397926544 398053203 398070658 398115559 398147495 398150335 398160719 398172896 398291125 398295786 398312625 398366127 398379814 398386128 398416132 398428638 398497243 398511732 398562593 398583811 398628829 398680305 398754443 398846640 398851309 398883315 398911598 398976386 399022561 399060434 399061340 399123048 399170102 399210870 399213151 399219366 399239716 399239815 399251826 399254286 399305984 399347739 399378482 399386500 399413879 399420409 399420614 399514445 399531264 399544988 399553618 399660868 399670427 399726946 399745594 399766463 399811153 399811905 399824245 399832920 399876486 399889717 399934968 399949199 400015939 400035772 400084931 400093636 400212715 400214352 400223012 400236264 400247667 400260654 400266058 400280648 400285505 400329206 400373553 400377312 400403001 400441495 400458064 400476855 400488908 400504238 400514799 400528244 400565447 400566289 400574111 400596502 400672814 400709661 400721373 400723779 400743704 400768204 400824604 400838436 400900104 400934240 400969213 401104061 401108949 401143679 401315499 401315987 401331787 401346819 401364021 401390351 401401049 401411974 401425980 401460128 401474462 401486503 401502617 401509954 401512216 401542938 401554262 401562947 401589512 401605494 401626350 401627165 401641338 401657684 401672480 401687197 401740997 401804031 401832129 401849738 401908951 401914674 401949729 401960319 401982526 402009534 402027144 402060148 402090981 402106132 402110085 402152866 402191111 402218535 402264728 402344961 402346920 402393132 402555363 402578380 402580340 402591684 402605829 402608484 402616091 402668250 402724693 402808947 402814581 402821519 402870907 402944050 402964550 402987165 403017029 403018189 403053057 403109994 403152617 403182589 403196466 403225739 403251168 403269680 403282885 403286301 403302166 403428682 403508917 403566518 403633906 403653457 403743422 403775425 403801788 403883857 403968777 403996150 404046788 404097490 404159917 404178337 404196033 404212600 404227524 404233320 404248454 404260908 404265964 404300151 404321389 404419452 404434174 404490868 404527064 404530277 404611248 404611672 404632288 404664616 404687090 404709499 404712222 404745813 404822279 404852384 404888667 404965924 404978705 405016765 405071584 405077608 405081631 405095470 405104469 405112428 405216895 405247886 405270758 405272338 405296592 405321385 405346364 405417966 405459236 405459547 405484964 405490077 405494974 405527133 405538885 405570331 405576392 405594358 405628205 405664684 405665661 405690552 405737586 405773902 405807160 405870208 405919161 405923701 406003753 406112278 406132819 406206610 406208114 406251205 406259156 406268987 406285696 406393726 406411491 406458806 406538227 406565957 406579021 406632446 406672769 406677284 406696923 406757697 406778426 406787559 406809546 406830231 406925100 406951078 406980534 406982228 407009029 407017786 407041274 407052975 407092799 407185188 407193935 407218419 407234947 407239342 407284363 407347054 407411071 407441347 407442789 407444713 407488110 407489135 407495643 407556691 407582048 407602543 407691150 407754925 407785907 407812638 407825490 407881881 407974103 408003209 408029612 408153571 408307073 408309114 408328185 408351468 408382292 408389279 408461243 408470078 408499473 408667927 408725544 408810763 408832648 408833443 408850316 408857539 409015025 409040012 409101523 409156256 409205865 409206835 409217039 409220303 409299460 409322626 409359754 409397555 409422196 409445712 409499160 409605456 409646299 409772737 409783001 409896499 409920218 409938896 409993154 410001253 410053921 410073673 410084759 410206182 410232988 410306048 410333511 410347748 410360935 410428101 410453793 410500955 410510660 410525218 410540401 410559560 410589679 410622273 410634745 410682501 410730510 410743939 410758115 410785291 410787261 410789280 410866452 410901410 410976909 410988005 411007979 411013756 411044017 411081469 411106908 411128512 411159541 411201112 411264643 411329279 411393201 411406119 411444783 411477923 411540325 411568650 411623728 411641466 411709494 411776830 411851947 411865839 411891892 411896182 411910557 411916193 411955729 411958781 411975562 412037289 412061515 412088369 412112661 412120746 412139657 412168555 412186224 412235645 412290322 412311490 412331754 412367263 412380239 412382720 412504946 412613102 412639454 412662177 412696515 412704262 412755051 412764182 412772913 412798205 412803007 412808111 412875309 412898281 412916218 412993816 413052868 413074206 413096031 413121033 413122373 413132020 413140749 413193384 413210727 413228393 413257920 413267763 413302779 413327157 413341865 413391728 413483997 413541470 413623055 413673258 413685134 413753960 413798049 413816848 413842716 413844215 413907664 413911821 413934848 414038761 414071187 414090009 414115221 414132855 414168207 414215335 414219317 414236367 414242732 414305799 414439470 414486521 414556850 414587391 414670846 414681479 414713195 414812075 414846336 414912170 414920947 414987981 414992722 415023839 415110605 415246432 415413494 415490728 415562053 415596596 415693003 415713314 415715541 415796702 415856899 415958738 415965522 415995176 416022408 416041473 416070585 416085069 416125381 416136176 416161346 416285806 416349464 416358968 416361286 416392656 416414243 416435113 416462954 416510912 416512256 416599010 416601889 416635802 416711122 416746044 416796199 416802689 416834518 416875072 416890889 416964430 416969567 417043459 417048594 417059515 417098091 417113777 417134826 417174641 417205028 417221007 417267198 417278703 417306744 417307834 417341669 417385502 417409698 417483176 417548665 417560946 417596245 417616072 417647295 417653870 417665105 417686397 417692670 417701293 417749553 417784286 417815595 417829587 417842909 417906912 417922712 417934576 417985861 418003489 418011480 418041705 418049522 418062112 418086933 418111773 418144793 418185910 418205184 418305864 418325270 418514649 418527434 418563877 418622949 418630938 418649954 418661820 418697960 418706162 418721882 418733038 418740836 418744668 418780814 418791661 418874706 418963842 418966004 418978393 418982055 419001949 419010879 419040339 419219898 419233323 419244240 419245979 419318770 419337130 419344235 419370285 419381284 419392761 419463687 419494791 419496105 419518966 419560181 419581469 419584063 419660870 419732632 419752128 419796186 419927612 419978449 419983314 419994970 420006009 420009657 420014512 420055579 420092397 420101503 420124891 420177053 420183862 420184431 420230279 420243082 420254613 420313316 420318360 420341611 420342013 420355493 420357744 420470429 420474116 420487860 420543366 420561193 420578913 420610242 420639613 420640774 420654518 420671084 420722352 420751112 420785694 420794429 420798119 420963204 420997314 421026239 421065658 421069802 421072716 421105940 421130507 421191869 421203041 421224701 421251135 421326407 421383830 421436721 421479715 421510623 421533073 421533751 421534383 421649492 421704976 421742508 421777775 421811749 421831565 421838346 421857768 421916972 421977445 422049609 422074198 422082960 422096152 422098005 422103824 422109289 422131044 422132566 422149439 422170189 422258628 422261102 422320925 422368802 422418486 422460309 422500795 422617415 422661193 422695397 422697849 422707467 422739355 422756867 422844725 422893176 422898343 422985301 423098190 423162755 423262252 423286634 423329809 423366748 423400439 423482057 423532958 423579377 423673256 423689041 423773720 423861861 423889892 423904791 423937496 423940444 423964360 424009039 424077933 424246022 424300212 424319616 424332276 424351216 424351671 424357006 424358199 424372795 424381140 424397592 424426260 424428568 424438912 424506515 424543409 424595508 424706477 424725449 424750221 424761952 424768726 424826528 424836300 424865125 424866568 424881205 424982158 425008518 425072932 425095910 425097636 425139606 425184199 425264484 425280689 425285760 425288713 425292177 425304134 425378043 425400960 425457601 425504729 425515790 425616847 425618013 425640126 425762701 425837060 425840766 425850889 425854763 425903044 425924907 426072555 426096804 426129704 426190746 426256736 426281164 426335518 426357732 426359772 426369120 426419837 426428247 426432794 426463944 426471486 426497533 426520467 426538717 426686926 426700044 426737127 426751906 426768534 426780408 426845489 426892986 426904052 426916269 426919695 426950827 426971079 426988719 427034786 427039720 427098803 427102717 427171555 427181597 427293913 427406666 427504382 427603862 427606588 427702260 427723198 427759520 427874931 427936633 428010448 428026043 428214344 428325112 428343197 428359039 428394470 428407731 428473308 428490985 428535962 428557675 428559372 428575525 428583342 428590303 428683381 428728495 428759371 428761689 428762914 428794436 428875012 429006671 429015768 429021962 429048831 429085270 429108472 429152508 429158357 429162776 429199112 429254293 429277050 429329453 429334815 429336745 429338498 429346658 429415468 429460001 429489275 429525994 429586107 429593445 429598939 429677088 429686075 429711940 429712769 429722008 429739681 429853871 429856456 429892127 429937539 429981269 429997752 430046947 430083838 430115698 430129598 430138150 430245286 430257019 430309773 430327836 430362646 430387316 430392181 430419718 430425806 430491352 430532909 430547243 430605739 430686932 430750835 430755691 430829399 430909095 430953982 431000576 431002700 431047378 431054684 431093015 431161826 431165115 431203510 431310301 431312869 431318065 431344912 431453709 431491180 431506042 431544242 431550488 431569884 431593785 431596913 431597540 431607158 431623922 431646285 431680717 431713838 431755119 431797243 431806278 431872747 431908357 431936289 432040589 432055223 432085725 432183317 432194405 432319375 432325830 432342727 432462632 432530631 432617525 432676909 432690151 432702701 432735712 432762097 432808235 432834357 432924204 432939394 432982959 433022310 433053101 433084787 433092726 433115970 433130993 433180434 433229325 433248816 433307246 433311084 433505461 433517925 433548122 433642868 433657140 433809799 433887799 433966916 434010899 434045602 434062933 434200070 434216888 434222159 434301324 434306551 434350349 434354712 434370262 434451303 434611854 434666107 434761152 434768416 434778314 434780520 434818797 434940239 434947401 434996608 435017416 435021186 435022314 435035344 435051850 435067021 435079513 435166372 435206045 435263436 435285632 435374216 435540953 435574059 435601479 435602302 435673012 435683949 435756722 435757705 435779571 435785013 435852267 435852376 435858615 435909485 435917152 435929211 435966463 436016929 436032262 436048816 436087957 436153803 436157518 436213903 436218652 436289611 436318999 436330938 436364320 436386747 436433378 436437335 436440976 436444016 436444033 436483930 436585526 436636414 436641188 436691665 436752106 436800467 436810951 436831992 436947443 437026995 437045572 437075907 437185771 437202336 437235774 437325608 437333619 437346078 437378776 437479098 437525043 437525341 437537080 437538652 437545559 437557201 437632596 437645638 437646489 437678173 437760389 437761463 437779340 437790154 437836788 437841960 437873508 437934611 438021367 438025047 438076906 438154172 438277715 438300328 438398321 438498308 438580836 438628616 438693010 438705759 438750657 438752471 438769473 438867538 438884116 438938772 439008715 439065310 439104226 439109544 439280162 439294880 439297256 439340506 439412524 439468781 439470938 439615581 439621047 439626867 439652821 439665333 439732878 439753811 439766629 439882491 439913535 439936172 439936497 439972795 439973639 440062036 440160299 440292730 440330182 440345116 440352057 440363577 440382946 440385220 440387502 440406742 440416517 440449361 440517213 440571238 440592651 440646033 440655216 440665103 440686684 440723967 440773911 440796818 440812202 440879319 440967510 440992661 441066965 441152424 441192927 441235045 441235465 441358140 441413653 441457859 441463335 441487459 441573731 441576226 441618814 441654272 441692900 441721933 441807537 441819885 441858581 441920039 441932197 441968307 441997362 442053503 442069913 442074799 442099917 442106979 442134420 442161452 442261818 442338083 442373595 442375027 442390763 442405927 442446058 442472201 442526172 442534629 442620243 442621590 442664351 442768363 442803401 442814929 442824636 442853335 442869184 442932059 442966760 443001527 443035767 443044118 443057636 443132674 443177888 443183295 443251193 443255183 443286295 443299700 443316211 443328022 443338393 443371410 443498082 443576351 443701843 443702538 443720429 443728528 443739187 443757046 443803654 443805037 443850114 443893380 443907952 443978944 444003850 444070582 444101368 444112263 444118572 444121785 444190286 444284560 444322769 444414321 444433170 444514549 444558832 444599564 444601642 444819219 444865149 444899224 444928009 444928267 444949832 444970439 445048462 445099771 445256222 445342128 445398965 445414384 445439623 445463218 445473875 445474269 445477632 445489599 445539565 445543849 445580524 445582136 445604945 445676950 445704240 445769001 445923427 445971353 446046038 446047200 446061528 446066865 446100184 446125731 446145529 446152409 446166414 446202494 446243511 446244029 446266387 446409936 446481436 446492210 446503051 446537874 446547203 446567132 446578916 446590145 446620855 446665588 446674458 446676593 446750124 446760448 446778619 446814621 446828276 446872044 446888344 446962515 446985836 446991424 446997181 447170366 447191864 447209118 447209580 447248789 447284296 447332091 447348004 447364040 447368808 447383437 447384070 447390610 447439531 447482687 447500634 447531956 447558317 447610520 447639160 447754193 447762164 447832950 447860861 447873293 447930752 447952448 447953444 447960698 447963127 447978816 448018550 448040951 448041346 448046795 448080899 448204004 448256859 448292148 448337404 448464268 448486623 448637964 448645358 448691621 448698366 448700517 448755037 448755838 448786233 448808492 448825006 448832269 448833029 448908155 448929547 448992986 449099074 449143179 449150876 449163069 449194524 449218470 449235439 449275308 449343428 449384235 449453914 449486570 449528958 449611295 449673338 449722247 449785467 449787088 449790000 449818966 449857872 449861326 449862913 449884324 449894462 449903220 449908072 449914153 449920786 449942575 449975620 450054421 450062557 450143284 450183586 450200604 450207264 450265874 450271162 450275847 450350094 450375732 450413221 450419591 450453240 450481622 450507516 450574873 450614292 450643928 450679413 450696260 450725578 450765928 450772529 450858811 450876001 450908802 450922470 450923782 450936948 450977832 451088484 451101835 451112583 451148162 451184741 451213249 451213359 451303005 451319361 451322838 451373858 451388454 451450456 451456687 451521403 451521525 451589032 451619736 451626512 451670870 451688933 451706082 451736770 451783404 451805815 451923515 451976182 452085061 452108039 452114568 452125540 452168096 452254998 452288019 452304714 452318628 452444974 452533383 452613685 452635725 452670342 452756461 452781803 452852802 452859345 452884574 452889262 452899066 452943050 453038748 453059297 453084410 453084673 453088440 453130117 453201037 453209408 453220522 453251055 453267875 453270979 453357202 453394944 453448717 453469471 453531093 453536063 453585476 453587227 453632843 453720256 453855955 453860620 453959284 453994238 454025265 454058360 454132620 454280854 454364071 454413648 454462491 454492774 454502842 454504435 454584335 454653935 454728005 454744394 454780212 454800207 454815782 454863735 454863937 454905097 454946806 454979395 455040464 455077406 455195486 455251945 455299802 455328274 455359759 455387350 455422461 455460172 455538716 455545369 455608068 455621211 455625861 455639646 455667189 455684999 455715768 455768118 455819223 455870613 455918006 455951097 455996475 456121058 456170578 456182033 456268113 456310159 456312970 456441038 456463462 456481433 456622905 456628177 456662512 456675426 456688537 456698862 456732862 456764169 456767301 456806926 456817606 456817805 456877999 456896561 456902098 456963991 457014013 457054272 457083022 457094546 457167498 457227978 457257689 457324413 457381409 457478999 457531129 457553315 457617563 457624229 457628540 457666095 457685768 457750598 457766840 457812824 457827069 457855695 457978792 457982130 458023568 458141575 458143248 458258630 458288719 458324533 458334928 458360448 458442672 458457124 458460937 458492230 458540752 458612153 458631065 458677457 458681834 458693678 458714657 458784266 458820445 458838349 458843626 458867498 458887179 458910579 458948432 458949401 458960333 458992667 459032302 459056458 459165027 459165629 459172937 459175755 459182171 459257843 459291146 459291692 459322286 459344018 459391851 459395210 459413074 459426714 459447227 459464373 459502679 459517696 459524415 459573557 459614377 459762961 459763188 459790683 459828998 459924556 459949403 459989284 459993767 460062726 460117849 460146102 460171729 460177747 460184906 460228117 460254178 460263541 460292425 460441280 460453590 460534984 460563706 460622876 460641680 460676343 460742863 460848080 460895232 460908213 460937489 460985055 461025270 461030515 461047579 461063303 461174447 461188898 461218628 461221423 461252272 461299961 461309760 461323532 461388959 461470512 461512629 461575977 461577419 461586433 461638961 461662957 461703261 461706582 461709292 461720727 461799874 461840386 461860553 461868044 461938994 461994948 462205383 462205778 462319168 462375646 462380354 462380397 462473387 462602630 462626094 462683560 462694056 462694198 462760622 462805435 462824332 462978290 463007150 463015918 463048318 463085378 463128046 463135485 463223477 463225868 463230537 463246622 463257182 463331228 463355116 463403813 463502814 463561626 463562275 463646716 463651826 463722351 463790676 463838732 463892173 463957025 464020582 464036312 464036544 464054262 464059560 464187741 464237970 464251496 464345164 464357423 464418591 464494608 464548720 464556895 464606552 464614270 464633616 464678702 464694193 464702998 464728925 464732020 464747477 464786761 464818928 464819497 464863089 464863141 464870373 464953874 465075715 465131831 465153524 465164928 465170759 465209559 465261323 465305506 465322861 465359896 465375783 465411182 465462169 465466623 465583847 465585353 465639892 465671456 465692511 465707515 465737477 465737556 465851935 465854974 465907914 465914659 465974099 465977216 466020820 466028682 466067479 466137429 466153380 466155412 466179577 466221241 466330097 466381817 466394243 466398749 466429979 466485203 466486698 466507879 466539589 466558081 466583215 466619316 466656087 466670242 466699675 466797991 466956951 466995197 467076580 467119608 467214619 467265984 467269702 467286054 467386558 467407254 467471985 467502678 467512980 467525811 467529421 467545944 467609039 467625325 467637744 467755968 467779004 467787750 467868379 467880236 467964254 468022757 468022881 468055867 468082625 468113110 468163901 468199548 468204979 468211920 468234683 468235219 468278494 468288822 468333621 468366500 468377288 468386921 468446601 468505263 468609520 468623376 468623970 468647125 468681788 468694299 468749517 468773594 468819278 468898051 468898069 468923320 468972370 468992511 469050574 469066129 469072085 469123129 469152452 469200877 469255112 469326706 469333348 469385845 469430318 469472396 469537150 469585010 469587113 469607995 469624930 469625759 469659233 469696136 469707271 469710216 469775481 469809871 469829991 469924989 469968948 470073624 470104025 470112559 470116326 470148282 470161706 470188098 470264387 470330511 470371844 470428065 470444144 470462002 470517052 470600991 470607670 470667985 470696066 470742544 470798748 470801703 470847218 470895841 470904369 470920537 470932989 470974916 470983077 471023128 471023327 471117425 471148826 471162693 471186147 471205457 471229834 471311636 471340546 471401919 471443750 471462258 471467374 471518701 471559108 471600856 471672716 471765941 471787573 471922212 472041982 472056491 472196887 472213319 472216492 472240302 472260834 472306542 472357193 472389529 472391474 472404970 472415345 472421088 472502441 472538043 472556111 472562785 472575047 472584027 472593074 472614181 472645699 472650409 472678000 472685368 472693494 472706834 472714964 472756999 472777501 472826239 472918583 472918993 472947339 473033195 473035615 473046134 473057718 473070271 473087983 473110636 473117024 473124190 473172440 473226611 473245508 473255935 473261517 473430541 473436963 473454455 473488340 473544700 473560830 473563091 473602702 473617824 473681855 473714692 473722102 473781114 473802724 473810636 473826378 473937874 473955245 474001970 474039537 474119580 474157743 474162549 474166100 474303973 474349351 474364153 474381422 474424570 474450940 474499784 474509850 474526845 474537818 474569786 474697046 474788093 474815752 474852705 474884223 474901197 474952671 475019279 475108142 475137757 475146687 475156779 475174112 475177413 475219430 475237787 475247351 475264415 475336398 475353614 475360883 475370122 475418820 475463026 475479902 475611102 475650647 475710464 475733741 475886299 475891022 475946103 475966257 476059592 476087011 476117533 476120268 476131962 476285096 476296887 476327132 476346357 476473189 476542279 476597563 476768580 476783160 476802322 476825084 476836274 476852580 476880750 476884235 476913657 476945609 476953080 476969375 477001811 477004866 477040909 477080318 477116616 477119593 477123162 477132708 477190997 477193951 477195874 477233079 477264570 477289333 477328732 477500594 477504987 477562539 477594148 477611507 477619423 477638693 477652529 477705183 477708307 477774905 477786889 477804892 477822436 477858269 477881302 477892679 477943240 477945861 477970470 477981381 478017887 478029308 478076937 478143562 478161782 478191692 478220832 478247820 478252575 478273671 478275759 478278257 478330793 478390310 478408031 478498627 478512526 478529117 478615995 478619639 478640338 478724714 478735269 478738286 478776133 478793025 478844321 478847026 478902107 478919426 479020440 479104628 479120428 479124743 479239852 479254727 479279907 479288888 479297007 479319697 479338446 479348735 479356334 479373370 479388956 479400119 479417811 479456371 479578355 479598614 479645142 479707076 479711202 479745493 479755393 479835965 479845699 479848732 479887025 479892860 479934475 479943280 480078138 480079586 480108032 480124089 480144160 480203616 480223380 480225141 480248622 480258001 480285183 480317754 480343220 480405380 480457436 480493808 480498188 480499576 480508677 480514407 480527787 480586599 480611872 480623924 480741161 480774116 480882698 480895278 480919985 480956730 481000307 481035343 481096719 481103642 481150975 481163033 481189059 481229806 481279018 481295095 481381289 481405030 481412906 481492590 481561781 481585890 481596609 481637720 481654651 481662422 481750458 481772618 481778147 481796977 481808372 481819571 481829155 481850283 482007494 482014342 482016986 482017455 482039984 482046019 482188391 482205656 482230295 482306435 482335916 482343602 482402597 482431519 482485267 482506720 482521014 482538478 482567867 482690227 482728804 482751321 482777284 482785747 482796919 482807969 482834983 482853835 482854548 482962624 482989520 482998593 483013334 483070700 483087948 483104475 483179949 483187724 483192781 483320120 483322591 483334411 483401357 483432849 483476717 483532208 483594070 483650422 483669445 483846725 483857659 483940596 483958776 483990497 484003265 484010349 484019289 484023454 484066165 484101957 484152462 484181396 484212134 484239344 484300320 484314906 484361151 484479834 484491628 484493667 484537160 484563204 484646501 484696462 484706689 484721711 484744304 484789466 484801055 484822467 484869046 484901471 484952514 484958908 485008042 485133144 485155354 485164109 485199478 485248787 485285444 485295591 485315259 485369957 485401735 485406443 485493860 485513554 485524654 485593492 485698131 485724322 485771556 485807467 485823381 485823510 485842501 485901311 485937450 485955401 485982480 486011828 486089604 486125575 486152553 486210359 486256237 486277588 486298497 486339735 486362111 486431923 486434935 486439605 486477343 486504044 486566061 486591723 486599015 486600097 486665446 486671502 486771213 486798856 486875581 486941766 486964631 486984432 487016060 487072965 487126960 487207455 487260192 487310561 487320153 487341714 487371931 487415120 487528090 487535086 487596267 487608357 487652776 487687505 487696781 487709569 487772190 487826891 487936415 487959814 487969291 487969508 487986664 488036511 488073369 488107954 488227342 488250893 488276005 488306095 488338345 488464019 488527270 488593921 488662559 488759867 488844080 488882421 488911763 488950816 489014582 489023371 489053573 489069201 489072887 489080309 489084579 489109533 489121956 489140801 489218557 489242938 489257932 489286874 489301012 489387814 489393218 489396491 489500151 489540551 489548487 489592657 489632868 489683228 489736533 489788817 489797896 489822314 489861880 489868818 489889428 490043083 490055270 490105181 490107923 490134794 490139217 490219366 490346104 490429659 490438118 490571068 490662996 490679935 490740488 490740592 490750331 490750429 490760654 490767509 490967377 490992083 491006508 491039769 491054659 491065075 491090834 491133756 491191427 491207203 491252162 491303165 491336390 491350220 491364637 491371920 491380153 491380913 491413295 491435545 491458865 491466139 491496945 491638419 491645974 491668767 491672400 491728524 491736199 491754655 491823954 491847581 491863148 491921395 491949461 491966181 492061702 492171954 492198598 492199107 492226263 492245172 492278457 492283326 492291094 492329518 492342943 492377268 492405772 492407694 492411890 492440904 492441412 492581982 492620690 492671376 492819219 492914157 492955620 492957422 492967000 492998584 493028289 493124531 493174967 493191569 493193117 493276827 493308912 493314744 493363744 493371638 493377421 493431389 493443371 493515920 493553153 493584162 493601608 493622000 493626369 493707895 493775800 493832741 493864904 493867227 493934312 493936299 493991819 494084074 494115409 494184986 494219332 494306808 494353285 494490796 494502911 494507267 494518066 494557343 494558971 494567681 494611462 494654753 494701350 494704976 494737314 494828895 494934573 494981351 495004419 495013788 495033418 495048875 495076550 495076785 495099212 495104330 495127126 495156728 495162113 495234165 495274813 495313551 495358645 495398593 495429236 495443042 495495330 495526636 495533219 495613458 495614241 495677353 495777832 495789347 495852691 495892269 496007465 496079779 496131678 496139431 496151297 496239654 496271329 496360669 496389983 496441170 496480322 496495181 496531508 496539849 496571413 496630399 496635602 496643605 496693178 496762137 496769746 496778689 496857065 496908522 496914777 496947815 497042270 497067462 497122082 497165579 497198782 497229786 497232066 497282230 497358029 497401102 497429482 497462691 497539766 497551567 497782111 497786800 497791723 497812128 497848134 498051410 498108319 498161243 498169573 498204360 498213247 498259753 498273896 498287891 498291776 498325377 498328629 498354521 498370478 498434965 498444891 498451702 498480398 498501574 498537770 498579632 498599654 498604747 498650383 498671330 498684183 498724100 498772525 498803399 498828944 498831063 498836855 498952355 498956269 498962321 499033934 499054055 499189196 499246397 499285079 499288203 499289119 499291914 499366865 499402614 499497491 499519966 499541135 499571190 499593559 499620580 499672958 499714247 499716130 499732065 499788099 499792865 499795057 499846595 499911989 499918541 499973377 499986134 500075939 500099748 500125351 500179780 500183135 500185207 500192167 500214146 500222429 500251037 500289995 500296234 500375593 500458504 500564008 500609236 500715216 500789885 500830926 500876052 500885485 500918552 500952634 500986818 501029515 501034566 501099993 501110813 501213762 501258494 501264156 501282335 501289022 501292724 501312141 501411913 501502731 501544681 501550163 501554145 501604822 501656051 501699766 501754209 501791053 501822542 501848057 501892896 501952829 501972122 502000583 502033178 502060470 502066954 502078853 502177329 502252524 502255128 502267601 502278273 502284779 502388710 502423500 502452789 502540137 502594533 502595640 502628276 502728353 502809732 502811178 502815182 502821174 502821771 502846040 502898827 502923180 502964206 502979895 503021931 503040301 503077546 503106470 503147871 503149144 503171523 503185528 503250560 503258892 503295349 503328423 503375322 503395602 503400525 503433452 503449186 503483568 503516702 503580703 503604660 503669532 503773345 503776500 503782477 503801226 503819684 503883876 503971843 503976483 503977385 503985870 504019246 504102837 504179248 504227312 504279126 504307443 504335632 504363467 504381274 504391488 504400221 504491630 504525564 504539869 504547691 504565814 504681318 504770341 504830262 504903022 504964615 504979314 505003929 505025155 505149199 505179089 505213452 505294522 505347245 505364995 505379197 505497638 505541390 505606309 505660373 505757323 505760881 505762895 505814144 505852070 505923299 506043741 506147126 506252260 506314711 506370292 506389865 506498553 506520269 506520282 506537672 506562740 506605112 506614969 506631083 506652253 506688173 506710264 506742989 506752245 506772386 506885846 506948141 507035019 507137657 507222943 507233604 507259462 507377169 507413136 507418908 507491434 507493420 507559351 507564888 507599403 507647597 507662330 507737622 507777941 507779282 507800681 507880425 507961649 507967022 507980112 507991467 508027454 508091406 508150127 508220166 508276711 508279588 508324937 508388727 508414426 508451156 508456036 508470099 508478971 508491095 508497481 508510777 508542124 508566264 508566945 508575337 508589856 508590312 508635002 508652575 508719408 508784227 508788217 508903170 508918209 508955294 508972447 509026379 509037308 509045773 509053899 509053907 509054865 509095661 509214299 509314313 509374210 509391441 509403981 509407753 509551756 509580907 509690142 509694332 509698594 509738932 509749179 509771583 509825055 509832671 509854521 509927641 509960842 509961993 509998686 510151378 510166177 510184851 510185451 510208475 510246402 510284219 510316159 510318123 510329303 510343661 510387754 510466355 510481934 510498902 510509901 510587810 510594938 510626130 510643221 510658801 510673609 510728039 510765244 510831143 510861585 510875092 511014337 511034531 511051628 511054009 511054989 511082220 511116696 511163301 511228587 511233029 511241778 511334729 511386986 511414156 511552205 511572522 511601259 511611200 511619415 511753893 511860004 511877736 511879707 511901656 511940808 511953838 512071759 512118623 512167913 512177615 512211040 512270050 512361784 512378194 512393945 512423402 512436486 512469633 512492282 512530755 512539013 512568913 512657747 512776774 512814311 512860346 512888865 512919561 512951990 512959922 512960762 512961206 513032986 513050871 513060335 513119624 513192806 513277342 513290034 513303280 513375377 513376539 513380547 513527994 513534007 513540764 513631317 513639947 513682873 513750505 513750683 513761592 513773103 513931967 514037316 514110931 514161028 514231945 514262031 514299757 514318517 514355620 514378466 514413223 514469127 514524482 514589253 514602485 514646126 514663279 514689873 514713950 514723743 514753643 514783061 514838710 514844685 514868432 514870934 514873032 514905673 514912514 514976821 515048568 515077813 515090420 515107928 515118378 515280426 515312745 515348242 515355460 515430670 515443595 515448798 515506567 515565937 515571901 515605983 515637967 515685591 515763568 515774143 515800768 515822348 515928756 515963539 515969232 516007176 516063230 516169793 516176869 516203475 516215828 516278713 516355860 516385131 516415585 516450172 516479902 516498040 516527669 516546992 516584310 516597269 516677900 516697649 516739094 516745216 516784518 516786863 516830280 516843503 516880774 516885531 516929904 516936594 517055070 517062771 517075430 517118995 517141707 517172729 517206912 517218257 517243006 517248715 517276718 517312732 517327627 517367903 517446565 517460561 517472501 517508837 517544780 517597031 517622165 517639362 517640095 517695101 517716989 517788625 517794157 517833776 517848041 517879227 517889728 517893071 517906520 517928101 518017147 518083460 518095039 518109273 518113481 518173236 518189451 518226917 518346660 518355588 518395076 518409244 518419460 518462438 518464493 518523304 518523774 518530092 518584279 518587170 518673011 518713327 518727266 518740909 518761699 518795429 518855643 518867436 518870603 518871759 518957006 519044109 519058910 519065200 519094930 519099519 519127814 519173496 519202579 519225130 519244658 519290188 519303648 519330252 519444295 519582151 519627600 519633143 519657537 519663300 519697836 519718079 519730001 519737420 519911260 519915915 519969542 519988977 519997060 520027581 520035330 520130527 520142689 520148286 520205543 520212617 520299966 520309813 520321998 520341394 520422120 520428184 520435457 520438750 520444980 520504590 520538259 520564824 520582627 520707341 520713795 520725342 520764234 520808077 520847202 520870411 520887341 520903718 520947925 520973001 521010210 521063100 521105488 521115137 521129315 521180660 521245000 521322139 521357359 521470663 521480395 521499678 521518513 521575274 521638108 521679322 521709899 521723382 521853448 521873741 521875962 521919023 521919197 522035818 522049325 522061790 522085141 522126440 522202689 522297784 522399038 522438124 522553560 522559828 522582540 522583775 522592445 522597303 522597588 522650284 522731022 522765643 522779145 522791469 522847863 522850959 522853900 522873334 522936053 522977490 522988924 523020887 523216513 523282827 523353545 523357939 523370316 523460882 523461900 523502890 523510431 523592674 523623763 523642246 523644742 523712615 523758657 523814981 523841300 523857881 523861031 523877600 523922365 523977330 524059735 524129993 524312258 524334929 524358275 524404445 524413431 524494800 524507388 524543978 524594481 524657559 524671824 524671966 524754992 524846753 524848108 524865222 524866051 524903519 525003097 525009689 525015965 525060002 525110103 525111411 525157505 525238438 525295062 525308328 525387165 525388847 525486108 525521127 525544222 525546810 525580335 525584961 525597879 525605880 525620413 525639973 525665743 525692720 525709057 525780496 525811525 525836989 525897156 525929650 525934058 525985230 525990249 526137732 526174813 526201379 526204783 526278113 526321377 526335948 526412870 526500975 526505758 526576991 526589198 526642764 526659377 526670268 526741757 526881141 526958594 527033959 527063055 527097164 527237639 527262532 527280174 527324493 527344254 527347618 527383409 527429324 527445625 527490461 527501916 527606431 527612163 527668094 527693602 527696938 527931899 527935669 527944501 527945691 528055179 528064382 528097725 528126971 528143948 528162350 528210860 528255798 528259924 528328223 528453740 528486256 528548115 528556180 528570557 528604071 528707741 528767956 528769106 528829618 528903249 528904205 528944605 528966846 528977760 529031823 529040743 529126655 529167181 529275422 529300255 529342608 529351375 529393490 529471101 529524185 529542581 529548521 529553382 529577028 529586360 529633453 529637278 529749171 529841909 529866030 529997061 530025952 530029698 530050754 530109915 530112690 530212006 530241760 530297156 530302923 530315546 530333341 530373061 530378697 530526126 530563007 530601266 530603910 530611914 530702005 530719365 530719890 530867166 530868964 530900676 530980373 531009498 531038054 531103798 531135638 531170425 531223840 531229079 531242648 531265097 531277739 531325134 531402099 531420957 531436390 531459472 531483254 531512515 531565497 531581953 531594737 531667684 531685794 531705632 531749654 531808746 531837413 531884567 531894687 531934382 531965585 531966830 531980263 531987077 532009954 532011354 532064603 532101163 532147548 532170873 532204995 532268541 532279925 532289843 532432978 532519160 532535227 532550671 532578066 532599455 532611343 532653611 532714334 532726298 532785675 532790147 532828941 532834696 532835107 532847209 532907643 532998347 533098657 533102886 533111588 533132695 533269381 533271281 533273069 533293599 533368803 533545954 533549090 533557483 533599492 533611185 533612598 533642391 533660217 533676160 533721847 533758623 533759793 533798175 533820363 533852978 533880528 533938415 534011098 534015285 534017716 534127235 534209494 534221408 534338901 534338935 534380015 534382217 534470325 534480742 534565167 534575793 534582008 534583499 534584321 534649270 534681825 534682426 534760528 534827384 534855511 534915923 534933862 534981252 534999603 535179519 535207400 535250586 535278278 535295822 535480740 535499227 535509769 535554784 535562036 535568970 535575815 535629693 535645640 535835748 535856998 535864974 535868119 535879830 535895887 535934121 535948656 535959167 535959964 535986635 535991569 535994021 536022531 536025306 536038643 536046769 536057173 536071052 536119058 536146958 536147508 536185277 536297029 536309106 536333488 536348239 536353166 536479287 536525291 536580843 536614071 536645614 536648137 536651474 536735248 536772699 536779934 536816830 536842995 536885898 536888363 536922813 536927804 536972936 536973891 536999080 537015636 537038434 537093686 537184795 537191754 537215907 537216584 537228720 537247887 537318011 537319556 537420098 537562857 537591984 537607900 537620019 537653756 537671834 537681685 537702462 537784013 537861553 537984509 538009539 538135099 538159322 538195917 538363845 538382754 538424872 538428654 538462705 538472098 538488322 538488641 538546939 538591234 538650049 538652828 538669801 538671254 538681824 538734999 538741970 538769500 538801853 538867223 538884997 538895590 538936010 538974445 539001496 539050955 539061892 539064586 539108623 539148068 539154015 539157466 539199503 539204533 539218352 539291870 539335487 539526369 539553941 539573611 539575017 539614115 539708041 539725628 539729663 539741440 539755722 539784700 539809532 539867974 539869040 539876123 539920470 539950868 540008512 540030270 540037074 540109009 540205891 540247942 540284323 540298658 540334423 540374016 540440780 540461605 540494243 540549610 540585395 540619426 540621574 540632064 540694773 540711325 540726199 540767243 540794632 540820830 540873186 540880893 540893819 540905812 540950806 540997860 541021760 541063447 541087670 541130222 541183258 541196893 541236174 541237724 541335406 541342941 541347825 541348280 541354829 541433524 541445393 541460738 541489057 541563583 541625557 541678394 541717902 541737338 541769222 541812960 541818172 541864815 541902072 541937226 541955146 541956243 541979867 542010872 542038119 542071665 542147722 542179532 542199272 542230953 542304632 542325044 542377318 542405975 542478737 542486089 542547272 542549803 542624302 542673972 542674963 542684830 542711759 542756182 542776887 542896616 542912265 543005270 543033851 543067863 543095969 543199632 543203784 543256279 543271865 543286216 543288911 543317290 543341285 543394107 543422176 543424682 543516613 543525231 543596827 543600791 543636677 543690711 543701345 543704772 543743829 543749829 543759840 543791921 543802290 543843724 543878165 543942454 543980276 544042054 544064834 544146415 544210277 544254477 544255744 544263971 544290287 544293810 544305273 544312535 544318690 544355549 544372256 544384276 544422250 544423171 544461636 544508577 544536753 544608491 544617566 544630751 544642353 544675936 544725278 544741534 544804897 544826227 544836496 544841205 544856085 544880961 544892660 544923229 544934204 544970759 545005370 545066645 545094072 545186336 545203063 545205901 545207956 545276994 545300062 545402599 545403699 545443783 545450638 545497669 545518799 545548782 545559830 545601595 545615825 545656572 545676758 545690653 545711274 545733416 545765684 545811524 545866604 545955282 545961163 545973922 545994032 546023467 546052861 546126358 546130458 546135579 546139783 546177264 546226893 546259999 546327328 546342169 546391158 546403699 546480670 546496343 546501031 546525002 546593334 546669716 546681498 546693699 546724499 546749623 546756220 546768545 546783687 546814967 546929499 546942529 546951022 546962943 546968515 546982479 547002405 547130806 547136895 547149211 547358541 547365714 547390262 547408367 547461185 547497646 547500521 547503041 547506945 547519530 547546337 547580596 547620118 547645326 547651047 547653542 547662262 547678306 547848599 547856157 547883360 547979411 547979538 547989774 547996141 548027319 548039774 548072080 548121314 548135745 548138683 548140334 548154249 548189700 548297520 548297629 548307184 548331206 548333538 548367139 548382872 548418045 548421300 548519821 548527705 548607813 548641439 548642700 548681680 548694824 548731377 548771085 548776456 548807515 548923196 548933576 548934057 548968456 548981054 548981390 549075065 549082028 549156063 549174069 549179982 549184502 549231934 549253470 549292782 549345193 549374832 549375644 549453158 549476215 549530300 549541467 549544029 549551399 549578812 549598045 549609853 549633419 549642961 549661836 549710860 549737989 549750993 549867118 549878171 549921849 549924244 550057063 550086212 550168210 550273180 550283522 550290909 550295093 550315464 550348733 550356356 550383282 550416916 550446103 550523367 550581111 550586172 550595317 550658904 550675673 550721260 550724353 550745195 550787480 550789596 550802029 550805375 550843464 550856131 550889481 550943050 550970368 550977869 551068574 551127482 551138232 551191601 551207331 551207338 551236752 551247087 551323469 551327434 551330792 551336416 551429422 551454952 551489332 551521371 551533480 551588968 551595273 551654399 551695062 551729541 551732758 551738663 551740947 551796782 551815965 551877503 551894041 551920741 551923808 551947010 551987686 552072507 552091440 552138953 552149185 552206683 552222378 552242770 552306546 552315538 552325792 552456147 552508156 552536662 552623589 552713462 552733134 552741982 552760269 552840004 552879226 552888422 552941931 552967166 552992106 552992461 553011472 553046306 553065396 553082394 553097909 553102032 553121787 553145403 553156967 553207109 553213610 553223167 553241937 553479773 553523737 553524057 553541562 553658497 553805977 553812446 553823318 553849166 553875206 553899316 553906024 553975051 554061326 554065453 554078592 554145144 554195115 554232224 554245889 554277339 554327065 554444194 554454207 554466699 554516290 554559014 554604282 554669244 554689507 554701784 554828007 554832725 554908978 554910510 554933028 554937176 554939772 555005902 555035114 555071970 555125645 555311184 555353306 555385273 555425964 555443078 555484205 555508656 555512870 555545794 555565726 555610907 555651093 555730230 555730753 555758728 555813019 555838077 555852289 555980883 555989497 556082209 556150745 556182116 556232284 556256193 556270711 556276188 556279135 556293464 556374131 556410671 556430403 556506076 556520802 556613680 556624589 556627068 556627675 556631667 556665198 556674045 556806703 556853627 556880340 556896884 556949245 556966493 557023792 557033865 557157849 557161386 557198592 557205001 557274484 557277513 557336043 557336523 557356367 557359998 557379250 557419074 557478327 557501548 557522927 557531734 557552570 557586399 557623516 557626142 557666708 557674445 557714471 557719556 557778011 557812430 557824365 557876159 557902041 557905128 557943294 557998098 558059783 558060205 558066302 558124966 558150361 558209570 558270355 558285002 558292839 558297819 558307506 558332695 558360745 558373802 558455817 558466305 558515892 558546188 558549391 558598938 558607402 558631251 558693730 558698612 558757526 558802361 558830956 558908646 558946980 559028394 559095696 559262814 559280173 559290119 559305591 559410265 559453923 559486260 559556403 559579434 559582360 559677022 559688702 559796408 559838798 559839115 559943618 560027073 560167954 560186738 560190618 560267114 560326560 560334991 560336683 560337878 560343800 560355176 560420300 560442986 560485897 560490317 560542071 560554051 560559072 560571567 560588017 560662942 560665077 560680319 560760560 560765783 560768052 560796438 560878791 560906660 560917747 560935377 560936132 560939110 560945968 561025855 561055241 561057520 561124937 561133316 561136555 561252000 561260658 561287715 561292109 561327796 561349614 561377705 561380478 561386663 561389312 561433731 561556487 561599646 561647257 561666157 561680605 561690512 561723174 561740765 561768914 561805070 561864799 561887385 561895319 561976186 562063172 562105658 562133390 562147555 562152787 562161654 562259711 562271659 562305766 562322104 562355066 562370573 562371918 562394012 562415032 562589847 562647344 562695835 562696250 562829460 562872632 562875120 562881926 562928284 562991482 563021175 563134677 563140444 563169055 563195586 563200530 563218534 563252511 563313714 563350778 563363525 563591317 563644205 563644453 563659406 563708846 563739569 563785844 563847484 563946750 564035172 564052396 564052856 564059922 564092511 564183382 564251376 564291768 564303169 564317149 564332863 564363128 564429258 564437341 564525441 564572527 564632888 564661974 564675048 564687440 564699185 564704363 564755695 564782281 564787303 564861771 564897345 564921062 565039558 565097728 565159438 565184131 565293484 565297431 565361450 565409659 565454644 565465929 565540998 565612485 565618731 565622058 565642062 565655364 565728024 565778244 565868819 565872873 565989392 566004372 566024680 566034010 566075938 566079253 566149395 566188329 566220061 566225333 566268419 566409647 566431065 566445264 566459929 566483287 566485052 566492137 566573501 566606310 566607212 566616718 566617892 566697071 566697400 566746548 566815818 566838720 566839241 566875120 566923933 566931251 566954500 567000357 567027188 567091748 567140471 567155451 567166233 567203593 567220478 567279657 567364629 567386669 567441593 567448397 567479584 567538946 567576207 567591866 567604784 567608767 567619964 567685107 567686556 567691112 567721639 567734782 567738732 567917469 567929536 568004316 568016546 568043858 568092478 568117419 568226298 568333078 568334676 568357999 568383568 568414623 568451539 568476402 568511720 568514119 568547783 568548010 568584650 568660518 568711825 568754884 568792226 568806828 568845605 568868264 568870589 568907877 568915703 568919661 568932024 568981670 569006060 569015600 569102775 569184372 569187674 569197499 569239851 569260737 569390881 569450265 569496625 569499063 569509599 569533368 569568970 569571974 569577354 569741597 569749368 569778555 569813962 569815883 569855643 569927436 569948034 569955641 570017540 570089285 570099622 570103436 570107273 570142022 570150127 570164363 570182683 570222214 570244941 570414922 570423887 570435319 570494340 570547781 570551664 570571976 570616158 570707628 570734724 570735500 570758498 570799541 570839875 570910864 570920665 570934870 570943190 570951403 570976947 571008453 571022822 571023837 571034712 571034921 571206067 571289253 571338511 571345826 571356298 571424296 571427786 571459737 571559776 571565825 571584366 571627737 571680919 571684449 571701985 571801311 571813722 571872328 571881785 571920213 571921040 571990012 572013509 572036676 572045191 572074399 572087745 572163823 572317369 572329536 572329642 572407585 572425874 572499611 572519382 572631026 572682530 572715331 572761203 572797599 572818650 572914434 572999189 573012237 573182031 573191377 573214760 573224354 573244130 573294018 573311252 573326317 573362976 573368201 573369493 573434660 573439951 573456578 573575011 573613444 573625494 573654811 573707301 573742554 573800248 573842369 573851959 573921141 573932361 573936987 573953409 573986683 574022692 574043991 574055451 574118150 574126798 574204934 574214422 574249165 574256305 574261244 574308363 574333565 574368775 574398651 574415351 574416016 574422757 574449714 574453011 574464673 574500455 574575249 574583104 574608813 574646737 574700570 574753487 574760416 574789853 574830583 574864778 574869727 574879603 574893554 575003942 575062403 575080624 575091451 575097350 575100804 575105128 575122966 575128516 575193917 575215894 575230613 575266270 575279542 575327621 575391077 575428162 575468472 575470876 575481629 575492189 575498942 575559144 575594875 575612920 575624803 575625772 575695542 575702629 575728287 575759318 575933393 575988693 576047527 576051185 576082438 576090039 576186856 576212956 576276090 576372590 576455822 576465968 576467149 576529211 576571551 576608164 576677083 576697636 576702010 576718514 576729839 576743231 576775876 576903688 576958510 576993178 577012294 577031603 577068590 577079755 577129127 577137863 577205537 577221030 577392668 577404073 577437297 577530102 577574265 577608383 577610063 577692361 577704543 577707421 577719813 577724599 577737665 577788846 577802878 577831763 577963531 577979754 577989407 578060173 578079617 578172941 578265387 578277166 578281014 578313432 578315509 578380475 578434996 578482994 578534117 578611620 578662857 578672156 578697189 578727862 578753766 578770064 578779690 578803406 578807124 578870723 578887121 578892294 578897420 578943292 578964731 579016458 579049980 579058422 579102571 579143294 579156520 579268306 579304973 579332091 579334200 579342642 579344507 579381464 579416477 579467774 579475498 579481916 579495459 579609334 579617463 579635027 579669830 579704028 579707490 579810910 579828140 579870597 579879551 579888260 579928739 579973642 579984845 580014961 580102206 580123654 580161256 580267991 580331909 580340919 580374607 580408332 580588470 580594924 580651247 580798481 580870795 580879464 580913791 580969090 580982838 581002188 581042146 581078811 581082474 581083687 581122517 581124003 581195585 581211118 581218207 581246344 581316678 581317158 581323590 581326247 581330328 581340998 581359798 581523262 581551974 581571450 581575491 581661529 581725986 581733212 581743735 581797324 581845373 581857967 581870822 581983246 581986054 581991377 581994317 582069244 582104080 582158932 582160617 582179777 582244269 582307346 582407643 582426803 582519378 582525017 582563974 582585760 582604250 582614871 582622489 582667440 582728980 582774909 582775511 582779220 582782110 582802317 582804072 582857735 582864290 582877285 582938454 582941776 582948911 582965429 582981859 583019688 583026037 583038131 583044550 583163892 583203316 583258888 583259506 583337579 583364319 583378940 583391550 583410468 583415753 583423324 583434045 583434681 583446767 583471395 583527947 583537444 583539752 583543721 583546392 583562592 583615999 583642761 583667493 583714037 583732848 583751293 583759336 583829693 583897105 583907653 583958398 584008304 584040749 584080272 584087406 584114167 584116090 584125310 584130801 584144536 584145388 584147183 584166094 584220796 584251111 584272506 584276124 584298880 584313270 584347949 584374395 584433703 584466562 584568043 584578974 584590318 584688086 584773923 584774008 584818745 584842334 584855767 584865458 584916785 584943050 584951345 584988909 585009121 585036798 585110744 585146763 585175256 585186218 585207481 585291593 585324232 585341350 585358689 585363620 585392952 585397112 585412835 585461702 585519147 585536869 585554470 585567264 585700443 585745958 585769513 585787945 585878241 585995925 586019214 586105194 586119817 586142224 586152631 586158680 586179265 586213543 586253297 586253643 586269096 586316792 586428613 586433178 586493244 586646761 586682039 586737405 586740172 586754187 586757683 586844777 586879192 586909291 586927279 586935126 586943061 586943378 587003530 587080645 587101662 587149750 587209991 587210344 587236738 587275479 587283586 587293114 587295591 587347180 587383974 587431794 587433752 587439457 587483298 587500273 587522998 587840946 587859762 587867782 587902772 587906785 587925910 587929223 587947291 588027396 588057483 588085652 588123302 588157658 588177055 588180894 588235696 588279696 588305809 588444010 588488171 588562827 588575024 588640499 588698203 588721919 588845113 588856699 588871627 588885743 588906224 588912788 589023770 589067176 589098019 589139058 589151156 589171514 589191760 589202378 589269795 589452726 589465747 589490807 589514917 589519489 589520459 589526583 589550877 589623340 589629701 589630932 589673684 589675710 589738660 589744871 589749125 589757737 589786938 589868657 589870900 589871852 589877122 589878557 589889766 589989315 590017614 590018487 590043768 590109483 590120081 590142724 590165935 590169276 590171475 590219349 590340449 590372100 590383242 590487753 590537795 590587729 590650522 590657911 590672234 590692299 590707655 590718629 590734780 590767861 590831057 590851679 590861150 590874597 590925582 590954403 590974499 590975131 591066649 591073607 591080374 591104440 591146581 591172619 591198998 591419750 591467574 591495239 591537492 591548238 591567687 591583895 591704858 591744268 591768889 591788314 591790458 591844566 591845869 591913536 591929729 591995687 592014397 592023880 592041401 592060707 592063801 592130828 592136017 592166958 592246367 592284039 592350698 592373439 592378804 592407877 592416109 592482295 592484343 592489777 592565776 592583319 592599939 592680124 592681205 592830754 592894978 592930545 592934243 592954269 592976881 593083078 593086247 593100681 593167092 593197557 593274516 593327592 593417091 593438949 593444934 593490946 593516320 593614454 593674590 593704807 593722151 593725432 593748717 593805833 593857011 593869842 593897123 593906577 593971093 593987635 593992015 594089981 594120609 594147201 594151089 594202668 594217040 594220775 594234084 594269542 594284588 594300291 594326817 594379710 594387307 594390796 594560659 594578582 594594182 594596463 594599643 594709986 594715141 594736856 594740597 594746996 594761353 594804711 594829416 594829776 594839208 594927173 594934245 594963397 595018434 595034157 595062852 595082139 595113216 595135423 595139474 595166714 595187849 595242511 595279271 595298890 595327479 595408265 595448650 595520557 595563796 595642598 595694436 595695409 595813266 595867147 595874762 595879653 595989623 596083467 596087536 596105374 596162162 596216799 596350948 596371426 596465680 596469800 596491475 596493356 596521433 596541951 596613897 596667196 596668040 596670546 596739846 596754700 596778898 596786330 596787035 596793538 596798467 596805143 596845609 596887596 596957357 596973882 596979032 597097244 597117541 597199661 597301085 597342599 597345119 597364924 597443825 597459631 597464854 597476329 597553467 597554111 597560160 597611794 597649815 597684196 597703764 597741787 597741847 597790017 597823111 597826210 597928531 597949757 598010878 598050928 598051702 598083777 598084014 598096841 598108660 598137292 598169236 598309239 598313304 598353364 598374354 598381536 598399305 598495298 598498213 598567694 598598932 598612243 598614767 598701861 598798289 598814301 598822544 598834664 598864197 598896627 598913986 598987963 598994778 599053212 599117057 599156149 599179747 599219710 599235011 599270003 599293051 599293365 599303192 599338794 599404382 599425718 599532829 599558027 599605214 599641976 599736826 599892143 599892601 599910644 600022625 600025650 600115197 600152653 600246596 600247235 600272504 600280088 600297813 600463840 600567733 600649112 600653104 600655857 600695344 600721420 600730775 600770238 600775738 600792319 600821383 600949484 600984380 601039454 601077680 601082701 601091057 601132575 601159487 601231752 601263428 601274697 601298009 601352713 601376345 601423053 601459881 601505944 601546213 601593935 601611116 601655104 601701346 601757193 601759649 601769440 601886031 601917422 601980125 602015821 602058438 602071327 602129471 602150752 602161501 602168919 602193127 602212807 602220337 602269944 602294649 602300957 602318700 602361920 602380733 602395813 602434452 602442367 602443753 602502463 602507254 602511132 602641309 602649257 602649683 602707672 602711705 602756680 602759462 602803415 602830598 602846133 602883289 602947137 603053049 603200323 603202187 603219215 603258006 603279243 603280836 603330264 603355219 603360695 603429433 603563602 603589450 603594023 603646672 603661798 603717288 603721615 603733099 603765570 603813271 603848936 603859750 603875440 603892984 603958439 603973192 603999827 604056947 604059076 604070154 604081652 604112685 604137196 604163098 604264201 604264648 604317012 604333203 604362853 604377778 604400626 604405277 604407393 604515708 604520776 604530362 604542858 604569480 604578983 604683380 604705786 604708866 604753250 604754705 604838174 604917401 604930861 605002044 605083890 605114207 605128480 605161196 605175732 605195097 605230067 605238113 605250813 605257071 605290276 605297636 605298974 605313103 605327717 605422830 605432205 605506029 605523219 605526537 605532047 605547291 605566241 605647868 605648568 605810917 605865403 605920105 606037026 606120560 606138464 606150082 606178572 606200847 606228672 606302276 606325971 606345744 606359454 606366344 606434233 606499357 606507925 606535431 606559663 606567200 606613175 606657258 606797892 606866361 606887932 606983109 607126223 607157679 607179554 607185359 607198584 607199227 607202605 607240703 607267120 607301958 607309974 607325781 607369942 607447235 607448747 607466621 607523164 607525400 607598563 607684023 607690546 607709091 607709537 607768010 607776520 607778989 607789563 607794239 607891879 607911862 607918544 608023284 608028485 608111933 608130376 608131529 608169752 608200715 608211009 608234105 608248865 608275215 608306684 608351004 608361594 608380021 608414178 608509188 608528931 608543973 608582342 608586541 608657072 608661568 608695561 608823852 608827779 608944019 608982510 608990821 609051162 609072764 609083648 609109486 609140017 609144999 609148269 609230660 609295186 609304120 609336710 609481174 609495864 609498728 609512854 609539916 609564721 609638012 609743082 609760900 609767329 609773175 609817327 609916784 610005021 610007579 610083353 610116777 610172925 610186152 610217701 610222025 610297319 610420155 610439923 610481331 610575279 610590633 610590681 610591770 610719411 610753183 610768414 610791312 610811698 610895216 610895942 610909907 610971843 610988738 611012269 611079773 611108826 611280936 611289735 611298273 611317121 611317168 611329608 611383058 611398286 611466888 611730234 611834968 611957210 612069710 612111313 612127996 612163080 612274966 612304722 612304734 612323891 612324015 612433650 612470870 612568046 612569032 612607773 612682046 612742775 612751749 612754498 612843942 612844127 612855707 612907517 612913911 612914019 613025163 613075914 613076864 613081875 613109565 613208709 613295404 613428989 613476056 613525220 613535112 613559845 613579687 613690052 613691091 613710361 613713227 613722949 613772640 613902853 613903945 613946576 613994572 614005408 614026950 614038553 614044176 614095841 614109987 614138101 614218503 614234736 614298508 614343843 614374213 614376966 614398588 614430721 614490912 614617805 614714450 614811713 614823958 614824741 614917263 614945677 614963242 614977266 615017687 615044027 615046122 615177849 615192537 615202337 615223254 615240513 615265749 615290857 615302226 615326279 615334417 615338630 615414475 615418433 615437793 615508755 615523862 615539703 615593410 615674287 615688735 615724683 615815015 615850617 615873050 615885297 615916425 615934039 615975832 616052114 616071344 616086086 616113344 616117354 616213739 616219367 616252420 616288712 616296889 616309201 616336333 616347629 616354931 616377874 616384580 616445670 616499683 616512476 616532626 616570196 616592009 616614832 616653830 616665320 616672622 616694496 616727186 616754091 616769443 616802236 616805699 616902852 616908833 616930800 616955433 616992593 617002927 617010965 617014610 617042712 617076238 617077129 617219597 617250774 617339083 617378787 617442893 617482070 617579597 617678133 617752838 617767585 617831021 617868720 617908517 617944426 617961073 617980898 617985906 618019924 618025281 618122868 618125029 618158318 618188626 618264064 618311651 618384072 618400502 618408620 618444824 618456643 618476108 618488877 618498969 618591560 618609751 618638727 618698184 618743353 618849192 618930775 618970131 619019176 619032478 619037786 619046223 619111808 619119205 619123640 619129587 619162589 619169610 619189406 619209017 619218810 619228147 619229168 619232059 619291073 619370411 619434995 619444262 619489483 619491117 619504075 619617240 619651322 619717092 619744441 619790536 619797878 619813018 619818623 619826082 619846188 619892375 620042469 620088440 620126893 620143376 620163755 620231932 620260339 620304840 620347531 620365706 620371307 620372576 620460177 620465232 620536331 620542713 620623007 620698812 620746253 620768774 620778899 620781977 620828245 620850248 620861999 620899677 620910135 620971990 620998704 621002383 621004646 621048414 621069904 621099489 621109707 621116308 621182286 621231024 621242427 621284940 621325101 621353977 621400541 621428423 621447030 621485574 621514478 621528887 621533954 621540849 621608295 621696135 621703726 621706799 621715291 621727796 621729526 621781486 621836515 621878524 621890819 621898691 621903693 621983697 621999785 622054959 622114307 622118049 622133486 622138153 622210785 622251375 622267258 622283905 622303721 622364625 622435133 622491760 622497649 622565998 622582691 622650957 622653228 622659570 622784277 622784873 622840583 622842167 622892782 622916965 622928239 622932581 622955614 623075326 623120882 623224699 623225934 623267757 623295907 623315217 623344714 623426716 623507233 623512765 623514518 623516771 623519174 623548419 623554909 623597241 623609318 623654710 623668210 623689622 623745054 623787865 623788095 623823127 623834928 623859038 623868745 623869007 623924599 623968986 623985008 624048600 624070776 624072970 624075283 624110866 624129133 624233744 624292117 624304063 624335454 624351510 624355357 624356985 624419146 624457759 624578964 624585238 624589283 624646496 624791889 625051576 625119749 625138923 625147556 625196960 625365921 625382687 625413447 625549829 625569033 625591934 625605944 625668611 625705832 625733341 625740006 625755384 625780753 625827099 625834836 625870625 625910982 625935738 625989114 626051737 626079270 626087264 626117123 626127348 626128719 626244015 626273832 626296786 626403875 626450774 626531691 626549691 626566866 626722311 626782370 626794695 626796227 626797352 626837537 626909492 626920444 626943299 627019062 627032536 627080930 627107893 627119454 627153397 627214776 627263994 627327275 627343673 627346514 627398781 627487751 627624122 627652022 627689664 627758133 627881009 627892648 627946934 628008911 628053607 628086816 628094033 628143739 628185604 628195279 628209564 628236422 628245802 628347619 628353280 628370186 628408128 628435387 628439385 628494995 628522357 628526162 628586683 628596582 628608109 628654562 628674443 628675197 628676266 628679785 628703529 628801563 628806102 628813893 628864235 628896752 629098035 629114038 629167491 629180254 629181781 629201242 629228247 629365916 629629513 629647698 629710356 629724694 629759236 629803662 629834181 629872632 629903150 630069369 630270677 630321963 630343695 630356888 630416972 630423327 630445781 630472673 630544117 630572354 630606341 630615387 630638261 630681196 630736368 630757802 630803387 630811225 630829222 630857318 630860104 630861488 630872801 630956735 631044449 631071040 631170776 631188204 631196250 631209362 631242117 631286889 631309057 631313087 631316455 631321026 631475932 631481176 631508771 631565567 631765667 631781550 631827142 631867838 631868247 631905184 631918992 631924507 631937675 631965199 631970798 632007079 632009421 632069236 632156311 632177271 632192776 632199786 632202138 632256309 632300810 632305629 632310412 632385206 632387664 632428015 632428932 632448988 632482666 632532942 632546151 632547199 632589194 632706991 632710236 632724413 632725879 632743220 632751420 632811908 632869220 632916057 632956196 632985908 632996136 633036764 633065902 633240332 633311963 633330759 633379760 633390308 633444249 633500653 633521311 633552929 633576314 633583179 633631035 633693213 633778241 633842437 633908449 633949545 634030823 634030914 634116767 634131412 634133448 634167924 634329406 634421692 634430692 634459255 634464226 634494528 634524781 634554296 634718596 634864171 634912068 634973095 635007666 635013839 635022743 635047232 635049205 635056580 635131212 635182966 635198889 635203006 635233137 635237169 635239544 635249337 635476368 635488287 635497430 635517765 635526727 635530924 635568948 635603460 635647559 635647671 635720254 635723993 635766063 635775686 635777373 635857954 635901068 635905556 635937618 636029415 636078050 636100205 636143718 636246735 636255811 636324936 636330258 636338084 636338682 636373303 636409233 636420337 636427353 636442480 636478451 636481801 636497975 636550999 636554622 636570134 636606068 636611484 636858072 636878571 636890276 636912804 636945239 637028597 637085573 637086234 637099125 637109731 637147225 637167457 637169691 637216996 637286830 637293141 637342942 637372597 637426268 637472029 637508983 637509362 637704825 637898043 637927143 637964500 638022823 638057780 638080048 638102377 638178189 638290454 638352513 638379444 638383117 638417769 638434182 638510172 638510978 638550536 638639235 638646688 638679840 638686191 638697106 638796089 638797404 638802217 638802940 638824724 638896661 639008180 639009790 639083194 639088780 639197339 639260229 639272175 639291941 639341854 639394099 639503705 639524321 639533538 639538467 639549371 639550699 639632750 639636910 639653917 639668734 639715548 639741930 639789867 639798098 639846270 639947804 639962990 639988181 640036436 640049016 640077982 640140506 640160614 640166758 640231984 640240982 640251014 640270622 640294521 640368136 640385985 640386557 640468583 640509660 640517977 640570132 640590122 640651440 640663154 640669366 640685062 640708099 640725867 640727835 640810804 640814456 640828434 640927978 641027652 641037616 641140117 641148553 641186591 641236603 641254205 641443235 641495026 641496113 641496245 641586115 641639622 641645369 641672035 641781586 641817309 641909054 641931671 641936418 641959584 642025982 642029972 642050347 642109691 642131468 642238229 642258040 642270129 642306411 642310881 642340835 642353719 642356127 642457679 642475425 642543809 642570486 642572233 642573658 642671061 642673964 642758438 642759592 642780185 642782439 642831424 642832950 642835916 642891013 642914905 642962917 643007460 643030032 643032677 643039475 643042863 643154177 643163104 643192372 643231080 643257846 643258601 643263744 643301306 643316365 643357723 643527414 643532242 643576169 643604957 643635606 643647443 643687283 643709408 643735271 643823311 643834068 643849088 643873003 643877840 643886812 643924327 644005082 644013690 644033579 644047587 644075695 644107349 644166763 644206771 644244206 644361821 644377572 644440390 644518917 644554009 644564221 644575773 644604485 644618920 644623406 644654689 644671033 644695897 644727873 644738280 644835091 644879646 644881984 644908747 644983948 644995013 645046307 645053776 645079383 645091639 645105447 645112777 645126171 645162366 645189024 645303604 645309288 645390747 645441088 645448522 645467414 645474605 645489093 645495953 645534391 645614278 645724829 645739185 645762767 645819993 645840549 645894359 645977645 646027222 646033223 646046660 646100000 646216802 646275834 646279592 646287455 646344979 646352866 646372690 646414320 646473033 646494083 646523011 646540083 646565840 646618428 646643348 646678481 646688215 646781503 646786376 646823840 646845568 646907137 647131705 647183774 647184994 647393365 647403651 647439573 647506598 647516530 647518620 647526799 647547541 647578639 647599802 647646962 647707888 647823444 647840798 647921332 647936770 647961873 647966679 647985951 647986998 648010173 648017330 648033743 648059440 648069609 648115727 648279267 648303267 648327830 648332207 648353109 648370865 648374686 648426448 648449309 648450685 648478047 648478493 648515476 648531428 648559876 648650826 648677546 648691526 648699700 648828603 648913448 648946272 648956161 648985659 649050168 649078881 649135926 649140828 649220177 649254065 649333323 649340802 649521704 649538062 649564236 649572657 649607205 649612469 649718633 649793708 649840527 650026549 650062919 650146641 650216992 650217992 650219365 650226089 650254960 650257439 650288079 650321223 650322512 650324609 650331521 650367512 650390768 650437535 650466454 650473582 650491984 650515806 650530204 650600054 650658540 650659401 650672649 650742110 650744513 650753163 650768993 650769878 650824275 650877981 650944805 650964805 650980769 651016496 651042376 651051174 651121992 651134409 651191872 651214321 651275948 651355850 651405656 651423474 651430834 651487196 651488805 651496506 651540673 651546564 651563373 651573916 651602108 651604617 651631822 651664149 651664522 651682306 651700547 651714211 651717998 651734507 651754400 651756476 651762705 651791839 651810769 651814926 651872687 651876525 651943000 651948269 651966080 651966923 651967768 651981112 651999013 652007864 652063189 652119471 652128458 652161507 652166751 652171565 652207533 652262931 652283743 652288800 652322990 652361205 652373927 652405034 652446154 652467972 652658303 652701473 652702983 652715422 652765843 652769329 652819844 652835446 652890141 652894131 653012258 653013593 653039994 653082045 653088911 653101560 653110357 653117300 653123602 653183779 653184888 653224333 653226628 653264574 653280223 653302572 653316332 653336272 653365277 653466031 653562172 653562840 653606994 653643282 653689454 653817950 653870426 653937413 653942198 653987663 654010532 654116263 654151849 654167353 654177130 654188154 654191410 654193470 654212462 654229257 654238461 654265377 654300228 654321131 654324111 654386776 654391458 654392203 654417014 654419823 654468726 654507571 654548211 654550132 654657925 654702438 654729501 654742894 654744494 654748080 654804767 654901483 654935261 655014969 655036270 655080172 655171864 655173297 655215061 655267887 655304384 655336126 655343412 655356336 655375020 655389148 655404781 655420121 655449490 655449999 655461690 655573538 655602150 655602440 655658622 655677196 655755575 655793851 655799122 655825105 655847906 655874329 655913520 655929805 655942002 655951242 655987748 656067154 656096364 656152022 656163209 656200504 656267368 656272210 656345511 656354793 656361912 656375529 656382550 656401202 656482197 656498764 656546881 656555727 656597165 656608358 656643668 656677689 656708377 656727625 656825858 656888006 656929820 656954071 656981011 657048300 657076510 657081104 657107553 657108107 657134232 657157606 657190059 657211779 657254385 657264562 657280385 657308908 657326816 657335316 657351610 657380945 657429647 657432055 657432241 657496823 657504447 657516108 657671854 657736754 657798865 657815169 657847406 657848912 657901996 657903326 657913689 657937943 657959746 657968394 657981528 657984522 658002590 658002887 658004088 658014748 658159271 658166297 658218950 658219929 658223978 658238415 658256937 658293599 658382322 658441237 658525935 658576776 658597466 658619438 658621635 658656553 658666908 658678037 658679212 658686330 658723688 658793366 658798416 658815702 658820298 658829833 658864604 658910179 658927688 658960332 658967265 658980643 659015398 659023051 659069610 659115574 659143216 659146188 659173165 659226173 659298378 659341095 659355777 659373691 659384128 659391575 659443943 659475759 659478116 659488403 659620546 659628034 659632589 659657064 659818095 659908196 659976093 660020139 660051674 660055007 660071031 660091378 660112626 660164624 660264222 660265546 660314881 660348643 660351459 660361513 660385739 660435251 660499602 660499733 660570221 660642835 660650987 660651040 660665764 660802016 660805066 660811700 660831241 660857160 660868411 660872765 660913658 660937353 660942576 660979689 661038075 661097535 661102511 661131851 661146552 661223200 661265966 661280444 661319519 661358561 661443545 661459865 661469448 661487437 661522764 661570482 661582036 661595423 661597459 661687496 661781068 661885956 661972456 662006280 662019819 662165000 662195315 662201163 662240100 662358535 662360799 662385416 662387383 662396717 662419047 662421357 662540785 662544645 662555018 662603513 662722966 662836083 662859837 662892415 662959440 662986520 663010887 663017112 663054627 663086183 663103009 663175295 663206395 663212518 663213310 663282647 663332802 663350162 663410942 663451196 663455411 663502319 663520778 663563001 663674321 663721045 663758875 663771327 663776113 663794415 663809163 663845372 663924957 663961612 664001918 664037748 664088758 664106978 664223093 664238602 664245740 664257981 664269569 664289462 664332758 664342205 664367754 664380588 664434026 664440876 664452765 664475339 664477924 664565407 664633756 664652859 664702486 664732044 664753478 664777500 664808045 664829007 664833394 664839937 664853209 664884697 664900993 664943231 664956235 665079180 665106181 665118747 665144666 665169040 665224457 665295757 665307828 665320075 665360524 665416618 665429510 665457496 665478756 665518461 665573586 665589826 665637849 665686676 665690878 665699857 665718007 665720704 665752847 665789441 665862342 665979040 665993720 666179928 666196137 666234383 666292397 666328812 666335131 666372557 666377195 666402212 666445675 666546781 666550039 666560016 666567436 666579780 666610402 666613363 666778400 666786409 666843903 666851055 666878658 666948934 667044660 667105909 667119980 667128614 667171682 667190540 667220728 667257155 667280206 667285908 667320621 667343087 667346773 667369637 667382744 667422466 667464933 667468678 667498940 667543492 667589699 667667675 667670211 667697072 667762901 667763326 667782365 667800860 667802709 667845823 667873824 667885452 667886861 667917539 667918007 667935440 668008008 668009118 668039023 668053691 668080928 668090980 668102625 668103720 668116879 668203216 668236418 668276004 668314218 668407623 668436522 668586537 668628124 668632528 668645900 668667126 668782394 668808024 668851730 668863487 668864948 668895298 668942951 668961265 668969060 668979615 669015195 669023647 669048755 669070596 669070787 669132845 669135350 669185958 669284346 669300418 669307381 669332920 669366455 669394113 669418562 669426687 669510220 669518516 669530952 669570215 669570263 669599593 669610520 669711226 669714686 669725080 669859316 669882295 669902127 669927288 669935213 669996383 670012175 670051327 670077570 670103335 670154645 670213480 670232499 670235020 670235970 670258883 670263243 670267632 670288158 670293662 670310918 670322094 670328087 670334449 670367821 670389430 670440013 670453525 670462675 670478904 670485360 670497047 670526828 670535084 670558004 670563102 670565700 670575226 670656349 670704483 670821450 670931280 670933033 670990804 671029574 671273165 671308499 671320945 671321288 671344179 671362428 671390772 671443472 671456997 671473720 671520716 671542806 671579276 671709108 671749845 671775445 671802601 671819996 671824977 671850202 671855158 671866581 671904159 671919998 671962266 671983436 671989699 671998961 672059035 672112662 672132359 672134758 672186185 672206416 672208437 672261856 672284784 672305907 672377133 672378289 672394848 672398592 672410904 672424489 672468977 672479125 672482237 672497361 672567054 672583721 672603575 672626060 672633971 672652199 672678338 672695072 672710469 672818426 672827445 672879972 672942291 672952011 673087383 673105864 673145512 673153893 673168778 673270330 673301682 673320828 673323997 673367647 673413521 673434240 673484086 673489523 673521607 673539033 673539488 673573399 673578598 673582649 673667045 673682010 673683548 673684452 673685985 673715846 673724163 673733422 673771670 673795574 673811745 673871149 673888338 673902760 673949647 674035039 674056964 674092655 674205257 674222462 674246415 674286502 674306400 674318240 674381267 674419753 674422456 674439235 674475191 674487661 674501575 674506839 674544254 674617690 674731256 674738848 674770249 674827104 674889501 674924262 674929650 674933852 674941556 675019472 675074884 675075001 675128664 675142883 675158252 675179984 675281315 675310626 675317279 675355039 675399445 675406575 675428088 675486392 675539612 675573496 675627653 675697697 675825720 675834858 675850361 675856339 675876715 675975103 675980297 675982323 675982718 675992074 675993368 676085211 676118181 676136469 676147658 676195207 676266475 676270004 676339853 676380330 676391819 676418268 676454033 676454415 676455001 676479597 676554943 676591195 676679196 676704173 676710156 676713270 676753737 676757664 676758884 676782475 676788427 676805490 676807691 676837248 676865084 676904593 676913831 676936590 676990997 676993820 677019033 677057914 677059349 677063144 677155603 677159197 677190852 677198717 677227961 677233527 677244610 677289234 677309963 677311050 677327371 677400722 677407799 677461578 677478984 677500130 677537368 677549680 677570410 677599285 677616271 677683726 677734606 677736774 677789530 677796417 677808757 677849706 677856766 677856773 677886489 677930406 677935363 678079284 678111957 678164769 678223306 678234140 678290609 678292896 678350871 678358820 678382209 678447205 678469517 678547690 678549426 678559017 678618311 678641424 678671325 678713027 678836311 678862539 678916124 678924366 679005165 679011464 679249572 679329740 679354840 679376855 679425493 679467267 679468053 679491605 679539099 679564357 679597947 679602687 679655892 679755334 679795743 679800453 679838712 679879375 679918690 679936247 679939591 679944117 680019389 680049397 680056522 680121941 680162133 680204391 680204953 680239564 680309120 680357907 680400567 680413984 680430442 680452804 680508451 680546817 680575739 680665831 680693097 680706917 680717179 680800457 680850247 680850286 680962804 680977160 680977267 680981729 681000222 681055443 681078126 681115501 681134218 681136393 681186891 681215924 681232184 681316751 681317901 681321551 681346118 681382000 681434944 681435699 681538083 681563974 681576331 681594238 681668571 681680154 681695159 681721270 681751703 681808938 681825645 681867820 681927409 681958508 682048381 682057518 682061850 682078565 682101462 682119705 682160210 682218091 682298695 682351344 682518479 682542725 682587186 682588889 682659289 682664998 682683482 682693898 682706656 682711714 682770366 682845211 682863110 682892481 682912361 682992100 682993752 683006176 683017050 683055717 683080361 683087210 683143596 683208464 683223070 683231727 683341283 683379436 683408645 683451833 683571082 683577245 683608348 683676821 683679619 683692777 683731377 683735878 683762068 683826270 683864535 683894342 684035988 684042194 684062640 684075390 684087598 684167094 684272202 684311161 684329346 684332459 684350402 684381861 684402692 684413074 684429378 684461581 684475645 684483025 684544667 684582445 684659561 684661551 684675668 684713034 684751927 684763509 684782826 684814870 684845770 684866215 684880741 684892050 684937545 684971446 685004583 685028713 685044118 685121180 685131458 685176196 685176793 685179065 685193565 685213854 685222880 685302114 685319870 685384528 685433960 685467738 685598638 685649588 685650620 685770391 685800471 685805356 685856704 685869142 685917084 685919978 685936465 685943551 686002342 686014176 686333629 686376341 686407746 686474491 686480726 686490148 686513296 686553108 686651432 686673412 686681077 686719653 686744930 686851707 686913845 686973691 686996076 687024636 687064949 687097022 687118588 687226729 687270205 687324205 687326259 687350060 687374947 687377775 687429501 687430179 687478308 687494228 687509569 687626546 687651340 687654419 687674928 687698914 687725067 687744411 687749873 687780972 687948561 687965074 687968551 687976903 688020665 688126386 688139330 688248452 688265070 688400193 688400901 688431005 688450005 688474662 688554519 688576151 688622117 688647504 688695410 688708260 688722882 688765013 688802422 688854691 688862992 688914375 688943756 689012947 689023990 689063411 689065544 689074037 689123024 689128246 689144110 689154059 689189895 689194830 689210734 689222375 689225634 689237099 689285855 689309810 689363744 689452654 689501248 689506519 689509879 689651263 689729909 689764932 689790472 689804065 689845615 689882748 689904320 689979925 689983867 690027540 690082575 690208686 690215753 690224180 690263010 690266021 690269864 690318934 690359872 690377580 690399389 690414060 690437179 690488891 690490157 690493333 690525727 690585997 690597017 690615064 690667961 690677105 690683347 690683368 690744768 690758194 690826661 690857351 690872599 690948133 691008526 691041880 691101932 691137969 691161251 691172574 691180436 691240078 691318048 691345123 691351719 691360695 691378352 691403251 691414469 691494878 691564328 691575384 691603385 691640023 691654049 691679727 691694473 691727354 691895400 691931045 691949849 691994439 691996480 692005160 692005657 692012602 692013387 692091055 692136667 692164615 692165625 692307123 692334757 692335814 692350597 692350871 692352866 692390488 692401960 692424295 692441188 692442779 692460140 692539640 692643148 692672748 692673703 692728724 692797355 692812944 692968313 692991736 693004115 693015433 693099510 693117773 693148071 693190371 693283955 693289458 693295938 693331082 693339968 693341041 693383383 693450784 693466977 693485634 693488592 693522920 693605267 693606319 693734163 693750032 693758589 693812075 693871808 693917206 693942009 693969436 693971478 693975997 694090312 694136167 694170411 694200584 694220003 694294231 694351962 694376387 694390600 694394165 694444494 694456043 694500956 694533364 694573473 694574943 694602252 694644453 694671740 694676481 694722389 694760985 694776119 694780655 694803336 694807591 694873233 694886692 694886768 694915751 694919548 694943321 694948912 694966787 694995755 695023764 695048531 695071581 695102631 695261222 695335756 695366907 695376002 695387246 695436026 695501718 695534404 695566027 695620038 695718426 695758144 695771021 695795285 695829237 695863336 695872090 695912455 695948479 696023775 696080008 696089146 696223877 696281073 696300372 696316228 696332953 696370618 696469072 696490618 696616823 696622502 696712219 696806275 696880217 696891410 696975863 696995347 697007164 697080151 697087682 697131691 697188181 697230708 697350795 697375128 697382959 697416478 697453232 697465745 697493617 697594786 697633201 697649266 697667425 697698187 697705336 697722368 697755159 697757025 697764801 697798106 697843746 697874361 697884405 697920790 697926426 697968399 698007609 698014878 698071165 698130257 698153106 698158908 698177071 698234217 698267177 698300724 698325177 698376765 698379068 698382363 698408652 698422613 698463554 698470092 698478260 698501516 698670331 698675514 698688691 698791150 698820479 698842138 698886545 698925332 698972414 698988831 699105579 699119814 699133137 699150081 699178578 699182483 699193270 699363654 699372309 699407990 699462442 699465727 699472999 699488559 699520204 699523245 699537563 699565694 699570670 699604913 699634098 699656446 699670923 699709357 699722937 699745693 699774512 699776295 699834217 699880264 699905812 699914457 699953254 699963608 700062166 700127998 700140174 700145180 700153044 700178619 700193888 700211134 700265378 700270269 700332885 700360731 700370978 700423537 700444333 700528130 700542547 700571865 700585132 700638086 700673910 700750693 700792763 700829853 700851205 700882929 700902028 700920209 700959030 700970496 700977153 700987161 700992797 701008543 701049379 701080524 701117095 701203178 701260657 701277498 701339529 701340952 701386965 701414602 701415686 701428864 701442303 701466679 701470667 701477379 701551124 701591204 701606965 701643549 701644025 701734325 701743976 701756026 701788246 701795346 701805665 701892602 701930923 701961430 701994454 702011526 702013150 702057551 702098829 702146593 702262657 702316416 702432377 702437614 702451479 702466376 702517135 702585234 702650218 702779968 702810458 702813597 702859016 702881648 702890404 702920158 702921956 702957451 703029186 703094300 703151185 703167775 703233631 703290856 703297042 703329671 703375097 703416595 703448273 703461565 703476305 703503676 703564580 703657264 703683498 703717600 703723846 703802294 703905301 703921720 703931603 704007788 704080176 704112927 704139904 704152651 704173728 704276960 704493364 704495577 704497688 704499598 704566327 704678565 704760467 704801027 704822746 704864313 704873743 704901034 704939689 704982448 705009589 705029097 705048449 705072896 705077705 705092363 705106748 705127819 705187294 705206274 705264529 705332023 705332774 705353936 705354056 705378240 705402121 705410317 705436884 705693783 705813877 705818568 705821676 705868596 705949223 705984454 706013430 706066115 706077926 706088423 706092463 706137058 706164607 706188947 706292984 706304144 706318789 706358528 706359706 706438707 706445843 706470279 706472433 706480893 706492753 706576054 706710730 706750475 706846698 706925618 706939746 706958579 706984233 707013954 707023009 707035358 707040739 707056650 707135973 707157175 707206024 707245116 707301920 707376054 707382752 707466058 707470064 707481746 707498739 707547556 707580606 707623216 707654435 707720072 707734560 707761406 707787044 707830058 707869187 707883318 707897523 707902841 707920258 708020312 708097584 708130237 708175577 708182338 708226938 708251415 708308434 708397010 708435821 708449448 708451823 708461725 708487873 708529016 708591250 708649010 708678211 708708986 708717343 708771224 708776071 708802379 708819777 708844235 708893586 708901099 708936654 708960649 709008322 709079003 709083573 709088732 709094456 709164822 709165566 709327656 709384734 709410683 709468527 709497249 709549510 709568692 709608946 709628737 709634201 709737362 709767586 709774794 709781171 709809915 709819919 709820149 709835461 709836316 709880880 709909568 709921858 709926636 709990710 710029600 710251964 710353303 710444713 710487274 710523496 710573387 710591127 710636840 710691333 710699614 710721031 710815044 710850941 710872070 710887158 710907843 710931250 710939131 711012477 711012931 711022785 711156448 711158421 711181562 711188794 711203307 711237405 711261055 711313252 711317939 711367819 711418753 711463986 711467003 711474039 711484005 711492228 711505652 711510790 711511881 711601824 711665598 711699988 711783086 711785204 711830070 711847512 711862054 711867169 711894549 711899365 711944018 711970999 711986835 712015139 712025480 712033142 712035733 712052885 712062191 712074150 712114045 712141433 712149880 712206661 712261750 712266156 712270245 712295397 712327367 712353877 712358432 712372198 712487010 712504813 712523774 712597073 712615613 712647733 712701464 712710664 712732498 712737908 712822412 712833798 712838242 712840193 712876151 712890091 712895649 712915248 712918130 712946687 712957426 712961067 712979992 712994089 713069853 713080099 713117164 713173247 713182006 713383280 713383749 713391138 713401814 713437938 713446237 713583400 713617246 713637901 713704564 713715288 713814788 713848388 713880781 713881891 713966665 714050888 714136274 714241173 714243472 714267960 714272497 714389671 714395326 714452859 714530434 714569661 714654622 714769650 714824239 714866409 714878227 714911486 714932167 714940139 714968355 714986507 715018548 715063304 715065404 715084212 715106229 715134401 715135814 715202343 715265811 715307578 715389316 715423866 715426473 715427698 715470205 715499021 715555934 715641461 715646311 715673174 715679403 715724484 715789933 715820975 715828336 715845532 715870029 715871297 715927140 715934239 715955929 716051359 716071931 716081358 716136697 716164214 716183846 716205107 716217015 716249291 716255357 716262674 716266528 716288099 716344337 716364362 716506341 716510486 716539626 716553681 716582918 716590047 716625835 716661090 716664758 716725575 716725834 716737417 716744667 716884109 716900455 716902833 716945867 716971565 716990377 717047630 717070267 717098349 717152297 717157233 717172205 717185081 717186090 717191496 717213645 717330877 717332797 717384336 717461805 717462254 717472602 717500372 717576305 717628415 717719994 717779284 717833434 717905747 717920834 717987916 718020378 718065861 718093655 718095103 718114090 718147940 718178312 718211632 718236710 718296179 718326174 718360738 718374675 718499990 718512620 718562342 718589211 718626419 718641006 718660469 718714062 718779041 718846246 718853152 718868523 718881644 718918739 718922990 718979517 719007466 719041762 719114820 719126448 719170499 719190907 719191132 719238920 719303769 719349615 719355324 719370782 719432386 719445495 719458013 719489735 719490204 719509926 719647524 719677171 719770772 719842420 719864250 719878473 719914308 719971551 719979874 719985117 720004280 720011136 720049935 720052019 720118253 720184097 720200813 720260168 720297949 720309765 720317411 720350735 720390211 720394804 720401167 720415442 720481705 720549141 720773472 720872269 720887520 720894085 720926748 721048882 721172811 721180796 721186161 721217309 721233022 721236879 721251353 721264088 721331768 721420672 721469524 721474155 721483549 721613379 721627827 721739628 721763970 721772891 721807024 721861661 721933648 721992948 722065285 722138495 722155735 722170578 722182361 722191850 722211700 722253036 722273663 722293661 722317559 722393183 722454366 722491277 722542733 722559201 722583954 722684693 722736778 722771481 722842149 722948818 722957646 723050695 723060097 723061365 723072913 723087414 723090567 723102755 723144791 723258369 723260699 723317912 723332593 723365296 723455917 723464439 723469993 723537780 723611630 723629998 723643642 723678047 723697128 723730220 723838711 723913518 723996459 724034059 724070250 724078735 724165738 724166229 724184207 724201693 724207064 724248825 724267339 724292886 724294727 724317992 724351779 724368592 724376386 724404180 724462402 724514180 724546854 724550729 724552716 724602060 724697870 724711256 724713567 724752896 724832210 724889031 724892962 724981501 725059552 725123580 725158424 725196756 725226219 725244521 725283758 725296972 725326410 725342285 725434064 725477947 725491788 725492701 725499819 725500007 725552430 725566207 725623499 725696951 725697171 725697194 725710716 725740386 725760156 725767006 725770590 725798467 725813820 725975778 725992160 726051711 726064026 726081667 726143757 726158602 726170925 726259124 726299214 726361701 726390866 726391172 726471622 726526601 726608189 726614140 726664230 726683469 726684068 726713199 726750203 726789956 726870009 726885146 726923013 726936968 726949414 726973192 727007137 727024991 727061848 727073778 727105865 727139802 727144636 727147839 727162104 727191566 727220482 727239239 727254114 727296575 727339195 727400594 727441657 727525365 727644860 727668829 727674406 727679738 727680735 727754292 727772341 727875246 727881826 727892265 727932860 727944213 728052469 728052800 728118547 728146279 728157631 728177681 728186127 728198045 728259164 728305544 728369067 728372694 728384269 728388067 728428963 728513053 728549028 728562784 728594672 728614410 728635544 728647873 728695774 728749476 728836452 728884802 728897128 728917367 728972300 728984437 729075857 729097195 729113695 729136244 729165269 729171595 729216092 729221633 729232764 729297301 729303445 729305314 729318891 729321318 729381611 729382266 729413697 729420056 729465038 729533742 729570511 729615794 729679690 729699502 729712753 729720124 729764396 729764745 729802578 729964923 729973900 729981100 729998258 730000584 730062574 730135732 730190870 730228499 730264994 730288965 730323135 730324435 730330635 730343002 730421549 730531427 730567258 730626898 730648332 730783060 730812423 730844228 730851847 730886066 730961239 730999326 731008832 731019967 731025498 731098315 731137888 731175103 731182779 731223503 731248675 731261051 731298505 731353367 731420418 731442307 731451975 731522315 731549250 731601068 731629422 731666216 731707414 731725709 731752676 731759157 731796514 731811239 731829494 731959740 731998785 732014733 732016291 732063295 732142411 732158513 732169263 732185436 732233609 732241884 732270035 732328394 732393861 732397984 732465530 732476191 732477913 732480801 732491220 732501545 732535402 732553163 732555811 732616487 732628517 732637332 732683697 732763458 732797587 732824062 732859849 732900865 732929735 732944538 732951235 733015658 733068806 733106207 733111611 733311232 733351793 733450416 733450980 733457844 733585452 733621454 733622136 733674944 733676168 733712551 733722017 733749743 733771754 733780504 733792131 733865644 733899832 733952863 733969050 734049507 734103925 734183891 734210590 734217688 734278562 734367963 734447695 734464980 734487992 734520077 734589062 734613253 734757897 734781523 734840989 734854756 734889327 734917395 734943679 734944670 734964883 734975005 734980952 735004090 735043469 735084782 735140418 735153963 735186157 735222793 735226580 735266568 735327084 735348610 735361629 735361766 735383715 735435147 735435682 735485643 735499553 735532067 735560136 735561931 735570664 735612180 735616002 735621975 735648198 735664670 735698079 735713727 735791953 735799212 735833320 735844881 735862359 735921268 736017390 736084721 736090900 736098989 736267888 736269676 736300945 736314515 736322597 736347960 736453320 736500337 736534198 736634803 736764871 736820491 736822844 736831712 736878461 736894116 736923366 736974690 737013711 737027355 737028882 737063599 737071342 737142786 737145610 737222203 737252049 737470168 737511404 737561691 737646638 737726997 737782165 737793110 737825892 738027277 738028849 738041495 738103842 738117477 738185633 738206051 738214465 738220168 738246050 738269082 738278886 738285385 738301757 738339284 738422150 738429294 738457321 738480460 738484961 738500042 738589677 738643944 738671250 738691297 738714638 738731035 738765660 738781113 738792854 738808666 738830586 738848335 738850826 738856638 738882437 738891784 739006739 739008990 739021492 739077339 739102049 739166643 739171350 739229139 739247117 739250466 739251964 739331948 739334943 739390649 739397995 739496344 739509236 739522215 739524750 739568607 739657001 739657604 739711211 739752014 739758641 739761035 739817925 739935499 740005292 740101485 740126733 740172772 740176700 740180409 740239467 740251981 740253147 740260985 740352411 740414051 740445583 740514115 740583679 740623227 740670805 740707179 740739965 740750430 740752325 740802672 740818150 740904509 740981549 740990267 741032910 741061070 741062186 741118214 741118647 741121858 741140598 741142291 741175887 741179485 741194124 741236183 741239480 741255901 741313431 741417887 741421422 741494009 741511715 741537814 741636485 741761081 741844883 741889793 742013513 742019305 742026440 742027954 742032909 742035602 742042619 742081322 742113759 742115507 742129729 742155160 742191363 742198406 742243932 742277851 742282158 742398627 742424722 742442908 742520793 742539303 742542962 742558402 742562628 742595791 742607894 742618110 742644693 742671444 742691663 742711271 742790379 742804314 742818967 742853978 742874152 742902587 742952204 743021772 743033860 743112130 743158171 743201461 743241465 743261159 743292703 743369881 743377643 743391997 743435055 743440437 743473051 743483011 743662425 743665917 743671760 743681904 743838614 743911329 743920840 743995802 744097653 744112315 744132578 744140961 744185645 744190065 744257527 744274531 744352854 744387205 744441715 744448528 744460081 744466519 744478357 744483619 744546431 744560824 744577770 744589344 744699779 744717382 744725720 744795486 744851922 744925250 744949541 744997796 745022943 745038898 745076876 745305201 745308043 745384874 745422776 745432768 745440361 745464246 745484667 745492180 745523422 745550286 745565958 745599053 745636059 745662660 745691022 745704006 745738011 745740008 745755161 745861313 745916652 745920318 746006543 746020429 746026834 746052205 746168007 746194172 746199723 746220128 746236002 746240905 746244570 746281948 746314279 746326813 746352377 746405957 746417520 746445318 746460667 746496567 746555028 746576195 746610829 746668756 746681211 746691174 746704690 746764270 746795518 746802237 746874293 746898308 746944491 746950276 746984985 747052482 747117901 747143908 747185024 747207826 747313010 747349342 747458165 747462681 747465787 747479042 747487179 747573332 747606162 747606479 747611380 747642206 747677362 747733219 747747288 747807985 747875024 747946163 748000131 748063068 748136722 748180418 748252127 748324249 748391482 748425572 748496082 748499749 748507862 748508107 748521858 748568709 748602834 748672427 748701131 748710867 748730428 748752537 748775131 748780705 748942650 748985964 749069191 749103527 749112519 749115678 749118390 749135786 749253221 749286847 749311705 749323537 749339809 749357806 749473070 749532262 749537414 749570210 749654852 749672238 749799258 749834392 749849875 749905285 749924070 749949945 749959889 749976976 750011692 750023481 750037995 750098626 750101141 750117664 750120438 750176776 750185104 750202903 750215446 750258765 750263076 750269726 750303695 750437241 750444420 750472432 750504734 750617090 750633159 750672614 750731524 750741157 750749775 750753490 750846434 750870030 750957396 751088321 751213199 751273417 751355515 751358716 751389197 751405709 751425177 751532764 751533374 751533828 751540549 751542651 751548973 751618146 751690888 751693884 751718289 751724319 751741515 751824012 751848349 751867224 751902749 751956319 751963778 751983058 752026358 752059799 752065165 752067823 752075226 752078520 752088451 752128218 752147678 752183307 752203648 752215943 752229199 752267112 752311269 752312239 752327695 752351778 752384398 752403744 752434063 752465637 752465703 752529672 752537121 752576362 752581532 752588912 752616337 752626065 752662034 752726513 752751228 752768816 752810064 752867670 752880416 752897155 752985301 753004125 753023850 753025304 753196721 753208043 753323617 753348656 753377287 753401260 753422357 753437252 753448269 753454397 753458707 753461370 753486587 753526425 753638548 753758699 753817522 753837308 753874150 753915315 753985903 754052781 754072899 754200004 754203908 754232358 754269186 754284765 754309772 754311250 754370408 754407980 754450119 754496625 754561910 754576149 754578458 754595892 754609531 754646046 754679458 754743081 754751948 754754600 754816213 754854900 754857100 754861768 754873220 754934339 754954127 754957688 754991450 754991476 754997279 755038336 755084286 755087550 755138955 755193138 755277391 755307790 755492064 755513076 755518822 755526959 755539126 755572179 755603910 755634333 755667705 755669007 755680376 755798356 755871715 755898468 755913674 755944599 755955259 755958246 755964430 755971411 756074836 756189283 756210863 756235757 756243563 756351378 756485824 756492315 756530271 756535453 756574323 756599915 756599945 756624126 756627775 756726947 756744367 756762705 756770324 756810186 756836108 756838483 756898860 756955704 757001249 757029939 757065059 757078227 757105310 757108516 757129010 757149295 757209246 757232393 757293831 757423936 757434619 757474817 757531989 757546440 757604938 757673929 757681008 757719658 757738516 757756832 757759475 757777038 757821566 757855617 757899610 757930708 757978190 757992789 758054172 758102804 758145621 758177767 758188267 758218796 758266124 758286352 758307261 758321191 758355135 758384729 758495135 758551861 758566672 758582976 758704732 758706133 758754911 758889585 758898855 758918390 758940206 758946868 758950307 758979540 759016197 759039361 759081522 759100849 759259327 759328199 759356375 759445126 759474947 759769870 759787783 759788905 759831811 759860845 759977168 759991665 760007828 760007895 760031959 760093600 760103007 760103567 760117257 760263302 760355317 760357300 760399844 760470279 760486767 760489246 760513552 760550964 760577685 760603193 760609513 760630799 760652471 760687508 760691762 760776995 760832992 760918988 760942950 761021254 761036854 761055921 761060658 761071474 761161550 761194073 761210990 761290388 761405078 761431660 761565445 761569706 761576448 761577271 761578319 761596175 761597935 761624484 761630211 761644514 761667051 761673719 761810212 761862127 761928647 762051194 762068450 762101326 762115072 762116514 762131804 762158003 762167203 762192120 762204470 762213173 762259118 762267490 762318860 762332744 762357210 762365151 762393592 762393625 762404525 762430792 762523110 762567434 762624425 762721177 762790639 762828387 762839641 762894497 762896964 762924861 762944640 763087271 763159486 763164150 763174498 763181066 763275985 763318454 763339332 763373066 763440140 763527391 763527897 763597991 763689983 763700313 763704289 763722382 763775170 763779872 763806937 763879668 763884796 763895605 763896416 763933399 764013330 764018098 764062259 764068249 764083327 764086913 764099174 764124431 764208139 764221586 764227513 764233809 764260073 764266973 764297418 764374379 764412405 764429794 764440772 764485370 764493944 764510002 764579261 764696301 764776846 764830521 764842651 764903163 764962260 765012968 765020458 765033945 765044353 765070432 765133422 765142034 765156486 765190957 765191539 765200007 765218298 765223584 765244019 765262748 765307273 765365022 765372372 765377327 765385696 765422288 765463838 765479704 765507711 765619747 765642589 765666599 765705306 765726160 765792290 765826799 765864827 765876403 765884493 765891013 765913444 765922747 765947982 765960895 766021745 766053198 766067350 766143693 766157644 766160146 766253994 766256904 766331051 766375486 766411668 766425140 766487532 766497841 766510622 766518669 766581891 766638726 766644438 766660713 766689648 766706104 766722930 766745722 766811673 766866064 766882115 766927779 766945901 766984710 767014583 767042067 767052669 767142054 767158771 767168908 767237820 767257150 767317556 767361066 767374738 767430816 767434599 767444006 767454038 767531995 767579701 767672565 767694303 767716311 767741554 767749003 767911142 767936797 767951624 767980575 768005339 768019688 768021908 768039452 768072053 768133947 768157689 768197705 768290996 768297269 768314231 768342809 768414868 768428920 768466211 768563953 768596432 768600969 768801729 768819522 768839878 768902556 768915655 768937277 768948848 768970920 769023707 769060495 769149702 769249360 769271450 769331148 769335467 769335952 769414982 769437796 769460116 769621663 769626107 769661319 769692818 769703519 769729464 769729631 769757263 769782895 769786649 769794963 769864794 769898667 769917742 769936368 769956948 769993450 770026590 770040760 770060633 770080352 770120848 770122815 770188527 770190061 770193983 770239101 770253272 770321039 770321238 770408406 770411466 770533729 770549177 770552429 770559622 770569081 770625698 770633307 770648707 770671459 770695822 770724028 770752007 770768157 770797867 770864426 770871782 770890596 771110742 771189713 771204631 771287577 771299832 771351254 771391208 771429614 771486946 771501634 771602411 771656667 771666199 771679277 771733721 771758487 771759850 771799172 771812595 771826923 771912301 771940962 771952384 771982369 771986234 772006738 772037223 772042415 772057597 772183182 772218143 772302860 772426916 772449596 772505967 772512619 772585621 772708300 772816996 772823613 772832720 772934266 772964985 772971493 773064133 773114504 773165174 773181514 773281942 773307841 773358077 773368652 773390724 773421413 773482862 773497257 773524857 773525326 773531734 773565651 773701899 773767246 773806195 773817304 773843370 773872157 774019070 774022828 774035354 774054215 774055939 774105935 774106696 774136010 774139411 774162043 774191950 774201777 774207752 774220095 774222821 774254458 774271478 774321039 774376102 774489975 774492457 774533077 774539870 774579353 774661188 774710090 774752802 774764634 774781855 774827330 774827708 774886003 774912793 774916226 774922713 774935220 774969798 774975797 775093647 775106367 775120723 775123066 775141181 775154640 775158162 775206080 775329695 775426663 775440478 775446673 775464166 775552990 775562038 775574181 775617160 775676266 775718296 775874173 775911481 775978200 775991291 775993089 776033285 776074492 776117680 776127754 776150466 776157899 776332161 776336486 776345105 776374375 776497535 776540871 776597827 776638628 776647858 776733490 776746757 776758185 776793283 776807380 776867114 776874539 776934977 776960725 777037678 777044180 777051631 777122104 777149502 777157884 777171381 777185777 777187042 777295610 777309037 777310975 777354979 777362434 777381805 777387952 777424937 777547561 777827854 777842840 777979642 778036470 778040241 778073440 778077296 778113802 778173038 778173542 778173852 778202764 778232781 778234761 778266019 778267766 778352301 778397774 778403943 778430705 778591987 778675855 778698907 778804012 778808701 778817771 778843259 778851283 778920162 778944608 778974605 779009461 779084805 779114559 779141127 779157152 779163636 779164746 779215502 779312972 779333193 779397045 779501240 779548925 779549455 779619457 779623742 779651969 779690218 779700961 779749906 779798992 779806900 779861954 779880036 779895967 779941995 779957112 779983915 779988444 780034083 780071295 780076011 780095772 780118508 780188836 780216745 780217948 780239141 780242070 780284997 780299266 780344871 780360284 780364746 780383835 780385908 780419783 780423324 780446923 780510030 780573528 780655180 780674673 780699786 780809674 780844038 780868482 780890460 781004349 781105890 781138534 781147604 781225934 781226292 781228852 781229178 781313346 781452000 781472792 781535500 781546821 781569298 781586402 781595854 781669148 781674921 781716809 781729577 781789903 781937290 781944396 782007884 782010578 782010697 782100665 782109937 782129375 782177076 782210314 782229328 782233713 782306827 782374440 782407404 782412945 782488956 782575162 782614796 782615834 782621225 782626373 782644592 782659347 782670107 782677330 782760115 782799652 782825655 782843532 782900958 782912912 782921175 782968825 783032079 783043552 783086770 783098551 783175371 783197935 783226176 783249931 783256069 783264377 783381599 783455290 783461876 783469520 783507617 783522052 783549487 783574737 783605485 783648900 783674113 783687789 783720876 783745733 783823320 783847411 783883526 783926435 783952806 783980479 784046595 784053004 784100184 784125436 784179787 784181537 784218309 784227726 784235844 784255306 784298242 784444614 784459359 784487832 784512129 784531988 784583279 784666713 784696787 784760480 784761825 784766386 784820599 784837924 784850564 784977175 785076857 785094353 785106603 785152775 785166114 785173791 785230874 785236780 785239007 785255840 785296449 785305754 785307760 785317400 785413774 785435578 785439514 785444735 785449119 785486552 785530429 785546774 785564361 785572598 785624656 785706233 785738632 785772462 785833072 785836684 785873726 785978357 785992221 785996183 786025560 786099978 786137860 786177313 786262839 786276566 786313736 786320493 786349307 786418735 786433236 786433424 786441379 786532332 786533789 786572441 786625287 786659680 786695323 786742383 786841021 786844194 786856558 786901548 786901691 786925420 786970337 786975267 786982319 787002070 787122072 787169523 787177833 787192096 787275012 787281303 787312188 787316309 787337699 787398147 787409532 787421622 787447048 787538268 787592173 787599178 787638955 787647908 787691617 787777640 787793405 787862458 787919704 787926539 787931968 787952816 787993805 788001293 788009049 788085665 788102501 788178081 788226390 788227298 788328135 788357354 788363366 788369271 788377615 788415123 788495741 788526546 788534507 788552664 788595899 788656221 788713991 788718726 788731910 788777960 788794689 788918541 788922330 788977478 788991094 789115216 789182612 789296982 789301281 789319422 789322312 789336699 789354099 789470433 789478290 789485845 789530958 789576789 789597194 789607383 789651116 789739776 789791921 789795683 789829831 789854578 789913769 789925871 789949476 789970029 789974371 789986389 790022860 790041283 790112030 790186070 790210620 790225833 790235991 790270546 790278167 790304965 790418242 790445032 790446102 790522667 790565342 790604838 790605893 790636902 790640607 790656720 790661446 790699338 790749891 790772293 790804978 790805449 790812690 790907473 790925227 790976911 791011158 791055072 791066827 791076973 791096608 791158952 791256972 791264710 791319935 791391706 791478200 791503406 791508771 791513485 791513580 791553543 791582177 791585834 791612573 791623116 791736177 791762213 791817711 791856464 791931961 791936726 791944363 791993596 792060460 792097673 792130648 792164730 792165822 792203228 792223249 792250949 792269188 792289092 792399271 792466306 792495931 792500866 792526072 792683140 792738133 792757539 792831712 792836612 792848305 792881867 792900035 792906558 792926392 792949649 792955677 792988616 793017593 793038988 793094401 793118838 793173402 793249242 793251312 793264292 793301280 793372941 793400647 793407737 793424376 793478072 793483057 793507448 793595323 793665304 793700717 793721780 793760005 793786212 793822280 793960982 793975151 794018927 794044035 794067075 794202512 794255689 794255952 794376993 794413315 794466462 794546484 794602077 794609407 794753945 794850944 794881391 794893910 794944005 795015112 795026073 795151537 795158425 795173422 795177173 795195235 795254258 795273047 795381882 795399701 795511490 795547565 795590864 795630639 795659379 795736449 795822937 795862339 795906277 795915301 795948846 796005688 796047044 796092403 796102121 796110339 796130465 796166725 796196461 796202289 796222374 796266735 796276561 796296439 796308194 796343401 796388612 796402942 796418586 796463547 796468485 796493847 796525784 796540542 796558464 796610364 796702855 796702970 796777920 796834815 796849662 796865024 796927681 796964204 796998904 797010598 797020300 797077186 797099850 797139521 797160519 797165253 797190148 797190540 797212240 797224339 797263700 797339023 797349992 797356066 797391516 797394920 797442995 797501170 797569799 797588838 797593904 797673126 797690769 797708694 797791729 797792169 797838158 797868071 797951434 797959066 797960996 797968816 797985875 798008278 798056104 798058517 798067636 798070415 798126501 798137450 798189632 798257238 798258277 798313726 798331846 798339460 798485518 798504029 798511288 798546120 798638284 798659497 798713479 798716622 798778845 798809302 798854640 798940117 798962378 798982495 798998029 799036306 799118991 799185275 799226647 799232638 799251031 799271180 799405089 799405860 799428985 799432902 799470375 799584075 799592501 799611259 799631162 799647189 799730267 799762769 799793190 799805282 799923843 799934440 800059653 800138064 800167199 800176931 800207699 800279788 800288422 800321694 800382565 800385625 800422428 800621669 800624750 800662497 800687887 800729140 800747269 800779949 800795858 800819960 800851474 800860878 800882729 800893712 800969134 800981729 800991390 800996068 801142542 801205397 801256824 801320204 801353844 801364953 801393477 801395767 801414865 801420124 801442585 801507896 801525959 801532441 801554164 801586207 801601859 801640965 801680709 801707655 801793642 801796789 801863517 801864992 801866611 801908341 801921346 801926481 801989928 802003982 802029823 802096888 802176014 802265853 802268612 802294165 802383907 802438367 802466598 802470717 802482347 802488509 802505570 802580123 802609707 802613617 802616197 802658924 802722816 802777281 802810670 802829093 802895068 802926838 803016109 803042323 803051665 803083678 803249432 803257623 803334559 803463532 803488431 803500644 803552725 803570079 803595252 803617776 803810418 803898832 803909250 803984061 804016167 804021323 804052283 804058100 804060216 804084749 804087363 804096131 804100157 804164382 804173518 804173851 804177104 804183119 804213483 804290731 804442220 804456897 804542817 804548258 804586152 804637416 804640707 804701452 804714024 804719921 804846182 804880448 804884575 804960936 805032697 805050506 805130850 805217886 805227280 805253932 805269901 805288926 805322830 805366951 805523906 805573844 805578753 805603917 805627711 805666435 805687860 805691288 805702588 805738982 805751747 805827078 805833969 805888284 805915672 805947925 806034306 806049580 806067354 806081532 806100849 806206218 806244094 806277833 806295771 806302790 806315275 806339833 806371501 806372982 806394988 806403565 806427942 806447406 806474113 806581590 806596142 806601005 806620068 806664703 806668666 806696634 806822497 806858104 806911588 807018460 807069003 807091269 807097385 807101445 807129706 807152261 807183263 807188815 807193551 807224158 807342994 807389610 807389925 807418649 807503395 807537882 807538383 807561447 807581651 807593913 807646236 807657810 807675241 807684419 807740701 807786222 807789987 807807113 807932296 807938174 807971217 808056366 808073991 808146975 808154744 808175971 808207691 808239589 808343176 808344868 808358872 808386360 808423427 808467165 808486023 808656058 808668916 808693121 808782782 808833238 808932339 808987368 809002114 809080042 809097939 809127870 809164171 809220308 809256571 809264958 809284780 809328417 809332423 809339955 809354561 809380126 809464070 809488077 809517050 809526158 809540711 809541693 809560668 809567947 809570756 809574427 809583607 809585085 809588827 809603413 809611053 809628335 809635364 809696541 809736660 809748644 809753294 809775566 809796533 809810739 809898625 809902042 809917683 809957009 809994031 810136025 810141966 810209890 810219053 810231778 810235399 810438138 810468599 810478063 810518890 810574114 810687587 810720895 810746466 810754437 810775121 810789951 810867005 810884252 811006027 811035692 811053269 811225771 811236235 811244879 811290707 811297044 811367772 811375328 811401998 811448910 811549800 811549804 811578689 811598537 811610390 811631523 811757755 811817190 811865481 811895693 811949296 811962125 812028052 812063399 812091586 812200348 812264538 812316477 812359479 812448331 812474315 812506571 812540739 812628830 812760439 812806252 812820458 812830580 812834408 812879726 812884195 812900924 812950682 813023731 813024622 813024872 813198128 813268863 813283395 813289504 813296059 813411936 813506125 813533206 813562550 813635203 813644118 813676061 813752416 813793827 813873983 813926176 813938693 814023833 814042155 814118070 814251568 814290446 814320488 814333885 814374554 814424121 814428208 814473419 814514319 814548360 814557114 814558371 814582216 814607377 814633587 814653067 814682431 814685404 814694163 814761063 814844026 814964746 814999223 815073389 815135124 815229790 815284095 815441520 815455993 815486855 815506986 815534678 815539951 815541363 815580216 815593120 815668319 815741255 815835106 815851010 815874023 815896539 815898438 815917966 815926649 815948849 815955144 815964286 815979048 815989083 816001466 816048052 816057831 816110228 816118465 816343325 816354224 816454035 816535593 816546752 816612138 816625873 816674503 816710983 816723957 816734384 816736866 816737587 816761810 816763708 816772707 816775097 816791965 816823785 816895574 816905284 816948178 816950452 816967919 816987299 816988344 816995110 817015138 817024653 817061138 817066804 817070726 817071407 817110685 817183189 817205959 817278190 817286888 817290014 817303909 817317630 817355523 817374233 817375339 817394121 817402503 817434838 817450782 817489271 817524448 817563505 817568672 817571441 817576761 817598638 817616510 817627323 817674040 817684677 817730584 817767483 817788488 817809728 817896461 817967200 817977581 817992227 818046485 818066848 818279081 818292116 818320640 818328224 818341260 818345375 818358421 818363513 818389412 818394645 818417303 818432206 818459030 818472737 818532415 818559142 818566375 818584250 818601378 818631289 818635317 818636139 818671138 818731825 818761622 818773926 818775749 818826971 818827748 818859289 818871950 818925223 818983978 819020479 819086797 819167096 819202068 819241468 819372811 819402331 819446620 819455477 819518204 819527562 819599843 819601734 819613371 819624537 819810213 819811647 819862855 819866703 819879603 819884231 819920221 819952265 819996019 820008697 820074678 820162246 820196926 820247930 820257223 820270703 820270872 820335591 820356508 820358869 820391190 820488579 820520284 820544613 820587368 820604071 820663575 820827713 820852420 820869811 820869917 820871124 820886939 820931148 820950907 821039362 821164032 821168813 821201618 821205081 821345592 821374187 821425759 821441962 821504596 821507785 821511160 821538024 821541612 821565273 821619478 821690467 821716059 821743718 821761607 821810813 821913330 821921153 822002977 822026791 822074912 822097853 822109331 822115034 822494466 822563042 822571821 822573026 822621713 822640007 822666585 822692504 822709288 822786574 822814259 822853751 822860613 822861338 822894925 823011561 823014824 823021715 823060650 823162956 823190871 823199056 823201124 823204888 823205232 823219953 823292777 823322202 823334625 823358889 823378606 823425847 823438248 823439295 823456031 823508816 823567185 823615117 823615611 823650778 823660181 823679876 823710458 823716694 823747688 823799929 823929023 823964572 823974580 823996670 824002573 824003871 824028001 824068112 824104853 824137486 824146349 824153481 824168426 824194534 824204396 824215787 824234327 824286820 824314003 824340455 824348940 824366185 824368472 824381866 824416110 824437001 824505930 824551649 824581918 824599711 824640442 824767706 824778077 824792196 824872767 824966306 824988247 825007753 825064174 825106426 825124458 825125528 825129787 825131911 825172832 825223710 825237394 825247904 825256003 825289101 825301635 825302780 825308930 825346781 825382401 825461941 825478084 825515920 825520790 825534762 825536465 825547137 825606969 825619463 825809776 825854364 825861880 825902754 825966223 825980735 826009433 826021788 826068207 826130729 826260972 826267295 826320488 826333931 826358669 826360677 826426928 826440709 826504391 826580249 826589323 826597826 826622458 826656337 826659928 826737361 826742806 826912890 826936665 826946720 826966036 826976827 827057053 827156188 827170626 827202700 827240292 827269807 827293215 827309705 827434952 827486244 827509138 827587872 827597323 827598146 827865082 827872895 827902686 827944291 827959650 828030418 828108509 828126616 828128296 828136590 828144585 828262454 828267313 828312954 828394912 828414657 828494770 828517700 828550417 828564591 828572698 828582177 828594870 828617414 828622549 828692146 828723837 828749869 828764393 828812147 828824738 828856899 828922977 829052201 829106821 829149334 829182764 829265965 829272527 829280228 829352176 829414116 829426896 829495581 829517363 829611501 829632249 829646527 829650344 829656890 829668699 829671595 829702851 829720495 829791857 829869778 829872605 829896958 829905396 829953629 829959762 829966337 829970703 830034093 830047823 830085002 830245068 830263541 830270811 830298322 830319658 830333391 830399501 830411296 830443315 830490201 830495903 830511957 830609134 830647289 830650673 830665920 830724455 830797413 830865099 830921116 830931725 830961703 830983592 831094611 831121093 831172945 831177587 831268859 831287827 831374730 831398245 831439941 831446792 831598712 831612719 831693431 831739978 831759190 831835612 831854628 831859341 831947458 831948059 831952287 832006381 832052284 832117011 832190490 832207065 832260475 832301760 832324391 832328085 832377808 832398256 832430860 832469172 832558610 832586529 832608456 832661312 832755704 832799923 832805836 832836448 832838582 832840720 832873707 832899918 832980292 832984367 833000421 833030062 833103973 833114501 833137892 833180656 833182667 833185048 833312755 833331573 833446869 833461660 833465769 833498962 833510379 833774839 833814938 833910174 833946875 833978342 834029640 834038219 834072961 834100179 834101168 834174982 834350024 834394639 834436789 834525752 834557503 834595204 834619162 834623409 834710322 834812741 834913029 834917776 834987445 835012406 835022738 835073662 835096176 835108599 835142704 835152893 835175540 835183426 835199689 835209950 835227473 835391236 835413235 835425294 835433356 835438113 835440199 835460556 835471481 835482055 835521048 835614310 835621527 835651779 835679939 835687910 835688703 835713610 835720571 835748886 835784142 835836578 835861006 835929773 835960364 835992937 836002462 836014920 836029193 836205039 836223820 836228528 836272363 836282192 836297654 836299808 836405436 836518015 836556525 836576260 836588816 836688936 836690320 836701252 836743550 836782403 836814426 836842907 836880280 836954016 837003855 837006341 837023357 837025817 837100325 837157885 837159877 837200414 837233748 837235421 837271966 837296954 837325733 837335111 837391157 837467169 837475586 837506019 837532703 837592746 837647607 837725256 837768513 837783111 837807085 837871984 837903247 837937004 837948302 838039224 838085102 838088087 838138848 838152471 838173942 838214520 838231957 838268809 838282462 838303532 838317545 838337838 838348420 838379856 838423566 838434437 838471054 838499995 838527272 838583971 838587535 838590673 838664430 838673533 838724167 838738512 838759412 838805194 838825381 838873599 838915070 839042835 839064492 839067764 839067805 839093401 839118352 839156695 839195401 839221526 839254098 839260530 839377686 839399561 839458120 839468280 839524114 839532474 839538770 839559891 839572487 839591760 839600306 839658182 839679000 839681929 839689578 839738420 839741747 839745846 839944501 840079084 840085296 840138791 840183171 840188422 840281598 840332126 840361878 840387036 840390863 840443661 840466692 840508545 840582615 840596982 840606661 840615348 840791726 840857846 840860598 840865950 840887677 840933425 840984617 840988612 840992313 840997293 841023595 841096847 841269858 841273610 841380399 841402479 841463200 841471354 841553523 841574620 841616400 841631181 841639110 841694206 841814133 841852252 841864108 841864989 841901382 841901575 841945364 841969974 842003955 842018391 842062033 842068846 842235973 842243255 842326196 842353235 842397241 842454987 842600084 842660538 842696134 842699031 842717719 842733743 842734755 842826243 842850792 842909889 842963297 842983021 842994192 843038096 843046526 843173744 843181237 843187039 843213803 843214219 843236960 843322510 843418146 843420971 843447456 843466203 843511836 843527423 843562811 843582511 843623322 843641137 843662675 843684420 843695748 843702429 843728313 843814763 843851947 843865858 843866918 843874479 843943023 844012755 844031622 844073276 844116238 844136123 844148669 844240997 844320062 844336568 844403420 844433554 844460305 844467809 844470447 844485164 844557107 844599268 844602836 844611749 844626086 844638141 844693471 844700914 844713445 844717250 844732950 844749877 844892207 844941332 844977390 844977642 844991893 845040429 845044827 845078676 845092550 845100250 845165511 845243417 845275774 845291989 845300337 845316383 845353866 845365579 845366535 845391675 845437938 845470604 845473640 845567867 845580071 845618529 845681909 845836072 845840088 845912112 846053083 846075320 846076549 846132732 846144189 846155346 846172719 846207882 846222316 846247066 846260950 846305625 846326955 846362433 846413245 846471049 846497817 846563781 846574208 846580494 846581701 846646807 846693016 846777941 846817450 846826714 846830361 846835130 846857296 846890389 846920586 846949258 846972559 846977978 846979089 846983235 847012038 847018675 847033905 847034840 847088433 847117545 847126116 847130625 847131789 847196092 847291134 847364275 847419782 847522635 847547560 847625877 847734479 847902034 847951180 847970822 848001054 848003334 848013837 848018784 848026636 848116766 848131552 848176384 848184098 848190991 848203069 848260133 848288406 848315625 848327575 848403375 848434530 848523387 848598259 848620141 848638949 848678628 848683739 848734591 848763881 848780086 848985604 849010577 849064608 849066306 849081597 849087824 849104037 849121971 849137956 849140244 849159566 849194508 849202190 849206178 849207971 849229655 849246874 849265275 849393471 849537461 849537801 849568869 849586545 849641757 849676395 849692802 849697526 849795087 849801078 849837986 849870008 849921803 849930422 849956273 849959999 850028744 850042435 850072375 850146936 850170077 850209362 850222777 850256295 850294709 850314628 850334285 850399578 850422289 850427092 850465283 850480770 850516741 850559027 850653895 850661490 850719501 850856751 850857461 850868559 850871895 850914685 850951228 850967326 850985330 851027607 851038516 851040630 851163556 851187902 851194167 851243269 851298345 851326870 851404732 851486793 851539918 851544060 851603497 851613539 851733602 851775627 851874554 851918615 851953938 852029449 852029830 852129665 852130011 852149412 852179247 852196578 852360868 852398072 852433651 852500256 852570036 852591415 852634048 852691215 852749413 852763008 852772340 852784312 852870450 852883005 852922015 852935581 852937674 852949436 852960329 852964741 852976988 853009031 853125607 853146248 853167320 853177065 853218501 853220315 853220557 853261412 853261876 853358175 853427399 853452802 853472829 853514121 853533818 853559772 853608320 853636086 853647972 853668553 853669141 853749411 853898558 853922911 853924848 853957938 854017764 854074890 854094547 854135944 854150198 854177486 854218982 854233880 854235076 854238581 854255532 854296053 854316032 854353899 854386147 854398800 854456409 854519750 854621413 854627617 854676334 854683545 854785134 854799361 854806407 854817586 854832002 854882989 854891654 854923805 854934587 854948377 854972113 854996681 855030311 855065800 855076002 855085052 855179139 855254778 855288240 855352337 855496982 855515493 855560829 855580919 855590908 855694005 855699051 855757654 855800604 855879513 855903764 856019234 856069285 856095578 856175095 856183059 856264455 856280167 856314096 856402014 856477178 856478975 856631175 856716484 856718624 856730707 856851997 856909850 856936914 856973088 857022998 857146943 857148384 857159454 857163544 857192471 857264425 857317338 857334988 857389783 857392821 857407524 857411328 857461223 857489395 857517973 857520513 857521079 857548954 857551492 857567564 857568805 857663594 857673450 857677377 857685837 857708655 857796671 857950319 857975161 857997087 857998503 858075016 858075684 858231129 858273814 858420829 858444034 858449052 858475801 858505719 858618623 858628066 858672481 858761724 858813239 858818139 858867461 858889158 858952060 858963483 858985689 858989164 859052291 859066240 859081300 859084844 859139520 859181014 859240056 859259585 859271591 859313038 859319120 859334433 859353972 859523287 859590636 859740476 859786103 859816165 859821975 859823840 859886965 859950327 859960077 860054093 860121220 860142289 860142459 860186646 860211308 860231236 860338360 860351741 860378630 860390086 860391284 860450200 860511818 860556172 860572047 860573816 860589538 860594851 860621692 860736676 860750244 860804220 860811542 860819003 860838729 860869425 860894266 860903595 860995374 861030308 861043885 861090118 861095247 861143135 861182827 861208173 861265077 861348714 861458681 861490069 861522237 861544605 861545315 861585515 861609876 861634122 861694177 861703086 861736540 861780637 861796938 861810599 861830934 861954351 861971277 861976284 862032490 862086035 862097609 862132205 862160335 862218534 862267029 862299689 862387669 862398321 862418269 862419006 862496202 862527756 862611175 862631490 862653848 862709370 862721196 862731713 862752612 862813751 862820605 862833873 862838602 862935462 862950756 862954806 863005717 863007062 863065626 863076400 863097836 863099476 863120360 863131487 863186308 863194201 863244048 863272220 863345335 863393318 863414549 863420709 863479971 863493458 863502181 863529564 863588569 863611659 863676459 863784048 863810748 863816145 863851952 863920070 863935455 863949773 863973471 864016457 864028137 864084468 864105309 864143669 864144983 864166221 864178764 864238536 864346303 864357632 864462180 864504396 864617342 864628166 864652753 864701295 864722485 864767646 864774673 864906685 864915372 864980450 864997158 865043784 865045891 865078179 865105606 865108882 865222010 865266611 865301424 865361617 865369612 865427302 865427850 865495712 865605433 865636983 865701873 865767492 865791627 865847426 865899791 865922718 865998768 866014162 866048295 866060729 866163797 866193031 866307551 866332791 866344582 866357639 866442998 866481065 866503360 866542015 866624221 866639209 866639635 866770004 866875215 866937716 866941363 866985076 867005110 867155064 867247491 867291049 867309661 867377690 867411433 867439440 867459001 867460804 867469754 867512741 867551210 867579076 867588689 867604620 867631514 867637163 867702979 867741076 867763833 867791750 867801079 867815688 867824951 867827694 867839406 867864098 867909020 867916311 867919480 867937497 868053437 868053779 868055074 868072915 868079651 868090539 868100170 868153580 868155801 868246353 868285497 868307933 868331046 868401801 868416849 868488306 868493502 868516210 868516492 868609708 868675180 868692597 868725849 868780714 868804009 868806434 868937951 868947310 868963531 868980873 868997158 869022540 869044165 869058730 869147904 869193729 869237221 869255968 869264292 869272489 869287047 869364346 869382056 869391974 869431962 869455124 869466113 869481131 869496985 869540990 869602045 869616832 869658722 869706243 869722118 869759065 869760415 869811214 869835495 869935659 870123504 870190906 870216821 870439842 870465468 870465590 870497767 870512169 870556184 870636979 870683557 870716999 870740483 870789300 870814652 870858555 870874066 870915853 870943520 870946634 871005301 871032388 871100296 871119489 871126358 871134391 871170818 871183063 871232441 871233946 871351341 871388699 871457820 871613034 871619052 871643363 871657672 871665842 871671146 871718071 871725636 871726455 871770880 871874200 871887903 871961717 871996862 871999025 872019583 872039286 872221666 872235372 872298711 872318362 872326049 872343701 872360306 872382882 872383178 872437718 872438331 872456196 872457534 872548808 872611497 872637795 872655336 872769291 872781773 872783709 872809736 872860549 872925035 872954856 872988903 872989997 872998446 873008376 873032477 873059666 873084206 873131505 873152632 873298679 873322765 873364850 873374240 873391678 873427829 873466730 873506510 873529409 873531973 873783945 873851284 873852803 873903450 873934216 874002013 874032797 874093550 874186539 874192849 874230991 874253844 874277939 874329541 874355605 874362932 874377211 874388285 874399637 874403262 874459985 874463671 874490685 874604344 874642860 874656734 874703638 874730419 874730935 874740162 874845485 874849832 874932135 874968468 875038710 875060579 875076958 875102175 875159020 875198870 875232751 875261658 875273555 875336693 875353517 875411379 875415655 875511401 875522409 875586623 875636399 875728360 875730293 875742919 875783169 875789623 875831253 875835778 875848972 875918509 875924368 876015732 876021120 876080232 876102923 876107128 876134972 876197767 876344020 876393342 876476807 876477597 876612878 876665658 876730074 876826424 876865925 876866016 876948824 876964535 876995892 877004385 877013678 877066006 877089923 877132629 877195525 877203492 877229131 877233099 877234074 877239065 877259369 877281547 877297051 877332197 877356457 877360476 877361684 877374886 877404029 877410191 877431215 877436163 877437941 877440893 877477593 877643880 877692274 877720734 877744874 877749715 877772919 877797434 877804963 877805130 877805231 877839586 877919946 877959379 877970565 877983185 878038584 878047313 878076311 878119943 878205124 878268890 878321933 878339242 878399940 878453407 878462730 878506118 878550318 878556177 878573004 878575747 878577400 878592125 878600800 878660251 878711913 878730191 878749704 878787014 878793056 878826239 878829602 878843288 878846271 878858178 878888069 878895680 878956406 879044615 879080693 879099794 879141677 879163847 879245189 879266316 879302995 879351130 879447195 879500543 879525739 879552961 879556859 879564851 879610012 879678884 879718935 879726419 879737135 879798438 879812833 879840283 879846623 879897965 879911860 879995804 880000028 880032195 880049237 880137824 880424436 880490984 880521578 880522626 880542391 880568197 880573545 880591703 880597400 880602107 880605493 880620247 880653158 880715269 880721254 880851380 880856485 880861294 880903438 880907469 880922570 880929035 880932700 880949884 880982147 881138331 881146958 881203160 881237930 881256365 881269380 881311134 881321424 881367263 881371235 881378165 881416326 881461672 881463550 881491019 881491437 881492742 881557699 881598656 881652333 881702847 881884825 881935291 881951300 881968860 882010749 882018339 882055386 882124827 882142341 882190487 882293726 882389047 882397929 882423867 882474250 882509524 882551957 882730168 882756472 882789984 882858793 882867219 882900504 882916261 882952581 882953599 882970679 883058383 883115113 883148778 883160088 883164529 883227832 883239713 883339623 883367129 883385145 883482560 883485973 883500821 883536765 883559988 883621897 883677204 883744046 883818167 883921056 883978165 883978712 883988198 884024406 884049666 884074811 884075694 884099264 884186844 884221443 884392182 884422815 884428524 884443009 884452294 884512419 884554308 884554718 884629139 884666500 884681011 884717581 884719032 884835647 884929316 884938287 885002123 885068916 885116677 885167679 885247408 885249865 885321142 885336051 885351542 885366376 885447174 885453093 885554360 885567960 885582863 885584196 885620375 885679948 885690744 885814832 885821768 885863785 885896663 885902113 885940536 886000908 886016044 886066357 886094167 886097503 886105641 886158002 886164033 886171616 886174932 886202567 886251351 886253126 886340454 886369068 886377166 886411758 886466499 886511507 886615834 886621486 886645171 886695724 886713439 886763740 886766490 886769395 886913168 886949424 886951658 886969018 887046047 887056306 887082339 887127250 887155675 887338602 887347512 887438636 887486620 887489839 887496068 887499485 887513097 887513641 887520710 887521218 887551006 887563736 887605703 887645190 887651228 887679456 887696955 887707760 887712169 887714810 887726125 887727079 887736879 887746875 887783423 887884995 887886581 887893895 887978056 888032165 888039960 888051686 888066604 888072367 888088409 888098151 888199316 888204737 888238470 888320024 888332727 888340052 888395424 888403270 888437472 888448640 888458395 888503265 888514615 888541923 888544706 888621533 888650825 888764954 888804273 888821264 888824848 888860996 888869100 888953281 888983921 888993777 889004351 889049148 889051219 889071686 889082150 889082294 889127505 889179145 889181217 889210538 889228773 889231532 889251203 889312187 889321103 889324566 889329532 889361698 889444723 889458367 889541028 889570885 889602299 889643030 889650587 889652479 889667982 889728684 889732991 889741037 889751680 889881368 890046773 890063387 890087223 890131505 890165149 890188906 890194523 890195360 890248463 890343889 890353945 890389149 890420780 890426098 890430700 890449362 890483978 890488421 890547125 890613338 890648109 890680444 890759390 890765016 890822880 890836178 890869557 890870816 890892280 890906768 890921528 890943311 890951855 890976615 891004256 891053122 891078942 891086769 891100984 891103313 891111105 891112257 891139128 891185671 891190624 891218801 891268363 891280264 891292489 891316329 891327177 891364826 891451104 891511783 891560447 891565383 891634626 891718745 891769367 891785976 891878276 891923447 892020764 892028767 892037758 892180770 892208615 892257819 892316039 892324228 892459101 892460645 892538731 892569530 892579115 892590612 892633864 892741120 892773999 892785207 892794017 892813132 892822835 892831200 892859043 892961130 892970092 892978596 893091818 893099350 893210092 893293209 893352633 893384652 893400015 893435029 893446608 893447224 893450704 893467150 893495130 893643811 893695600 893726561 893766216 893781094 893813811 893873741 893959898 893985285 894014370 894098634 894182761 894411736 894446552 894453587 894453734 894466111 894469143 894481053 894509287 894570345 894669206 894709060 894757950 894769535 894771323 894803506 894815513 894833092 894838586 894843302 894865642 894869498 894879032 894883947 894959881 894982571 895003584 895007473 895021110 895025483 895033202 895034598 895037986 895054850 895060910 895131729 895135728 895145067 895151040 895158066 895183073 895193971 895226250 895239892 895264413 895273207 895286771 895330597 895332092 895334288 895390121 895432947 895500636 895507126 895512504 895531629 895583472 895688344 895702601 895706575 895718798 895752703 895754970 895791507 895803712 895841599 895847826 895872683 895968751 896037171 896095318 896134172 896137478 896142922 896144858 896318842 896336955 896385542 896445941 896492988 896546089 896562115 896565517 896591754 896632930 896653058 896661932 896668559 896690233 896752452 896753897 896787425 896834944 896852406 896866066 896902124 896940904 896943268 896950513 896977432 897011164 897169846 897226913 897288279 897354420 897405296 897432974 897435217 897451595 897480235 897492472 897572707 897693043 897753489 897776051 897791778 897895530 897896434 897950017 898007503 898019740 898048245 898066554 898068074 898229734 898249103 898258594 898267731 898274623 898275770 898290273 898296128 898409345 898421304 898428510 898491713 898523785 898621532 898705304 898802052 898873433 898908754 898923842 898943225 898991695 899037557 899170510 899175869 899187648 899261709 899331517 899377152 899389972 899467247 899483085 899530932 899568780 899649435 899710379 899762957 899831728 899840172 899879065 899883691 899900406 900078870 900087847 900102227 900130374 900209486 900327872 900343335 900347383 900359989 900363207 900364673 900379206 900394026 900406549 900407099 900444172 900503203 900522472 900537277 900722274 900733247 900746225 900799947 900872827 900959331 901001824 901060926 901082695 901126419 901126862 901160718 901170063 901221692 901234777 901265445 901279067 901299055 901313594 901358579 901360861 901407911 901414046 901470057 901517666 901557281 901634907 901646892 901648419 901665177 901675218 901679149 901696843 901723693 901729764 901750269 901821982 902018956 902045205 902145345 902198693 902218988 902296008 902302828 902304771 902402597 902412276 902414757 902419541 902454243 902481232 902493389 902567273 902610389 902721273 902806230 902836065 902842554 902846518 902855487 902857577 902880589 902957415 902984202 902984654 903111303 903111785 903114016 903129770 903135451 903175701 903176049 903243345 903293496 903319161 903348027 903350894 903402393 903421380 903431408 903461790 903463495 903541933 903578619 903578931 903627868 903647462 903650861 903682504 903701369 903711356 903750758 903762076 903783563 903826910 903834171 903871013 903880546 903905311 903924171 904007164 904018891 904055648 904062972 904067789 904115272 904224876 904227313 904311736 904326525 904326990 904347337 904354602 904429747 904604778 904633387 904644971 904679341 904690048 904693468 904734934 904754806 904820220 904822354 904826147 904874364 904903643 904925499 904946944 904967439 904988383 905007930 905092631 905097316 905153901 905182658 905203822 905284532 905323797 905324656 905334685 905422680 905464594 905513380 905569410 905652221 905790570 905803583 905815166 905866648 905871771 905890270 905891900 905947424 905952925 905968842 905994320 906019184 906045049 906100613 906164543 906213905 906305693 906306456 906377302 906424823 906432427 906540447 906543276 906549078 906612458 906709900 906809832 906914407 906919016 906920462 906967422 907011962 907031856 907054220 907077331 907095170 907095531 907136524 907181092 907369066 907385583 907429732 907438481 907538461 907685548 907688742 907752770 907770098 907793007 907853839 907872845 907892101 907923438 907951644 908025222 908093494 908109464 908136906 908159482 908187928 908199707 908208050 908228740 908316593 908327370 908370381 908463063 908484400 908578869 908584859 908609464 908618194 908650723 908692129 908746596 908750340 908763244 908772421 908783372 908817304 908914707 908929890 908957018 908973809 908991529 909029648 909062350 909097013 909143377 909208094 909284801 909347570 909399220 909405940 909408791 909601156 909643319 909695728 909721392 909782813 909784699 909807323 909811011 909845528 909862232 909881294 909882153 909984113 909999400 910000638 910159108 910163300 910174469 910243719 910283052 910288706 910291148 910303333 910347095 910350169 910373029 910420179 910442128 910450847 910512859 910598308 910603517 910615115 910669843 910715011 910729341 910741624 910748093 910761182 910764631 910765806 910783647 910818360 910865406 910982081 911055472 911229605 911371437 911489715 911496129 911545673 911569802 911651913 911714216 911728967 911743597 911758744 911874403 911894519 911935609 911972246 912004106 912010781 912019873 912053210 912097782 912116991 912121826 912183361 912311557 912371534 912373516 912376101 912410417 912424296 912449786 912565264 912576858 912601957 912662552 912744047 912748746 912755545 912774115 912861529 912933335 913001270 913014376 913031569 913156238 913204482 913278112 913332257 913365855 913377996 913401159 913401208 913488654 913533451 913581173 913605630 913648683 913662017 913662020 913778578 913813072 913829227 913917259 913918852 913970936 913977171 913982648 914008890 914010266 914021407 914032991 914167940 914196704 914254771 914260744 914317470 914318071 914353197 914420863 914439944 914446141 914501435 914530822 914562629 914593341 914613489 914616479 914642209 914681366 914699364 914724751 914740339 914743431 914777032 914913782 914930840 914945651 915028213 915057815 915124235 915182495 915188820 915219717 915231024 915331717 915333328 915382766 915388004 915504730 915623379 915654029 915681176 915693151 915770055 915780866 915807290 915846390 915898748 915911464 915938710 915986068 916000311 916051782 916054358 916073964 916113302 916130619 916146568 916251759 916317211 916396319 916474005 916496765 916550083 916608068 916676764 916678868 916687437 916698930 916744027 916774199 916856465 916858965 916890075 916960596 916981524 916992158 917009564 917015042 917064520 917176707 917270900 917272728 917280311 917307685 917310965 917408804 917471666 917534148 917611662 917640365 917649259 917654501 917659263 917662293 917689390 917693140 917700572 917742625 917792271 917805845 917858310 917925204 917932416 917997583 918000761 918059307 918071205 918086443 918088304 918089590 918107516 918124143 918151728 918174210 918197843 918261099 918375074 918399530 918423273 918430299 918437126 918541696 918621598 918625428 918641846 918680409 918683098 918692813 918707467 918747455 918937665 918939102 918993023 919099030 919131292 919185209 919205605 919265728 919277194 919370438 919423606 919455064 919481972 919507884 919533252 919566753 919625260 919751984 919760065 919808489 919857372 919859454 919884836 919922829 919992901 919994573 920160870 920173515 920189990 920203889 920235044 920311165 920347838 920413290 920602383 920639048 920676000 920682415 920717155 920780902 920875103 920905392 920932060 920970624 920980560 921018456 921021725 921037867 921039578 921115991 921145592 921165706 921236063 921254641 921281621 921288017 921321985 921324531 921329094 921393209 921407055 921416657 921463138 921481148 921489910 921544366 921661199 921661796 921739069 921742175 921800220 921879199 921898722 921978445 922017250 922085363 922103186 922107816 922190283 922205488 922209256 922228747 922253378 922288561 922293005 922300949 922303643 922356591 922375374 922386286 922399629 922502445 922559914 922576437 922588141 922609923 922615188 922632863 922637331 922660778 922676951 922698283 922768516 922800200 922831081 922867057 922872613 922931873 922935380 922965433 923015050 923030968 923047174 923084521 923131425 923159135 923193772 923199232 923207163 923248123 923353180 923368345 923375043 923411412 923426153 923430140 923477004 923490969 923505588 923562569 923570077 923576072 923599243 923648444 923651851 923711061 923725909 923785953 923839104 923924089 924007756 924032179 924075553 924110637 924118126 924145645 924293445 924300313 924305289 924359723 924363769 924371967 924372917 924435621 924477520 924504908 924667522 924706010 924729937 924788374 924819175 924901442 924926214 924931435 924986521 925044425 925050014 925065352 925070449 925079120 925127521 925145989 925196280 925211471 925231012 925234758 925247368 925268594 925274357 925364657 925379617 925402656 925411970 925465346 925494115 925496688 925574451 925627002 925697562 925704670 925707097 925722917 925758503 925780250 925781562 925820145 925883351 925904576 925924339 925938901 925972114 925992231 926002800 926030555 926068929 926073038 926088423 926147112 926149931 926166493 926181214 926257318 926276742 926306092 926362445 926393784 926398409 926441583 926455628 926487084 926510714 926517794 926544031 926554605 926562972 926581614 926689784 926708260 926736896 926799716 926905026 926910845 926926960 926939537 927072258 927076039 927118944 927169130 927191877 927244158 927247751 927249695 927285607 927322862 927328926 927344196 927351413 927371955 927434635 927485814 927496099 927503967 927504207 927527623 927535634 927545450 927545578 927553720 927574828 927601355 927623118 927649765 927811079 927830542 927849534 927910467 928016011 928045825 928058883 928059467 928061393 928117060 928129978 928216406 928216476 928227706 928277625 928322526 928327082 928334573 928385705 928439501 928440777 928494247 928537510 928568767 928580902 928588670 928628414 928692495 928718747 928740095 928746167 928876695 928924242 929016467 929031937 929243351 929254102 929261366 929306056 929314668 929334399 929337203 929365785 929390794 929477018 929477552 929499237 929566179 929570846 929609245 929614809 929664649 929690170 929696403 929704966 929727470 929817304 929869505 929917816 929944886 929951007 929981228 930004405 930023211 930029026 930049932 930059156 930066899 930106416 930148554 930153630 930212608 930215365 930219893 930245482 930281396 930283183 930294455 930311202 930449258 930465199 930535417 930541837 930594347 930599816 930651126 930684807 930712834 930740186 930742010 930778755 930844436 930880624 931040057 931081158 931091138 931116283 931135453 931171060 931200123 931200399 931219917 931240487 931297128 931307563 931386471 931392004 931428160 931443029 931485944 931533077 931534637 931538830 931539137 931549783 931561543 931653081 931688500 931708091 931789842 931791823 931956303 931962688 932018507 932019217 932059788 932129560 932147379 932199897 932238816 932341478 932352507 932372301 932439321 932630316 932632971 932747804 932822576 932871128 932920809 932924846 932931779 932978566 932998168 933035151 933045439 933104194 933154047 933157474 933182540 933211772 933306111 933316262 933353213 933483426 933501512 933542243 933554873 933556635 933608410 933636601 933753330 933794568 933835224 933840856 933851449 933858745 933898594 933910639 933915978 933936987 933947143 933979677 933991627 934031915 934055754 934084139 934102597 934126262 934137990 934169394 934187497 934266018 934280404 934381186 934386979 934455509 934483472 934582137 934694764 934745511 934748310 934818505 934821074 934859177 934863277 934937300 934941651 934960379 935056830 935128680 935146860 935237603 935259861 935272275 935305524 935319819 935355016 935369952 935387494 935412790 935425552 935437701 935471393 935546969 935558165 935600616 935612487 935651504 935658926 935694762 935708178 935713737 935802333 935822490 935825994 935888691 935912607 935924399 935934015 935959008 936006372 936026737 936034309 936063340 936085471 936153485 936209183 936209455 936234091 936270754 936348961 936370106 936373007 936426656 936459642 936462721 936467749 936476757 936560854 936566444 936570020 936599417 936631021 936717448 936743037 936755192 936780736 936830388 936890924 936934867 936993189 937049084 937073409 937092467 937185169 937188196 937292861 937332928 937336092 937341769 937360929 937382639 937395730 937430133 937432386 937489818 937505104 937554458 937590950 937643622 937659381 937672491 937728856 937775333 937781910 937789242 937800770 937828336 937858226 937862438 937956874 937964975 938020056 938069579 938096800 938108051 938166693 938177489 938197016 938242059 938268969 938271860 938276388 938303869 938307348 938311275 938345719 938387847 938395028 938467890 938482086 938554763 938669787 938750353 938771814 938814339 938893106 938934891 938945563 938947889 938956531 939034475 939130062 939175313 939191605 939274046 939292669 939361337 939385887 939399097 939402080 939461198 939516435 939531859 939571371 939576544 939583472 939600178 939661514 939755452 939835172 939855963 939868231 939901812 939962394 940026165 940046431 940071786 940111631 940239041 940253730 940256555 940338879 940346042 940355989 940356085 940359717 940379696 940386455 940393126 940399271 940399285 940407222 940435174 940435317 940486743 940516509 940541726 940603310 940669309 940672956 940696289 940722630 940738834 940796994 940886561 941020152 941035214 941063391 941089592 941137675 941154582 941156141 941190112 941213743 941240830 941241633 941243668 941276653 941285819 941326690 941328347 941349205 941517618 941517629 941537062 941553415 941565528 941577101 941669470 941686380 941762043 941806273 941839590 941901045 941919214 941939073 942004658 942073528 942080336 942098306 942115984 942147710 942179668 942271294 942312299 942367552 942447725 942457633 942482508 942492050 942493438 942518638 942520646 942520829 942524857 942528014 942531546 942536177 942553321 942553778 942569894 942655719 942671871 942694878 942708383 942736978 942741991 942748448 942768886 942841021 942883144 942959702 942961624 942965839 942971172 942977513 942990384 942994965 943010827 943046803 943125471 943144382 943161775 943176703 943189526 943207816 943209565 943262569 943284237 943300609 943308254 943329610 943344554 943365468 943398685 943482452 943515355 943541978 943610415 943626696 943639494 943670936 943687905 943711842 943758420 943777127 943801896 943835766 943839188 943883977 943889965 943903622 943937069 943956014 943963384 944071862 944131091 944165254 944180793 944220363 944258214 944315176 944374628 944378852 944412262 944447171 944482731 944539255 944603684 944613062 944653023 944681225 944765895 944799032 944799245 944902695 944924862 945026443 945150020 945216730 945216758 945257462 945387991 945445675 945449568 945458663 945502735 945528221 945562034 945574353 945593217 945678540 945715602 945728275 945730800 945796393 945839656 945916560 945948228 945999013 946017694 946074003 946128494 946144026 946258240 946266545 946278388 946281592 946309577 946313278 946404027 946472463 946545192 946547800 946577130 946635501 946665236 946668589 946747650 946774802 946844856 946948148 946969142 946978768 946985928 947022089 947034480 947058138 947087124 947087546 947122893 947162898 947175573 947230211 947245296 947247607 947354668 947424505 947449660 947519461 947533646 947627477 947666638 947674355 947690793 947696412 947737459 947800448 947828403 947847952 947854461 947856513 947881440 947912073 947918473 947921985 947940556 947980634 948001562 948030921 948140872 948163141 948273953 948286465 948328093 948336160 948367312 948414914 948507185 948556651 948566098 948586071 948625489 948629238 948658429 948759929 948813618 948833756 948867618 948867696 948878100 948913658 948936419 948955364 948990539 949030683 949068150 949072121 949082173 949139246 949167850 949171783 949233429 949272306 949273504 949338052 949352172 949386086 949395202 949418295 949443568 949480560 949570799 949571522 949584663 949590216 949619029 949624883 949642119 949662078 949678453 949690575 949732537 949778540 949796475 949811887 949816173 949841785 949841798 949862571 949883239 949905574 949956809 950112065 950126321 950127444 950198492 950238773 950264492 950282470 950301568 950314921 950332804 950370491 950386192 950434482 950441931 950473996 950485595 950491830 950530295 950543533 950556741 950592928 950599121 950675424 950698084 950723301 950726853 950730065 950817745 950819670 950840932 950864358 950865353 950867974 950893679 950914595 950954988 951024236 951047074 951108194 951111188 951309503 951323246 951413172 951413952 951436903 951587847 951664362 951680635 951713222 951744904 951776753 951818276 951821034 951858326 951858373 951870941 951899867 951926769 951945140 952014663 952045162 952101662 952155602 952156067 952180538 952183702 952226022 952301694 952302882 952312820 952378348 952378451 952379706 952490161 952542036 952608501 952662850 952725458 952726176 952833519 952834537 952839457 952841863 952994412 953017112 953026415 953099141 953100351 953101821 953166389 953167441 953183224 953189222 953201708 953252926 953427885 953437413 953490623 953531034 953636800 953673893 953713835 953785363 953898078 953951581 954042440 954047905 954155581 954217021 954240931 954274174 954296709 954302621 954383681 954545401 954546192 954594018 954602201 954617450 954626628 954631788 954632489 954719628 954751993 954782401 954983943 954987956 955031117 955087831 955113991 955164440 955186618 955221173 955241772 955252991 955278916 955332538 955391130 955393295 955412308 955421742 955498852 955534667 955538763 955566101 955630603 955645278 955663821 955681657 955713970 955789465 955823511 955837090 955842203 955861301 955907265 955930879 956009729 956065096 956107619 956131967 956143353 956156428 956243010 956245268 956294778 956425400 956457976 956530658 956624843 956637780 956695227 956697406 956718677 956809916 956913663 956962026 957004736 957080884 957085090 957182975 957222059 957222432 957245289 957339565 957420993 957440538 957441683 957462122 957534655 957580337 957599167 957613100 957620502 957645664 957670507 957715818 957825734 957842864 957858265 957919791 957967219 958060926 958149342 958156063 958165225 958185219 958189975 958204047 958262684 958298006 958309774 958364538 958380915 958424781 958462062 958514860 958556779 958558811 958581502 958602141 958610507 958615898 958646270 958746030 958766265 958806767 958846655 958860756 958879506 958911000 958939941 958969293 958974649 959054438 959102750 959179685 959449907 959478624 959578908 959618027 959626905 959640969 959643161 959769351 959823149 959956593 959965972 959980272 960051299 960069492 960113926 960121485 960161707 960231871 960245174 960270464 960281082 960291236 960324193 960356394 960360067 960388979 960406389 960456903 960472504 960497027 960505603 960508114 960588424 960622070 960715143 960717943 960753100 960763000 960816880 960924344 960963986 960970022 961010546 961043827 961107108 961173604 961205194 961243508 961302272 961310397 961319423 961376453 961386998 961446610 961498543 961640034 961644837 961728936 961787365 961806954 961850229 961901504 961902954 961984538 961985667 961992452 962024744 962028487 962032729 962067183 962140156 962345396 962356453 962416121 962444998 962447404 962454449 962484492 962492892 962512404 962541826 962628856 962644714 962668933 962678917 962686346 962705306 962755376 962766798 962832532 962859141 962873871 962884914 962895360 962901323 962927847 962947172 962991181 963020873 963026015 963093693 963102757 963105145 963197285 963205686 963311886 963364725 963384137 963551102 963590464 963601801 963609685 963633641 963686322 963730864 963755980 963805431 963821444 963893491 963918064 963923894 963924508 963926854 964026517 964040754 964059481 964158297 964252655 964281112 964287841 964336676 964439751 964443015 964448504 964460725 964481554 964508693 964542338 964627981 964663674 964680027 964681740 964747842 964749801 964901976 964926631 964966273 964967237 965000383 965055781 965079236 965112684 965117781 965152066 965158835 965189446 965323023 965378671 965386623 965395741 965408582 965416357 965427726 965441093 965446030 965560090 965561213 965583438 965592638 965597288 965700155 965745984 965800334 965831384 965866697 965918314 966164620 966189329 966191965 966248633 966277348 966310397 966329930 966404655 966496600 966506692 966521728 966523898 966527606 966537050 966560732 966581411 966591798 966638480 966668701 966729811 966764519 966849315 966875868 966894687 966962796 967017984 967019544 967094513 967095790 967113588 967113627 967134464 967148805 967154117 967261757 967262508 967267971 967285201 967364409 967378730 967384985 967428009 967457405 967475352 967512889 967531271 967535348 967546038 967560406 967571272 967624698 967715468 967756657 967760928 967839938 967892786 967941571 967962257 967963252 967974067 968037678 968095503 968118459 968181224 968198395 968200511 968257265 968257787 968271199 968273944 968298008 968392134 968424129 968476472 968488913 968496388 968568448 968628345 968631265 968700242 968703507 968838521 968884631 968968769 969068377 969084184 969095530 969123879 969143004 969151651 969157655 969164432 969173202 969177154 969386275 969387853 969417182 969457256 969510697 969526646 969545373 969568963 969808584 969812579 969865492 969910075 970015032 970016912 970086460 970148556 970167949 970196693 970229914 970258300 970434293 970438617 970445013 970536891 970593775 970595047 970663682 970674871 970687813 970782292 970810237 970839336 970872374 970874117 970886998 970911247 970931872 970936830 970970805 970986026 970996841 971036120 971041219 971117224 971132656 971172053 971190143 971220985 971266595 971282050 971297208 971331892 971368813 971371162 971381735 971429494 971444578 971506144 971523878 971572922 971666903 971686423 971692977 971718890 971719472 971734046 971775254 971804856 971837371 972012259 972027555 972040322 972141587 972181174 972254732 972271721 972280268 972294000 972304592 972368224 972397734 972467233 972471178 972503495 972532400 972533315 972617291 972674069 972685671 972809045 972874909 972910751 972938740 972965490 972969066 972972370 973000926 973020034 973106729 973207184 973241943 973288567 973289803 973374108 973482902 973500209 973505777 973533686 973540544 973568451 973592773 973609747 973635152 973660367 973703036 973760807 973762002 973840223 973849334 973905274 973913185 973927060 974077977 974100513 974103237 974124025 974174873 974214334 974236513 974244674 974280747 974393178 974397810 974402171 974449627 974525526 974551058 974557531 974557881 974587846 974623739 974635338 974648815 974662934 974699149 974735532 974826229 974847113 974850012 974859374 974906971 974910830 974965378 974982716 975018396 975047227 975057671 975068509 975073699 975082046 975198616 975202106 975219836 975225233 975228167 975247646 975295866 975316731 975321033 975326857 975341006 975434937 975440896 975477408 975503649 975506101 975548872 975561983 975565433 975648750 975667142 975689036 975827723 975863518 975924765 975973574 976082558 976161115 976193870 976226674 976246625 976264583 976330587 976370094 976421789 976483156 976521917 976524391 976550893 976559012 976564369 976683343 976769269 976809801 976855148 976880363 976892389 976963661 976969737 976984534 976986354 977117335 977245605 977252809 977266838 977268658 977422703 977445277 977490393 977492822 977513979 977537149 977545491 977549842 977569102 977591441 977598412 977634175 977639283 977651172 977711105 977728730 977733331 977810387 977834356 977841345 977854791 977859717 977880407 977916337 977985395 978014586 978015324 978036020 978053285 978082095 978271711 978305410 978315076 978344373 978350305 978354711 978402539 978413671 978428753 978452324 978515967 978525821 978724887 978765725 978771832 978812572 978832095 978849404 978903401 978908986 978971694 978979123 979008600 979017904 979020394 979027624 979037958 979039826 979146293 979180235 979187196 979195617 979198024 979306447 979389300 979429217 979436050 979438104 979450829 979507450 979510020 979533787 979546833 979548148 979591715 979649000 979757150 979782799 979849937 979850118 979854966 979862635 979892715 979912576 979994034 979996074 980013952 980100997 980116444 980151306 980162625 980195152 980264473 980291365 980331250 980383548 980383734 980418355 980433673 980440419 980450599 980498386 980538464 980582702 980587433 980608231 980615301 980618620 980667532 980695331 980731657 980915878 980924424 980928449 980944474 980992999 981017437 981037516 981067522 981146565 981164541 981167261 981190510 981206036 981301538 981335357 981473963 981530931 981543246 981600035 981614642 981637219 981644785 981662027 981666913 981694034 981741172 981762200 981772277 981786025 981969057 981971430 981996105 982030338 982056472 982063997 982129463 982154413 982167638 982175948 982225578 982240088 982301568 982339936 982345161 982374468 982387743 982500919 982557534 982560293 982683148 982711433 982718406 982767537 982773760 982778553 982824237 982859571 982898835 982920773 982981026 983007763 983090303 983118994 983208348 983210754 983249580 983249826 983252861 983275578 983325166 983343185 983365323 983511929 983537830 983557249 983569783 983570604 983594791 983614497 983616358 983620983 983633595 983646127 983657797 983662173 983695028 983713790 983731346 983759572 983770871 983825478 983838532 983869253 983875109 983881541 983902493 983949053 983967870 983970249 984033328 984088386 984123673 984140949 984146660 984155810 984167393 984216433 984223489 984250532 984255903 984393401 984478268 984521948 984531464 984572430 984595572 984634267 984676170 984680225 984693004 984746618 984759553 984760944 984763129 984764311 984808811 984849661 984932242 984956806 984960525 985002925 985023530 985050252 985074682 985100770 985113606 985165807 985257415 985330899 985363433 985412462 985453321 985501682 985503966 985520152 985540887 985553481 985609745 985765149 985776110 985864566 985887583 985896555 985925241 985995915 986000563 986019245 986048098 986063114 986071027 986073211 986105749 986113111 986129999 986210531 986216483 986245277 986287764 986308444 986346601 986353891 986400904 986570948 986571421 986612645 986676278 986708375 986718961 986729004 986810216 986831599 986839211 986841392 986884948 986922350 986985695 986989674 986991929 987011533 987042169 987202378 987229145 987235757 987248156 987281672 987346342 987367304 987380574 987425924 987455398 987469682 987548133 987583751 987602873 987609563 987617604 987620214 987627337 987659165 987673398 987676389 987684816 987734107 987750913 987866046 987888892 987959947 987997552 988036978 988058434 988063398 988148033 988179771 988183630 988189160 988197803 988231824 988240200 988252687 988278003 988331314 988353646 988360210 988417741 988493363 988707306 988778727 988811864 988849849 988869966 988910962 989062383 989166744 989185575 989255912 989262317 989301975 989344473 989366665 989370861 989398720 989431531 989486863 989523719 989535506 989551509 989607692 989635191 989635918 989642193 989666487 989675364 989725162 989751222 989787808 989795445 989801263 989810792 989863491 989882986 989885051 989902286 989922868 989928976 989945621 989948882 989959571 990063088 990115383 990145852 990181967 990257858 990295233 990295950 990362920 990363945 990388055 990401450 990413234 990481165 990498533 990498558 990634043 990664091 990753498 990774497 990784152 990838096 990838317 990842056 990860255 990918621 990973371 990986266 991032381 991032885 991041766 991047114 991139991 991164720 991171779 991243443 991253992 991260562 991408616 991452761 991457951 991591908 991634267 991727054 991738861 991836375 991846555 991865923 991891184 991938620 991945756 991988283 991995748 992005472 992045676 992056236 992074172 992090845 992119729 992163347 992185659 992197189 992207370 992276492 992363185 992404380 992410683 992510907 992521104 992533907 992547692 992636680 992659732 992702007 992774359 992779567 992815715 992869370 992917660 992927860 992950209 992978366 992986234 992997033 993024570 993053118 993076260 993087505 993090275 993107159 993183888 993184066 993252447 993407249 993421202 993445220 993463862 993521480 993543291 993553914 993556418 993563843 993574196 993575566 993583564 993637480 993646240 993699199 993736807 993875738 993894019 993916212 993930195 993947768 993975453 993994424 994000057 994044591 994050565 994065365 994173310 994210911 994211461 994265639 994294995 994376202 994394813 994423772 994428098 994438018 994446253 994658212 994663556 994668154 994681472 994723878 994772625 994839045 994875615 994884097 994913813 994954310 994970587 994997900 995018360 995027013 995081245 995092481 995188953 995193253 995263672 995266519 995317394 995331140 995353961 995415038 995463950 995476937 995479648 995501592 995503399 995550383 995582695 995613735 995613967 995644901 995804875 995817765 995839034 995843730 995904457 995935812 996106478 996142782 996199608 996247996 996254774 996306514 996312582 996400510 996404121 996463813 996466593 996487401 996547957 996572791 996628227 996658163 996716938 996769126 996883157 996904112 996910087 997062258 997096362 997160858 997181100 997295048 997346286 997393420 997399867 997400037 997435368 997466789 997477970 997491487 997513217 997586425 997635068 997641561 997653231 997676331 997749707 997779706 997798284 997817422 997851582 997935050 997970859 998161976 998184787 998202553 998219477 998289416 998317019 998329509 998449569 998464039 998497645 998518296 998519076 998643677 998653804 998715877 998719927 998730776 998839904 998963360 998988719 999025833 999115838 999154322 999154797 999157438 999281766 999316919 999328883 999335537 999458907 999473294 999481059 999505386 999584238 999591309 999602469 999612936 999614499 999652855 999669732 999669907 999672243 999674227 999682802 999714113 999719041 999737230 999752874 999764814 999768952 999775887 999784451 999811672 999832389 999909517 999930899 999957448 999972747 999983609 999997103
-628143068
881179139
551302250
331993447
-809412799
424131509
802069394
-701633621
-610787635
-71846045
273482688
-716994424
-347954420
-222792085
-885861062
189599403
988374566
326300264
415807884
680106366
-586395238
-74740241
26799028
-793943727
181926801
385249401
568826505
-754613608
-434586893
-491175751
476740150
-64089346
282126488
29903806
786634255
412183031
218790704
631082521
-354581751
-88079513
261342282
-805443804
115864178
120028475
471711547
-680237914
-296824552
664493752
475399908
519491867
805841969
821331951
256457010
342757022
344655914
432023711
-255477258
45009462
739285765
-230807416
-835983839
170578355
233184442
-849269843
698762637
801615317
-580221190
-565194469
769935546
-369058244
99593423
610329234
-277517251
263167930
-909953162
69238761
821278911
-842412793
310207413
-422580683
704759058
-573753210
-265880029
743971896
418379572
-484109982
774893299
-912073715
-351974112
974791552
-374639227
-12470282
98284502
194919374
236174865
872479090
394964529
132543628
117508582
-177578697
-459432377
-51850411
-448634002
-110446068
-985819757
242595332
49962126
-14358274
-75617480
-106965079
-596241089
-435788402
-542650392
307450870
320531794
-257587625
-364332518
-245445905
690174367
-142482195
-842187039
-172836541
524674368
-338444384
714073422
292570406
135447358
-714901303
226668045
-126321781
385340437
42899097
674514791
-830395893
864006863
306173858
-802707249
947912134
201836922
227455147
-894761929
-3117506
-103162754
-121835134
346940329
784383628
-633482172
506133664
-232971289
-612840792
133630380
33436379
998911902
-936685860
-840622487
-481038800
142251682
-197758531
-248993520
585580058
-980397298
-107070340
611888474
-738757439
896223475
-932099645
162938527
530179711
761871553
-162098663
-953155938
624279766
-525962382
234272151
-344296661
680313937
946399644
272892213
500179852
-779439874
8703623
115729408
-961619592
436583284
-294572703
977414763
-526663480
-461019355
-927185783
-941816667
-618723906
-633541606
995965646
-30490186
260772890
731412211
-83048589
-441936072
998927629
46007994
-330814289
-684319211
-356747171
417253084
321176827
-519683649
594167227
302306697
-924440023
782097320
918315336
738877288
-731552323
-265186505
754501413
738952742
164423134
963353335
-572452430
-738513948
-259159956
-427234701
-459748447
29392582
-9693191
-386631824
929930522
-327361633
496313425
697184858
-145878023
135892654
-459768227
742751146
-665923718
-500851889
-238162362
-596571645
969756276
-346270604
427591282
796038264
-969476176
-355571503
-651000484
108030811
-654094186
-387317462
-492400487
913229665
163341565
-829570472
68017625
866976470
-337953577
34007626
-392640288
235122782
-393791952
-687681948
193730207
-763001816
-963295314
-338655463
858865250
960831038
-161090910
-119531656
-279131694
182064107
8839942
-941140052
-171112714
-348981059
-816786151
-783698527
505803922
315007001
-686924846
-328023294
24147126
-274248303
66525513
-64656917
-160736261
-994893686
-902651905
-841067443
867983686
-761034282
15180345
-59132798
-302753659
-63653161
-861800357
-896792904
-879992736
471102881
-346247841
145483821
388520965
-356032677
-450065600
271703335
-860403079
-279900411
-5896586
-956133912
-928980396
708990928
-282478204
-180915139
-938136874
-353104436
-932396930
951536182
351887858
840157097
-948883467
79964374
924622383
8042708
-617429035
518645487
-525853442
487179482
518988106
-91804733
349598435
-709486091
135532588
108236930
563926175
406504929
-737461823
-922236486
730168929
966927893
836465322
268236119
-322292007
-111809473
-624623953
-794875363
233755755
-921329820
-510784771
531702377
-932034042
652725796
750106404
152436483
-344975367
937469914
893294750
121242994
974648016
755143773
166899414
-623874224
820711382
663784254
244080594
-618933062
670424887
-244069799
-765395759
368040076
345034986
-680550413
862761971
-644809473
422452421
402130885
-603605087
432763929
559078830
-412833140
-425704490
-689147836
86878937
-385236581
-63811424
826658081
-99452958
21877783
-977020624
-349070615
-588935150
-528065943
-331140479
753676561
-129533088
385344495
931230599
325809559
948296209
-32422462
-415826861
-33228431
924241446
-871569092
832477064
-603003872
-710320236
108170809
784970593
-241358426
-69379364
533684369
950531871
342356280
337698838
-356449540
-825314541
245547342
-199281074
706129729
981619731
-472198253
-514759717
457703894
768441287
251027041
-905691546
919146961
-455136216
161023281
-577673254
805479060
-262405903
-332437351
45556782
245787000
501346325
542946978
-734387552
-261875504
88923485
-63280604
-46430918
-805068315
707131852
35801363
470923230
-150815391
94164425
467632931
869129932
459950198
825908367
-635855471
-406835855
-124920429
300236748
-242555655
-239190829
-115548827
292908931
-978527372
914463844
741441662
329920276
249949593
506841835
82213309
596992388
-135316998
842206271
-116677126
-11525473
333598751
-795092072
841568863
-906594078
53350666
-603829358
-177578226
98415353
-162610097
-288660585
810005045
334247415
938032602
443049972
-573091949
254073980
-330797465
98602020
74217048
76514478
-584427473
-298825187
209461950
800669115
-718247675
-256582284
588667835
-119054649
448168519
213075675
-940079501
755834029
42251858
-595058469
994170275
-885511872
-540241099
279995996
-881936536
-457799349
984567645
682461335
-566048293
331146917
-551669297
-526829767
-751663125
-622580386
639927209
62215102
237626561
769115674
650048707
683240527
28457219
-137564500
-592224177
-557935848
207848380
63620323
604787961
312774118
194753199
251891880
-44895554
-668489644
626523518
129362823
-577361249
76274675
620497280
486858933
321724450
-376859555
-537249914
-814348418
-610747886
-976333428
205683715
-792507956
-706969598
171435067
-544554533
-886732795
-762560079
385395420
-971880094
-510466849
-818747389
273859640
-401884153
23149230
-172640431
195390634
338675170
-98590944
26786438
-327936195
984773255
-302613672
936410621
-982411767
657935301
-956031766
-67760372
-547148930
-961657985
358875588
-750284198
148081158
8866527
961603435
517771966
-795828565
-673356311
-43957843
-185212516
-629376910
705502713
-967100673
367997448
-909566128
-225514062
499505727
140197939
379953645
517279958
421342029
-882923322
-27312377
-419937890
504986718
24846463
276892205
-811384387
637302180
317578597
900568392
-882579600
-206711717
-612650255
794749526
697585587
-670772218
663471557
933737297
510364852
315396647
-718888033
-260440639
529291028
850474415
929070700
-269473605
12475284
-773548549
-327642222
-612563507
-454685713
-714782536
164732360
-272387708
974603977
-545233899
-620260039
283767535
245285523
-682475602
445797592
805367430
74294160
-850650672
569181371
151237468
-711100783
-694003493
826975995
-345155075
409661649
-382740145
869204073
-589754074
843897189
435885355
61252873
102526740
199932400
879227795
831133711
-155007577
154268801
487693252
-108979554
-100717292
231650750
-829593351
697103212
439121258
-909483236
-194080697
824111809
324889169
431198569
-114752727
764686487
-307136960
529951734
-443321890
-917670207
898666394
-664530952
-437789861
617075605
-398768676
999929738
-384908124
443466989
-581487466
549162936
753430065
-318968863
-431461522
853824363
806996655
790184060
250558844
-165637059
404771842
-321436665
746994732
-707793547
271509678
855364450
-20943739
-853756583
-738476544
748841108
251568390
-263632696
-393979310
-932646224
-450534973
-671236106
995724407
756997447
184264699
-240720279
-614859818
945134110
170287916
29699755
-530259197
-442210776
420771109
311228582
732014269
-558370504
874980369
666828451
-390200813
319894965
-878562050
756657944
925435979
143624384
349223849
-39850484
-815312879
-159399041
159542805
978227781
-313135039
-332868540
292084874
787831140
742085383
863262473
-623397868
-589551402
-887447879
548857328
175838524
21036194
621773834
377116175
231147598
416902807
-285003024
923055301
-336108121
-528139733
384959761
535029920
512222786
-963337328
-706013528
-650526562
416257461
-288949720
-69442407
-556340149
-31066861
-592271556
948111268
860154521
-711113762
696335995
778163653
191234519
-175301866
-427965196
687253529
825224192
-795751963
-301287388
-841795148
299996798
-728948305
863009257
-212272221
-950938300
-122772298
632492022
-772418080
315372367
18255769
-970025215
796106262
731714081
-106068349
578818225
-413034168
-244859180
24411788
-593614781
273178693
-721438125
979306020
-374078236
-865633844
-543211130
340864014
510955473
-222014845
-154473280
-681071007
-119682171
-214581777
623063731
-431157182
-458818327
-749039061
-177559368
483080795
-473786855
365390283
844906559
337131678
-625974352
-846805668
748851740
883603441
-915007476
-853753902
250991928
61863382
-686476467
103839155
681428141
552906685
770264306
730804460
-566856390
424395899
788819629
154714713
-780506215
62734156
-118296770
808141528
741151784
-98425579
-106898058
699619860
319068539
808153482
-302667222
694573854
-692643037
-123781499
670604728
-402723692
-933599741
834411802
147963484
-322482146
959638927
-789142978
-422795202
859062483
-930906236
635181238
-215998073
-317697805
-6732720
496013211
-234301305
-439082154
479359278
-646183852
-884045667
-816470210
492685909
-239745938
-940064144
-499524491
-73871120
470276565
929488015
893639910
356966035
945183336
875002069
-614427907
-31824101
-737883092
646436228
-784307651
531777150
413490757
150510069
452999517
-75145009
-535789886
362910386
625802607
386568641
493469030
-304869717
-12535255
-740418999
-252958599
111954970
448179225
79436084
-939144160
-27731576
621486076
493529285
512220020
355007973
836466915
-660131544
695922321
666999109
-402930377
971428320
273003598
-617299653
-798460188
-303317057
713487745
705639366
606449898
190725437
126770278
-996418446
-380951703
-883926723
-389930131
-66146208
-583396977
497704746
-910547058
-892135299
-430562511
655163467
-178147533
-764723191
-305086916
-293865619
-277701868
496350923
-970887666
-541692541
758775237
229678395
-160212870
-293635159
-418244361
794380785
674196140
-74469061
-874316053
84114826
482160314
-75223337
-949546037
-709829304
-634415491
291629990
296915661
582049962
13990914
235669013
-405913064
-330976243
-290147279
-330321154
-933517995
-347528673
-882624771
-857858662
466911056
-265000340
-707517640
-949492488
427298750
473494272
602635614
-347686694
833070705
-494774282
-637598105
5179148
384747640
931671592
848051887
-871082281
921450351
753843014
-224040867
818863184
671452713
-435463194
962199973
702189807
-533331521
-212334875
-336727865
809383789
72317273
101900665
-982117637
772741461
-515975294
-690255426
112944227
-227702023
-344910915
611562350
366465868
717540095
-865185679
-336343726
-301013682
-219817905
-623196686
-71340192
317010786
318217174
-969578244
127003755
-494884225
-961371634
-17734805
-434161104
-232597040
152131370
714497095
129709770
932344074
368175559
-149711867
861494612
29279329
788945825
-241774071
-79639279
603571114
495809530
-233912842
-309636976
-561656905
-844985865
477695053
303864868
-570866734
-990087450
317130875
17607217
-475401161
-24725437
591215577
510365668
-59762891
815346226
587967703
-964712393
-280631036
-804680605
-300118821
926658267
458439949
69142869
-187950752
-247277437
389417827
528390865
-69913141
-807921317
476086593
707334350
-365303233
-811580730
-159525994
-954108757
-750452334
492159359
986559712
156315732
938110493
951250252
338495582
263910840
-263016443
-884648940
51381713
742282055
34306928
837241238
-930426657
-358590068
-101972384
476147116
668547373
462709177
-792838870
346467260
-370852920
-217044440
-925433612
-694674237
43552532
627379573
-16535615
-835955863
-478377178
494011811
-532790987
-416224245
-660730990
606276593
-798343283
-976914642
883865956
643269753
370066789
960982072
354046380
-304583029
228345219
-168981403
83942964
-383611018
-609547805
323267721
214766598
-17889441
348516915
-6012297
-943454479
701071903
-688162804
-133230960
309523865
97114995
-917473315
358227163
-212822956
864440328
539643358
-813922904
-478303075
-427660604
991653707
655113719
-978922178
440061274
-143417111
-161594650
-167905173
198737192
614980298
859913499
-552894827
-586536920
-977447981
37457018
-723206431
360876757
795115879
-320247680
-624263798
258328020
796234965
996026482
877087975
60839094
-419453748
-906950343
-779729302
-817082107
-413511980
-955646149
646923573
458391870
933051050
-453975098
936528078
-504320617
542158997
-164803877
440965105
-845302120
-314994464
589867381
663252073
-449730006
536792963
199656266
861909179
-234497829
-95703084
390770883
867948763
807460773
-984398144
815800625
627255621
-249506764
-174368732
-882805222
583695582
563783447
-309650720
688966182
651469142
245682724
637235295
-751106630
473102984
-726570523
-803673707
-5420283
-233805172
-285951537
-823811238
272025786
471305350
419701510
65682664
-79331132
320650786
167367652
-948549225
569923673
755304917
-196829318
-938073387
147598358
568971800
-848282085
940213222
875524758
-168103696
794389818
543526900
-538332875
242638995
147547417
-800612288
-544959836
-90734844
-539710276
256561859
-976207489
-302602200
261874296
-112538008
-445098307
472841627
180423503
-156688965
758872033
632737836
246006586
302594869
960073945
497068542
299944130
-455022184
672108955
-849266877
-152787027
613051113
532616376
105112787
726977717
-104449110
495675261
753013367
-860399731
-711009495
625620053
273099664
-573067470
728971581
811469884
751629989
-4218403
-534769865
-693748512
-7775435
-453816203
-181582907
150552743
-541550321
-781062150
-537066203
-464035466
475530563
-987966201
991887202
-918541722
689923640
531542640
66502674
566910378
324451415
825438614
527412908
-127271043
653313012
509718524
-138307492
-390842084
-495483045
297105802
-680931332
102818236
-452815780
-739040106
-877318550
-945118302
273723284
-459634026
494055678
225483858
-598463755
-989401003
-327567280
351019951
237287678
611100426
-753543733
-126738813
-801886960
138548380
-679354750
-956290271
462675056
512078256
94361724
403069275
-456546114
169662223
618035169
367105850
773809319
208959568
-811595929
-611977413
344676949
-869005369
960806204
-71259697
509873367
199253190
-261505960
207204201
334171180
863666632
-499673020
-151540568
29704461
-858785632
-903038136
526903962
-487055520
-871756187
203223689
-4679637
785653339
614144761
-736852813
-958648275
242026562
-695906784
-134262795
-571792404
-81948676
928096540
108661952
-700531536
979942617
-372759741
356210540
-761371041
-260326378
-96688931
-369929600
-109981574
-170688811
-300735975
-797525844
878712758
-432545704
-77120714
792781715
158006826
993679999
115876381
-668493446
542853740
189662819
524720946
-37400925
-797745712
880555856
-508150279
-550788021
323047116
-25885380
917023505
302239943
441141330
414227813
567920314
665213023
-787191685
-369997510
399838621
-959476303
-884020746
323938775
896139964
210282315
-667018162
796185143
-908348469
895794659
-135583526
626436556
193055391
-481477301
-55814622
-966986633
-370045292
600536213
363599375
289459541
-464023452
-488944103
-77949012
743016375
703303882
-590023028
93902651
-47923894
596820059
144051664
-906576901
639081956
-226943445
-832807927
531858576
-194024210
-543713756
715290246
-415681472
103141153
-247239922
-899985547
39541596
1262202
-209115316
-249294027
35535864
-626126579
951115005
45872496
372506727
-248846590
-129375066
-640405215
775538354
295276404
594326065
441132234
984202426
178609726
-543449496
-746167099
919432839
-845805002
379376143
875335767
992742760
726748995
48761032
601370019
950040244
-711379527
-793069022
598632091
-363066449
333488260
504731393
395304616
835700607
123282241
343809528
-26119185
-231268370
-139244590
880873755
471472965
-106445734
267405473
-366066459
-748836103
-747176062
487803493
-669887240
-959799333
-99207455
-468762380
-286743366
676445403
627642490
-761531926
-795334645
-755924412
500913484
803107481
-407620111
-465568426
877538846
-794530798
-503810866
950283531
870742635
54122217
-507055004
-634480297
-86780067
-867030106
-157120678
345971013
-341486028
94240985
541110737
-736329983
-309362448
407857074
-248040884
268377588
-546815791
-59292972
283335528
201146045
173984066
-452521050
-999314303
841304598
-514947825
496599958
815857289
341840272
976244468
915146709
-72032542
916960106
-707851637
692455577
-762129653
-382620466
730753332
19152030
-971194174
514089588
-621270317
-151489489
-277514026
-302747880
533863861
627005414
636800155
-364033785
-489128585
59817560
334195821
208021308
-140458509
194901734
-806137754
-865482439
939004185
436803943
-786304609
-139607129
66387960
-265965824
-144309942
-496491470
245364952
-137862684
895602196
178263665
425846493
669514855
-949353989
865333185
301766675
724969949
-651120604
231100936
970197603
276157323
-686737417
282282565
-768550869
-420036582
586824994
-664540289
442531608
-652318901
-237523056
-635379232
-612975869
74558343
-398739664
-558149365
182736367
715852689
984416040
403881981
133161992
877723902
852154353
-527820207
-452530532
-523775143
-428387764
516794204
668204584
-875532286
193431439
992740425
871602881
6875892
-982072537
700105684
203437015
108014759
-750505742
21452884
795339685
-22806328
-75059959
-807293682
-129433279
121844930
-585288539
-887570478
145729590
-404033927
-635317232
990522312
-575166512
-967801379
786761389
-905823124
398716167
-695542753
726785049
-721110165
-894858046
-319254514
-440418569
139002468
452762453
215492013
809052449
-627997929
511658627
-972043780
278810466
795932919
116662250
-682382685
-766155589
-953595459
-333143486
-140825647
-821851112
-985925189
-19926962
899804539
-912525189
621190705
-714686577
-605664883
79613606
887592485
772350686
288848559
-419847612
736366144
-812160625
-258741815
216642009
-37806120
253219996
-481197684
-792978461
-648377362
-442282643
913445086
195918041
-11243674
849668408
-745162050
-718535256
-88586595
-939064339
20661423
685669936
215737664
430535741
-672930487
143613224
-9702354
-760086798
638207761
649285407
-393933877
-202751795
754867185
293456298
-879710642
426296115
708008328
600256989
421929691
-21773326
-918315141
896868823
-489413484
-175898055
687440659
565329061
-844066437
268438097
684219267
335060595
946449568
-519644813
639550753
671528666
619541352
419181087
326333828
-554630699
921081058
-942451177
-880820071
-603557798
-863939563
20200498
-26194594
379312876
171148695
531654918
-963180575
-824719576
-258668499
918271238
266142102
348924284
-191147984
958718947
-295119376
171844994
64571360
-801630115
-288480494
758934142
-93452119
-364167291
-547706992
750966060
-791699601
39334453
-720748777
107601876
-426107256
-953361571
-377019132
-439970463
405228883
-21750113
712525623
-931764794
-631495284
347211038
-900713614
896134645
-422069718
-398026622
614431243
-205549541
653315818
892670684
-194607769
-111492850
-253072412
-635297908
166941599
-791847063
64911651
-673745495
287706492
339587703
681627622
-709438679
425897274
772085723
276399163
-662232431
-529881396
105610216
-715048971
-916003206
-209930066
-155110580
-569022060
-650002515
-11754597
-773913371
-201107313
-586421327
783645753
-947926889
-295640063
-613059385
-953682374
46740769
-193634724
517490855
978616984
910164880
-22282461
-146524848
-766313789
739941808
-675878444
702175486
64486122
-776310719
-928876947
-184478530
698489462
642091154
138852375
-884241942
646230755
363467193
682138768
853001008
633147660
270702662
798255715
-833225365
655739123
754811363
462962526
-320685538
-205147532
-33077333
691889990
772570952
139286181
-33443704
-207894080
-309694451
392258108
160404277
60744297
97645356
-776135434
-645865253
-174317443
163578941
-219129754
413304768
345532342
502667874
902781468
435707648
314818987
-382140079
-345238564
358243605
-782558808
-75766102
-525551205
214732961
-667498290
915002302
-402722371
110898542
86827517
-582805385
-545209396
-176759828
510075090
588040779
-520288262
257180753
-894225153
777399619
950716303
-622134481
-542545389
655357396
-207464179
-403457742
576018395
-317356746
763034100
915931116
859309764
942442039
611393326
570914580
321080287
29588471
602760873
223097822
273625895
-938830007
491061910
-772767313
-674199275
335743346
-639304428
-19737814
-96236789
975076035
-767284340
170491175
-254540019
-352465002
490255942
915190106
-696933742
-444026689
-95894642
600529461
-14926309
560566956
-660807534
-801832574
258617759
519397165
-222162202
-376424688
409726550
-382833922
425142605
526765097
168176704
-61139740
-114985946
642702040
725408203
600856180
220752427
315495242
-192782525
849533608
366465130
-549523108
60237057
-293707837
-184078978
164998851
623187838
-751491410
40929539
293867006
926074671
-470853431
-505863990
-147489577
724175368
-558820478
-93084993
5480149
-571721427
329870765
-391523636
341065760
231492450
827868900
-137359102
-30942829
522938772
168266712
736983988
-891514568
-682695492
810535575
691153393
-657512403
-607483742
-85363702
31168872
-431394075
-537412372
-736509411
-609690468
-98616771
-458741396
-533323117
276755729
-971196323
-617792662
784933474
-757005176
-278115042
999864184
388279082
286446238
292514069
-327060114
196769951
877476798
931609471
-142601583
-101477346
215407501
-177333872
875852140
-121026817
914945964
136990063
309195895
-283928092
464144577
-889033916
592323976
-869154671
919589202
711914983
-72840519
-94792931
-664210371
491977765
-200245977
719623401
-238476153
357644162
829415551
642035193
993398137
523289853
-761766562
791187188
-102855384
636473895
-183111031
918277281
351340321
-724775284
-402751687
-372607743
-19741308
461883178
335369186
114299024
-283216162
253426328
-751952194
-685311162
968096869
553491739
484300689
-620857408
-963176173
560851255
319263309
-26225670
-513019389
676622627
589180428
216218488
-141399485
-811506909
507022006
613104538
621180520
-969331327
-568807969
337898173
-213722440
-541034171
-328448715
-315360856
-261610603
-273950881
-137671890
-995598413
842464851
-469827348
-813404059
-103980998
-965599474
534460010
377287056
23614802
-519508444
775893210
821100097
-917187953
-579473672
-514023412
-633134606
592734078
859584368
356663694
-800268089
-17299281
830392545
391933196
-819822547
386110556
-945906289
589972323
471603336
-375103127
-803929763
607182126
-232146781
97815962
313155323
-867013788
-124868144
558616667
-272017712
446145597
425513254
-839347611
148199190
366880669
-811134228
-603025709
-554588860
-360315500
305437937
-428579645
-29676177
566358313
488326668
-832067277
-491372195
950674312
-297597759
211519889
278854377
-933343262
-57029556
232564845
-183496757
-65379518
-103658069
644716946
-480276679
454370021
-509337558
-64114406
356482265
-335950630
875977878
794083976
-55162304
-150659484
-519755515
-721757603
-729571762
-384700618
976260530
-648640917
51740835
271481292
585589421
-617905087
-437043783
-337821381
935849121
-520525768
955164840
634558873
806448518
108258441
785787093
830141572
-69609411
-830741533
-218489719
763302184
-743848469
493722567
740328900
-608158895
-241014725
-867911093
-441245458
-76329454
981295141
-135765818
104218686
-936503469
-522703456
-69088608
-47851091
-799614035
449367346
-865202579
752410430
-230298663
386691513
356910516
-154127759
-406470763
952201641
-227129117
588115289
-808308043
72535923
192049501
-639922663
-430095375
-102051882
-749410587
165749995
676646561
-51056489
237635583
-485968761
850444227
-672900662
-22727077
-522444381
-320551690
15869423
-135823976
624535601
448214974
552117527
184759883
809985107
-334290062
-97797722
71174301
-136180860
28641680
-787645611
-737907270
420178415
225773717
997005230
427364116
159817813
180118774
549756335
23477618
-445334978
-155611525
-720488982
-540908155
462818840
891595782
423136321
239467609
593280111
-825955960
13984222
-487201628
177323890
-318731654
-128327230
726768722
235319423
611585026
441874174
-966844859
585572738
-52750804
174669199
965379790
-147398349
455420780
225048441
413061007
-987334778
-942987821
-29070177
-456161464
512533599
36777078
-115874675
-514678206
500439600
470613593
-296294778
680586423
345866750
-459181718
-993944994
188447128
620493787
-491699430
433004904
-820808192
193285813
240379823
103120333
-417929117
-479651867
-999160547
-287014225
322338260
-125575796
-853035716
700252708
786067559
-424165703
71117371
-381292514
74871896
492166479
626628317
-249398633
-832867785
43416055
378333704
-207984384
897316419
283837822
-696022848
450588459
411048539
738722405
160021706
399557014
550006916
236676491
-733988261
404425746
-252778763
-413822395
-373647346
-928091413
-155011212
-563541726
-67901645
204030817
-755089521
778393971
-611784656
450143148
-182775209
908621942
-861970685
-283196106
-325041331
-729265348
227639459
470185590
-471845753
708136659
-95152429
-438423364
-516606928
594884649
53913968
955326673
63705329
-624023480
-575884206
-221726222
-93220102
-225803312
-410985770
680395197
211861915
-501863306
-313660994
-138985251
114961785
313025327
-55250750
-208627240
336747681
879635495
-903069846
-991106172
-168451425
58712527
762427867
-25612950
292880526
148038674
39123083
-448259623
426311680
390059202
871025525
870422051
114370287
-256151296
-506416065
-946305041
-812879585
901757644
266788047
425633991
905621402
245338043
-880682117
470822484
524014613
993107767
862138561
-156708592
304140556
261483231
-663579018
-293172706
-691924374
-504442770
564538173
855707123
558672587
661637356
-573605166
547574951
683617479
-925481538
-408260669
779381247
862498901
118872999
-567129909
-995269488
-198499671
682013041
856299609
906651204
-660495263
949427780
314163954
-129577793
529617279
255552524
-332334049
-380561867
176473489
-555061490
960019950
432106533
-385751898
-17157181
516051037
-94181919
-390804562
-310552113
502152490
-884005550
-884911177
409750258
857871466
419257811
834163917
-675063015
-481350308
784896421
801145320
69352741
721145496
-43063914
-686400003
-157225848
-619650185
-704429404
-764820589
-380842700
-947179220
-955395328
-485868472
-864547015
-823301
-644451812
742318105
-299548822
832077112
297498539
-200712307
-183504186
494507463
553535713
282692298
108949766
546334454
-313593522
-269432695
-404461205
93670776
322589287
230371577
-609234460
304722288
-250509668
-334769913
-731716381
435984459
-551523407
-331353664
949707466
858750551
207954386
-480389479
-9791539
909913561
581169169
402501203
-878081904
-237802741
-661296711
-125835891
773019145
-441370106
-553420265
384725682
794803924
-620294172
118340768
108987403
-33738827
677604763
654166461
389389496
-933857622
-957892569
-383052446
-441986418
276554697
920025870
-684228733
-908797779
-598621301
563954655
188207866
627375796
723656531
874317076
106738887
304570837
-373215697
-609579294
576954752
-3111515
834042187
-805672302
240588884
152105522
-189845844
837876896
-172487095
-705676432
-147497294
-841100373
-871500750
646717788
360290298
151593853
-937061863
-24386063
-789181874
908364641
-705025362
-270021598
430484461
-466440061
-953276137
986426560
-372645262
422960903
411719203
485798415
863227879
201099441
-260504611
837277097
-104122136
-777185072
-699636118
94714833
341193095
90571751
-70696539
705277032
-991410420
417456636
785502358
-356501767
692447407
-476347672
410010040
-201917382
-690212278
-945548630
77380759
505836309
-931671527
452203562
-552007965
411890140
-760994737
-580125513
-756599301
45171760
-735163016
-717110017
137382131
-97790838
-303389994
237104602
-619719772
483031716
836876913
444027129
-89255053
-480277691
-147085205
-883518072
-88921415
-56098848
-534797012
-518406710
112855116
934034963
-135671281
119799863
-350403663
-775269491
-484339712
328529161
72540260
779534292
-704329946
-997899357
-460860949
444350006
744824007
180667741
-389987237
-360427693
518962765
979886836
57006094
340226380
-895410876
-602752745
955986004
541990465
934710115
147575867
-143941935
460328885
-626052650
953134955
-399862706
207992583
274661376
561548830
-324645268
-294182720
126287589
969992081
-749010931
-805269259
223240558
-326885323
197368577
338508646
-451615650
-228276344
606129571
-809652526
120130362
87813194
862683782
897792991
119469991
130701134
199145255
-789420063
-311058141
856051798
235178131
874586657
642401133
-272419044
-988393280
30749125
-634457496
184454530
-860326984
-386990733
218642647
359971082
-623865406
-877846389
-98702306
276489155
796994823
992507746
-709340274
942375273
-931934212
900999914
-742600607
-982895795
-392023748
83185135
-220759113
159208643
-396766613
-300454579
-504078073
297799575
484721325
331238435
67297276
-123024690
-132064104
382308360
-196455024
306759594
-712815599
724380581
-561157995
-345162991
-741970072
-178903873
-870769449
-613846916
-521256941
888012755
-910691708
304597558
-498009201
-804762275
878097082
266358842
917949439
-547286381
-982974819
425560251
986747394
733054302
-592939175
-376246225
474202322
444540130
443518980
-205749409
-461241057
318253559
-589993713
-933242770
101170967
874742677
-52762605
72139785
-344200873
419070253
458343693
-275699179
541501874
-338107455
-289742984
-596249383
516338231
854117484
978522491
-395378493
272356299
632768914
-855959511
-504002959
-988316605
-826488698
140091669
580593242
402341607
-904888336
-459970070
-191132257
262827575
496325250
-260719592
192918004
-370042847
-8704983
836281893
-425683684
498677558
633493408
710473573
915960688
-685991042
-147660516
-589525396
655841511
621218314
-84037951
71405614
428402729
-967265145
177084046
250910416
772143994
-111641382
-826400175
607504869
-746174046
108655348
175106488
807178750
-261467498
-878759453
109716530
-102338411
-276108070
-843589655
158732797
-263469262
781812695
244556169
216221213
-611626640
940696638
-289391204
-72770163
831116561
-590639300
962627483
-484044096
372188295
190926238
430342941
442195541
-716094607
-351900111
490016946
944993333
667947537
691785549
-161459449
-393771846
159147967
110879746
575524856
327087555
-945797515
-494683840
-646629612
-605921993
-962051483
-423849964
-960491312
-527189726
179981899
200892379
337648192
296924648
-916642547
650961827
241637408
-212834356
567129605
487718297
-809640337
682640318
470757982
-134371227
440435404
788282175
649372057
-605220744
-792824453
230934684
-551589887
-153777898
-231641260
334036822
59194084
-247773166
320417711
-300037048
-987221752
209921617
-442059061
106740786
930548456
942509799
2778877
-263726084
-331647843
-232288661
923381589
701005591
182392585
-531495314
28832083
-900130849
-665785682
519548377
-493146321
724140050
937592568
571879554
-90942306
-165911869
-690570984
-449232827
-18200430
801802590
1899360
385715107
201164191
-555763236
-658688290
-185555784
-649082635
-32702258
-573353764
-901556390
-859520551
-428016305
796767729
883429886
893587772
-65347689
499926633
-475398244
270462999
492081491
109727980
344088627
45213390
446257607
872370577
-161812513
-584601672
757111756
-570512730
412858687
-762647628
-2070492
612944830
-122971718
52899739
-546334643
-764022150
-801538282
-756032899
914904777
657654256
-879909983
531330694
717427449
965216708
-643597952
-722824904
914390138
-963884332
-693221495
-901575700
162851635
-848331121
-333187796
932380633
-849617564
-265693345
-205084381
-989751041
179306319
-485984838
977061773
-304460550
222542282
-655791388
513969387
-793076961
408157507
-731032387
-946075325
-213215729
-412067360
462824165
-562229663
-574064689
36903059
577689788
392920817
-353784286
-261295238
-942880692
246233896
-165361248
173869076
761394486
-479562064
-230975126
-857134150
-455927374
-826192918
-8179003
81635585
-164024005
200364764
808335972
-148402198
-69267961
242919928
118909730
-467302998
-101968708
-342112224
-411602005
259156000
957896514
-394674294
395980367
-66528551
-914395213
489213726
181506038
-257328681
-260046180
705425096
-183369175
562296122
45219118
-21439260
-602332778
-631273693
-232224718
395054866
-194752955
-220019009
220411827
195636927
-924327867
421029361
-739820939
311140593
-579938318
447684912
612721264
-448013571
-446331083
498232871
-947728848
-531438871
560855301
805131716
67335892
931625807
-153733471
189869187
18227562
-965000709
890156086
-130383290
485817456
239318234
726149434
-485105044
79957836
47253661
-845468180
-713715520
-485675835
562710110
9980597
641702585
255664582
300657525
-925373329
-613630252
120218946
302443749
-284614795
-530039609
-449854494
-792263031
-58996499
-927274637
-401910000
256418945
359456213
14660810
334750905
-973885800
605606189
-779570211
-784782635
103937915
748244685
220549680
978619779
913110217
-280850116
419390394
-255782906
191199700
-125090203
867772904
491005033
561546130
-490115600
-699155944
-12492657
-909512407
-325070129
-730603962
266847845
286308955
953332873
270904212
311506787
497230478
173789025
-678226073
-728458338
-746348816
-62730376
466257196
944224509
251397132
359105027
-623480616
-812319836
546183574
-742497432
-989865195
788852961
76181515
29829179
275840683
175442566
-587344134
-603544691
-361243919
-292137009
-696959696
-289823523
-987420530
43989894
-866510444
-369065062
-701628461
-309033167
431510482
-960862411
-133790928
686919444
-989810750
686018663
-549026655
-203076038
990543547
228572484
657359388
235943695
-746934855
922270653
-783064119
655922852
-195957566
-265514480
-593886220
728732280
98621876
259394326
-721835298
610060339
-377896121
-50505762
-909230692
-785456193
-74682002
626715885
-638378145
186908530
404014099
-687646804
-881395312
-463891880
-84015952
-858138013
-599767658
-536743399
456568373
830853608
581973803
-882163466
-621665247
-820341055
303879383
-434176838
-893142386
-674415622
-157248940
804215032
595931927
671283472
-308613904
48114169
-765265531
-945270563
-357030018
550879007
-964436864
-9355950
259221811
969397676
837515187
-859707703
-728625348
886992574
770394412
349994774
452156939
-381586933
-617312248
118829984
-917504759
223041441
-816479626
-514811930
-471784383
116762292
303107211
-847552202
454905399
-416537320
241700610
-394916069
-683812997
-10225922
3341774
890677237
671922484
77987825
407480713
-210065254
231086942
209048758
-856807039
468228733
629173555
866099264
-450299993
222295660
-587176569
270547769
194361939
616558596
284958188
628849595
964692216
-524711633
806587021
-94066893
-206454426
726938043
-899348158
-598173779
880687637
598021987
279270701
-910662160
533527622
570485301
647880389
658865697
-684643762
-883624521
-516047071
69979716
430789839
186205572
-168074435
-13487941
298534804
-427411771
-148662001
31293492
-851379394
-454828043
837947883
-48731432
-295257850
-730480156
-139325563
572902683
572493567
130152114
-931245874
511171184
-291314784
-251054407
565485220
-457738602
778630333
27833060
-907308740
-930927286
-935850689
499824325
-968773624
-500294820
848774756
549028363
924229758
581010968
-123192828
-858375527
684807967
-316585795
-631360364
-932875838
-464486969
311186419
932599571
-948321382
-196189417
940911469
-967946259
9361413
-893278452
24031700
-642883784
-807432297
-752284537
551328785
-248621131
63385329
414344225
863203814
-908379293
-266282091
-471449182
377808587
242015268
-526601563
778087311
-117159564
195815256
475647923
-273779465
866531199
-320797505
185481976
-628904563
-875505681
90020202
424339117
332371925
-441175977
-898350342
-460749405
407059079
-11920660
-386770774
235900813
-980021709
93626612
104633030
-416461450
-546664338
-629075887
956743105
694579043
-8531636
28327817
-525261104
-244150183
234352323
-353241964
-90734846
-899856369
-510975913
481441354
-612510219
-55162082
-947890208
-411413030
-297863924
-503335803
-728032354
-998973085
-512458847
-242487062
-381212193
559790443
272694534
100813223
722366497
-966606832
924374031
291408549
110921226
-493515358
-986801156
-124450390
671176149
-218219681
-98272060
549679319
-281257934
-200517057
737105161
-417251909
188364324
594935497
-440988317
-82334030
-845620680
-895216405
-153419479
-926997846
-579306528
-375195518
680952545
-305936894
524505840
-444924181
158904275
-767910483
240486089
-158326133
-399709600
-351781958
339628667
-735919230
-328088230
-55382440
493717688
-287360202
-23428826
952126744
-815864370
33820498
898010837
763443574
321992577
607431455
710771666
298447474
985571658
68301428
931082312
-532521447
406751174
126048230
-444653903
-478121222
-481224652
360173618
133796462
613374911
-540641383
387570971
-965424962
-127632208
-224390414
-812989837
168027335
592113710
-834175830
277989730
258568194
-674446661
-689953829
304050041
-565679281
-224968307
210843626
-230944389
-239996427
706162427
-584913563
918114315
23039922
49099148
-263180237
191965543
410095005
-716134970
-366451856
387502666
91788526
-314674405
317763318
863931442
-642617630
-184156543
-306069948
8937587
505157003
-616092006
935280753
842350353
-398137312
523396763
-757318803
189231813
918258653
-771514782
32471647
549701283
-477644910
83799482
-632477567
538468152
-50705387
520202462
575478988
633936885
156658111
-226185161
162380474
720644904
-217428526
522855454
622142331
-687960651
-439889464
295800458
-776827971
-237117316
-373829442
-30776791
-370547358
316542222
-636912024
-610828745
-834954158
45208176
-481785455
-743472380
-592121124
345360333
760827133
-948060040
137000210
297855319
684362194
-856701896
484175987
536722139
484881843
713421065
-828391775
-990528941
345933325
-633364484
503831480
11077355
518455839
-764101852
-235656381
-586627445
926326273
760456794
796859168
-162436497
-925491838
642844237
253065429
-811191728
574008157
-260665027
831336381
-355613782
-863945807
-639344783
-261313811
-545573307
533855888
-213680451
-467030601
78976198
-449278700
513540300
-600283705
632334256
384433840
350429838
-901188486
161596368
78350757
-644097387
-172436548
-860117534
-235109772
-862186385
234296547
889156132
388613069
-194589296
906626368
-389764187
-89365150
-285368075
194454949
538215467
-846274268
913004396
-11861286
-810054711
855411886
-349559031
310256808
255414223
718193724
-277995154
234599648
-807443645
314772826
539983957
128899439
820725733
-7807562
-845052347
89387935
-198756845
-419968116
596450620
-481534059
-153000190
-535534072
-706204690
745927626
464807853
89525264
19528643
113132964
-939345221
34108503
729880939
175437900
71527470
-180579800
119294053
-180871160
424374168
-752897048
898596972
392803856
-836992186
22296037
699719793
368007654
-247576982
-771282020
591655550
-69711973
-270698983
-856900940
-511765513
-339630649
340687986
182184930
-462292826
-9463857
-93006128
-493461115
357856258
17065142
914420005
-788003125
-184018949
-498921065
430807937
-948348180
67944164
-681078320
-582803113
-786000608
-694057277
809728280
-628817284
460216585
67384116
181628319
-547955270
113203621
-100574869
-466964110
751241474
788158349
-277458418
631525610
-107207715
144766672
593465859
-908884343
200195509
-82162447
-146476594
-375725281
960668121
-436513780
932077437
-943154664
709337228
301251121
238350265
-695809901
-451983615
810705553
-480535305
286204788
406138189
325727012
926202179
-413545297
-363736269
-791938575
545108076
77074865
-149122977
-579434479
-944131344
-796071803
152729833
644789298
469563411
-354517344
928092852
-45562272
-296844657
-69452589
-62617617
167463620
906191181
-25468838
634447156
-2020991
941691352
482600472
-214220340
941047015
760414820
264870771
-171250268
454768073
-638965918
386302685
-847528998
-900229974
-771609937
171600988
-974800345
464246700
219602951
-625781355
841234009
-522555705
342849588
470149936
-566140116
755462320
-76532237
558205406
922359199
-304769333
-511221802
-168812744
657049855
36721621
-574906763
-553851946
35111393
-6171849
505229151
518933098
-648287446
-928321927
-758035532
364540008
424838060
-842232689
-758197469
106225220
511348662
-100407611
715907742
-274596659
-654669272
513732840
57570606
839866713
-455608716
-655410272
350844410
-472918828
79579325
-236716569
-964430735
130606470
924847130
-450733235
968332892
753418735
-240213591
-4341038
115040036
-436319572
161319841
406027069
-724666055
185470881
-584105086
74793650
597663164
-536672793
556610139
927932552
842470966
902101563
-798738925
856361679
-165065479
980648139
99539828
238597718
-568845556
31715074
72964944
-404087120
-752861110
-861361062
-560598837
216684521
43780061
227794732
-943690649
681265488
-553560585
516982445
-527922482
-144721342
-879888312
-593095600
-800694291
-809268317
34825061
220430156
-71794678
-619884823
-538088921
231765610
-620021869
137305555
793834967
-497178218
-50094072
778447051
-562470918
-162263256
-666474054
236407354
-120548332
660622461
799253668
128973215
-253433043
-808906916
554043298
-569703107
975811072
337857994
521960830
811754207
-526158712
-492190890
-304973982
864856882
-771732686
-748265968
222907541
-793268743
297077031
-389979738
108870717
194579039
-187385987
-281585131
224137476
836010676
-497637979
453917437
69313041
-117790314
-595809031
-796669207
-283222748
151340809
-549159622
-187348842
-44678490
864922417
712894550
-643719969
-275319214
-162817163
-424167622
-37878505
252651943
-144227628
462133308
-763527753
-490829002
-224108341
825437209
476056461
-873664683
-777518461
473445102
681290989
-458402014
924368351
67830601
-871609055
434135694
433935504
370015117
999412606
-224038465
304925662
-29440917
844546972
-251711259
-860683206
-402678871
-385692810
-85946362
463144935
-356381694
359374992
-840347565
302470479
-736188279
-608179234
-708521314
-133000622
382893800
901221550
-698780678
914128279
-110094581
359588457
540912530
769136626
-153232884
-658109589
-271292098
-440232889
718388059
-779163033
-66671141
523406443
936137727
16317419
916630391
192906092
-221778270
421629427
979230740
425039513
592495240
-497215382
645605085
-240195657
-867577918
-88346024
785951974
-75226475
971815942
-990785414
-656781936
718670467
-597904955
746195347
-210629160
427655379
-626265754
772004384
876906325
918057323
-559371541
667561069
984850876
-286370755
-220252279
-298439989
899809168
-35107177
-946035926
-118484973
871777474
623770317
-538514931
-994922925
410938634
-750838363
803200608
526611468
-501618023
-825674823
-909123469
701715387
-746806059
-151877271
-191721232
556271814
-720315094
94679507
487735367
-476155778
-911443983
942407001
-469364781
616438810
981849334
-437357517
-232658464
-377917609
243071028
362246505
-573900363
714157611
597118206
287980735
-415961700
343916850
-881001842
-689059665
494921906
-775217282
402420921
-624519449
291680601
976553384
-798551930
-53295266
23882627
-618035578
-556822922
-332360536
-493429800
-247024971
536706156
-738581033
162666003
507312772
-343677031
-741740251
108344159
519856910
-804620185
-504207722
-9690539
-179552725
304624161
-923607040
-40725869
931160747
-516601904
263896971
-268637993
921447528
-216947160
-306770315
461245515
348395006
433256801
896763715
-437294531
-947121023
538910091
-212725104
-644296392
451026669
-706030655
-159564391
710439746
903923836
-272605885
-735543890
140061807
-569337845
-950514737
115157977
-851404553
942953947
-230373635
976173271
377252246
-268853604
-428070705
15645285
885240911
-945171262
391412477
417265735
345935973
454502382
939572652
-319063467
-627938162
676391032
-20296492
810981022
-897616671
626676540
466705573
794875775
-386714619
-200393688
760434239
-92238133
867066222
-868467370
647277520
232613612
129608618
-428729436
-997078207
-285900135
-933865915
-776545298
-744277588
648149833
-81264074
-5097894
-33899712
-181434313
-58092324
-450488938
-596055213
-982425598
445004450
-530721570
335899727
-384324690
-528707743
767010970
452371940
831896843
-936172001
166591969
-998690000
-121289144
-336571559
-857054397
-680186809
276439874
-938573909
-401342842
461923673
711604640
760940018
723662333
765473807
-514444177
345961955
504607797
-699883846
182466587
-900955197
-526776779
787730558
449484311
-767845152
949949122
-102251251
748804761
-772624924
-622669900
-785578839
641769944
-203792172
-355272281
-170679961
906531875
148614586
384745243
510495504
-818377486
-753955496
623980959
937275618
964082033
-739129845
-343199440
9159396
165840390
-236218057
-373610494
270305286
371944446
789428763
-528780200
-249344603
-300377603
-300713500
190365402
-495549883
572067701
-883841704
-326197388
214984520
-954616591
-585346306
41447798
-122108709
2271603
-56234737
677090455
749149449
-396889546
-48918627
-855090851
-632349480
-774798022
962531029
520344497
-889653947
877180915
-328578517
-338435565
526074296
292857220
-991790698
-305785296
212469646
-298943510
-983542889
-798386515
-814686556
276295384
558483556
-297895517
418397677
661807984
-143986299
606441079
-883332098
947251302
-739324171
-130477771
-851863590
10156721
456376182
505550065
-841159384
-777811593
484375444
579364188
-958765412
-283452355
753850307
-45295941
-939797560
674476431
798122125
708389650
802173517
609599883
-443323936
316859608
536471154
290243104
348265989
91484521
831656419
-626684756
629386560
901760649
-312784918
71230810
-340854595
659817909
-333077581
-483564834
264359318
547319392
-326346111
-808514259
475912762
631548436
971467246
133333336
543054134
753857932
-709743880
716410439
952192632
617551112
173502848
345931639
700298489
677516778
661256334
-464855544
-121529479
-707512230
-62514124
-189385243
148956738
-526015526
235799608
-791205442
-481971051
192125308
73551910
181794815
-580873672
-734638009
-546445454
-503556125
-851717913
906775158
-807288663
582092867
-652610679
627794788
402398207
661394246
-4560708
-199908681
-96560980
-107709465
541079185
-175468759
751783432
710140075
883470100
370058596
699866988
194164627
278647208
-681301839
203884558
543876695
780417807
-889077544
82202147
799624763
-632310761
-30738596
586649270
670786778
-208760773
-171183810
421535902
-878077502
695448434
-292500885
-868071554
-259764305
-62944153
440704611
-467413178
-734692591
-820757089
814723883
-850432838
-266684152
-288872424
-564874310
-710239259
990427872
-991731571
-325266000
495143647
280463481
308701300
-80016932
756060587
-796536779
-653158394
-482500797
-353010030
-260056928
-189553565
-693024304
313770842
996872176
84366584
326841036
495898112
-247819073
228728298
96150507
994222914
-64557328
54116253
120138454
754955131
565074892
481456930
-591711364
-203762514
-351490390
-171623882
909494097
264341341
-48610993
951328187
507789728
837284842
-966104567
262011963
-627052660
778121419
-262166892
710342207
48379033
215959753
-289742298
843711413
10208455
945849527
326703784
-177399396
960307507
184892652
-950561433
301637820
-856332283
-788701999
-850535691
-130234815
906231281
-534052146
733284220
206162306
764138933
801584554
631360384
93649414
682955851
966023272
-465266192
-904362176
490149319
198498790
-779490552
-718041530
-21739303
181570641
84030666
552212835
-235214950
-900610629
157964791
-48723931
252895496
567651752
-997284634
83106436
-118147806
-507637982
-221607031
610326896
483573406
116584512
850159759
-166925769
-679724750
-325432661
-988300317
-216749588
555253354
-296392522
314273971
879968791
742440143
456034582
-270845811
-965585720
-109127457
555957785
747246739
160735501
-735283863
576109731
619382310
412119572
380150065
-590024872
-626694109
-477280181
-551031571
520798627
316489235
-91248192
-743272582
-685045995
523146672
424862383
-583925211
227408279
-775676801
823258583
-605086301
-779611067
603974397
788799804
900522576
-147861499
-882649809
-361743698
636603001
-217899002
-989315092
119516317
-196963204
832079118
786323758
924096431
764602003
-329839551
704319136
-400704506
-704193455
-481370056
966099562
-466089411
621759783
907916023
269952636
-127892610
-676719756
-526106635
-20716438
-93510393
574043483
-135898588
-853209708
-534149704
642357876
-90686890
-681595869
-111481638
259835593
958909915
-708278273
-255116506
279917976
-155313183
48042191
582902722
615323845
855483996
765627288
193395011
-792595895
54691754
122551273
7851455
294266184
-841784491
299256392
236322546
474488133
-985224723
-529023338
-331138429
-318294999
-224360979
-856752909
112813503
-141657829
552267329
-132143862
665567637
538433022
555454586
104607355
719274322
-908868287
237691818
464872502
-504030398
37255431
305961562
982258868
-264957753
840465564
-863645266
-454193572
-866670041
778202102
785317571
780292866
-946090744
214908801
-862708744
-717554794
397664010
-757190535
333828825
-158051043
-300628543
-671261678
150405937
125991907
-839594327
-152259978
-938630270
-675210668
426632365
540810284
-50844902
-238659721
189223021
440419521
-178775358
691171406
302048851
256371373
-566430147
681272538
-566301051
638971752
-838576617
-874385306
-220930693
-874230429
-68596450
185664161
-229180604
329065889
-890513413
-813383231
448046378
-334482086
476531812
458905951
448747155
339438772
651178935
-215968279
157910586
302223098
134082835
112001541
-641619750
-996718918
536969841
-220590090
289054050
823945147
122481303
833615431
389963489
322969028
967960448
580742243
811541055
743693724
805170778
997312438
-279624233
318348648
-289508390
-302322841
31089899
466285547
-915350582
-288437314
757593157
-566987833
-277050144
810079228
747900268
-508782906
-96808394
-569460933
-44941923
222624832
-260071552
120027734
518833380
-906096348
287420180
945419313
-598892278
689468586
-348919302
694892095
-979684296
522944489
611163385
-286750475
497971413
-111818154
-219356488
-983588650
236650566
-854709178
88922366
793530310
467822903
185398246
-124818347
-228763955
996525546
308723195
640531578
-953062328
172529007
962503267
-654239563
-760808227
629162300
-814284319
-930151164
-892137709
468770129
803803913
688347322
-369548346
314010807
-790514415
961377088
260166831
705293199
-13419371
482288387
158306528
688795967
-650373797
303503458
-90387349
-163543053
794964482
545654129
609790889
-50310200
140501005
-868387123
-931223192
694203271
313571509
763728640
-771355968
-706161081
-569827571
729998907
470510113
895423211
40633321
-923651388
-208132368
648833626
390169746
661860741
380101568
57020179
-342976252
273585386
306066079
228748831
-458141348
200070128
-818349750
343761999
-15636025
-190054513
613679502
858799680
-344432348
-937948442
569559092
-574507216
136884855
836385130
-555658333
401840808
348150004
-356376985
-410632379
-245190262
-215301027
203359653
300008853
181292964
831837047
-876454451
559745019
-593394870
-783275728
661884417
489858401
-184075765
-589510865
-1261847
723604572
281241290
-999074752
224407539
507653695
-391012041
-422481145
124910345
-637744414
605428537
83045434
-325540511
-239425929
853734778
43417755
523729118
-979466108
-42107633
-930093447
475237530
-536723795
306489488
174882806
-783317911
633065684
319815055
-490325221
-780805950
-932193760
-671689944
-969579777
408773074
-411487096
-302383865
987082651
-961462580
800236954
830994727
652944729
940268093
927798831
-67776678
434580909
973063776
476978646
-42083186
871335301
-526027677
-455716817
588450008
-190895582
-291749404
384993226
83117360
873237825
-193308021
-94715483
424873737
131321220
-477891454
-252186441
-370355327
-805406936
-547704063
-793979202
-631639767
-17877090
161671519
849087651
-494715492
-388804627
558732611
-125683709
-720284403
-428722612
619186050
803628407
-72222306
-592620874
296759793
-112977199
629741849
173065935
313929719
-674915429
-347543484
103341740
349623920
488921869
-861584224
863952980
-126278008
-757686119
554513128
-311088574
-607494183
-235405047
-766879834
454208926
526942249
-478144072
1985272
-683982470
37447474
-3644853
374176922
889329588
-712008649
-348246532
553655287
-697425338
-710804208
-66173531
-343958472
-657228561
277823779
775849768
638808130
946469373
856480982
933576330
-116448345
163355062
314904845
-531688270
447845223
-450273579
-178802246
-44960981
-669922613
-256583163
852168450
487398141
404962746
-746453024
94169784
-197268447
458742854
-536227188
-969371880
217884337
-883972577
42119373
-740317040
-736860854
-449015681
-201333357
-71723215
324380299
697087032
-957022006
-94006429
-560456974
272406259
260924697
-160947430
-131470140
764576046
-754421481
274594217
264117432
107781797
-674111643
-261960700
316611904
579328852
-776563641
-458227725
-452487785
-839469141
-901758000
-711074395
58571384
-71613814
-247572369
-613914018
-98760404
-805909839
-506020706
477326375
-390244013
-895962917
-274527546
855374412
-685670720
259280635
142782890
-189421244
-644933346
-824848712
578664727
183774698
854892729
-434328388
-368775004
722568935
515498884
-527661852
848736525
-453977476
-228531329
-477285129
-294287618
84083013
28265634
-681584149
383018025
-713847398
-226484825
95456381
-357581023
504218167
799574254
305725263
-195619306
193885729
-787098128
279404004
-792126762
163187079
-18145637
-485979605
-664956193
165096311
945365973
-386403551
952566163
436264691
517484813
-460186339
415660765
-916884857
396803231
-77686636
-368572590
-708777605
-840896672
409587321
-231827324
-236680238
367290034
-322791538
63675035
-387187712
175049688
958948585
387183898
686335165
-451512891
326525499
-164909090
-898520102
554659702
-546034244
-500794964
61984252
578084481
-615089281
636721975
-467697489
-794134761
-357053005
-154500257
-452270763
97667001
-742101466
546752133
202118506
-547620149
223043563
634147849
330935699
372622091
-847351942
206444099
983184323
524318218
372226959
-274097699
-457821150
-11126321
759262531
468109875
824723450
-151185367
-842920586
-371178591
-437252676
241514760
-221454692
-443810496
560856156
-524443378
251227425
-285808899
-589210685
546520709
882559639
814187724
-400779758
102712660
-711060873
681862307
-696451833
428452020
82202316
-440849932
180323535
98789989
428775636
628790755
441343751
737227985
583651777
-844308203
-841770955
955569812
864677611
-816832600
533708318
-570821130
-158982860
-893865313
-15999653
-318546104
439181204
765725510
376591646
-730208964
-377032710
482273415
981917791
945930641
-189044059
-596846099
914393970
-602081765
396165783
871961715
-732642350
436873027
500251739
-56254948
-395394008
688404032
450474373
-720600637
770354202
-844181108
492944801
-779478780
448593509
601167270
589882139
406132480
201120722
-653639004
614457092
640401761
612752642
636659477
478922567
476144232
916995213
-700062008
888686552
-832894553
-752590199
957800262
651919849
-364572255
-99661997
-629616285
921339601
80971493
496710804
-72327942
863955356
740313208
-759273840
-234159038
-753761966
-369001461
-578576092
946168745
683516866
-305054210
-669614868
-5037940
-435641371
941643075
-607693411
669611873
787935405
-586776051
465821211
-993773879
829119111
-980257187
763179573
744220941
859407453
-493061403
-662903054
-505561047
-169610250
-532668134
-611175738
-707702966
-801115737
-396624204
154803350
-626984775
-21709378
-737881490
-117018322
-497315785
-93670831
468469815
812493124
-644015981
728854685
898495719
-742948817
200464550
-433796033
600655102
402416310
-659110551
-907053445
-540693269
-23689685
962361538
-398009912
83859517
920208300
-458392826
184659330
-237786343
986462949
255392949
-730864666
225570913
-273128930
704164173
644725403
-994249343
-756063390
303584623
270858610
858290185
-69574029
-388911205
-194849469
950153507
-81572002
472189005
-115864422
-334134946
378211048
-741038604
-757276733
54881507
404311790
-506850377
248375700
-584049993
99314181
956165592
-172576800
-367989587
533900330
-390947429
837065810
-395901976
742081435
-943262077
276272827
325398994
249943683
-523012617
800910134
501371006
-613861683
-759180096
595627553
-512921224
-463164447
422085944
447280456
867375070
89600406
107223106
153616586
-118867463
-958702064
-704251243
-886360785
-922418924
-292107604
-620312115
303168814
7221941
-250382161
-589275316
469119760
-417620922
-321753014
-590375405
857786910
-366721841
781240207
354868792
81371963
-487215309
-519127339
-152151064
-724944581
-297280982
-721559010
191794813
229276814
-170357515
259595887
-838865384
853800920
419930870
-174363033
338312207
-796801393
-558020547
-785599565
150554223
112729122
-761416972
377976304
-748380428
377522583
298966117
508532753
772719856
-995995081
832650073
646017633
-969664240
-777822121
-801781665
737501613
512643158
-280224094
-943717315
-582035839
976993141
-568930615
199252767
677697394
943541377
-732926766
-403739834
-616836780
984703183
-930579135
-471079501
599601160
772962134
19239219
-578893978
-849431588
-103970249
-506168959
-51554910
-653650962
678792361
458459557
758170134
-723952961
742981934
-401311436
904552171
417353597
-929519964
659094819
-727650768
-730939609
-315020737
702281563
-346815511
-556168179
375249948
-723019042
566932690
-277894424
-42951746
821744935
920054204
826068172
-681132562
512647310
-519307141
175357475
816307012
148582847
-309685838
528330002
-530848332
788845231
-50521564
820001001
-812195116
-166505395
-415823565
690679089
-686168919
201819533
-794630994
-365233233
704032487
-452547751
37049097
242789449
444891596
742653926
-547381017
44211760
-125436804
-895413216
-327458070
-873582756
398931832
389940073
459668885
68884640
-983329034
495577432
-833322585
191723193
-486598335
245464293
168875874
951112759
621805659
58314203
-337402034
513041839
111203565
69778557
38291711
599679887
367020100
775048352
-432621591
-89717745
244085950
-180378960
-408537267
701261922
368606827
-647841678
709035097
-509220695
952153374
415702238
-864436169
612594707
113346368
469170504
-863940797
852222810
439968092
-529036246
-652123563
254305613
-462450407
-44100842
551400914
202706018
-298556304
-4002410
-547607306
350172164
228396878
-113634340
-683532722
-417710020
-737360042
-770801791
460333763
-747808592
286246586
211154402
273558422
513122790
519982389
823995528
-63792142
815770448
838184296
409546738
-681940252
-468371926
-186237302
183226182
-168347997
-917223520
968266180
358092608
-849866984
886949116
-517238212
898401366
-410097549
-600606935
-851943861
-824583726
311094555
326223060
-16341674
-104835508
149220197
689292659
-316981469
848623621
-207302440
691610715
-765537677
494684056
-177537911
-774433862
-599695811
645246648
-968989068
39327908
-540460632
-843952454
206476291
666192995
-879304461
-181273681
-344662767
-955817480
-854243561
514217496
-58683498
-723597975
-494878195
-774418044
-428639701
461122385
-365533407
821864234
277353750
-519103116
-506633364
-994871337
-996762405
646564679
771815696
-764699077
-299040280
-390848727
-266696276
499288684
192644938
90956995
978983202
49073371
-258830191
402688597
368622130
944217917
617208615
25437618
-455196669
495553997
-248151211
397609536
-329360393
-233069318
654943753
-553070455
135318692
42150399
453014771
251300350
-159493880
-921990791
-626688331
347865978
899027852
-964934376
972167539
459676995
992073003
-391703980
-710798980
324984201
764891726
-504543933
191503024
18652922
180528151
-239302461
442313455
135660794
-657023717
-202777962
-858110239
-187565662
143935960
118589613
-473234122
979033073
-260532897
909793873
-563625890
274083420
-387285066
-546034812
-342157583
111427071
-779629477
436599464
437534028
-817407727
-222360835
916712123
-606073792
505886512
-807431515
509886018
-593543315
335068855
-716778817
-227184491
-379340801
-200465159
-395864122
233948194
371106194
894632459
616195835
558933055
-905736644
847215747
-909451994
-697247048
-208922079
229480683
-570865638
-579751473
-159189149
-401723552
-727253099
-52787917
89857343
537155003
-564507176
774009682
-264075949
791819841
177921710
381524275
75144355
602927198
-357379661
543611950
68716947
-225153667
-969996748
-892667070
262035086
451430133
744826127
-860151028
562690186
638490872
520553886
801376160
-978856744
-977245210
-764215856
-185048962
904243530
872588970
117235900
-897869680
728172624
-830991592
-621394845
821705492
-629644655
162754591
23291567
-294554066
413923384
-402907732
-441042615
133666518
-90749046
201517572
-71012256
941834283
-972409635
-963489725
543560665
-282730954
817995545
-619247491
166897724
812130892
658332388
389998480
882326258
944757706
-984412669
-983203099
509625107
605347358
-384609749
569961308
68832198
223485566
-167725361
194741229
959415902
-412714726
723789625
539394141
-82701531
-989579644
-747999069
349509009
-765913421
-73654745
71490457
-864986642
980445588
-979419061
202789382
309369068
511898678
891232464
558281498
148921431
-717558525
-869220438
-504528815
179580162
761028198
-594611824
-225778649
303879027
332934404
241762724
163395133
-272877215
-538021220
-555274549
850877660
890541183
-487101936
666415141
321138691
977851761
890876030
144661130
438331087
-190164508
-683703115
-915027643
192798909
669719330
186299780
514253859
450819042
-225042435
231680198
577354164
-14730282
859878134
595838160
-666495299
-265400983
-872273880
426045941
-555678931
836956614
822104624
-957780751
-185771349
-942641872
-921882280
579527166
-377573694
409296924
974794622
289708062
-127469055
931466120
106307527
-220466568
-562463281
803654898
-404182535
-130953686
-584621592
-382895880
-84497862
730040776
-339414476
-226591995
206631954
946124329
22853223
-990384688
-198027723
746190622
-193077050
-466563494
941417423
-193799287
565782747
55931665
565887416
-865990623
138015521
636442907
-785834962
679156311
256691013
-736505061
371261324
-806681441
-538800968
27676290
764608830
763725039
307444128
-786808487
-645877991
75644563
870332173
-202520123
-488775699
-668754653
30288655
440725053
83246555
-811635090
-914847409
-770200939
-519319477
903912855
-785482870
946512786
-755044344
-567177562
-281933505
-431373267
909991537
-432220243
110877062
-747392971
864997248
460421445
294282815
-973893385
255579147
278883819
-381985810
-215866479
-761461588
541526723
-67663262
457534916
373269710
753625338
-143574413
333597422
900991407
-279062642
295173546
-587642097
797516768
273716903
-306889568
213759465
-534533746
-553822243
434582688
214161068
341034459
-63691181
502702420
41983189
-994139286
-841377909
143475771
110240498
732307290
-335528271
-624328861
196989735
108167394
882395473
-422404063
-477015583
-608391791
205129036
-321061013
406531818
437654414
-783528070
354312045
766481123
-536984626
-515806354
-638052510
577748482
70621284
-601121504
598425012
144029864
113223131
502052239
794140614
-869640033
992002945
-65913805
843957735
620213553
-482065442
-253283046
765646839
87192748
587647903
475124344
194080653
-690142879
167567141
-369457422
238658525
-943264538
-887179336
-81976547
741796172
-704499356
-920776383
714210908
785365815
-388997913
-676375309
806138764
223191099
-347521240
184116156
255637166
68478010
-34311414
-625953820
-341778614
363732832
-541875101
930662302
-414601715
-32608495
198274296
516510521
552525397
-284203286
780922564
773622689
210425184
822154859
-258728694
-576478872
895829826
-134464687
-52227879
-130667150
564222675
669879326
-564163479
-267461249
-513757283
939560779
511953428
25758053
671244388
-781994804
965935590
776806642
115063673
-609967114
250133932
875976517
381260399
947949247
-107866999
533737170
4551290
-187176502
-160792018
-781641581
988807018
794654904
-794341080
-407601933
690388293
791052285
156949180
-196908440
51183422
377628169
-214025338
-576185313
-936803890
-594495326
670749683
274874282
395745143
471035940
237388033
726650252
-794771226
445062821
62436887
834842837
-55672237
264015306
402096483
-574091374
35100511
791188552
667535187
307836674
319817258
-495869176
-924120650
921215520
-463698560
-889780611
-828074536
-966351292
237768876
-754026691
-399466123
-813379052
582530675
-537601891
743625908
-721692511
-700717652
-620143050
615108292
-242860978
-79343945
941201129
-83304474
607907707
-445808578
-720631657
-887057123
-651863999
-153991998
720631937
-464459774
-651347579
504437750
137207590
-878232582
284499208
490208095
-167877123
448338395
105995274
168814170
574445195
-734391372
465884347
152677101
-590157673
826267660
-93438879
-673670461
147193573
205022184
-679288179
-338115116
-787736252
-686194347
-45079784
-109115003
85828072
-880538638
-68017291
-60296778
729390671
134817695
-643611154
-823237528
-222736095
493331
-582846286
413327213
18963766
469153918
41918297
58416044
-710695053
940279946
999521637
972690467
-463149967
848587996
313352832
-829565007
-875993942
-919103823
114194519
-498466340
-918295757
728868365
242765704
-483361298
368727762
-503261619
-753666929
53252312
477720738
-784019461
756457151
626315048
-787918315
720966018
-420809663
-301613997
91600250
943784638
-715541479
650139971
724644864
812658458
738930263
903519315
-531595082
-539602889
246359047
-757290357
283172840
953575640
667679449
-583177653
809263526
-242832831
-52355012
544843861
-596342404
612164299
838229239
-332457527
-319000778
999169759
-467870449
-525941173
-41542680
434589997
-568842889
-908505537
710324013
-454464683
402728357
980741632
366274246
-496097001
-796736958
-140679370
-678522630
249729193
-387402462
-972073412
-856637423
23313502
395751586
-539714978
-422963971
415931984
226921699
-740800096
-976379447
-883467754
-649198344
300218552
-83726085
385399656
95925258
44636848
606753113
-202649998
-994225213
465273353
684082735
-585173669
-555650019
952459546
-492727003
-684042668
301587451
-237965920
-980390716
296195925
562739818
-761980296
-85816135
640904150
568808529
-486611044
515453457
-728775065
758477387
581449710
-524754984
-545255822
534209552
977290248
-311982811
314557219
5117666
-884429310
163925013
-22752680
-964341069
360838544
-596964127
-904261871
-761813389
-215564555
448248288
-358348378
772205180
606355866
-698567310
66393762
-561773804
-760712680
-270018653
752987804
168462300
-408553533
-352200539
-437984633
-678137393
-642772271
579541077
-538416127
799024160
-503289013
-490799111
677865425
559087893
474015522
927363009
-614741435
885424604
-168807250
684954982
905417988
103343203
-773541687
849779061
-215837301
195276884
359034016
5532290
-102305692
-961406755
-823950083
171709181
-609056526
-374844165
720361915
117205547
-761411925
128805632
-75357444
-557174717
385117981
554214598
704090975
114391777
779226740
712629614
-538428828
792755352
-112903001
-765373327
955491911
-784934325
-224539897
-219128246
-128916425
755543853
-885452693
453548539
-689034157
-498436652
-642371791
130195315
-820089496
744440352
-691651962
81071058
225719388
-849169534
233229689
342919060
142369526
531639079
-714271150
-719168570
-187080061
-635369176
-369013118
-529103234
-45952027
-382023480
384569510
993844341
-533359368
-335553037
260386596
-519455383
922435569
81380704
-940656064
423109497
829082251
-391676641
-585447932
716822281
-16260179
-324907823
-602641393
-880866702
563074115
-574564508
619212312
-791249581
-29233466
304528483
748824697
-789098850
957224428
-977280829
782242924
-348018194
4990467
681012236
-841060280
-534849676
516017643
-720054721
35830296
-599658294
181536291
-591596895
-923698477
-394216065
667360147
80333519
80780211
-539126407
500667364
554729902
286314887
-427038575
271308135
-242075227
-872591215
-541962776
528791811
-934496815
-25231929
-615919784
388163207
11678847
468646241
-240221779
-815205148
575119022
32288221
648460990
411254596
-981637387
-20301322
341784116
270853429
436922741
-552911670
330547252
-779392415
383950169
850865491
-354339758
-779299546
-467601516
447246976
579260071
590708950
-403123401
-52186103
-280773894
497442496
-373575471
307433502
266968164
-238830423
299162114
994948407
-368436041
-981903485
-661738229
238834014
-171144242
-657238579
-223210953
-931108946
-600689193
-682443829
313791599
772972289
830172612
432482998
-826138921
-121166682
-177388209
-698590465
-310368794
-92587825
-918581641
-166514454
-124029521
386119818
-403884528
-791103861
578729575
-8212572
268132770
-421709630
435540437
-174311054
523001054
-983266765
-352259959
575998718
928285002
473020418
470787062
-172658647
-824980660
206994432
658507957
-2423802
-560398262
-306022618
-514777190
280994717
342263326
-288877415
-779025175
-20900970
295282814
-779178603
-953413739
-857306146
554704876
-318275831
-660770722
-669885308
400984416
942322197
-47288160
-311507396
-743124664
-669132630
-665352398
571351494
152819887
-81320712
64282110
464994349
902681736
-993414237
347115241
173040039
-537399570
-557331238
-896770302
-458138626
510533180
-333171925
332321565
71269269
-997413927
765899911
-544520828
-64376486
-195808261
601330447
-657176300
733048579
348025388
774818824
568720622
-493488475
-239368440
531510286
-109265483
997943794
407508996
741299478
-859496590
55428037
210623630
-364636472
653267271
727761749
478791330
-317987813
-908690538
264141597
-21973467
460886409
-878327762
-69792718
698367164
420847652
606263394
-766651770
-298418515
199431735
33933147
913039389
-435345287
91036956
-815396768
640685774
-950407123
657305754
-845932135
997670499
869527042
-960435636
465946920
-516311072
-264257275
437882429
922139133
-935161419
580134456
494229044
-995739568
-524715417
60187521
-573692761
-110933336
222232572
-784774619
-355237226
-222772298
-878633079
187269019
113394490
-804118314
717106529
-926956604
207408508
774980213
173539926
-71106184
-844376322
-560632965
443038753
754787527
-214113943
70289022
15849607
-974702838
-94071820
-263776417
-845226715
-900502972
-618129175
81345003
-971744149
-929103836
-137625903
-704329010
-107886821
54404622
-438580076
371927663
861425897
-923228038
-270260339
188612052
-332534386
371451676
449869583
507354009
-686858244
62048949
731790233
-406967239
289615371
-575681751
-687996877
-423508384
-553435753
84561041
341323065
-288970320
945898201
-55823190
36613410
-731460281
-471584690
-99597756
-331870137
579221416
-840837443
417670347
330671159
-265370793
864066722
222177648
-462761649
105172158
-725283494
490702823
-144522466
-138183044
480683428
96047972
-291747473
955964291
-148294755
372221772
-818051399
339878110
218991350
-748296397
-115216631
733003735
866097682
-217244921
-345083057
533833358
707846140
-907217956
-91557406
-163318962
581472977
-438997684
770552469
-67464788
717484438
-912794387
-71372752
-717287991
-165946305
20992897
-23141556
252230803
522484590
453213708
708736241
79825
-961631592
310936064
809051008
21127071
606912180
347428652
-584197045
-71085825
-262893595
-223134205
560969640
-123315634
-103977648
466164986
-547409541
898661916
-13194501
-389403242
501265444
-486249314
-918227783
-616517690
-259039396
-771572851
-996796981
-379071015
832618271
388480820
-702750345
-906188982
66672403
-648639792
-333312687
962870814
-475664604
251964687
-503602939
556624518
-531031697
-844853412
-86511944
466789738
-324477673
506343169
878687718
512230198
779585677
-717271022
104760826
-156005539
-966403328
-735951327
22569033
-550144818
-544560774
952847298
317039326
960689950
-902384553
810836268
-553844338
428399397
-15257854
-665380596
-95429711
-562416751
-979802859
-211302812
-206900686
-850563580
683479920
-736792559
-526201532
-236038219
-795708051
-743813046
-223234997
-527458487
696629290
855337317
704518292
-996347807
185470017
225356865
921392579
781556922
-625514076
961681785
-379917066
920502446
738157027
863783246
-959683865
-811153341
-617079638
961493546
265550393
-919237076
-792223898
703136834
655561830
120210704
-832790387
229446346
-366300631
-39096065
251444978
149544567
-194478784
764526329
160349131
-744368222
-616253826
-939771606
697473719
-118064772
110304508
-420084615
-620486438
695788092
-55490178
663756366
307872193
-998951800
-424256935
-203491501
-803929161
425931068
491954663
335995311
685411751
-690765356
-846334192
-466481884
-48401496
-839648357
901742280
151500133
-56411629
899145583
-51067961
-676069117
-397738231
-969979159
-760597544
207340541
459850344
-491453861
-872496631
712235284
-896043036
-64978562
-444797996
-757728856
-235299396
-949215485
448128118
448549637
848373904
-990893089
-986419952
-764532298
339376757
889314892
110655724
-87338974
-966505372
-667488663
335198581
-960135146
-360450510
-753661381
-609143191
235622971
435197110
-491434034
-14629892
-828831114
647910077
157454673
394293920
-453726304
767088610
739055032
113977123
74950101
-105286661
-229834166
906647361
34605475
926693243
520076486
-50824496
898391777
-384034384
212333147
354682195
658905480
712940837
-176134867
442176103
-204009696
237093313
-339402265
-285128279
-777651622
-534048247
886650521
-907178905
-47946645
453716372
-789890135
-459450364
450732446
-724286391
622286159
-994640156
929954723
297067274
953534498
-528672463
-294453521
-410712629
874931930
-119140424
-430756975
-700955784
345955899
513196627
-839957461
168423826
343377824
-623618410
858409594
924462497
-135586281
-749789868
-607213602
-811457881
-804566394
-843169760
931456609
865567094
552082135
579391595
613852358
-189559716
-961525902
974944310
31399535
-989078395
-160279670
956869147
787392380
383673265
-413155420
-321828134
-267821137
-83254873
304104195
-292023646
-119846148
-135510214
-673444368
-494464104
470398114
961435746
-474594289
-456746328
-517621722
376834288
591837717
959397893
-8379181
-644453911
-184217326
528428702
558030206
889394466
-965278586
62607409
638740587
-140066016
-845156982
-531284075
-278176740
-491896101
465766686
332282155
555013314
776773882
135950610
-522528978
100295480
294843126
34919722
-772119892
-643310029
-625132482
-714431280
-214535698
309322292
74908306
833506666
-103824675
-257219164
-936946592
683186082
918850669
-209285759
-346826151
-272454362
875051191
-259824640
-289531391
-601154403
686245170
765714017
-921231425
-80396890
871431369
-990839875
-772937026
-278951538
-984418438
-636274666
-812850237
182564579
-851332473
-281632458
684980128
-818451923
477972166
-843065087
-233757128
-239958235
-200158208
382008747
711753392
-96439306
-401771674
710680425
-42859899
-762785904
290018672
-637761176
-560020043
-872601933
865734911
-920879717
-615397424
901703352
-414810943
-995182736
-533366663
-581168361
199323341
577733120
482291247
920789816
327056263
368296654
-361030764
-811093065
533479628
323419993
-814566338
361413031
-386303783
-798805665
-964658556
-773537631
121638536
-337058812
-358182369
-548917902
504493415
-710443335
940993021
-479054108
-240655335
232025540
-210585515
763263226
893765049
-836899336
731563713
-163942477
-20819776
-901758404
-493341754
-732000794
566163677
-259481882
757312610
866882445
-71596830
593499289
25756832
918846232
192656285
241328584
386752172
17504298
58210022
86006120
833283520
-344605396
-445240744
-669475616
-472729573
529694977
-764131642
247905099
239972549
-3151556
66313877
403379478
220806238
580139658
576060871
743694945
-992967925
-976095985
602099115
403696208
766184766
-722464208
23871248
229935913
358167729
-369309634
-790991253
731648654
465611492
528493962
8227055
292134001
743234334
695196528
-672737518
-685760000
-351162824
-95313821
-734063160
557652773
80638237
-864781395
-529195401
625644796
-562100335
109756083
-351028166
944395637
-609571841
-269121006
751706704
-356907065
571669638
421467743
958968520
779572585
-859949278
-952759906
-257257003
387065885
-794461758
-999237690
991762908
-460674230
-684319105
340645711
-236664963
-164247474
-948890475
95631121
139715559
-211358082
810278536
-437901181
-342242261
494101479
-580365258
-239665306
33180554
780368594
526059538
-781901024
-201619166
512345733
-10416344
703555814
-551911012
-377635232
684955691
341053010
418452723
566216653
631098940
-812994898
543192981
-660139158
189450749
-978460308
-485593288
265520202
896519869
476886672
-77019799
324603919
-960727229
557669266
-390152541
110466707
-980346967
-763914140
-17503126
-991964295
76977400
968140197
-212217406
-417795100
692203652
-71159486
-968941013
974563098
472450738
106473533
-565127853
-867806490
985146151
728816399
-408051284
-791602418
-706166287
635421
-539240839
666767341
-708255865
-758641602
530363617
937547855
-675378202
508893191
985053316
-910345875
342679392
427595940
-872595592
-753756897
-631345219
-262255562
-305440314
-75036643
-915223433
-382579739
-489843815
-320793953
-9043931
129327839
-313635541
-869325287
346785194
-865827229
-61218333
332121382
-528878986
166303278
751468546
-762396080
92488916
-313398109
411363537
-266917235
281174166
-302594821
-498294181
-447146468
723515978
-885035724
54395916
383129513
-680268275
-610172103
-170093297
607762181
-902065366
-864233699
-56434104
-672194145
6135094
778224160
997218119
-692614170
-636245653
159626809
-473343336
275949576
334748831
-45881205
-252892557
127642081
451440986
-70730491
166211553
-640650952
-251097844
-847290625
755527649
934588648
800123277
-911089322
-18512030
481343683
-254671596
383884500
801839916
-277903984
347122671
798162378
-723779796
172441796
-523561350
505791666
-254383776
150576333
469455677
-324663152
-966720859
-761058262
813360956
204312700
-937016629
-248719492
-926513176
575942044
-15361571
897576958
-431347212
467656591
369900271
-143250076
-301444203
910322883
872827712
-595649205
959265927
-399169995
578623647
738993837
-698090295
382032993
744836625
394578825
149042448
680243979
-827992216
-488894224
-774219659
81778611
-906418770
-603854067
-639247994
793994987
-92312983
755583769
-717940223
637629843
38247474
48312187
1614757
-406978064
709037046
506357776
212275137
-692550712
-205022489
-314987623
220145953
-377578770
344656152
-499384212
-716710241
793579413
994341002
316708057
397991453
-571284182
-877582909
918081676
-256915342
240750502
-699638571
142752469
-355676936
-899761355
57179836
684286554
513444484
-141570602
519555180
-9473107
-385890574
53298492
-876827087
-934388287
-366009570
-595574426
725443164
-756067478
-239722514
14379286
886979792
-803552954
762256964
230344453
-324712038
901458385
757699692
326649766
158376927
161830711
919634322
476230773
277179586
-87437384
257804695
-579378609
-878295926
29731548
-565783009
552106676
-582657633
906516405
-304883479
437551362
-300952165
901711386
190791611
417092461
474130628
-776740053
-969148293
-996512439
-661122928
193928298
12993083
-239173959
943202522
-405872175
-995122979
296020762
-161489279
37426143
826283138
-722984005
721237740
841364026
-42335864
893098390
-576406291
11038849
-967044608
973659260
436548198
808702278
-261433405
282997326
-160750532
-681882672
308349829
-345371139
-936683243
-80671123
858927376
-718788716
109440029
111869569
-678147836
-520406449
-575859733
669914815
273579006
-974132008
567740178
328555967
422577475
-127640624
-380541294
123321869
879327756
-724424327
68758731
-984779389
956824594
287985214
147922832
988874624
650778360
-995069075
544537890
54802595
-436849227
-646119004
-762659459
-327628421
248295578
-263914351
476940343
237507131
716232419
-402965185
-17627938
-878208064
949449393
162641744
-732763239
20970056
-9551425
50247781
-860734904
228266191
706573940
-713471182
578553012
129587267
39030817
586374903
571601327
-522812703
492377393
642550198
637136802
827443886
370010856
644522912
-465458108
-453182862
-675793444
792074068
713659928
-210453790
683380310
-655919190
-677696383
-808449858
849266689
-352864911
-598300125
671874414
-739289489
819914398
584111295
461619017
166082796
-27460210
-663875104
-59159678
614820742
-33370987
694759605
702139262
-536782145
703642461
781502291
-782128169
604369518
961130971
465452385
-515624895
-103461442
-754542792
744410729
-304941243
-899193793
-273059804
-277211238
-220714696
-317684423
-635522075
-554491335
979611814
699877946
246592740
136151876
-651100989
-866192961
494364829
940181518
-74148478
300635650
-355769692
924654639
308470827
983869750
96362945
-863343250
611157701
-854113022
628705032
427534089
588430349
942047642
-930427262
876421436
812739954
-45598348
-904731392
-22132003
-681802321
852913137
858688111
-265907949
-281989867
372296279
895583577
-91093813
-731444509
-491897485
-826497711
-345863784
-231272709
-702433491
-820774857
-882675758
-779469810
162304208
489256307
261853654
-584468
77482460
739822951
-337350815
-663258807
-502207479
896648877
986170075
-177533556
411247241
574630620
403595778
-394981525
17515837
367457377
-802342190
900031441
897633618
-322089371
-917183487
-964680685
-829646074
409272747
-265486121
-200900942
-650024876
-485068180
-635164835
-929167101
479319487
-429524890
591945752
758135347
-72805826
28246668
-263905096
-472410605
-239477575
-350056334
816014406
-502577662
274692409
850875382
633385761
-318638153
-669546439
-454368690
283738542
-39022913
-979168751
633413174
-42834323
916935822
487958629
-787513954
989380859
-556797376
-952794109
-781196593
858596777
-42276759
-327679122
620375534
-656542457
-943255746
-108140341
707653374
912359203
-230793369
102385870
190632240
27680757
539720372
864329010
-761513163
-213181152
-14038640
-270375492
864142406
73157780
-583665747
-534112253
-44249508
-61386043
360774449
983465745
102336100
-358629833
-608462983
-781514059
160370945
-60098191
-472065124
-442840163
-121379643
-339471869
-841350266
853900818
467372784
-145415567
-985095154
-218032888
-717973618
603056263
-199736519
-324075932
890408745
312383819
-121592599
743321600
-615689968
-771250483
753790180
-194445088
234737954
-15440585
747797401
279628430
660786321
819201012
820586174
-227782775
-418463905
711088711
165725868
177307567
267857294
-433769714
8646955
-835753905
-233861490
428017950
-971169057
-907472994
-509135518
916527082
-167965687
271744266
942797935
524393341
-687157997
131520477
-407146749
-22583080
510408017
520457405
-844234288
672092494
317138653
669520435
929598174
115071887
-642405429
542215290
81829145
-668307482
-950768350
-414526543
50038849
666692021
778949251
357535662
-308897427
473417199
681180336
-102444142
889732335
-48183222
488042966
830376113
-802772743
967139085
9685849
-791557468
262782115
-705980754
-497089274
982824927
-776451833
-175831773
689643462
566492906
-897466820
342701278
895820860
-785184353
-10239991
43880069
-233699247
-752525732
-869555957
399771492
-775271465
733789851
-745300999
386898197
-879876600
707464724
-373395540
-280188172
245363844
-988270581
-630798616
-145715205
596068399
241384599
-735815671
922781923
-389251548
-193973585
740705282
-407867092
-13227121
473963123
268991213
551650528
-505100691
-245260412
719020399
-539052683
285555756
-822965854
-467072062
526580701
-29761185
433830672
-176820537
618059514
-787489749
-811531200
331809689
246975596
669250321
-202826343
755820128
-723526979
-362580883
-847086655
44884896
-244953183
-841512796
514269035
66518181
241767227
846983419
667134364
-81370894
385670066
49961856
874174200
-103309424
885869121
340069436
-604204947
373709665
-878615526
-715932615
-31910200
906475387
325514391
707297629
205790417
-83823804
883390044
-656437146
779016059
499796450
-719009637
-961916938
94473734
-284340012
-825650420
82635179
803039074
-545193934
954974153
-589272738
38242621
782182233
599172372
441051544
847382550
485535627
257242747
-217783613
335882709
368740338
-90047074
861075285
945183650
350651966
-607976120
375153220
-276627185
-160694931
483911718
609678457
753008076
-71244961
-445954088
-855157253
241411956
-628547897
-56544830
-578111269
-456209497
-333148786
-369856294
188829581
287592890
143598342
-611269476
-550189213
-138303623
-854048505
561745560
-417119087
882675656
-108696453
588895234
-242376033
-990604124
888466656
-608299068
820773022
322881190
965459708
-987012804
-86706916
-906649774
591895921
-532508841
235004901
235716643
569960119
-599169692
-123015495
-523174422
-744354420
-895955039
-318141856
227112480
-879140214
-171512654
-672628088
-403497688
-849771356
394684904
-24832222
846405777
-273786621
814325879
-308735136
-820673279
705076022
-972182690
178868404
-387566597
-516301810
69908927
-961869286
-83511183
337546349
-558664816
745025866
691995923
6107462
577242943
-107494045
-890798176
404593111
-79725215
-280655720
-676471348
542785761
255682440
546012022
-798992275
-131076346
-696280388
-857933305
-777527380
22692588
-420337344
556793279
-270917851
345205724
847923457
-953583441
636197154
169435260
186122561
39960563
155069854
121857893
-334085447
889785020
669881578
906437244
-891047364
470939876
15362588
-72030714
545286024
-382354109
-261255652
874843667
137057682
-162860822
355244231
-314988465
-535011393
-625255017
-659681995
803164054
-363386847
-35997651
-236127035
-55646004
587957269
-44346455
-485282070
465490465
-499023700
67552167
112835486
-782881450
-988045661
-437322266
-102453942
432204658
836945690
320616704
-654170062
157047097
-267728299
839402924
-454750849
-866563479
489120779
-385625119
457578018
-898262206
-260370857
119781831
34382979
-389146156
599638629
802981936
423693124
-356835266
-312142289
-196924962
-699528606
46063940
-221530632
388201792
94501180
876548148
-28175377
441103156
-620499758
-345622967
391499771
364267577
-765561512
907589517
-811735847
-610734403
631935678
14378880
371949759
-670309998
-708680100
7223461
-199072618
-27286888
-994458914
568292393
-897764484
980620485
376642316
458698098
578933898
-398343876
314837131
-866073756
-889183091
151513149
-751531394
927869292
244272512
-588246624
-548900741
-522805565
-292428503
86030626
-841574355
-115476441
-186743045
-795912242
805581873
764942409
527857926
114096122
-350285653
-919595035
110183085
188593678
-320355093
-727744148
-396970371
-534445116
657322068
463303144
-648698672
465605746
84114702
73908916
-350419939
-42861709
954609846
-515600202
-49143060
485141959
-707631706
559750207
-100464082
-263379506
989066670
58930361
-504016165
691098828
-165471745
228567016
118972520
-524362363
-417196313
-720092937
-953014114
775944162
-582107703
-851925808
698974422
292345325
625538473
662999358
48548652
721867979
426168352
-960932219
448611805
165052083
-20414523
620760379
396839162
-295331180
841712608
-78489999
-554707710
-856765497
-336692928
-31280168
-474736492
-20554559
137913503
746628641
783433532
598222322
-468350682
648849299
-99098696
-774468317
-821873462
-731782740
757002952
993341547
-968385842
-171002815
718093044
-483150390
917396752
578280754
-903635763
880915068
-345599626
-964438749
-124214429
-975406244
-103731885
194973451
-757110360
-489097259
511440043
50391736
640756371
284391957
11342405
106536444
-68741824
-990434221
679539608
-834173763
-716939400
51483247
-20062010
137020481
-37731985
113500836
770406872
-263163600
-712709082
-798631242
-790742000
890694321
175308835
-907146142
-521755857
751392504
-751340786
-677928658
183851105
742646871
-787583337
341865343
-235507954
-762576937
410224698
744485104
785385819
287720112
-753162652
961606768
-144618459
-826332758
-444547133
573316440
-549143194
974388855
299034858
945890327
-737130953
-708072370
-416253467
-782133564
374753932
-914670091
823863348
-461035762
-43302973
105860039
-481146717
-472516809
-464681027
496980683
554655629
613384721
-304389857
117825274
-700165082
-224629257
-137151820
-647672984
237878563
681728354
-685587628
866850990
-427657337
-264916829
898172458
-855911780
376014118
-824979136
137981082
441339213
-644850708
98179639
712020214
693902926
454214096
932723374
939813600
926110614
-327994906
-458704356
-50776902
-786723808
-483655665
-115283405
474784246
718500358
-748205137
216025470
394202964
282159400
-561448171
-175715016
-409588729
-213989132
526183731
-592053038
489950633
48348146
-384728238
98625783
777375328
83535485
54445583
-293638682
714190057
-965657175
-732248859
422783775
107770541
-980125374
466235217
-796955810
-789162846
-491984165
-487129557
560310748
-1604566
694671186
-203103143
-526750251
-754079027
-106421307
-656698972
-489060602
892558711
579818123
262593475
-765610801
279458132
999105546
100214393
942190453
-640655223
491669385
215020725
-908791813
199255067
-665875417
-985867127
152355893
-12335780
599047143
705633093
447490834
989583712
360492332
487984976
601585777
834829744
-58655820
327733699
-154472823
905982300
-326567735
-918002104
900473552
-851798174
-447668670
-317330218
52896854
-70144633
786971758
806411183
614440783
306968694
422080716
530316575
-686760783
954361609
859377980
373064432
217191466
-627143393
726437923
987606467
-502159171
-941293865
-683572224
-13184951
373034249
-129462621
-650360920
407359127
-150991548
-414393641
636531712
695364023
745445705
83451461
-123698198
-108680470
135180655
-835594732
-270811239
-431632270
752884420
-291510931
-450215560
99017999
830299414
193250594
323173846
-616120754
487567931
131868290
117573972
543851595
-789700842
-5274252
-764719902
463175237
14289721
792495599
229316181
-105131907
-500609734
244014124
-955330767
-433494607
290328568
-786982806
-244155800
-986752032
298566998
831352429
497541628
-644398319
821487499
-722052448
-240810518
153789225
-312082177
97884643
-639525897
507765240
407097295
-124032197
578499943
792945617
438566102
161136001
89633914
-976399976
307360523
345147557
-853589885
454179738
-635298813
-896044950
909943201
892865880
442532327
-604852059
883378929
964943575
816798189
516638327
956707874
693847776
-987220691
-769622674
422396245
-793425027
-749329451
-723388818
373389642
-186731948
-673223046
-159487242
801339881
698701353
-484911421
-247515530
-644643495
-377732696
-869492442
632181261
424681333
210594430
-996544512
-50407178
-311062864
278600037
76366833
137602173
-562480008
579443905
-582777504
477761388
-319027875
776383543
899201636
-886259650
986973858
635177062
202333881
317724583
-239162837
-220523887
635323002
438244526
-653722091
-250185297
-966657927
-133932476
-523968485
-287307008
-477010620
-877483398
-843289415
632721239
-394264693
982514938
-752715756
364848032
955570273
-220046581
413514701
575816480
-772488785
704735956
-801824142
-15112210
-814068312
-21643251
865033036
729255050
-716068975
-742138580
206129315
-89779408
719204625
375006635
-664601325
832680767
-477090567
-36437300
717398111
302248105
586910283
-841505396
387486933
-112550181
209040168
559624270
-821130846
-52597194
879920405
-445168130
982023922
-921764429
151564843
462820742
918925550
664229017
622756231
547085384
-960159781
919464751
400721648
800760862
-436404164
-135663442
656449348
-220213886
-873679493
-849185810
-382516840
-35086952
765233110
215710778
70452938
-51957997
-135303164
-492716201
943317896
-60168456
-564258013
-219198138
-775140394
-1680312
-693675450
855686937
137630764
-51489865
833629961
641659273
-150272347
-599907195
-400760948
654122616
82053844
-966964438
-527213059
923582223
-73414229
-58785959
565568575
604576667
-847800308
-416129214
854632739
-798859971
209263790
-992518462
-66315288
818232203
-118714493
70036097
-922915401
960410518
948419905
639957249
616209515
-492322016
-680572623
810229923
223980904
437064581
-783184928
-684192809
-409447390
-500359087
-857283943
219451124
920547517
-19617349
-935765043
146163453
472820925
28768525
-427290828
544382042
-762946916
-553730379
226070173
-813304173
671165159
816914176
-517829097
-175513801
600575583
-617142654
-226594390
794741566
-932008828
678670204
-788056609
718251154
176343231
-300084439
717273596
35457195
294531201
-464872523
493760914
-366930490
-459682400
-700848333
-532806456
19554108
735691317
-417369853
-780786220
-205056534
-146246656
64561648
388959855
444368504
752876055
206218218
342211
723668531
945931695
-138375839
-17951485
-110772870
953626845
-622835753
-428420494
474728220
906970989
684716261
-752362658
92664573
-478398483
204400957
760879724
-719307014
-536563942
802422693
-206528213
-180631727
668913577
-527263360
11213575
-754910426
669627
577627948
-593461438
-989941442
258611180
516976745
902564280
-721720070
-449827327
-790815307
411534875
775594573
-116183354
535781744
-851763960
-611764834
-85580199
-336807860
847000398
-313699080
640845361
-362931524
25668632
773153249
-581481182
-244794103
-798647590
-938003593
314698281
-179821157
118116062
-464841363
782627423
-797611439
786154048
-417047880
-593448093
974881134
730232757
210689677
-400138642
-199492059
-560310274
222425269
530145110
-983439483
233093651
903218264
-710567374
-110996189
-905372483
-64249919
277882771
-687208878
-23541366
-850499854
-228719203
870690734
-858059221
479085687
824511002
-456332590
138824432
903655304
80670151
-240158400
-808021328
-916048881
260194563
126353670
-8461625
-398361377
-990573339
547152942
-563879307
-647455733
-475535162
463039144
-494812916
711209311
-819485527
-989955979
-549617362
-62979812
77022202
-255922752
190890556
-991842765
564760838
-167331960
-412182382
-773018785
612034066
990285297
-541806942
-975500025
-366704783
-233848132
306009273
650741089
-828943942
804893137
718382295
507085886
-816357303
-344489804
11596410
-600671151
-604533745
-984681967
-360539240
-65707771
-877906324
284883444
249571500
-76251541
-967160170
807922348
905782212
83445862
-810417020
-191807769
656487094
20590110
-87735219
-885073135
591278625
113656646
892300410
-907962998
484997611
479874164
-61070066
199020758
-428854157
-349390927
-689206905
450439774
-197461632
-308554455
-520216629
-310963419
-367065535
-114068963
-876215685
94120245
-559209994
-172068688
-977809989
134132224
2128774
63372127
-346920066
47026587
577011212
-938093641
91122058
441212957
247064331
-104174110
515842750
-867044697
-561866349
67324478
301684778
411036319
863784868
172819620
363282506
-778148258
-871394636
-939903313
-107710113
961107517
-987755335
506425696
623866635
753303129
-571796343
880966314
-908017409
239414196
676725535
-143453176
279769037
-169057277
-955155584
-359763293
295762415
976432550
-905826928
-191677402
-504066679
176912220
-255056594
-418451075
-444797736
165306791
-183014726
768059428
-627598241
342173633
906395202
479219919
68604145
183608608
-133692198
398754164
-798962559
-532424362
905976870
-941535465
265617725
-557210841
-524110869
304312037
907392876
-673463619
443427731
206494458
153787563
771467952
628381348
-520598129
204765436
79836179
133562471
-553568482
924340996
-464301375
-33222639
-966834612
-61771596
-626722175
271811633
52891365
374310508
-89013599
494767114
-879382986
437750395
-524612378
503744149
866121396
-786657238
412611141
-879321484
291521546
242090837
578141830
-984301551
265654142
963195676
-411425476
400397467
-325199167
570535177
893571776
249501720
42253912
-443547619
323564388
-794958262
-826962296
-393701140
153670022
498004674
921136282
184439781
593319759
660196564
399974023
-236845033
465945262
787767022
-406965466
-913142461
-188681569
346550680
613942858
-826018437
-759389375
130685448
647216780
-266999405
-279600146
237516997
157078673
23483839
864542561
55566788
10805825
-457407057
904733683
-190824151
-797282603
-21959410
38749529
133210558
170040769
743101355
-273981313
947531132
-781283069
-910022728
-407596784
154014583
325962736
717187579
320483869
-972413591
597308524
-791977178
933625917
-612407691
336080330
345704096
313367705
196967585
-193234629
542125995
410817366
377183929
739916434
-999343052
72880068
-250118756
259780165
96167460
906189851
723862364
665893820
403431311
-626403185
956924264
164149074
156468341
-360251130
-921273433
-287285048
373439724
18080559
-997315479
-599118449
82847979
-658194835
422862744
-931162069
-985564252
59167801
847258792
-888616787
-53942575
-526258433
630316861
957265872
731594383
-343023838
-818062947
647470740
449855167
268478830
-507971117
989145747
-136097247
-903786677
-533640421
-505407007
173124309
-985434949
672096815
788570132
-257472298
-279963058
-538619710
6233154
-315548097
-116160178
753961731
147776535
127472547
-490616610
-738142170
-122028443
977863512
-172919126
342785537
962461480
-760369102
112235701
254366499
981990945
-663814532
-509256222
734787721
-984252645
-564771825
-631849256
430172405
-704215202
222202621
-69401969
-280255649
6690556
-812722369
843557463
67110750
718519057
-288374659
-595647524
982452136
-133512465
743027862
-154247679
351916348
-701628313
-340485790
-218223925
407558359
-178009210
-280033317
-62596753
-486669810
486282629
-824869343
-855068015
591195919
250092548
466086012
646235176
-993429460
337092789
781357913
-531615077
-856447879
-119128803
153354426
814688479
658494862
831160041
-965214916
192532027
479888739
446584435
-195660952
-138240319
-842380060
-261202273
-534904954
153601043
-646352364
-380351318
-956172326
-245933600
-513512923
770060487
-259919599
512861991
-104625138
-344538097
-642362204
246506016
99685928
-820512642
762384463
-99701621
-215209160
-303033772
493582866
-201533667
-718492218
-462586662
685108187
551934839
947771949
141183615
-643981833
837465663
191454962
-769299374
802388784
486986382
895212264
-997691026
-524437600
64023522
203309028
573655231
686293426
750408349
-479162171
-98688785
135724163
597915669
870923759
853600521
-785899615
102949538
241895244
-37079686
798582571
710903250
617248241
366662983
-628098415
845561203
-659861964
-941906
-154728462
-672308030
766030568
-704109278
-717190000
-145746886
665693823
-279332262
-786078933
957802773
-177293539
165056289
223556315
-222635931
6284096
817198043
-464726209
240014429
851903870
-253047238
-654642634
537084507
817837152
-305871709
619347553
542862298
-114413459
420523691
-881725002
-593418772
-40961427
717103460
-964117782
-864200882
-430061108
764861472
-878392183
668126673
-480898658
650171283
-194399394
-377127140
493242335
995340010
447601865
583668950
134876697
-419609277
178328516
589848851
18103444
-460542980
-612820126
-438876241
416647651
-706076326
45038801
518966743
-630861157
298970029
-888733867
137770445
993148853
-773909939
-347025445
-651332020
-469803551
-847581401
344333397
-590322355
612373403
315123173
321576933
-975236221
79683948
956624227
959013119
85790391
-106944262
-101340525
405931572
169608470
-301005640
426591561
999595560
-799769090
-617228955
-639828953
246457931
-942231497
-524646422
548577586
-127571044
-412491313
-443527533
-357924077
-102705766
-993651945
-556618811
-241276259
-470115088
586512345
-744964146
46641230
-983746312
-842976665
-151295337
39806223
-658794258
-161760740
401184264
-494800872
694567444
-470688682
266877692
-79450438
872111619
-400878213
321812922
869273589
319190115
307643751
449298096
-272695255
-767590316
430636368
893325893
580661786
752103164
-900589199
-696212212
-163306351
513673374
650684076
208135997
248354264
604449865
72145145
514148920
834945601
400730394
700081710
441812093
917423132
360595788
77092520
-625317089
-982929137
602056831
786610964
-565778971
-860553196
804528002
-587140089
849137165
-595141642
-272928971
-766545964
670507015
286778039
616608364
-521903589
147096237
950928258
905597851
-999024191
785096939
259096654
28006296
552727201
-797931290
12311553
831220458
-369300397
-830668945
-98548691
309887714
178685919
873410462
817348971
-425455426
-471918651
-86002474
-914294594
-749418639
-234593680
-487205921
-506058220
-754247145
879988703
-888998516
982171924
662777889
688366805
770256481
161386325
-993945287
595803267
125992715
6750866
-356505418
-943974754
368405448
906468689
671246858
547823078
312993865
262488268
-993351163
-179564169
551224119
878878062
160421721
397522631
800482747
306714044
-538487884
839028818
655984519
517405914
-852503298
-70828781
249458809
-243490366
981098106
165695293
500945648
375867820
-862963357
362937064
-461166359
-986241870
423021139
260123607
587234949
-655578680
-390229294
961477086
-17008116
387188612
193156693
365230627
-553602809
-453864893
-990728672
932444205
539605548
436155377
510943921
-634848746
821162638
901348337
-320107365
-31058720
-164461450
218654223
537813741
523821733
-681510280
304882064
234830874
-231654790
-609901553
845485047
48028357
289224517
-440487577
961538475
-193686271
363013675
334406361
-48549328
-334374653
-690129632
194997
-892036918
293391325
-228948291
-442267183
390675346
-952646024
233527894
76605318
853504912
-811405273
598732923
-438841982
-583145932
-420461164
131252958
-965723202
-318375722
-514692502
-967796749
-826095098
-955660392
855153926
848142937
711369843
-309747467
610644900
-142151858
-134822931
-904575376
-881562306
331119798
380153794
-693451551
-550188079
-24287083
-902494010
-929756917
396417610
787906234
828537942
304768762
-319732379
270365440
-269764025
834225595
402604005
-448748587
701654249
-169793050
839281596
474268233
591614328
-159329925
-319661581
-877850648
-751732956
783952992
-790878350
-472147765
-69546444
983609900
752927924
371469497
101399930
384421358
-303621798
-245670811
478702482
186720847
736194035
-35911079
-910416275
306100506
-459245756
366386796
323749377
-727482251
-234303509
-457111694
975219919
844748487
462342426
-476796751
-646883957
116400575
-410491451
665742329
402985465
-756681213
-892819378
-642820676
-61821225
547628621
221806809
-992534088
-382392040
-428184328
-752069160
624037700
-465576013
150268007
727707916
-477121684
-897619911
-859857316
922248240
297269976
-813995591
-505377874
821444766
832090871
876665058
-354058923
22026709
178988227
292092141
-585272178
436101837
-70815071
-679959490
895034797
-203779798
-40971983
222475652
-819247642
357523957
790844613
-868140451
-47074033
-704406676
380054408
193406485
188716776
-376511127
-450828942
-826172484
496308356
917653313
131861872
-793444847
673813798
-1211346
-957685674
-795079044
684795264
895607312
-383807536
728485386
486896441
-439961488
-995976819
273523251
900669727
-709434970
-849223517
999870813
-597578680
-500320536
-15400312
387898186
-755301723
541135107
-748152946
-493060787
300513466
-675829847
-448306308
987674811
-88809596
-264769496
831662363
-892853619
-377234987
459968586
692461928
-303025672
898555868
-897749856
853785764
-361698828
32754508
623069030
-70675671
-434393695
558733344
-15569503
531936397
-290510094
-893731247
192319857
260547998
817421396
150172185
-621641497
-307895751
-519208425
515947124
992480846
-228993808
-723665818
-645767006
-228729284
844236895
70496629
-228607333
-505335369
-156534524
-551153491
-334721186
826261237
-749160086
812548193
187035174
308986849
-93805469
598623922
-512043735
-659337835
-25822699
-318413140
527059200
-171253002
-38406259
744097647
420656213
-971932607
429381634
-148605469
-160825580
81266790
133277516
655448404
112815812
-766548376
36010790
-939248320
-605431919
-977428762
-358258599
-385035651
-45071287
547260462
354395242
-853895503
213874586
-216099942
421943117
563712857
308107048
648432852
-992441340
-594917205
-794026491
-497789720
955495864
356342244
-329128969
609770466
-917462470
917629385
-553206497
800325437
94465183
-641690961
-192144384
-453639741
-649078934
-414665670
-453504391
917066912
-700928497
597217797
54672218
80767181
550063916
-311212747
-198127136
541130639
784953376
337249204
25640078
931328342
180362400
-260739390
-392550212
732473373
496811068
3301784
907964000
-456380937
289176583
-723711432
-78961458
594115961
-451438118
-906293778
-526337094
-310997706
967279731
90839466
54891698
-524924142
782189323
-748941513
-477523042
98713665
138752749
362548110
349609200
-275245647
992311680
466481765
-131874697
972100752
-15026771
-588322770
289730847
-938283791
576007675
-775187036
254291008
-248371390
695284378
530487047
285942377
929127457
406136383
665622346
-111673392
-56997250
-836131123
-828052886
-218959362
-953925200
549190522
59898312
-762699108
-107654676
998506264
48178194
-874081802
-817938087
-441939951
494232850
666715283
977388655
94884288
-870223168
-612561341
-456605464
628606685
-566649356
-528335243
-132954392
-573735048
516115792
622221327
-711701801
83305079
903615570
-976806132
739221896
703813018
-633902518
39360777
-566323057
-708824251
356074156
-909236113
962644050
-915936262
663077997
101118795
-625886711
-834765697
627086264
185033937
554693605
878589592
-655313161
992917178
500538597
-641194625
-843250191
164547487
523661395
-198073738
-545560458
525871821
-601450327
-959455873
632129430
817727639
-989252655
477482138
-673318595
362876519
305852054
-777826262
797523230
-408047146
215826979
-545628754
458120768
-233881522
-948683716
398348482
-515388853
-664200989
739362752
-710896466
879597440
-373537050
779809414
-315402910
-630660910
955666179
-187036019
797477003
993953954
442758601
666102960
-637593824
417068376
-615992399
-126970000
-266448830
-587683188
-641393496
-651942988
-544726472
-22846983
722756314
-989978880
80841512
-583818219
260571447
-385789289
436627381
87037547
-588515781
206449007
966083431
-899634733
-903474633
497308181
-887579350
423366948
-175960725
-820728461
487904123
-293151115
-930515044
89267215
635296540
9500665
-951910526
-842549276
-548360592
670593959
418671218
-298848784
-569402503
-788002749
919454763
-373319457
-428041848
594730582
165052460
-924696306
951829443
945455242
991891233
-793010356
-541428858
-728472300
-177287426
264741419
-54423541
306128537
-196755380
-288268402
-624605982
-579852986
-172071687
-843346470
-138313837
-11787488
-982080495
-376809639
-141890942
552809378
-443281409
130928274
441445585
-436975243
557229125
203621224
-416699258
-39275785
965077363
-825920644
-614026832
-42403789
446010835
937535179
255948150
-444689265
-427349726
-670281582
534230860
-28818473
-346296220
523155432
796861438
-989249842
143187466
-775273618
803747491
-767402472
-654664315
254822618
-365771304
-701785532
-288355940
851335712
244521185
-774995218
-14287855
-258705227
369162488
95286410
216219074
918045438
-987138762
-760228418
841075737
-667016180
906846149
75730948
592412097
-985900090
-605024878
588601558
844124609
-878908374
-40941515
123804384
961791078
556615810
-232270665
80997514
-822875171
-177806357
295160522
556358487
370317059
-234028810
917887288
-193124958
-418491851
215865801
47093727
270318646
924696650
495645936
860573712
-5275857
-222117405
44186765
526986046
400340188
783735774
-572795303
-332362353
853206161
-759894318
859891009
-913239521
858594231
-547584093
448364928
-364876813
407385331
-309082481
95507791
-655645272
366722816
383426422
810642766
723477210
516844470
489000028
902405793
-866025787
-138306556
-127995463
-244300254
557189728
197173743
171984232
248358230
-647264702
-359677993
-727674055
-981909442
383595574
145631421
-540885772
377689560
525766469
537100048
-698504602
344683996
-104843001
392081733
201788208
-487787806
514278646
873482839
-114489699
871580497
647198163
-879198245
482204850
325054559
-8065373
-369029334
887703338
-668311647
979565475
-540169593
-339379018
393082088
-609689669
521755529
410237321
144777420
353127967
564345962
-856204038
-509735971
513545093
210626483
593743874
87184854
-109824616
-12337591
121167345
-461690524
-173176627
377205603
308438513
508901156
-971354292
-552868968
-605655649
633846211
-718036041
-833063586
-659726403
906409674
365267633
-374548571
-976543480
-211170408
464612539
-368195913
-387104057
769595655
409430973
752833009
-755900122
-702351950
-925829624
326729876
-323553798
-993124530
632834605
519558873
-602783355
-161045859
-58196558
388682580
644443161
789816014
881544530
-173512503
351387796
-386389631
-681321926
300596306
488634109
421012994
-983907744
-241541607
240639638
315468603
-445751590
-589708553
-38414290
-511957392
788770478
638296043
-904176139
-768921881
-187210795
-668007529
-557799018
76639508
3513501
387365474
-999630698
-475791858
792733205
-377642675
330239510
-368122567
981824988
-651047467
-102162812
-190079087
-467280172
-126834020
-358825358
258111694
-941990478
-903974448
-9339758
698464661
814026796
-151101889
483165595
-581019159
-393984772
-785247517
647450510
937877166
138245620
-101803386
-142195679
-246647813
787461821
-961600311
-680581044
84804274
619176803
-231586293
760719884
-972943235
-481883703
665808450
-979770435
-895465240
-515363613
530562702
-695498452
-184393057
-993311079
959390736
-38207258
60425857
-355157339
189013038
583781266
-574200932
-717093568
550420882
-691385293
688638901
-440234233
-380083518
696525743
-106886453
-277373191
748850382
827458680
-982860026
255087717
-278673549
-168103717
818191283
315646526
-745260125
-928376661
-851824129
-675897669
-265335836
16290955
-66186937
-690553764
-134869116
173655299
700462375
-908798851
-73918627
680900661
710509007
-130284568
-898436373
517142884
515127851
-883093743
-701801986
-599365596
774133972
133908290
-336652101
-234107071
422124775
975611378
-563037676
764340489
-532107019
-238895382
-841640281
498240322
-352935738
610729741
374906219
-546119727
-477570666
-253260248
717385756
-385245298
-969000470
702750379
855888097
133904003
601221298
-59715239
300355545
888277846
957919521
-648526547
823338728
284188345
228973676
124145436
-292263797
-828353499
972024485
-978576824
-293860440
55509723
-452472261
-672227078
112525312
-894880398
621285994
-794762625
-867468265
-777213238
495087119
-801078654
-252521150
920009691
-812188832
-939536826
-698875897
-253434363
914506905
-44521394
507060772
-539067762
-73678455
-296748941
-823894374
933047762
943572200
754467581
-747654464
484916719
-993479668
-304565095
-70482347
317089030
-200988042
-157267786
-862416406
-770800092
-532431512
861492973
-846278942
-30398136
619680628
-540468703
-63747350
944200667
-588958480
-99048791
-463428372
358148700
503785242
-461716631
357579450
-713242624
-796771235
-916960895
9573500
312574329
920178370
322210640
-892221939
-720400451
-54777169
836939625
368011860
395350813
-129324920
481104813
150239095
18923522
-810859210
324868601
-428613355
-114681166
55189108
611154009
-806664190
790278101
919834366
204801077
439792677
375469330
-714052477
-63898695
-28580256
-186896301
-716111393
332709441
-615856852
-235859018
-994853947
-722612819
828334614
-38844267
441589364
-405655213
4819925
-441470029
-668148058
724204530
-441006492
-919531188
727774824
455234531
480130314
106933882
398799874
-206539115
739628135
-214237830
173021263
262755226
-767679742
-441535391
594485366
-645423836
-82069543
-863173422
-638970886
560644834
233704119
-781886691
-306381602
267860684
237529744
298205788
945203235
-251391238
685308207
-746436319
-213497268
-165564042
314514539
-428282060
-542171859
934944627
196896659
-22400737
-285862856
-335584371
-175152078
-521254995
-392887097
-342423876
-640096005
357824051
406100434
-60570379
-285442431
528516214
654415679
979508816
-832612906
-136749870
289118563
237171835
212812889
676434960
455844691
878442003
-844303731
958265773
-833961458
-528107599
-247232139
-982176176
710712028
-169465555
7857392
-153146020
-576715356
335818410
631888201
34711178
-982227161
831510411
-5380819
-276270078
280504067
257115616
20129449
537484871
-396050954
-727288604
339361567
-865570908
194484275
-501280241
287630643
-515878487
923789505
-939308806
-51442070
904035922
475228297
738856173
757157182
-597637478
331811699
-70576958
-885097213
-776299714
594603409
-653439880
969893712
127249903
-314819334
-688797890
305102837
-103485409
803461744
997224088
347022115
-610546339
-260538728
-774881810
950767638
-634897007
369987970
984894322
82132764
-354975121
741438912
171827517
-384865591
216305796
-203075140
-510000079
-208738964
-839133710
468286224
683383137
-970593360
-380446787
636680853
-301390310
285370696
-787714196
-570285345
642443043
-120717126
832447264
-104630556
659800421
749104492
-126142667
-845651395
-101533589
-753215826
-881865250
527107896
331438414
-424806138
906113407
456093006
-620064939
-253811663
-990974916
803220862
-217751319
-904205367
-500550045
889660745
89600140
417665227
-93903999
817873253
-71295047
524400385
-895420799
302348709
649311893
-444191476
323457238
-682015157
728974291
754740918
318344190
118040154
45095051
192036123
-425865411
502245828
-872285717
-774330439
485758820
-525292113
-48551796
-775660074
99481832
-981425516
-922826503
633842675
861222704
816564452
709774031
481216237
-991426417
245775042
744666945
130906712
664153596
-994447045
-878762013
-52766256
17015542
-184116406
-874305221
-832145933
143141028
796530577
-519559698
-271355355
914131812
930026814
660341815
944793179
-443905868
-692551479
-344505064
161918753
964072853
645521561
604621326
676961155
-926865622
662183960
475590463
-458531004
289806767
537107398
-448896758
226227922
-414370982
814830990
698185726
875279375
825406159
-408119873
438072790
820692959
-26808085
883347162
-297290888
-870416643
871331589
281501758
-838892418
-427643572
-195096702
677492097
-71670361
387334550
-382997579
333986510
484551760
-112178426
-979562898
-461523453
-134369761
746667406
-158655486
630083515
540744753
167629120
136300913
686772094
-635559494
864493895
674925834
-988439806
-193580011
571781357
-829511961
-678411539
145219808
-375845403
403578910
-785960264
-514944575
-613563266
31332964
-898834629
-115009832
870498729
210773487
185577141
408140912
-148906914
-39229044
296546980
881288623
-253578646
-515668678
-286182453
-346070372
954218525
24612339
-848977068
570307028
-193430517
865749449
574785322
-366474484
-159347848
589739254
-653434294
526522624
-237845397
298334540
-493442638
9596035
848980892
195165198
366810325
86335194
722183428
528633583
274351431
-412881824
-425521707
406848781
-741136881
335299875
-291460636
485872241
914170906
-426410211
-687115744
113035864
-131013466
673550147
-473653864
-623723646
825696433
-198668499
334515738
755181385
337742805
545031276
-541588185
-403562163
-834252282
837414705
983284111
28139673
-480769883
224648223
-274940755
816413719
208131073
-319783257
996272221
389145345
812856590
312976287
-90715813
-73446872
596999004
-388420477
-398188239
-925340486
201392311
685310461
748031552
-495370688
202169325
-166288414
-848520198
-101749480
-821867063
-975837817
-151397165
-846325096
-30170099
276666922
-847252826
208206770
684370125
649569404
275159148
-430733214
-739185860
646798807
97311190
-336150145
-40912908
987430293
-685598730
-682988181
485614062
-799950101
-830029522
-991876147
769727314
201398436
779917070
-877116757
-751759443
-136726979
438052370
-649421424
-768213753
-630366297
-594117223
-686331862
665599696
601972988
-433943212
-897201554
796032212
-871914563
348110091
982287746
478727873
-428986833
993279288
764843803
320058004
-376548214
416744124
-686732141
873562896
785888423
174624152
-310101468
-588954943
763046153
646703516
407630607
-175470265
-348384155
-176248993
416365986
-726029739
355791399
-54859680
-891596992
541451335
288268221
-516080297
193509606
677740742
-3991035
-724724220
275439078
-449132932
-756290676
-484835313
533846494
533564509
-467124768
-634311492
119578501
121698621
-709306332
-888142527
858449522
-66599843
74534040
-784594905
546549163
-127187460
219088614
179764553
-848818737
-201339995
-447907253
-612927888
-935719308
857515855
978946276
-739877196
313105410
483257477
729016765
-54784423
202379781
945465341
-304600209
-409043284
-88609497
-749567987
-880728277
-2637242
999841570
458978588
-372083790
272150364
-801958164
780991712
23532729
755571584
498177594
-438082911
-3793325
-378644849
-184678360
635475814
-69435852
330110829
-72083115
-890756490
726241000
411985612
-350021333
-596892098
35040459
580567931
-8820941
-709340044
297148121
-786453456
646168413
-966661890
-333463664
-672711042
-814192266
95023258
329390268
-290577553
332197076
-684486719
-233652304
582381202
-857832938
5506935
622341799
734795769
-196373075
-319174155
801270756
321338011
-683284366
384603664
-392903309
-525398553
-396358615
628583202
-360349166
-387328870
889294447
-438352750
950239558
695636059
-209779819
562399396
241647581
649726633
-651444802
-406306459
794433829
565054907
631360187
-191294467
-106750009
667579246
32777325
-156495129
-920588863
585540328
724061740
-681948938
-884520592
-700418155
215174355
-54525569
-71913059
939587431
-488060731
-558874404
-934992488
-747052253
-313364873
-848719781
-310200395
-292593782
-509467893
-224829911
310262992
395832158
907217250
-723125328
375069241
974856475
123677790
-279300069
-277292918
-160692810
-56642217
-3971243
409633318
680756851
267602982
188543963
-298975239
-37301823
-974474220
-640658233
-414285838
61774744
-247803685
-393966582
-988456983
180337044
-118404068
420528018
-586170125
322595015
-677117631
50013090
-950547832
-347984882
447347750
11284079
486084418
-994893886
557236670
-112839691
364797968
853831156
-556718772
-893555204
-207240258
-130718613
4543129
838474530
931736766
49042075
505345460
-452239238
-416295682
749337145
565136743
10439592
-882983270
471162658
405988586
-606335537
-250545091
-780578607
392376079
985557606
-815961781
-958948031
-381915703
572952572
-543646042
262967800
625547016
647699116
819369483
90323269
277836693
-27213292
-10838589
686879463
689177659
65070716
-407038203
-821244042
-633427683
-754180486
492825997
-175414374
9049737
-900824367
-186669010
-827714090
650420912
-703833598
-291376487
217600232
981753269
733209274
48690453
928932696
-413850451
951420531
422160504
239064580
325379301
-678956434
-332112223
-51733532
-211863906
-283938571
-612297391
449553248
-689480358
726077394
533670329
818229761
-323401004
527441611
711911306
-120661449
-845988303
-876174792
-739702096
55780485
207635182
-525755306
991652947
526773179
348699932
-277230760
-823550056
-148539980
-899587826
203231670
396312700
-43143146
928202206
659630536
-612367416
156885424
-693689879
-303783711
750788977
-927671547
-219723022
69020938
-133136348
392434835
483848891
-176189807
-203013284
511368325
-231560109
-728793647
-964181507
-344385101
358569932
682005635
735029681
728914764
284612956
-674065501
872700925
-858531682
-316765564
671807302
-752166801
584125392
676967417
-124831206
-935828546
-669199422
375179573
-310524855
49541244
-415242185
-723819014
-409539342
-30128364
289219672
-739950071
-978586591
-609731413
-106360691
-289235003
28649697
-500882794
-537099986
-888881054
-505659203
401791529
-699301633
-502215526
381115813
603642942
-742767337
286594342
297224083
157607189
-679520114
-365958007
-86927218
873961923
-68378147
-170362498
331171463
-746467886
-548832992
27098658
147637274
747517178
-526506797
106768240
-719007292
273371308
-30495114
-818566777
-469752696
-733797424
-56006533
-754116622
-494170176
-129993082
-305134990
-990977347
-719668371
-722831105
-425353774
-674172625
91616196
603342515
-363815221
596149075
-361985520
-285447531
-672767909
913367173
695282090
826809520
-947601592
642335525
571504233
430715765
539725793
23128310
-379953496
-718889978
-647407165
-735367907
-308411135
347210539
-510797310
795094308
735996209
834378230
-423417391
-738659002
790169331
511307354
-977954750
-806829323
84479809
-605424619
692844104
261325247
-125343919
284580546
277197226
591991990
-955139632
79602865
304833428
855295872
-867666271
-243074539
632572149
586458277
739187290
-932766333
210291040
879331120
202785221
-466243672
-602469804
427580643
-193847577
-117001758
-382821684
195691056
-152477637
854006435
-257552822
634352404
520921911
496672544
-391684247
70164830
-613837741
567205422
-592592116
-698137194
-996644498
-457501233
2981124
-269024334
172033713
684261480
-234617567
-332768259
275332154
741103721
687810607
-603625391
-383763025
977101095
-699548934
-686034287
644035930
544845075
-982506948
-249298004
885692518
385585494
-186197167
-926779230
-905586605
623914193
-769197933
-350559534
371213265
780462087
462730632
-664536538
775770312
899146862
489281997
-639933849
-718964974
226284358
708987106
-535055450
979812919
854342532
491204907
821489106
957246155
512693763
194638300
-529999900
-238610562
-640950947
-716590810
-281800504
-447926756
-20432950
-327163077
-46376589
-672435708
38045452
536176405
642418368
806520334
100165751
750678980
922290977
-454705774
216646824
-54539153
-67895555
754976451
-712194479
219907206
-868469326
-866105403
-465762096
292671495
-598812668
-928762779
-685326389
549846039
367732875
470271996
398044916
622527825
204617217
-425166964
-511940288
392627536
-258288193
-715467985
-909002444
927098474
-197905276
-863943404
728151081
-378971621
743197284
-545420703
-839769411
-466751807
-334008867
-495113761
20552554
-740314042
100474642
-908811932
233726480
832567608
17992167
-689713617
-713144330
-783853624
-698996456
-25083873
-240953720
-66226852
-839021732
-715613571
-173360910
705764458
641582468
809128189
643772338
-831528877
-996797257
326060178
215469035
655413856
447390461
-274976692
87940122
496501661
210743831
215903721
531111538
339290039
-655591542
-63291840
-174818879
-397139481
-96297134
420794439
-41128658
-501095431
-469309296
18025822
160033183
-267755768
145994356
616426083
350477320
-850016532
829330387
759794171
210770091
-369218260
406392701
-743705174
-937220976
-384405044
718744414
-19753280
-341892325
283389386
-806338543
612217556
432552955
235148318
-703460106
666870217
-849329613
-520456251
-623686683
-864135811
322286597
81282420
86311596
954474557
-537144866
-887672091
726813758
-140525809
-714885722
806988977
583134423
-449111418
-353493097
153302834
-731364884
744552459
656160993
897386092
-463383803
-928713137
213461578
-828927338
672484324
47579973
-299916569
919283326
386909485
-347773536
-487275136
726183198
-34027241
941063195
282391661
-633749472
-418487068
-485799277
-422316233
-168380608
135463016
-281347588
-841944467
826583081
891490276
-776853017
-868792892
133681770
909497465
252060682
-878412001
-542394165
-126860611
175537710
-357455542
866808081
356231907
47741760
-511868175
637911923
-616289093
745241044
-60670807
-529751297
-75313697
-255669884
690765073
978711917
-40288488
-86837991
466401452
23222930
-137178704
759737864
-339575469
-340831684
-609776001
-429465528
881976612
959364336
463076119
-539897671
785161358
900355688
890500006
593249759
-258328055
-19830814
993199602
183052201
-242005900
-360203495
-732159688
152862973
-556516506
593156176
385723989
137317727
-869793018
110989839
35501883
172214080
905729942
-696234302
131388966
858655828
-797305762
204888033
147597192
-161086432
810139246
35734452
869848538
-836109844
-666321045
-569520681
176923278
-158496824
-522718389
528556255
-639596417
-103719294
-827937963
592512931
645117088
816896629
268372158
-465528022
-427706730
942319689
728998523
693579898
337256948
-145352283
-977574900
961097707
-301463826
-885747377
-279982146
-868734101
999436970
-228704827
-84052085
704561084
-990054978
638327300
12177197
-273361881
-919327012
508821086
-369611265
656675524
931463499
-51382198
226689299
-196622279
272532878
-478876300
-791794259
98730758
-480621215
-760906928
803230578
-715778236
495632800
559058550
-181911632
-141358567
909755159
-851590617
895326805
898373379
-480707153
-433771553
-505115965
-788923055
709379457
-577214678
-537070196
-518883296
15287223
220688486
519429079
-530955279
711066243
509917181
-889760274
937765752
-877787419
58448491
-1924533
910150063
635712900
-712869287
-622752357
-78350858
-159785935
159270235
916710493
171437278
-769816296
770987499
473355853
-612853547
969399503
371658270
398259577
604343143
293713879
-215325841
233047614
-376627875
-97024757
-332444379
749109055
-605572730
964049401
269418846
300598989
216525687
-459883317
709012725
870047618
19344696
972961397
518381122
-341221487
605828247
697801767
365386479
-700686134
354510040
351840706
709124214
-43117742
685059954
603482501
-434406341
-10879702
-17067864
572404339
10508102
280400132
-382085648
181376149
-535667145
879042716
-447639656
350361545
-624019137
-358346290
-59805077
748411075
986239958
-357548470
481659424
50158433
-234039573
168170281
763717517
535815692
-906824599
55830837
-204013678
-104417140
331331777
-276518140
281970450
-399197932
306449117
510070594
736356650
70277415
590713656
-701999640
-45124951
252137829
745571882
-748240574
746839193
539625717
419615222
-14599922
-941803433
-430880376
943161064
106678649
585724794
435128332
-360414781
-241579069
369684248
-748186903
-91747357
756979971
-978518820
-78727446
218521268
-760245353
-774780435
968328723
-868044485
806456081
-210593200
4138264
-515694317
764866065
-339509560
542215987
-488733726
355206567
943532039
-924940275
-884807342
441871910
561994680
869382429
464840927
670180348
228453200
-234158315
-180546050
-704285138
-911946897
-21819363
-893046238
452706881
-219087724
-568007657
796667706
-596543023
445669715
856928923
450667487
313538641
-777669873
-389708539
-579689652
-435839397
373030979
-425123329
-600991038
-929554392
431545206
-510758264
-519921694
963909147
328888240
428695093
-156295337
963324538
-906695690
746040121
-269555885
754860137
279759876
413476388
315580963
-271729000
581583462
663723249
161898561
-367948565
-43154221
489616028
413708399
296079437
-946815077
774268944
-751241898
-740628949
-169235333
127785144
738589174
-526226886
-403485178
-212402964
-570831935
364658936
368677678
567025708
803517083
94368215
154166295
-734417572
-853874138
811538647
303310578
24450224
709106684
900925380
-127684691
712192134
264797692
482793151
-143567299
604702412
856190379
467151788
480073821
65038541
698698397
-353258766
147513383
-290835681
-687759918
676967798
-390516763
898315050
474621671
-481785766
-153265342
-689190691
-269346582
446014549
-207857681
362012
440872661
-556462151
-338734337
449464986
244510639
-54485052
227092929
-239678501
-247627764
288416192
-838154149
-666351339
-223942599
-656215142
105850954
645827408
961288174
-397692031
-703166309
-527616309
-416798496
-734616016
-775539812
588245506
187856435
-71550278
-726669423
30136739
451268427
670611824
452426866
305769974
183157026
-49209722
-66208131
695415961
-599548261
210980222
-281502059
-995812836
267595579
199060846
-157252620
3927515
-682506330
-13935248
-310933760
-792387596
312140105
-392731788
-100785585
-96706839
814871309
-330106072
196472647
872667145
186844462
312194916
-77809135
-561045373
762512079
96119826
853126827
885633433
-465406970
712633123
-225888568
470532569
576526247
-243191769
-503398263
284066710
-841606350
172146824
-706692764
317314686
488263075
-858106199
630109577
797030111
661918700
-908593219
21544158
387111724
-177509529
785626429
638055845
-244418921
-405729030
499973424
-968546086
-132333792
-220714331
153981002
281361812
-418688292
109485388
296087537
-812516295
499321483
124609534
867117054
-724538948
165220587
-132070151
-511628909
-62717307
-685199674
-244905829
194717467
655240790
-290066485
380590086
-375527981
147127511
402095355
908768094
1302518
962134494
585916060
-78838139
-998709060
-790008625
482032950
299800821
229560013
-307786447
149909397
-844936236
-706482869
589339185
622388015
209944054
-445617719
-134479763
-150960955
-292079539
-727203430
-441818433
319600981
889790974
197584179
-885241552
-303558625
-325522826
-367539794
735681805
939376073
-187552131
-529964177
-123221294
-48082862
-274958112
718567961
481008693
700931199
916269263
-497746875
-310571283
-270310185
85264706
675124689
-297573754
251390513
-376287468
-76766955
761191136
470801850
-218865606
939345305
391007376
46670288
-452459602
-396754833
748369158
-496662296
617508677
-189057537
188911690
276460150
-18651456
-380148723
-554262981
-814057643
-845087735
878480620
6475543
16372576
357084789
-219046900
-678670553
584641926
516049644
-498362007
111288010
180155459
607153970
524748904
-829369032
-691077738
-246782437
470948872
853103794
395875084
994348671
932863425
234503495
-426334581
-839618162
-331180625
-444681559
170174211
615253718
213287238
-76907141
745508965
212665664
703739668
-297862873
298480411
-951191397
-417900258
-618030052
768853585
-573382520
-85559317
287081208
-8367907
-94599241
-145086735
138015649
644189396
-317372603
-632213241
139137608
514599216
666739309
333173577
-503461151
537334129
60699256
282927674
17298684
-10603077
700751059
372306016
-800452749
409997294
-530004974
351359252
-873119530
-362076708
870643439
893356826
-758660237
-111610832
-946562820
268843991
-220185686
-658312498
-604130769
-84093871
-52763588
596313281
-658759604
-647802118
85266518
-192731846
-109649082
468928385
22621204
502842251
-84369344
-228105571
545747099
194584340
-174782571
-723662859
-624562958
-368734545
964505085
-580031906
-42236928
346917059
-954035971
-687237147
249767537
994822499
14549353
-811645784
-147856287
121719255
832578298
123751158
-151452203
-373116689
819481662
-490243160
-636987414
860775866
-21383028
-167621282
252289415
408545845
562114555
-352042415
270773790
419362899
-791791290
867794889
-398230057
-707191152
-194899199
928291493
-626105220
384055655
-356684996
-991214570
560012152
978110803
660992048
-905524497
-57413303
-741385208
-718000100
-207325102
885778342
19218005
-386258471
-224764009
866855398
-281777562
-795548804
624605882
-725484138
-395514766
-683458547
492052653
-42392089
-970130049
19864597
-610717281
945870718
-679912360
-776200689
516146296
747321201
955399216
467071080
-771973843
-332169856
-162842788
-303692374
-146199932
-419267373
-516809649
-93404396
-360577145
630109397
-119167774
409366860
652361331
-520183512
699774788
-776765018
-324247970
946571878
370829512
-716297518
-703470190
-202330067
-229399456
784153784
123707930
261091524
526889052
401675518
121100288
301879506
397112359
792222183
773882792
132499161
-807849539
-386984702
-104849969
-22378813
-596900675
-628476578
-613320940
583260224
986042359
-806686430
551623691
-784466544
614543645
944419563
-358355307
-187503060
-966053900
720562933
876615602
946398497
-14626085
264466373
130308903
-771154414
37335416
-727702805
-537271780
-248676379
61452283
442616958
824880678
-688973168
63160543
75831261
510869922
-864140767
-683091882
216408998
-961915103
978893947
456180427
258628416
514084160
541922797
-431589757
501161656
-150294461
203506065
-423243157
-806224507
989802215
-794374911
325680039
-405879677
-691913134
81415360
836710331
89590613
133220541
-622069693
553899833
898842280
928920404
932991906
986111019
-958612130
-630942627
953458640
-305453220
360634977
-968930117
-535324557
702652350
-589817835
-379009362
964602212
599171125
-969784706
-283422380
-669556653
-600328179
-68390127
671225497
-902099707
-414429599
-292670205
839032838
-19804703
-77910480
-350250695
544049562
-500530408
-482079651
298195176
-135443524
-285706156
878865183
151949887
-862632031
719332473
96669240
-38233976
-827564845
-661713722
-401153526
-68356511
765764736
830114586
300556481
822822591
-809114472
155935358
509034178
360219305
-833419291
-501828675
515814636
301813967
438488912
-41033164
712216423
910213358
-854762187
-393765630
408815546
-706697755
59187878
195559440
-9956882
657873738
-292103809
-482097775
-948004497
-513808978
-203379118
914678122
346811549
973076861
302281902
-387006652
-576661271
-180035455
-303161680
795419628
264024558
-264705261
-396209685
361357918
109408143
-325514396
-437436153
-689723110
-843553453
-852005904
-71895516
-642283056
-652741785
600891468
-723495913
70105774
239102602
-385760381
22988544
-30508327
357566697
-413799075
393316555
-313225744
-385314128
-832876447
34422572
-599095422
652047730
-727158612
-587549668
199599164
38242448
-930387252
-90788700
794009275
509240466
-699359340
-582716330
-690260579
344976330
-38343788
-98802135
156324222
-249450683
22325442
505285860
-867358178
275001397
-26233987
-552500368
175936790
-331998276
-872356005
-574061528
-959297341
903683596
-13005812
735267091
676326189
561302727
-996608654
770650234
586306149
-410463934
877867434
59738759
501175892
646264244
252328200
-354482928
685899621
-411512810
-367739431
819270483
647404394
-562169807
364333963
558079452
694765744
906919358
169736011
882126243
132827322
-151072038
-802560297
-22983325
-673722126
-738033394
505259920
-402756926
-110121981
960216330
-718861091
-204743404
-968273962
711856370
628765412
-540215873
-221852607
109753335
-99836206
655412219
-940164418
213257772
339969504
387837872
204395781
285640437
227522315
-536837619
-339302873
858174373
-67343649
321710365
-243231549
-712483691
-457201441
-166237678
800676221
661288020
593485904
918333544
336239081
-490052552
-71359005
126946883
246759894
-537996501
-507441121
408510566
-298916023
679774275
420824524
111150755
-885530151
-14812094
-61829696
352060478
-996107033
-352803714
-806890404
-572348899
-410648937
755385437
43209196
-812294637
416611065
-171831116
-18810492
-379834194
493201444
508585926
-309887708
-831089828
-903634579
395679952
-978224187
112259350
750251619
314894210
-149099315
-497069196
380313729
-50883009
-902745624
130625591
-599524025
536047059
-245537119
125219460
963294815
595129735
-406981080
543406821
728428402
854577389
504945791
229145118
647301058
-732827004
892566375
-965983840
-479882403
926192322
-548777085
-152586006
162516940
-404872135
-943883470
637193315
984799447
-387215733
-345164751
-235533306
849389057
765925726
637092992
-37483248
-898638439
-108951097
-49958548
-357841222
692082809
-855342173
127007484
471124519
876917194
-470137436
614829446
720764272
427580339
-578831657
2786725
112739437
407956337
974703761
-60380646
-604473232
491420291
448840136
-78591784
-392127042
565339619
-595386719
-781470196
251912681
142722051
-82439174
-804096066
-371071627
517505212
-216103619
-52487569
604931245
229221123
830698683
-361587843
-989859871
-280218256
-394758092
-84312077
843312942
-229021107
936348096
5872490
-120756132
-725172225
286652461
-530852554
829508141
469057329
-286983899
-146221244
-299984697
-833633831
170556124
-182705603
-355741378
-717626575
88818341
433073408
39319712
153738986
-465630834
856733410
897003164
-364366134
-56156737
60779270
-723446253
-406255712
98140183
-224312370
513096114
-225164682
-942372205
266267851
-547142909
-14346690
401246991
-318918297
154037507
-333300315
-127605754
286838788
-760841042
631913391
-264840016
868950493
708478489
-570658922
825822084
472192009
-597260462
65127578
-72142623
-204154976
-873005073
-32365033
-193720732
-959987434
-576328218
558094054
857367422
-857516097
-852727002
894611645
-321622768
-308655092
-285795972
235863365
509458144
-345770866
893955120
166415864
-756895305
-607173208
552480232
114213768
-6882634
-589730913
812357008
255325013
-90454216
923214494
396306304
-518926912
262204638
51572528
-818263618
-416377483
-941561992
142443607
-392396975
636580243
-836521159
-151100859
213319795
637655621
-844913852
828869704
-15343685
-513128645
156536099
666157731
92039242
-480831504
678667821
-269802935
-506766746
301747522
937503269
142203508
525426934
93787476
-20405083
-638387917
486657673
-241898428
259147193
-949288719
-184858025
614609981
396559538
394966204
-966209580
-492865786
-536217004
537733352
-866342792
-211538076
-844172695
-46655769
296627279
-106458280
-530572750
823769575
223792541
185763807
88371885
117483244
-379539346
-891052663
366207723
-869529903
-654397697
762969088
-537177283
-573202591
356206342
-133568684
60413160
277226994
803731796
323056976
529910524
-319791120
-318290180
-386988631
-799537175
820495402
63850782
919661813
-795906975
769426145
-474659165
-197141208
-345585583
-135175847
182157780
744703937
298430576
-737910192
-861297466
-946902153
-562584795
777664369
-307948177
188322718
340759596
966577620
-640736853
162950955
-781310395
274794867
466839250
-851007478
386228589
943907024
933394085
-213428594
872998463
689019419
212692609
385269669
-197746880
-339019497
-330123545
484663431
450382738
-871103775
368479165
239855607
-440159247
373795956
-952871957
-98972257
-912980489
-388213924
312567570
-217778543
-309957980
324986370
-917485399
863261402
90704851
731914961
-257981989
-131919032
540102683
830355516
-733403937
-796681781
-831446947
-551598035
645636359
831036688
-220636890
-40236986
29962683
153751597
433432330
283580319
864197014
78885549
-993556653
-821711886
-857740756
277452323
-629151847
203732998
854327440
-194340107
-498205609
773767109
-792770559
-259721514
633203171
76449326
682231990
951829899
-170956475
515778605
-16279633
-769573143
859576781
91709765
-844299330
-672901517
373365603
-191514498
471639361
693570233
812977125
-670494904
929094477
409104117
-282496687
14390722
259854632
920190508
244967725
813541530
359657508
437663657
496296604
337225404
599971579
955606449
345777090
-787259586
-447051025
936363170
93204085
-20396098
-182127951
-811974394
-697154244
6169512
953816550
-952817731
827361176
538155375
-164141087
496718452
-550401500
-137347035
612420041
930953167
-316657233
-714870210
224092705
531011642
755367918
-80066376
-577956297
-951817178
-81533427
568211826
719942785
768983726
-332023212
927289083
-438252979
-832159036
685100536
382353766
-806214312
699839704
483993289
276241527
-729890722
722883378
-562229096
102746111
-283288224
731970355
976958106
851644705
-87115675
974152731
400729576
209469096
783301050
-234210895
586165417
-68420316
407267306
663974454
501885894
-994221219
-770639325
901891958
519138188
865982338
-236493890
-794141938
497830552
-534161602
-118158748
-402261440
-130063688
-143821979
532030304
-636375093
-34547828
821341420
-964740537
303080218
916619491
322234794
953893426
458667333
-731862651
262087347
-583110049
135489996
944967572
-528339485
-270317792
-958816564
-748122569
758791810
-242753548
942497040
-132943666
-717701370
210853136
-766172880
-178425572
-60425277
514128974
-426977735
977580541
-337033210
408203015
-566246841
305716218
114417507
-268849893
-313908684
480597270
257623220
-556220257
22925784
-86369463
-369098021
303463023
209112491
525930455
-75603807
-784773460
-917850986
705523122
50568594
-439496139
174437510
802302640
-481211099
-614336874
-395994540
22136793
-242973085
105782051
535532029
-600975911
175298744
-222211009
512521156
994135808
-432635167
-50812317
421499389
-88103922
-500291048
887607855
72234228
-496828371
-218983285
960717239
346068933
627887821
-246480873
373772587
559728939
773023826
-190151215
751245765
22703440
906897904
-457308234
-49643415
-870902948
-774543938
667283100
540589208
-879372963
-293490998
-195125986
404113264
296760847
-244433711
-827619246
-799482335
-418618366
657231307
274381458
-902626045
800386999
653088239
-712005345
-806712879
619080854
-378738080
-752120469
-323026611
684878532
656610805
984821260
600538682
251586746
546609300
493130146
718241729
-426960557
-715726070
92865353
-699152028
-88087140
-983021911
537123680
319790872
-904749379
-868169240
-928601294
380813698
215022302
174744135
-431183424
-234905231
541313778
919224187
230423939
-818302894
492396389
251648013
-591896817
559208010
-281853624
-246699279
153066782
201609160
-229559891
-528509306
873163489
906712197
987249701
472670917
-841996367
118990214
-224823496
828302388
-935559916
997319711
-557824128
929261873
609668288
-8327574
574482725
-534507693
320541537
-111863391
-342884362
-342823555
-296868030
522094020
-570949088
-639639634
-258835127
-679191326
572923176
-856825268
-800049362
-291249504
-562503204
-224911778
-785667429
-376826668
938378276
391289315
-270475568
798139001
-78082724
-111085636
-85186138
884594727
447979284
214635230
914842227
-81210017
-790561734
162786773
172549182
859636445
967178424
167444419
-524381756
422708842
869364729
262003627
577813655
-342971944
-67222649
-175265734
-5530209
400238401
-45128167
549260356
-325854599
-727157400
461935460
693509345
-458013368
-824190276
826375581
139209259
794993022
886159451
473665041
249415599
-604173382
904619976
728993588
563014620
507607622
532897850
-999531515
249522075
-342154367
91994165
-524725586
424484376
-697496235
-54595544
-508299765
569272550
-619966318
-415796527
902770804
76714143
-671216293
202206769
233340459
35730820
832196836
-991230419
-531859275
477168929
772682438
-481004908
391229353
-296674792
333179585
-383716190
-296981470
716878133
-944312954
-854049785
998840763
22022464
64656336
149266264
-437673203
144841867
-348598709
-703172659
-269138938
-263714510
-211922427
-691114026
229717041
-873054801
-243305192
-97327916
106577061
-331974476
732697297
-897032762
-827941138
637734736
114824653
-305882395
-277966908
659482143
-31743163
745773436
-330688648
879896493
143662352
-980386223
-17762218
944746194
810156854
309462604
-623466705
-913473238
176601253
124109259
809304958
-196201332
439001713
-777196780
-252080050
-948011620
457555892
421773995
-52678790
784892728
431096432
-113233042
845852814
-179903863
-722904945
280320479
-65248982
360393970
609059894
969446284
675472645
-580593915
320789318
-521100557
-575906120
-742549644
360031289
184620992
125716917
289173610
-233785640
602240992
485453712
-782118223
-656919031
-129990333
704560272
-989234996
-640251122
-973670572
338889606
-341391436
713344500
192809143
300575877
382998176
877957735
676453670
-597050889
452292071
375478315
231436900
105819073
-248858017
883759082
908401849
765594327
724853540
-143311512
-463292056
-344997998
217837409
-839962666
-72995304
692813375
-398615617
-566242814
63364216
-486323766
932160129
795218091
146781908
558288306
-679530009
-120588221
459892531
-635135471
365590065
890431467
-548390168
435267145
465366330
-743318887
-242148580
496408868
753833664
549938533
627728925
692577074
600757912
-869279873
-155730367
673845922
-944289699
-238078986
868929657
309601981
-786138696
492792248
-917150217
-698874117
-342997335
511391290
-84564826
-717360691
-85887019
231427929
-622290479
110737450
-792121043
469274567
176473142
179327350
-327356157
-977094517
554209999
975080418
-937443937
337209701
-222827283
737897537
490176932
493188201
-474302204
704977219
347302542
873819452
-226080145
-607425183
752592673
-101686897
-723466944
520305067
105525549
875526736
40919654
6249605
-166972342
-959196543
-332872191
-899997463
-627727861
-778391054
426004325
-132756732
69763627
-838850761
-504926325
713758004
-702287856
602605769
484064665
278523416
241916442
-462313282
-271545509
-696044302
505672636
984427574
855368999
-698885859
624938461
193733535
697724132
-465707866
451443695
-967484819
202620744
-646693985
-3274119
-534077833
230513035
719163593
995280914
-865447832
-258819232
844534774
174569325
400180246
240694011
-364538988
871099745
-830748326
759987025
628099892
-669821663
316270945
-759380658
351306041
975920574
-42089713
-142676323
832696094
819601647
-153456967
946767623
222163387
349689721
252708855
493862639
-166705888
73856377
-785761170
-254369825
-790932922
-416137387
-471579455
216511592
729275667
759406707
158011241
924189650
-542129065
115417570
931857011
-644915305
-23741022
10014235
393617570
-698780175
-392757913
936691641
-363704720
113376036
947092650
799623275
-256808787
-677786084
38499909
488537938
-167005604
817386465
-574694516
-882023107
360829804
720845757
909650441
974155049
-367259751
-498415637
849010201
718777737
-690777178
233167935
-837649635
643679852
-790730958
-52830379
16823112
-474607006
593289800
-481355470
744774365
-55476732
-176360537
-75157133
-672754020
-593314866
43185031
-427574508
126842356
461644573
-103399343
-306377461
-810147006
877552555
-589726774
-122224016
-710197097
-657487388
-853495638
293842196
86454003
-731433835
-140405025
-602761916
-561084398
380870862
227068256
-986294426
-304934548
-730736066
989285264
-96778745
634407986
-63932210
850456692
-596701877
612245488
-817125095
718352742
-876356322
965675725
-896544279
-457389291
-428247608
-587158882
391620757
-357753294
899080743
-980857063
729880882
831350260
76419448
-323367495
-846683255
-343263896
283734270
967072638
-828388791
795553121
-878510171
-951125556
-605852126
-864097346
676195790
-505525534
246997843
-377673290
310460575
-928204810
800323793
744440097
403670576
508828300
555915771
-61015565
-291505365
332378508
-949073345
606560142
194017583
695126785
-830020453
464961638
539576821
546240421
-269166833
-716214898
551164548
642221746
-99059582
227654391
-269294803
-894593643
44923630
-546013192
578668588
645786558
-162219886
894287011
-262339782
491529016
499155972
-490938078
-567920926
-139914517
928778247
-384924184
960020282
-789105384
-511544081
-489189106
988165824
-246390215
996719217
160535562
618844736
571474909
942029728
30630941
867042928
364707773
213807558
-388765644
-447553996
492899112
176685511
-950518720
679775367
-162063100
-131770324
-964428250
-755169607
338974104
77564314
-208815773
-43754106
-152053964
409021830
246300700
-424223837
714145962
781607551
130386758
834507717
786790845
485503838
-4258980
204118826
-666859685
316453583
417961008
-781453180
-839485483
533120432
397966886
214660531
-150653030
-536891914
676492780
380975491
-174950599
-78413241
-583734126
525117504
-206426859
508652985
-823302497
-253040124
929894778
-168800607
84076004
403545230
-325719713
855512294
277054362
-939507914
855900038
598252755
-436710142
808504442
-567750117
386803100
-275190814
-834949446
417225756
-858028734
130648009
-567850817
-78995663
678825519
-972933745
-966654681
783664238
253732710
771810417
299546278
-980994722
178923256
-491580622
-476589425
748540941
174580572
671617465
-166450150
665710415
-735008386
-29317195
237809138
-157113141
-156168301
-365565683
288409727
-451092302
-527813752
212928289
180300943
587674856
175298892
580722212
906795936
459977387
995081635
355941192
-986543027
-185512704
589038205
826766873
-660465764
-466551951
444192046
842038553
538871029
-741101025
-742504042
-593759348
288170292
542985160
115138533
862503242
-567370420
-83299426
-954089612
-244312354
-677186481
928141664
-96167239
-988914428
763457278
464855273
111994317
-431823585
-577206526
-715729232
-789221573
593251090
730726392
-818495423
-290018627
239693787
358121202
784784815
-952209855
-177162235
86928331
702655729
-312074875
704593766
262473518
-48741660
-135922960
-472095235
385149084
-301031719
852602573
27366386
890994359
238147193
-778954418
331910935
778736450
-100011210
-856057344
-726842296
-928483540
66278886
602431627
-850768483
-238542394
-955660926
-944767986
-8710730
-533985777
-748684957
-478303982
806517893
424509920
-953859231
-20881499
-533321821
761059333
-805250185
-165756933
86445133
-246890439
260188557
-363431220
54060338
-953617166
917333814
-675279452
-354996368
-857346043
-964769065
-275627965
821808121
315872609
-215134988
639940777
295847860
185985964
-279353459
-594127140
512592184
110698338
119444054
736586666
-647076729
-146704369
786796183
463128317
-510723425
-115491193
-824525585
-683425160
432908368
-525473808
-388588886
296589302
-859381574
777808931
794893201
177071767
-236009929
-962085244
139762548
50710168
-756928716
-778800442
-972338315
-451377605
-220923141
910446158
-364618792
-399716793
-622029066
738455908
-621425794
349848951
-92122246
773535665
54914547
-129010750
103736143
786716845
816027464
623495536
-61707419
420584168
559641684
260742302
-349627983
971889752
631212262
-352615572
-475240189
-175216935
454780534
450950784
971619469
98670610
689278682
-561411043
912774628
994402853
-19391966
-293777075
-494119451
-684591477
-226717826
162442739
-278784005
981570268
250635075
-872850029
582682012
232570644
739556950
-741133480
-610974960
-371021484
263786161
297869371
-429594925
787270444
494756771
-574796301
864753358
-806448119
-31005627
437059750
-674595559
-858819167
-833810876
678512048
503717204
330095525
179346629
399574356
533643142
-299347100
-796926519
-386122679
-991080137
526282585
-725620228
845007370
-320151630
144385951
-989809263
557234267
263857080
287325874
-591170561
660488933
439470348
-500424664
-853871722
564247991
613714938
98192010
-639866481
-511231773
128533202
-272572671
389122925
664134394
146119324
-798257538
-669930821
-237016557
-173973143
-955205101
-974873297
249946064
608889737
-897017177
439907500
281147917
-115037232
48061224
-583982992
-164409225
-621928019
-892685921
-952170635
460627713
-158756078
891890767
-113928025
348768771
773404944
63482229
787885324
658880973
-385254236
969123987
737229771
-63290558
-134470998
-263785002
645867523
189291781
-729811308
955318436
-740650712
383074815
-464732757
-732030305
-654387484
-940339990
-773696401
405246094
-351685043
760758306
671197840
10043882
-567241240
-813912528
-440872050
989869264
803781007
155431215
-39208634
-939250440
355713462
-354807583
-138893354
308284333
-86482669
486987097
535203780
785006497
-831040585
-510052229
307845548
-724112309
-648258277
246449142
970297509
-487395708
-268382314
-893656879
31513810
370195417
306295215
787544863
491957803
-147952598
110738103
993057478
-35735793
678685249
-804478078
-7145838
-728375221
-263492942
112606284
384897865
897089783
-435250333
-127135649
-473423298
-130258203
840615291
858419002
536385482
670637151
-291812027
457380729
944949422
-478984072
987515293
30509541
-590234701
-774476654
315250794
303113580
-420676069
490217733
891943522
-780834854
-979071833
-722913327
-334516041
496620950
-202069885
-988421327
312081872
878027618
57821412
775890636
969114241
316631640
117019476
315196410
-390452712
-918614415
-328838791
-588349690
-398820230
619488254
114637885
474300924
484061971
-372032055
932658375
727011023
-949618036
-604413808
-40828890
-236967101
831270554
-687618681
-634129755
-818354742
981390446
-899367365
275437421
166683062
-724796019
899559255
171185825
-689045227
465917848
-922939853
630096508
-57247725
-87055314
-834977801
-353252681
887979185
437987223
807630191
-889382701
-211677018
-473535670
550051644
904087741
-130431244
-345250329
288442024
-924540051
925891774
-500443393
-707218043
-43752089
700730535
-495847215
326293491
617720241
513036871
929931496
76284165
353779181
-131360817
-317914177
-925743119
960044283
-565780220
-555545210
-221033666
777607541
-639618184
889516166
576034174
101619532
-867851195
190892695
187050096
38062049
-450895940
63449346
885484072
228823111
933753680
-891578513
266660992
83778117
-622290232
-738913182
-10102797
-233896873
545488971
142461187
951026149
-666784942
-474245235
-799202417
174197084
366398100
997033983
218958034
696181103
-142695023
554880707
533266080
-353273754
728978431
-453602832
911084517
-154593617
292782605
474160411
712940343
175480282
366989462
-850205058
-732312217
838857141
-504609649
179285712
131456466
-491223912
438965439
-297967928
-515752634
580257317
-197346874
-369118485
43660810
-61754337
-139533023
-616143751
-929531164
-519529038
837647289
539056391
709875487
391408715
-900009440
-379394592
-306399887
858178346
-916617480
825733423
-650249893
768808951
-427421369
372972242
-593606997
983484479
-606032884
-824833897
321832701
-469559441
344693520
457069930
319869320
-969761411
-582020430
-738972424
-811533291
945835075
312613727
145449190
-269847973
-23590545
-693511837
-414644780
384098877
583763983
780679048
-184960096
-953031187
-778322782
-183968664
215823570
266042084
-694102232
661484577
-605759574
6671822
-890990702
465458983
378605887
-170532790
-129104282
302523717
-314756024
906268102
792886658
-736416865
-315341735
-92821739
-146726867
-917536334
-309907408
897911353
113642505
-824010463
622744501
-174127184
-132993841
33443162
259251445
781199283
662792900
-382354834
-682393635
841304084
-497625973
-785101043
492692211
455826879
256679768
352517589
-805454978
-625784092
-913213361
311202118
657703219
-568412444
719821713
-136082169
-465101401
-759453988
-91742450
858192654
209470102
2219593
-612936264
-280888325
489661741
249509066
-677795074
361613352
701658864
-788089579
739275692
155044609
357379327
755139331
-500332922
-764363194
409560645
-902079176
229838628
-261009738
-601379290
-693342147
-177251330
-178272127
628987191
446517181
-731240342
-151012590
-786644818
718835191
582691832
-384937163
-427586991
-485606836
27718637
671246602
-512836803
694523071
281598776
-346968501
809782799
796468951
223663936
449632485
-779003501
473225586
-464566526
530195591
716960482
-683663904
-466884388
-115817625
-337730861
-402539300
-320482124
150202473
380218191
508511195
317246346
616584533
972056321
337251908
377566603
-363721869
343434318
933457812
-296312029
-230373380
-390429600
-970966779
-118465297
-11852963
-774063073
-697264313
725309965
347370690
610657178
-167657364
-499552893
-154277242
-889325408
612801136
-858161586
556628183
859065263
117598992
-366939874
480314604
-897082770
-424515320
-175432280
121593346
439267554
-644765782
123938632
758564390
-11916394
595253514
358205980
-465765059
685752602
314951939
-537717311
167459907
-999646250
852193461
713293422
-362082180
24555122
-253345640
-525351897
-200030613
-341232456
510446550
393817751
-725489695
-286177078
-373935912
-962732829
-612197860
905381362
160757785
-293814610
-967798642
-886455472
-123194954
-319794141
-401303627
848214873
-803182356
995116976
17176663
-381218204
812735379
-142442643
319236234
516349685
449940623
-75416951
-583019074
-727588402
481462367
-456440429
584784210
451165444
676980559
-752535086
-723984388
-21605840
81791546
-222104499
-900030187
791754827
-315280297
-63110632
970335730
-615624472
-712193943
-857641055
-342024001
-160776627
318695944
594858257
-120036747
-55203849
108545059
-993614053
-222684470
-49264674
-602567237
498508839
637373948
307926170
420538883
-119662253
581204005
35143921
401893158
-675358811
877754613
-286411064
855530826
-705279743
444441251
-906606115
444365280
652640323
875654451
681236074
532415409
465419670
866411544
-800097614
-109664980
856683800
-234249032
-846678140
77716961
-527891485
184600945
-359444508
-585312542
475328191
705946829
487120824
-321150462
-246956584
-144259547
-200763515
984057838
-887513821
-621426265
481843858
444358509
901090533
-35685656
-686463180
-364059365
176028780
940871132
844729778
745056357
313469929
237710339
312808983
446947488
-914059425
876578803
-108111720
-564563040
-888997509
-566013792
-931763193
686419976
-648396769
714968919
53930827
-490491088
681853999
207207940
-366960780
710491643
-783608676
228497954
-958945839
555865644
-993512977
-414871841
-483263262
-874003686
217648565
-88838387
-678509237
299501718
-418393322
74271146
-583492914
666438088
-955782284
197101686
-73605042
-734063281
-793058369
-732842496
580187386
485445727
-441212378
-498865024
806985122
185359981
-67251044
-60216773
-629521649
-168859036
-215926373
-224135286
-662714808
643158527
-544064495
405225162
-40072515
191093909
-802366538
-363843442
599835593
-285307020
-144414762
-730140377
264284453
-532879186
-12969990
651914920
-886432323
-457757718
247347348
-964874781
-742549586
-512932181
-297875553
-753994045
-479060773
164376687
-441040677
-157444506
-209313308
-6149073
773677413
650323546
-757729708
610416586
679016500
-326118485
819663693
-930167513
-177404462
-428539364
-971403079
982444799
-735593499
-409520278
-479833082
537473596
-983437307
-90343757
-481682371
999928375
832095509
-307939911
235232128
-326496974
982056555
-297309816
-806263722
-791290715
-155472980
802248286
676229646
-629433637
-943577095
-662087349
687838247
648309168
-148232356
-61523664
120238353
-482520551
-176958310
-601879755
607031580
-720886603
370913803
353924513
607634382
-106710871
-562268193
-603791082
690389100
11685536
-991097619
89844402
857960030
845045233
-997864408
-56849268
792462592
-37913704
256928180
30123543
433123892
-797423973
656130325
-578316652
322364790
313698524
-303864330
964248352
725138541
885223515
553666487
808486263
206999542
-436799637
-384810208
-886835063
-209272695
508996645
908985880
700303950
-962483531
-328636591
882492090
306942031
183071333
102764828
497185692
-378320457
-234940709
754751062
-715065327
-555580143
-453403138
-483792373
283000379
-982645651
-666502518
687203302
-804624503
309568942
464915891
929075261
339795994
753263817
741023192
-455377278
703220339
530619196
-113838126
185759470
-384941893
695825542
-86007847
-711251976
-327097292
-181286388
298473115
-627285348
-263951411
-241304025
-42872155
291090676
630766721
297440729
641651776
-458024529
405277180
168598913
281441949
-220679793
494426340
207540407
-14891195
-923176309
999507818
815531815
242457458
-145017991
43318597
643750542
325801284
452776340
25618373
-508395602
977066100
-481935968
62629272
-821039323
523039956
393590514
-94868868
600296180
-160227045
-54495550
-762993657
513622432
475257152
25235109
80509814
955423002
364262624
-447638203
485295005
271751074
833413471
428772022
71060830
64421002
515525675
-271581337
682816784
775090361
-223971318
-207326488
-790242948
-413089839
739887450
798679510
-892556140
870663944
-165207675
-328548869
-239263064
278083542
222930438
676575612
764792895
948818000
-725030048
-213703317
250230624
32105413
-304806721
-274350850
-23250064
-759620096
73237289
924065603
-154844769
-399907326
-377502657
606403590
-266873889
-934406344
592665394
713360338
628368145
291564138
-61728404
-989714502
592491215
-777071381
21005937
591767567
-834722874
-561503624
-88568514
-492158601
-922186020
-738899656
-612361182
805205160
395326956
-920566748
-82638462
-448405373
-866100884
449258641
-527809769
-579894134
336721242
-9983048
1179853
-324348683
-205566825
-328240737
-190345872
-788859338
-977126467
729686020
858502476
-902208262
547245263
-562255652
-753356613
691074817
-586744797
-291282963
365477570
268901770
-415272631
515223286
880865140
52495382
276277057
486772831
108774822
708370567
931334969
-539899575
-312622733
-436431304
-66060171
-525406394
708619845
188873482
-499833587
-406036913
-822794158
518171073
-483438433
683537436
696981651
-503174949
-42328923
-748699843
808260630
336397915
239840667
411753420
506221796
-481002801
726254410
-976251280
877466626
-358782749
-561049196
-606417507
-681170585
699314306
935858804
-240512645
358239849
-775044442
368640158
260763294
-465045689
987281910
562135979
-582125922
-548490247
-166018759
-390230602
-569153514
-145257609
-604923524
-641186063
-50602868
599389540
-5395317
-775868017
440761623
-771690548
660243883
-691386492
72450266
-337881765
955689092
426358494
423393365
-818184575
-507723599
290149869
661662322
928016819
-561624315
-263041582
392239310
505453073
351952080
-842189202
184502391
-920076204
227724032
763872695
-261659104
542119401
166113780
-280555775
910973071
704933574
107096870
-997360556
619478339
-301977742
-122262107
-402263847
-582713516
-602589228
-980988694
-339532360
-957397446
-996406244
-908457170
820732636
452841870
-226921071
-735697771
-189054124
518729372
720494431
382324632
314273097
536132547
-616485011
-581778999
756945055
-279287949
178164475
23191575
-204775191
518785755
661793362
503310922
625815739
-692259126
30617681
403708230
436119087
-84186117
-773706034
-361485433
-704194495
45591383
-48531913
-232597674
880525019
184111526
724985032
-206464624
-585275133
722211911
529925828
526290035
7472641
814543350
-591551616
-46046035
999268568
927376326
-841625469
-873609253
-240012684
785999296
601491078
617096342
-511951207
-6669107
581221479
-43756651
-264583072
-348944243
-165891779
120217087
468790950
78545997
-688181675
-9460508
-557619672
29162024
-991987890
4673637
939033585
516670629
-439217658
-201210603
-135781981
656193258
312994390
775213475
478458929
-524453880
-516831307
-415840012
-606046183
-64151468
-855018959
655730814
-781987300
-589191362
111181352
216780801
-238866449
673432962
-713460909
355446013
84629179
431270229
-537147771
621420943
92319065
651064400
-747959070
903650284
807168360
332432144
158168031
198937765
745697425
-576660867
-724568752
660841663
551003474
896166702
326758208
456534473
743651308
663031084
-191040127
-26623014
-427733676
151835502
608229229
-886958994
573117647
-373854620
-96981356
352309786
780800573
-279440165
-976230716
-423322761
630157833
-881604943
70380607
764310725
-269514653
165828195
-289546217
322094395
-476836721
-639230301
64154035
-959844223
492493702
-438542830
-57131045
-104316163
339471200
-16530589
185409118
-695245181
558381025
678526791
-424126616
560018577
125982192
154907982
614973372
-685265460
297702920
985620288
292018017
623180361
221776893
886027935
922178516
272652365
-192807054
-209008930
-635063944
-178278308
-810231545
993533226
758706226
825991941
734697177
151716926
-988566514
-667212443
-517625616
321199833
955147234
-950344350
-423951523
856383142
-75992101
-958523904
985516133
536390485
-701541381
819731060
426518641
378116153
814653635
675555109
836305650
-376622649
-643148657
-622167422
-271777458
-8104941
-105589558
833236275
-534082167
-777301201
383005838
69556226
-885943977
470411565
813331432
-596418002
932558748
85972181
-572882203
-506728025
600170272
63932520
-474327348
55618701
967693860
-752289819
-550541926
700656265
-193247772
-938814747
-243813771
-148767762
849066728
-147311
-212081580
-651728884
-447344749
-689460199
194265472
-398755154
689770711
-434364452
-300007755
140854327
457237969
-350178268
-299748667
502840598
587193812
319452185
-319999590
-793467928
628497461
-264522454
987082418
577175690
-616553123
512840098
-970127871
-242158988
-753487854
-829974843
-256533682
829596033
-42364783
157565346
-241703434
-846369493
-823094861
-947874378
-627577472
251818878
-354116746
-3515208
-105198577
853224330
29438865
942730664
843074277
-770042794
-616578245
-317199567
-924440818
218980758
-453604795
-436128633
724712232
-692182178
-292786544
106594091
854869537
8808692
795010091
-65791243
-359480574
-57406397
928249051
629466431
-150947912
947630113
304568977
-779052404
33035350
355295508
-756933866
723128917
768073503
143158031
-894143457
485086366
775936084
-548550574
296221706
512843021
892845860
-978275016
-919628340
804643189
561751371
-352678555
122523208
-112528625
595627681
136057851
527956124
107626875
-610804066
402005360
628730410
-703481175
-597206747
-615689035
959147834
-79922650
368827657
897216504
835537383
-274441071
-486381733
714183179
27777584
-896980769
-423133891
574989129
-309064235
-38633601
775552093
382429865
-739906590
-211396316
77066866
109653487
702517277
-638481139
264538012
-646426308
117968192
-461419696
-511202794
2699847
-984174474
846255561
-273253774
206045484
209419424
-956963046
-843573793
420584229
-528854809
-80265325
-338576363
-485216346
-896915783
506791405
63062838
-842764382
28930458
436813684
-166533073
-453001349
744843275
-119350296
-651157387
-840457508
-76630045
-358760354
-635660877
-75752923
571181108
-507633236
-659726053
551705709
-539323274
-956781880
517469442
483767501
-459308033
-339755570
-701231543
-805875511
919965342
409974162
285445656
-672475167
-624702918
136499042
-83298090
-488453732
713175215
-872426659
-369351212
948169900
142008907
-946973995
-231116674
-925272330
993352293
-347210592
627131110
-66921039
-536144222
239904822
693053031
-205336423
-912978736
-997412976
-9983650
349414916
-403406334
-383696126
-98532134
-248627835
-895524357
97743635
173597339
297112101
-668280556
-801751376
-24847870
-938597660
-104064264
-405646429
-764135087
-526578608
844378884
-263496509
814851076
941814886
-665997831
443924851
734027306
-584336650
740148962
851486929
-266068544
134143863
-105477271
-66147788
545391848
532639554
936197589
573853139
-114569097
-89136191
-762335827
-412580356
522926674
114928237
932854695
-215808240
860613835
-1793212
827590169
679835699
-549657635
415824801
-307829667
154543137
-438154729
-798608710
330884447
373352418
-205893172
817171187
541195485
66658451
-853829390
784371531
-272352390
-987355435
-444826966
-880075379
918164308
-603427376
410499821
3075982
-190843775
267149197
66646986
-920289486
120339739
-934417073
248595458
13004507
-475485053
641658771
346073304
841287837
151307710
787589107
-851282083
384974078
224386358
335026186
66347594
177044617
272212253
601025037
-933756610
-845833692
142568951
-685650924
55567023
-540877428
319544404
37714283
541062232
979515806
-726620705
900532846
-857883018
-336000099
-907563777
75256932
913791968
-635304516
-26110530
239234340
310734933
266649375
-12147111
-241540016
204893305
806974932
492455295
-858225782
-385665141
-202739653
76082314
-591527895
844248750
-555162630
-985902257
-843937976
-77160949
747576631
-135924063
-97160049
-699508287
373735577
-359085886
292087496
475356296
-702454280
183704737
112959883
-745307997
148197268
844181480
-334379205
-672996234
-848334288
-958762488
33240819
171790090
-612672206
13653845
-809385592
20017035
-132248833
127568484
-40943845
-135224343
867695905
157134363
-151505930
-996657970
-751618261
-702930843
-877311843
354775306
423467374
262353612
-402293671
-401497591
-178355307
-462045783
9018899
-352478290
-670322442
589989962
-821763283
400729208
-690129655
-720908551
280095990
348470488
864695026
-354110322
-942698979
672527549
-243398239
451530662
524271735
290470789
-64855047
-940441014
-789880178
104130368
951798873
409691585
-796644979
-662272976
-147751580
-435292199
-820315755
656519007
108740924
872127130
129395739
798307455
970955269
685512334
689274855
758776839
82063328
-879455668
-696387047
-992038748
358999657
326799035
755875703
-55571332
-231711338
423592403
-886336853
-655103485
-438493427
682400036
590021536
463017399
-67918520
-926196629
-165651253
323076993
498300742
-529773174
-277844148
844011139
-582081765
872533757
-350427328
19081324
156930598
397428858
654965528
-257296233
137894013
508139039
-161361964
-765384784
24326842
798636744
-809872727
641615004
-959818849
-628411440
595032338
-620227533
-389744024
257741134
212374859
-870156404
548255920
-295136563
-608843356
-465268602
-772437282
818708430
-438778287
303262369
-52887812
-962051387
835933657
429422241
882705924
722120167
-315661301
620071222
-289537505
-202393003
-993398385
-374741888
-655820087
-867990583
-635674417
-911358441
96088320
516787748
257716100
-340914990
-390064333
462390067
743873496
967070119
-283197210
752386052
-86466616
879183613
585696018
933670295
-666550297
939958790
818089058
-84902406
836952119
-528527375
-298406326
837881234
-996060710
-869376862
39557595
743775678
-713962321
232296415
134166860
301911268
186293689
949194123
-58530254
-843086408
639602335
-263957102
654989175
-329784986
877479213
-943501205
-363745020
-983257283
700415034
-877225837
458983992
-442462924
362143307
948959239
87300659
295811303
-104913046
22212154
-119062820
-549489143
-871959630
321051790
-693603795
-973204079
546833658
242545764
-895946464
-860705693
-435492259
531500334
-953597802
-166375123
-578065905
-953444876
-829504255
-56354267
-678520397
-456887396
-158352731
65711570
659049300
405728909
-266873617
649222346
979494143
741225589
190916305
134387139
497365846
155153198
-770052495
239927631
-599103259
257833038
-840180011
-639614347
712631880
964065345
-583606527
-453560156
3766774
898176310
382785410
327724185
195075331
836417555
-222625187
825473747
616041748
638584218
4700744
162855584
-771194059
934396940
-36717484
-266344576
30612408
663822883
-241633658
186039610
-384393417
-637793406
-483720574
-95293153
-170528072
254195438
-992303433
25798706
-938189325
532083790
11004681
-649349652
-30868367
-445483044
-307933406
-236914927
654723662
-96157442
113485024
975728856
-3702584
783107847
751134325
-862445293
-464284599
-347890095
-568959268
-41353824
-913558441
-181445407
889596761
-465834559
38033412
-977033734
865825730
106284685
434475838
-205565039
862689529
565359473
805712745
-550045585
701754439
359412769
-260714049
131803592
588458892
732965360
815277175
-836537324
830065760
-98386661
177627760
-721302306
-513940577
-557223321
857155844
-409392337
172635598
-986212149
-347570909
-344369042
-953024571
32189275
706579393
839013984
102688315
264791937
234209266
375428547
-487520456
-672442632
-351895786
531015577
-344465728
336777561
-164005716
-469717184
444365912
981317860
95564966
457422157
-481064124
450317070
-135491304
-459208386
-56985303
314543391
625129561
-351268380
-833926991
528548437
901067900
-103315540
35180199
-595082159
-110767303
-42764187
-443702433
-428501259
895219756
-322935739
630736953
705505233
671364647
910659466
-414471185
195085729
261719059
537094787
-612053329
868201372
-774750560
-225399286
544189912
667733514
734769179
548857276
947291899
850498395
-680003117
-210719784
139624491
808636424
-839935550
-417952456
345301583
-905151009
720677208
692906376
-524843900
-668556319
-226146379
-632340970
-201375209
809974095
600996485
619779431
838930718
227780060
615647115
-150932670
-389310963
742420663
-874759311
-495356276
-956354938
-220168982
773042998
119235329
718213007
-206592438
759239178
314848935
-555155807
377292158
98830058
-312272688
482527086
939892216
126970738
259276013
336790321
611871198
625233497
912547234
624331736
548055541
981500218
117081621
-19985142
543163733
-529268843
-868057030
97137602
-11423909
-812969933
-322898256
307127002
-894148553
-784478059
-157351027
-58121186
-798403000
284707546
-65139449
-274561326
954287731
-257248672
-336565556
78619347
-616480728
-518138964
-701382484
470821563
581262744
13667533
-531127231
-110086440
-883166
-819806478
875528850
760364131
-881357125
928666165
-873520436
-571561246
143150036
-509400132
-249168402
494786124
-548028342
174235885
264311884
-757728555
-756637018
357821150
676830937
719882989
-907778499
-249379867
952355658
363943622
78408151
-969231143
-774373197
-275866398
987356290
99274743
-722164884
-477899108
390085336
-257826393
149670496
48806276
707210990
85088241
-618823872
-844931531
-401353939
-151663805
768628130
690435257
-339086199
558069614
-48607995
783950448
-347103973
-485766581
-692856632
986514638
654752345
465223540
950031340
658986577
913690980
367993567
-443723906
891374265
-231873668
931419774
-209338459
-701095019
409386931
-706747535
-199841022
-768276168
-620065161
660140178
-560593637
691452325
-321532705
136386915
-173110185
665023270
912437524
535932560
747047455
606332093
764704108
-261780009
-496372906
-125458570
-433808468
-821083985
-601851309
-324047103
-765090502
-346908106
-659373722
243472872
-793972945
-415633943
472128204
-755683733
-409850428
-462420204
468851040
30516459
-259297896
-830122664
-912691120
-588093409
-37767411
-49287533
-305964933
-30184036
636243970
882725156
976472748
647760896
349665054
920949657
747802255
852998012
713665449
-108081815
508300561
555258295
797905512
260561299
417054651
-310608500
799574034
-7990044
509889960
399428865
444565992
-183811097
854167375
-81965913
27094998
-431959729
509867926
879954426
348411341
-881876669
989901011
-429239190
761660841
-770611723
194906426
616854605
943297144
-178153537
-986058346
978783401
-102995136
-716776733
300158189
953732585
473669203
352754239
941550698
139283098
300267290
756915133
290238860
979497815
168231897
287493576
526958202
-594648029
999542720
-801548425
384396763
-47276695
-974081925
-514134653
-189686278
-16734358
376932764
-330153119
-519627425
851648019
57208663
532832392
941771266
-52280196
661851983
-754687042
414726614
89812202
-74051951
235654457
-737672161
-769142425
-80201138
-503659582
-273747802
-587179815
-984806284
740370965
-627762223
-350543665
-658218595
482567614
-533310633
-174813753
-774550440
-337411851
-821408981
824590163
-71298054
-725555040
328886466
659349748
-714517984
528504999
708639264
55145574
-115026758
-217018619
791666947
735955440
-960752616
-647024105
971225048
293028201
381899263
49566923
430379369
774020111
-523001291
-636950181
118446173
533451179
-935183224
-697202967
-177825212
333306433
545135057
363118485
912055353
-223925745
-440374610
-983084293
-358086829
582997596
739801247
-934921605
100338618
679735636
531299971
363485961
47510242
73014097
-777105373
-120480136
-266095548
80660174
-497865912
-387882894
-818391168
421756875
-65465789
645359345
778039630
-814067125
864338043
545140385
173256162
765420374
466564490
-138417100
87423051
-802775612
-579203112
41738303
339375396
-566524671
-688272765
733319163
95530039
-498405317
277302218
715414416
-435633778
150583147
965026992
287637191
-360739908
-429055552
338057951
553124446
-937843448
320324802
-378854907
-917423493
-383585993
-703747715
-59622977
-384321034
745874376
622145593
-895560041
945394019
-318381455
-262294025
506523120
-921016965
639955725
302982065
-942498530
-959132999
-464032978
763221410
-202264639
938210194
-294275134
-843029338
600958619
911012293
712996159
375543174
107778814
-150675456
668646251
169644210
-729821180
-290113328
-597070716
-319498930
777325321
467119711
616246535
-535596909
-496957424
-984516022
246108743
335689931
-199601074
234079987
352718282
734087305
-884489457
16353771
202833157
-122974995
887850812
-919035996
920224152
715817470
740140152
-451025893
175580493
722058641
-499398281
-150145445
-815199117
952311147
-376717483
-458473759
-169669211
914850697
962964285
533354687
354229024
-401143657
-522132172
900178641
-166030435
95752899
-443622406
669024317
-477324434
622669708
-239014699
252891432
799420529
-580447810
811206068
408028973
-457124124
576528412
64462611
-527746588
950481948
204675807
-172658462
217937882
-936303384
456516593
893577978
75725489
-245031104
139431588
271394843
965669151
-817553536
-896718351
998067874
704874
746695135
-388344882
-278344256
-342061764
971690299
-933282245
379579671
747829534
317431986
-944663399
-170124844
-792407792
46634162
-503283494
-854474968
-615758552
-233322637
157135642
257236743
-71139067
309220973
-77626293
589588801
-420117000
302150347
893550818
242435823
742834753
-667182221
-915610299
-246662064
-643445558
145417547
775275238
-193415942
-499043003
178010009
745474724
-388400866
-556202545
-76930618
-97209386
-720832214
-73628391
635126695
902774177
919379607
269226393
570194221
620001195
-769714307
403939196
925573779
516550871
-592365748
835890732
167058946
-757120286
889079997
590817560
170129259
810917287
-531353642
-755382864
-144656173
-890820396
-158103358
454611714
-541817776
210549381
222410588
-495672683
578730400
271242221
-959610197
845026388
-211110069
548718277
-349947169
-585432251
-468318623
-961441047
849212194
-330239879
500517260
765387546
473037489
744353100
-105607728
-130836749
-561943707
308903300
550877098
696363450
-893814597
-759197348
364739757
51384663
593638523
-476140012
146288143
-860052829
592511021
-696654297
315812068
283613371
-199517381
39659028
93769668
672865998
174152036
373688717
-973744222
932012731
-461055057
773774846
31376419
548022066
-735962889
748010690
437061575
-805660752
-658170226
-420011371
843772241
-571251159
-302742800
-416479137
759863403
473159278
762589747
-941177357
822336013
-203282812
211885434
-177052647
527503701
886360346
659423105
796289759
443409530
381117785
-402055989
281460470
-734942393
-2807519
-944005398
377278402
825267015
805649796
89102940
92271771
653508821
-333347455
325583469
-939713845
430333452
861233835
-930954106
-480584597
-678081125
715734919
998560754
658432782
249179657
-566327217
-555729232
569570643
-559270125
-186285231
875627028
623138212
-872379355
-776942443
474590899
-583669296
-984687921
976500975
-331265440
-767008739
343511452
-916509115
-475952717
-751042805
-776637995
368452366
-851853852
411242300
390946261
-455803644
226967699
-921201176
900084475
431207369
503341530
492328286
705074482
-415592660
735652504
-302030626
-916625918
-60561843
-107577545
935053748
354957348
759957947
33713009
-479074055
-658899472
824054437
-794548179
989838843
403368803
-817406676
-680617064
-376172572
-195264455
-603731571
396956949
919702298
-488082358
-761930124
187540970
378499402
673005233
287338974
-788852808
190001707
-756232932
-376109804
51104418
23887766
149201513
-852190305
843146737
758313213
-735631263
-17470334
147596804
754430354
-669679124
776257770
-352867876
-83693571
355810146
-657453446
720187965
-337965643
-504194277
261401736
-862183038
-212152355
420392424
634200878
-9386632
800155818
457959613
163822126
413952516
-437018296
-167290730
672357805
429034514
-317389210
608017793
10839286
275625460
546631951
-396707121
815106746
387835655
388523287
-175362876
709626587
-425287389
455091766
-217541947
967069410
-537524548
-814433813
-497128727
-400299988
-277463662
937213862
410475455
784407478
-408589955
45669189
9470948
-262833164
305210898
-356201257
-772349314
269020768
922264687
-842009811
315012015
-991377159
-57303278
617255651
-103360515
-990133419
-828279478
-837824370
-789166789
-982692610
127300181
141936814
245062112
-224586783
-45569646
137320500
531494840
306630451
-885811051
142403743
-342617764
-818802862
-452362302
-133545828
-889514551
821220006
482234440
692584131
544904246
-456460026
-18244721
-98571298
-834224011
824314596
908344121
-853902369
991836450
786940375
-527057746
-409771152
646375508
-573064958
-13364422
834842473
-577996750
856552114
255749467
859615662
-820563836
-289438477
120530713
319816234
262518149
-837310831
-252910371
-530530653
911070195
-634850960
112873308
640978189
712220135
-970136911
371449197
271831633
957501200
-481262989
-614348999
-684634619
-212333165
-794507975
-28992981
-590496214
450371153
815578212
872611705
-408822810
355537312
-335395080
-659932206
-553147514
428800484
473974082
452410560
968655006
518660971
892725652
-466751360
-970421329
-560293837
532973872
732089612
375350176
-343202412
868468255
-341993673
-121839791
-382433204
470137251
743758375
-741282171
203192295
282151443
276038100
-218601019
-164184701
19937559
772673694
-957698688
925750715
490900452
323245205
-94798677
706341967
-410263616
705368421
-763691835
-436850349
-222956324
319350679
686624184
-743479634
-100830918
723384876
-727895387
-842361219
-323863861
-976859313
555517005
210252950
391648860
-225399874
90858315
379377764
532046257
575841438
-178347853
-928693364
-796033215
-378586186
-600955568
663199146
-648880203
-692500338
-125392678
-693947251
202391751
-267615121
490255502
-786011193
70844850
-852072442
-865277138
-41074572
-370547269
-261189878
-196997580
820991045
-526440922
547023910
918197855
868441719
673670157
53175502
-862660228
-662742683
-911461564
-762767900
648141910
-698430280
458151364
506346384
-958599179
909570269
-814222027
196463685
838424057
240439045
888797247
-532202650
123771186
-44720754
-185924303
745318990
723683550
-618799386
621034496
-607828637
167068838
-137961554
302104331
-544550690
-681413443
744385348
994165296
-635684149
-72451111
145256832
-887742818
-891125055
-253091362
244708592
618696512
-263423357
-490304725
-594910919
-515709181
-374596556
261948766
434000786
-620262245
-166293964
64692839
795426733
882685680
412465192
11311157
637545204
-780508922
806446309
800882678
-257440934
711592476
-958244768
461354974
-465179718
43706059
-398183968
-690730652
613659410
901525180
-762006069
-366131905
309118295
803593216
69146310
996236398
739449273
141139448
492381243
-399845569
-955363622
930532269
-532549648
926608351
325938392
563130842
-65719770
295768212
-972720231
-641684994
591434007
119296925
-427774767
-726666789
-608665505
624899146
947342786
-430918724
950021504
394521647
734717795
-881112216
-575730422
275269334
943123306
551026763
-158987309
-13186876
-231865430
-773187794
461795457
-757249201
37769439
59299099
-825587784
-494928799
-891496419
822399875
271383439
-458155120
352546386
242301518
-568026000
675425989
-995312907
801593220
-671151117
-602841519
134718545
-359955059
246807384
508732963
-5601187
814566960
9138638
235496299
787225020
408718780
-90291657
-338679167
930907194
-68342034
-346658875
-801577007
511104409
620607028
314198817
-753488273
-946367890
578225972
-694189363
-519160947
-272027646
-856750808
-808910936
630474765
555611740
-393199149
953672501
816825382
912580340
-709558103
-968550620
-474641603
-739581231
-215635911
-80504816
611798905
-948843172
-388826036
384958012
537640474
329491957
88853177
466423052
-785866800
273563908
6408957
871958826
644961516
794356206
309220559
-487191344
-508797104
510190383
-496151018
-635675912
-893494062
957555555
503295154
193704402
831015350
432926082
206701705
516170724
-104834297
-934017113
380552908
545235553
673436454
720097720
86155976
-443700344
-498152222
998502862
-310105935
224476680
783449470
961674604
277902887
314451974
-988176551
-322129556
-143237617
-170132985
571769514
84016936
327755639
231467354
-297292097
-850292770
426704709
-72005126
247029697
-598737451
900339092
418110372
-497961594
-221763625
950248558
436543389
327394548
-613941942
353267808
532309276
-105507093
862462010
95221741
61024196
-395853514
33600336
-477613267
-91245405
780993032
-976666038
-6347155
-914007469
578970914
834330654
-841463279
-926280275
-80532117
-982354974
-460347702
498449597
-476913716
506350317
-321471156
962575901
598244692
872930780
-147453651
386776365
391328342
436361
223204696
677147070
635394387
108352450
-712716495
-815605568
-242748505
-521299580
974031297
499566680
-755634531
-806603575
950923454
-338701810
161521998
531153431
497087802
-957751849
-863126169
-290674284
51376536
397113050
-986110080
129576766
833221720
928811796
-213437958
-234974602
-241274416
-326039168
132839489
924663845
660215005
101691240
347270837
-33770059
584675044
-994157612
117141256
351899442
787154463
-322741222
-341940041
351710259
434680433
-373391576
862672238
806040018
27402761
64894455
-739343571
904480038
683789911
-924821219
-837805962
310432803
-35923441
-544763166
612667568
974723262
-470494560
760772476
226925023
-452215734
392616895
442986556
-579928516
-796988248
-713857573
-611354233
667252105
-250485082
355975631
-182553140
-210927542
954831820
531653548
-98333672
411489711
-391600702
-966721002
-682024009
892930268
-978355286
-237971146
544633033
-125722923
-169722727
83652011
-723763508
778476285
-666212579
318757625
809494171
-922014079
-469829774
439847279
575932040
-609648107
-943247353
-651618429
564891704
475126940
837292891
-58865331
817731759
922567696
715724781
72903968
-302922489
-79499031
-494464569
173980540
-426761288
-562803419
36200729
-858185941
-806886256
440490010
-990224607
-458139322
-325056257
-534304440
699872867
366414999
-34258705
-736587321
-324749666
-455624530
-239172438
816108823
-768322513
-740038016
-571049716
-57040340
472228550
-686331768
-845457068
294534306
-549109145
-825781316
886280987
-320884029
-444240902
364352629
419201478
481352873
-691942488
678410026
-127390483
969412781
-485275482
-649509416
642649330
-75353791
-956564214
-26457676
-513835956
-384615818
413628562
306048395
596624345
536707713
477227980
299964403
989249198
44862398
133264174
645696258
296963771
216943797
-751843613
-362444010
371862330
96287615
-838384423
-802709044
147649817
-114062258
-692147585
-26539373
76819933
577412524
-706605113
-722463985
183621163
-745737559
-357583620
-456750936
-531206424
217128936
-171133623
-866301319
898331789
641474364
-253711794
680512632
-332862441
527331635
-620628882
-219252282
943109688
459415483
580795050
651302244
895582139
-877294780
-412477176
-775036116
623037511
525268443
-247642054
-100523013
-529345501
-985259530
-125765968
423910640
-147544721
366928405
-389512555
397415391
-440655461
119643529
-183049342
-250949001
272449025
955095251
-647305292
-899417148
677714344
490219788
-598248431
-386820186
687627542
-22966052
629111522
54353463
-679134214
-720119733
-619921070
-695773635
-762337787
299359052
-778379485
562120947
509944051
-836054048
603546473
-998948223
485167078
413246194
-994152303
497702341
-515663767
-674489823
454183541
-921491262
-38168264
95521502
-142231230
692976094
270402988
102929966
-643791165
-684330377
-267890787
10481906
570406105
-698607013
-340018986
-856304656
-634134686
-412403218
-410477627
-757342835
-793937200
-904252622
-658818325
-121208887
436838610
173249439
889012342
-272823044
-74085765
-792289906
-491992738
-140335458
-347550660
-521555388
-704954468
-385709363
-150564230
313991608
570859746
435840610
153544831
-851043038
-33216032
-970812553
-593892624
-989544079
-955915241
-268448652
-261685097
-268796375
692963158
149138208
-642937986
243177202
-95340752
998809315
531696497
-845869924
214695534
-335081105
-976542799
127910023
-271017236
-217409717
330042045
-111976078
617350918
-959186972
528900174
-996774926
-337513211
504431685
-996221960
530359810
-770190790
-80276863
470946393
-455331808
-92457640
617851631
-485240671
-838582634
-909564001
483751616
-922296206
50616949
45049299
-789387857
-96984497
85684154
233920725
-556792523
379508345
-226635176
-748941602
432676903
-852805891
846027478
-150550068
-277194987
644429466
-821978264
-992072640
-211381821
-538309019
721511456
-841638518
772390405
748850723
671843623
837449973
644756658
861289569
613359351
642229064
615376524
-142819429
-225887260
-690353262
575605312
134797465
-88846318
809146921
981903822
-68229373
727762465
-410757617
-714085149
550853842
-150402513
698614155
-299205930
149909696
-322418159
503984069
-188358284
-954482163
-865244078
373831100
-228752984
819182796
669570904
-662159846
-577784113
814468013
-565659089
-601140037
-858447411
577999815
-710323223
251704075
-269267973
53468706
760397706
-472966361
309527023
-261139914
-241535869
675645099
-793473506
-193879285
173300160
903129592
204464725
-500702022
-980829588
-980425858
-659993288
301224003
224209589
174329093
308519045
226951835
-359927397
-852827107
-418064796
-838185311
-780554713
-814422677
-369506384
784957425
200403388
159510148
-226484132
-673806780
-713759273
904715568
-378938384
-887696209
-747592372
354905130
-725558928
449375834
883110578
-772511043
632022820
-544539728
387277191
587343545
-404710797
-893198868
-619526251
-356004222
-19092069
578864261
-922629262
-49562313
-142631038
900203434
-780622724
-665572640
-940968501
381095545
882460297
401633270
673704628
60400637
862754604
979828126
-851301154
-257727891
-665730646
620054478
154899246
134701503
-632006723
-10419597
333820646
821025584
632649491
81717153
-644167166
861473937
-918736436
-580808822
77797067
-130995552
676718803
726837257
-740282852
-359328147
838869495
-411490229
-778293810
-871175927
664429781
-468809011
-587191174
338437801
-635651637
218334241
-130518886
809023746
-440701000
950514959
-282511139
-69235193
714382861
607738691
-697826047
-354926568
-105552347
-154424925
-319544451
-689874759
49541432
-410933510
-31471901
-347332568
377186604
-827550606
-262183938
134697545
-68870222
278480418
-192562530
169915210
-875925944
-992252979
-82358627
-802541676
952775786
-433581485
-204073514
-614426372
723817992
-249050854
-234759708
-847167747
-441510669
-52777626
-581343485
-654480021
-680677988
291724435
-925397793
-758324833
616734331
487587353
-726251196
-73071270
-766883810
864899761
-324372693
-922052897
-574769491
127723249
667693375
-105004580
347552191
-292982985
-365879966
-185805891
353847992
376081878
-474666704
539181940
756414697
-466591400
-722173452
-409051624
-135898893
-471082563
169813361
-844267858
-78749676
-711733537
975460237
693376699
-68873664
-621521392
-203492164
156373372
-553600962
-793670238
740269212
262019576
-544221900
397948032
-163716370
228450254
-948933644
858405630
-271025962
63903978
112173310
403915797
548554140
-600255191
-801014487
-308533496
-879040428
333819188
-320017913
-189116312
-626361932
108536709
920387322
25981164
-61825318
409546444
694448820
761189225
948826140
160091466
702010227
640243841
-707640288
-620397668
275481389
616896485
194412252
758848981
-745443217
-171428955
570993377
585126911
803927258
908826189
126606869
597778414
600557457
893651665
-9374381
736903911
-150809261
-586302338
-760297888
-281784400
-472233922
835809234
469068206
-333045259
-123400291
980201626
-837844089
-388829846
-382997309
33216457
-286898027
887908744
-157947634
-670424972
-285351257
-587993663
-449152564
202530063
-618872911
281730005
878563883
702487406
-789912543
674010799
308240628
-621375286
-424634451
-144440549
287619505
28804868
323331461
-736081726
940237276
-775753941
-505663169
-794616392
569630300
-326115786
-239012633
-191493702
152539564
-364699704
-845182496
-596678295
696986343
-811883963
-318543594
-769104014
734670050
-699781571
-191517411
350925320
-16906653
388372041
-305273147
-971346796
-173139053
-517683494
267084156
40532501
-19226818
237812740
-467236414
-963616918
598578172
-468800375
-355409225
-433282270
179373563
172541236
-558107566
-686430038
-230870161
849325251
91873699
-174302501
-606217308
351947716
-269683482
922499787
-912889194
560882589
-49325348
77637661
-467040526
172779680
923185539
-603638739
417280066
376089277
-672033401
-881328580
389280719
-396343117
247523131
718511227
-532395284
-266255085
239483710
-852425873
-575126120
436257902
-540290369
236256732
-911485899
190968983
35121218
554041513
913157410
820804182
-182930746
-800952149
98367492
869044685
836385590
-258789831
119002682
985894933
221503247
-621716781
994550258
820354905
-686203484
-558189933
-405884665
-857105500
-272817880
-701741778
-402346956
-475911740
836681722
44721603
-5459597
256153428
-7273172
-389148620
-925596438
-435662284
-858531463
928089866
413125829
350932227
-459692332
-907423016
77119551
-456539271
-81591611
-463465471
285570232
954408016
-985395503
769187028
-149788000
-501014843
883175018
-762766344
-373474563
612697561
945385210
662815895
14067499
970870736
395759929
-240404187
-817935744
-795830240
926006624
805063624
-158450627
557449591
-937434087
329462397
940668805
211325199
-912920398
-619164334
-274165638
696934404
-656812453
-686651541
826956942
-122449028
-771747879
-472425111
758899065
-15480380
-202268052
619484022
832358138
-725757347
496064158
-896538562
403959604
313267696
-92713602
-45215599
195653735
-281109364
-168802714
473589312
-487487486
992878503
-22436725
360863629
799156753
940864220
-429517059
919141930
828188131
-197161886
-133195857
865932785
976185662
897194271
16060350
-585277731
-676986394
958015639
-190780882
428843532
-582873184
509760445
-173274534
-163728737
-413661338
146839238
655724403
-981382043
-493005703
-320114989
669578049
-334184660
968413146
-843862937
263728516
238480980
-397131792
-721317484
464415540
612189403
180358865
423682560
884274749
-610705156
-622586617
590011231
-642573793
254555647
105246214
506085180
-191786280
-589735135
541863826
-52423525
758896422
637959489
-243555097
-188456502
602824031
-955174483
990612955
-453583229
-851042844
-861316310
67999702
242476437
-996753533
-143634154
637583762
281278291
-494665463
406585937
-936571120
-729827281
-415516137
266053385
-917585886
-987841362
667434213
379147449
-609611594
981653901
886319471
-652874061
-864690491
872311578
688440371
685806374
773667779
-318623964
-561300828
-878724840
-185310419
-459937590
-278956422
202381814
573603285
-580640585
223698891
245469418
-325025539
735225643
128895227
170816197
978234092
-21706353
-585335425
94020976
158701997
-694662103
868860771
-636835801
88617901
693017060
-688610686
-285211349
484848627
167538562
582111058
11126659
916935095
-299380160
-483492210
106203961
-727034462
50722545
811126623
439786813
-917310595
241443608
-148807096
-736039513
-545269734
-580145814
943351897
-608167031
407793335
-60152148
-186768438
517415144
250590392
978025927
-709902900
-663305139
99576102
520792333
27746931
640684499
350603893
935698237
-252679653
-566011362
-756028642
855563555
-903298078
-512949746
-806226500
-462671554
453065214
-934050509
-435740276
132757780
-287800181
470773659
-847194291
128235961
756476395
-451915887
-749925129
771974979
198728694
-636131802
27799712
760155777
926547468
-58577457
-968286900
-582582155
-202592469
-988662297
-215738015
-356136317
-425608481
-807710937
-185527915
-615383363
-315360971
809646696
-959176035
562657887
150748349
8995145
-481104847
3007967
-213761161
692007731
-565345019
-285688663
-852778491
-882981020
-449351767
46733487
-481781086
-879701539
-242312988
463916881
603773158
541079120
-831108611
783385481
-850046855
-421172816
295453543
-67105914
-45576719
90928319
318086992
373144068
-846308855
295304695
-952356731
743013178
545398290
86109429
854826517
-337124199
-996180240
444590730
-96830209
-980060148
413007869
787588766
992289650
-683411649
-558714874
138441161
137292511
-206328819
107167946
-478908616
-236899432
487882604
147549104
379432423
356870807
-688718678
86831176
-789482021
-391062206
515858886
587101794
18839292
837314301
375591857
-978030098
-628292077
-825609085
-312279001
-415914971
-45963923
-103680637
-475999968
-162993664
-626559520
-251926518
-400043888
277329158
608698177
457114579
-827005069
-895565217
217573695
-665952076
-209369479
-188884094
256247361
-604019125
-619360944
772408984
11942449
311981289
-593936088
201050570
519427527
808228743
979276954
-828871918
624773788
392214868
9820066
559008757
-909764525
-949993590
-508642883
61752894
-711230634
-704676608
-975362368
496097316
308157637
894499397
921587601
-205493645
-276203776
-139936353
-914225757
664372682
-687631236
679512908
-165870677
-610780968
962500971
-241637791
206468885
-884089214
-481236571
-736868407
-840759708
429148965
-385024596
-943548557
-246501781
989006598
122231982
845971815
-781876130
-582449328
-264554336
-518136612
767576328
-867246819
-749501348
872727968
-813556281
923491188
-426328987
636452324
-984985728
967875757
595403002
-126831060
-15725795
-14126051
-570616296
-869248132
762519389
879193056
-919944932
-183032544
47782497
-868944004
231426245
619361425
-241895079
320365834
657249599
595479931
-673198698
-495814516
-139810780
-968458689
-11439351
499486852
-168370031
92070358
-898163033
-930495195
470449527
581400009
425424084
-15520787
591237146
-878256825
611581996
903347247
852905073
-228665711
-95644497
-672826135
-621963822
400613133
-978618230
-875336230
-744796372
-145872397
923959986
269397663
-28295244
889174957
-967380739
967179057
341314680
-691368206
544821343
-896242228
764735222
-17119307
-837044722
639092203
-529289875
-247161959
447633168
589645292
27260889
-869919796
-940977845
-100426678
72484047
-398005030
585059649
-82806730
476840484
-30277565
-153811896
-137901883
210171523
-562420979
205111378
-561993729
-480386271
81732983
-240358856
-348970496
81154192
-174855485
-748773647
495449995
690993019
-717675697
381403421
-766568657
550636026
-79808285
-667555721
55981547
-792369130
83124462
442536803
361025179
629641290
-895965009
-223718826
795802825
174934112
120063408
769925487
-616949188
86995666
574625039
389635676
981410474
-209189079
-914856777
-193530306
-262198020
-692097282
-863225858
470856851
188776345
-834421997
976389147
-724642749
235542375
551840593
443802535
772468480
666055568
-858360218
237030267
476728690
164553473
360750913
755205221
867617782
-762081328
-955733758
-261623293
904588184
-1617271
543664710
363732852
817294054
708309361
829813926
-897209083
360416173
676225377
-758542044
804950242
-854327737
-989122297
210687857
610180244
181755387
385866607
832416895
664412941
-622553154
-251490204
-299342003
-260460438
568020882
421593573
354705164
121720533
456440092
-538229518
102560216
-262998028
449598269
-2843282
325274891
40858930
556583876
125493073
857850552
-42273517
-2727773
-322959006
-399158875
720599908
296450341
896185060
568238427
-155175310
528438995
27448797
-468258596
-976987640
711289849
592392440
30284299
245101379
552097217
633178289
72433589
-872884439
591411627
-694997665
297942190
17621064
918789998
722102198
666971406
-451490220
346029219
32595695
117760729
364230389
408136728
576826771
-297099121
941442265
-501648889
-341932721
-20534948
-664739153
-660254825
447439930
-32680931
518796084
557992229
-436561962
428493998
26303725
-257453747
167077455
22666069
839164548
279145651
-283324569
-673377472
-259561926
616964506
-899146121
-539436158
618306221
836201451
-668928049
-506057952
602262095
-20881776
25389361
-393572880
359651314
-392359208
673319770
459701541
91025880
362359096
225891402
60934266
839440191
660639171
771696894
-175179081
-914618593
-531147540
-336551390
846034347
-584857726
-789335792
582540957
-379924368
844955525
-643771439
984311163
735021071
376439274
-556043381
643949555
963910441
588456980
803102400
-347549432
-988669212
-544703782
995562259
-807198280
883330624
-812196887
-309921203
416096772
-803679941
-825381298
811298102
107566655
-499563353
326713666
-419416157
898836665
675687024
284402356
-745096713
-348094350
148066621
-503436753
-872890378
-543534477
990036826
322228818
721969212
722445439
524122800
732543226
-439033213
287482739
99163846
608925585
-644895817
168591916
-139110179
-196851475
-295490335
-455674893
417980447
288722103
-996723283
477021550
398632165
-737777170
-287185288
432451889
-295218338
280169669
354925107
118333268
782340068
-991481816
-629475291
850587107
270698210
867998865
-760058159
639635243
267463429
-299946854
-288940006
-758424963
761183070
-235295618
337912126
-742764277
80344910
60049836
-904964543
228633562
-773547750
770760403
58223119
-909700748
-900267610
493505275
845275931
-595651752
570565890
2843137
255875198
-423151770
532851076
27060077
556046030
709147185
517431825
161092409
899401755
190754104
936720474
-556492804
492539513
-398296930
-434523620
-839447781
259356990
596337289
261077051
237438261
220351628
988462549
738471302
820350173
192482548
-801160742
559791320
-803380242
-112720951
-14886783
40860247
-447453164
432383093
754795779
124547144
385879836
-193194781
910227325
858803824
269646592
-280769102
803472011
406060154
-68165299
788865290
927757069
-395562054
-265075097
418828612
-22772019
672311300
1839543
189280201
-321202637
579551564
-454236203
736040338
629762790
-454514251
-473243928
-126205320
-862339208
957120734
264153921
501407029
45078047
33159112
398397455
790434006
-866350996
-65742999
-197619715
11438541
-151696389
-585954612
-112167034
-29609505
-547698384
-407114625
568573701
-862531051
763455936
-219232619
-650754525
-509769552
-462536221
288490478
-760216288
-46137156
323289964
-975691154
-511278693
-647632838
-957498502
-251849306
304223707
-264309338
-606324617
886793341
-356704590
628321728
-633501314
565136146
-999081980
-804971294
-522965157
-167971355
437023485
-497371253
-364543053
439752651
494451241
-76009767
-25830332
-233532349
577980537
-599716190
-902469111
195006993
-623389808
152884278
651185045
631298904
517142887
757471036
-373765504
-316856578
457498992
-349071437
-591371548
-446940979
-814795718
-645930684
519808392
-351706838
-814718623
-79958783
172974576
579822534
907124848
-999283043
-208635371
87139158
725772570
295590053
488625106
147966252
730382540
129989290
-685678341
-756545864
363125877
435340952
-249782701
-679681753
919182017
623709910
150215756
-27163636
87356623
634806199
207787164
-206460208
591576309
-504872082
-371234803
-881078875
311585189
728478997
-303512500
845637734
-114014307
797405443
162617659
-641572637
-169781525
582291398
19675917
286685250
108369256
281876194
-917163047
781560844
-214292346
773409546
379942250
908940563
-225551111
-319882779
95032041
23158814
227346291
-892914426
-571963928
879564191
-558088073
376642641
185938363
449891975
-158529492
-981300190
-821634956
-383463643
-137116148
-764633550
-116629690
-547274970
-226226160
555010296
625770887
473673903
453489625
952030437
-864960873
-973553028
259503481
-707071952
-507529591
428417104
975252935
-45284757
411389040
294457706
-713392799
796294161
-575720603
-392617749
-289205797
732477081
-635179151
-468843480
247544511
-453691175
329458760
-965408723
6689785
374522089
-132749719
-441740550
729589625
-859212065
124814973
602036439
-872863732
-947540654
335812325
121037734
258439134
718231178
996508313
676589954
-319885551
862879092
957685995
-573556100
-365162689
762380165
-244399682
-230712152
-105745172
516598679
871428788
-234121733
966344952
-104400410
511896778
-584909054
-373787668
630521603
-493126235
227893319
-461211114
48532873
752903399
591768715
990601633
-151555962
110310547
178065487
-993578970
-381904954
-401035675
-119874519
-981830265
-677763610
794191518
-536577098
977587544
-284051045
-483450665
-235663914
867696859
971056742
-116967913
-72197310
495986910
79217291
626050482
229157162
640610481
-920128005
-160758133
-277244889
590441328
-478090181
-649091195
-318636483
434061685
5915
70057163
-808608920
184514825
714968672
-679280047
-621323345
-156899774
-566902322
-474416676
709278569
-441082986
215478808
313333775
491217741
-278941267
637973266
807282625
-284223850
-589316472
-4881789
885215819
775649637
-268607190
-670354667
512766382
-562674381
-403150377
-987030561
727058048
-866625290
957646518
-603936088
-802834586
347204414
-413308011
492293714
-536738902
-527682351
-268571661
561147557
-35973953
727010608
813574218
368575212
369001274
76064014
-372791098
-941960619
752616839
670224862
214595918
-200797463
257569763
-173158937
-205321531
-973803423
97246566
-331227529
189570742
-922550340
583926642
958401031
975647752
-368997490
-172657476
-489606914
-569893590
131144177
661841238
451395911
-434895254
-141427982
-889102708
921705323
133793924
-220368956
428506048
-10026105
439941708
-77477234
775470237
-631559619
-265798574
-481581526
651102928
-559546675
757149527
-352341300
-608950147
-452778195
319087873
570427001
-326215983
-965051049
-652702066
674195994
104829156
932055705
239173186
-581383705
-857327779
938213763
392641515
-704504563
516591945
-34384728
-280059760
980508649
-802783536
-420621500
-950827595
-750129633
-292158373
-335232638
369286805
806889298
-780946469
-67396537
-897132014
-100487588
-129577849
-981709703
261484404
-776533339
-771374224
-207966269
-305468333
-78222951
-387749055
-137429266
-245636355
493322799
271479277
-14638781
-333251115
-185197922
-701882077
329073475
946150463
633193582
-784266960
-889339476
925572604
750321812
-557689449
-231666906
818062183
570010809
-776765426
-370238829
-380684800
-220297828
-498133784
-29832266
506894337
550795697
647938407
720589660
642635710
172908581
387882268
-19303000
640250481
918533338
-876809329
491510473
-195148614
-917883628
-131410338
-219853584
-758463811
46520779
285836929
-456591046
683774149
898352764
30710207
-52574919
-275524255
401897793
297083457
-217042310
783458721
-218705759
255262144
-349069961
351449721
-466347486
229979045
552786937
669501557
870004777
214813071
-951399275
769689083
721914581
787589265
391593629
813371261
321185791
778046033
155913760
-274731390
6896244
-727176635
-763226092
-263582983
-796203318
-971972267
-98377817
-371431109
296285318
-838342827
202536765
-948117839
-871737161
873373394
-860268712
783480249
450034326
-116862174
913177318
588811309
564512901
987945887
-268533999
-927617102
883229273
437598856
-237430531
-398515055
487071948
-623084321
-232069863
-204703105
-720728513
867126704
-762250266
-590549431
-683099008
-793736788
-944837695
537061788
-486595624
-994774099
-908129434
-205712955
-209891157
685886648
183643498
-489990604
459101070
364868727
-775883023
-693284769
-759723710
102262360
-682282577
-524670126
-150053198
789154468
725372486
-944527077
303724212
-504721138
243533278
-618090533
224332424
-548647322
-142339742
452541750
255622396
215915504
814298173
-978002436
-624764529
-333506092
-723817129
751827349
-570738975
858437487
512292051
472404727
-6088975
152482916
-869979432
-378879300
179937770
21799709
-808365523
758421938
946646009
-301262107
23310820
91990899
-387547778
-350138377
976371233
-721992857
728381719
329760104
124922942
-335483585
-880870910
101307907
-338367575
499847087
798652054
-265842833
956850609
-784203753
265012636
-434770693
998284065
-673829301
-872266575
-87549603
898300477
240054619
-120523187
-69780724
289522767
432337519
794580741
767846809
912593234
-447898559
922968312
-955864477
-347310105
-733309621
-736256049
422086876
-210710208
93966906
-99917969
-508494433
-854835021
-424685758
-457542226
132578423
754086185
859804103
-363008889
210169768
-341957951
-781414326
-246049485
-314189300
399176656
196228595
668951403
-508038796
314907301
386841694
444529436
714631133
-480259581
-626640881
-516707758
-335413390
-846193961
142917106
-694298030
-713654610
677164521
889907786
-121258204
-97416984
-713560116
-975740987
-994744232
81702768
293586430
479131562
477866503
240573555
-21708576
664189500
60606539
-320756783
-734243352
399283853
253222684
695994758
-489337762
-360786612
774197265
109194724
-84200110
-559572124
430869184
492660647
-817770472
-734842588
452362319
-199355861
-358093451
990260967
771424892
-422547556
-32166215
566600866
304879359
-622113815
-763667347
72126803
800812436
752775139
333308607
-296162346
-609154499
756018823
129149965
-499608462
525377864
-264596235
703980317
73292535
884710662
-482471516
405890569
809346045
851902341
-197922650
436148570
-519795756
150931082
-234863549
-751290709
-627853109
-49583063
-612350228
-914370893
299977168
-920775832
-85364854
-315487486
731051097
692313729
706973178
315790103
-887508901
150714714
870367158
326676946
-255685819
-363355388
-794537337
55281142
246617761
812501970
154873229
-287911080
-589659117
741435520
-882684505
588857848
-523198457
-131524733
716693353
-716282879
621210157
-155253463
144849375
736691358
12724337
484367964
-216557047
-578973997
-213539736
-99080349
-95807591
-722706119
-842773225
-411993757
-610922427
925912691
-94761990
-507839055
427834073
128172561
941576449
834083724
-770168672
247105254
345398799
-884747836
-317450240
962991043
167772077
-91042906
-716359412
-75023587
700849697
537315306
-134221971
-965874061
468857187
-370615219
906746233
364679052
109679167
-540124626
-859859951
-409335733
-146552293
-659985329
-579040750
-98047758
695269098
486000892
427063761
-125692456
66568478
342461774
588435413
297837353
360122752
-467216084
726557149
373301692
491105347
-376081068
-540397925
393039031
27605861
449487918
797996797
25806509
38385329
869569729
997444826
-629731602
-653282541
653683086
578111278
779715729
279174860
614375877
890447707
636130404
-800793979
-343445348
-779042440
-373071891
-141284563
924101342
-471627330
690209972
-508179182
308091650
926040130
64945388
640564797
-626453879
-920348331
-968992072
-986051807
-773781614
-58973519
-452991636
772837924
690394117
-47886045
-691907252
-529082471
-310966984
313178203
207904547
789936924
169866061
572415655
264017367
208131634
-885504660
-966275654
-491772786
-231433101
-352335528
523621899
-701531874
50234071
541431883
490025218
-287909888
275117057
575556633
-405335469
554356894
-767866991
401042538
-980507221
-985925095
-454204409
-260162681
598339044
-28117474
-882433172
-852784831
-784297602
97235155
-310559927
-933418661
917896534
544948160
-853489880
-596282678
623779198
857384381
398307193
515220948
-170962799
7267850
-690046717
653632284
-500594662
-732680279
-876355846
14984178
681019953
-100996840
-579413224
167863729
526567624
-464200463
718086317
503968351
-799856030
-431853216
231661740
504475480
546570712
989612183
-666657146
-213154231
314136597
718166791
-580680963
-783881968
589800677
852772813
176180567
259195739
-325724138
-733359690
-855123045
-139316128
571574703
-749555837
946171384
750267952
-433954615
-595827039
111542900
332511625
781629253
-348955243
-531013954
-277398346
739427279
-96300424
840237644
-515508364
488379944
951168808
235750926
568182350
981977795
409066150
879161027
-721911562
-915227956
-44340285
491471045
-391059282
333025781
-114161289
-547627599
-278284053
-92992195
-923339545
367784769
219661477
285326534
776076383
-64671862
-660172857
63745280
585538292
482061174
535222671
-588377225
801672005
-413631524
786671946
296182235
229079271
274946938
264703141
-119206703
-149404651
867001085
643486284
513356447
-717738840
-863775554
-835500536
883220099
676753205
140597375
78381904
-713789061
-220509185
347435458
862988259
-546649025
-687990118
589456029
334551035
-521583638
680730043
-945917759
-647187673
755535339
-896952158
-830083893
433798005
-616990765
100599078
451392618
144914653
-820465658
-730968601
-571738784
-886000526
-67255301
-700425776
-2304770
-86688236
226549545
594972131
386342313
-899838656
99916462
-806092289
572449650
-904516429
-753859579
311401780
879159228
149918481
712387657
520808787
195495889
-927162118
619728026
-386080005
-932534433
-741199059
-242120170
719307942
622952561
-374142543
-318226170
445649519
509987294
-262560155
381648096
112394350
-403271039
907806185
-186853608
-350389015
675846544
-846052120
184968454
321529985
96426685
95834434
-31974374
-706986962
-806713597
-952438092
-599143577
-554649853
979143791
-642182165
-74510125
136115545
-43162726
727970818
-248711817
-902984434
869214797
457248497
-743814854
443873448
-748781984
271430942
-649014081
567262455
-412250109
-241137999
643450823
574098031
456554355
173334892
-463129254
501497285
782772288
62589057
-81437861
-560597064
-637963812
556291798
141618241
-937408222
-699264881
-844319508
317796887
402238855
-29968487
743152244
-383611502
-86175236
60826257
115782950
796602350
473066869
-385899598
542086643
-443823863
-104974069
240996280
-967942961
60910353
567514341
-681587011
-507198769
901466106
955641603
-817043652
-487839007
71032645
17770404
-424516395
-448152073
-959559461
449228724
-911589382
607612592
736327658
-801092038
142733584
-499447010
230616916
-2732828
607587031
-640497297
-236529103
-316566324
607895225
66837671
491661108
607763879
-388788919
-514994565
213302237
-410550647
-60796426
-734028750
659609378
377221930
-273356583
828151014
-848488999
449823619
-814772048
704477828
-803320303
-772769542
410282616
-763317006
666467424
751324245
867559437
251167904
-97878150
98747102
-462313514
867465007
761484508
-149920407
72625337
236446302
301524597
186700974
133111591
-840786515
-340544602
-102580184
-794345153
-739220068
-16072008
-481936663
743067513
426717959
679965860
-228398188
555332736
-36517815
594084293
-345005795
-378337996
-217872633
-880884806
-179948994
-423414721
864901955
322621639
586276376
392766428
-889682076
358909633
65706125
585787896
-243550772
-221090657
901969679
-318696160
-124315757
639798986
-729330543
-239963480
589244449
-466934976
-706154355
32807337
793628738
-694266216
177291300
84684711
718774406
-641365543
219247238
-74230067
847640625
648996610
-174754047
-280135311
429846180
318458541
-468404570
-924841369
-314508171
704869760
-848870269
-796737938
43515455
924131176
-768366893
708311116
768845072
677132580
686005899
939005089
-218630290
366181800
-919288584
890316589
-279646824
-172064425
867467958
-109154698
215782587
-621565760
336749327
-278519911
173477427
905280012
497588788
350887071
-355359442
692923184
-895580385
283996766
-878768636
-208184644
793235616
-794766204
375343288
408334155
-612268974
546088913
36831762
-467995116
449640207
-231032215
-904662579
363518546
307179408
783197098
495377328
-684452525
948214568
673784949
-293324481
782111009
-695860722
281813268
109587287
659508919
440095068
484337617
-113432677
763888565
252378319
707593388
824727356
213238481
-592552507
800175955
-803693670
-587296076
-393585508
982972882
841549904
295353588
-856170268
305176643
-459767171
-916027460
-637610088
-464700491
915838706
785522522
-781891352
62630455
-667611035
-269431978
-852603308
-698778226
570954819
-901742355
270292148
494405642
-507287516
295342701
708168721
25317450
658629452
-640966245
280257742
-742838456
188878347
-775120532
370828490
-12953728
95701043
846475205
-698856842
-514607708
217290630
-562835959
775659209
955788820
849698338
956560795
69915660
420072511
-226735622
478598303
907360438
-627174818
359269887
-215878701
922274229
640264203
-827630773
-738356400
310881018
203500590
-168644240
2410349
-128304355
970016975
-820192063
-50763574
-278223869
706563403
529692137
-439437292
-220621378
450767739
829129941
506870980
-281772978
507237982
-58746014
-957337074
-738123488
-339241733
-430337956
473406337
703116172
339071752
247555150
-662288670
-184530486
930716190
291155330
-602549148
296314601
-168261449
688574655
879247346
-899205778
-296041510
-654513829
546853951
518967172
-608055764
-891936594
-656533218
218376989
629051771
271052223
-753019706
899322468
-328100238
885196254
-292800940
-165382789
588424014
-359782762
-941950034
679695572
767897781
127781546
-637265311
-527706278
-317639630
-262506734
717647781
374086535
112504225
154894451
-193972558
304981698
-140170709
-40768096
199370228
582540002
282780507
226562233
-699233238
-584377718
236645013
308260238
-918901993
-438656911
982308177
-715401141
374249192
-33257839
-698769744
283486342
468344171
-170700339
14370842
315448475
-619412190
852501317
123107649
316254067
963333607
495647280
789330984
717747973
809437414
-332720773
-71731536
-179131889
717573147
-948098084
-957463830
-911133909
-985942747
-908061564
954540307
-409495776
-244639778
-162029704
192162030
200281809
660629221
-87889589
275624854
-808610476
736664084
-293079072
684162312
441242524
-707114888
-638859182
381263674
142892297
-615742438
353039401
-935498243
-681361865
-769003752
384178593
744479593
-150512
-494403357
937870848
-262480089
-687335411
647087776
-971723420
508881717
431956270
937921642
-909538779
388977422
901941687
776942693
-227034775
-503045660
649309384
911065447
149388272
101193322
-466620971
264774853
44852569
-448432711
87481081
-953599653
-813976987
-948827314
-428611768
-14036544
-500450790
-72145629
-118980685
-581696623
-129925524
-675544641
268396003
-533904010
-719986204
644738466
-318457378
-451766691
-978038761
468259217
-230948041
-405317850
-172220836
-280244758
616798265
835545934
353442532
347463438
64364541
-54653577
-76793779
-503090956
201523027
777154483
-79549853
-788539677
-804329176
-409239959
406887648
-150810326
-376492499
369377217
832899955
435648730
459394955
625818905
780718934
882729913
84300198
-327477940
-957994573
760530354
-31886837
150664610
-126722591
866148849
-639340895
-327376311
-522311503
-977789851
-572471748
631895298
877753475
40905446
40267750
-742223248
-303392980
-229296978
-424442303
912955702
-361459581
255212071
30711806
-722373139
-117561465
4976202
135252930
-883433959
698185530
-173865890
748425128
-164834099
382958450
34069688
875622156
68733042
-166592242
668976408
429247146
290473114
-920737093
-703744055
645050020
-846330263
-260009438
155888077
-930927446
996337832
-862060098
-131207727
-476897681
-257184723
-169622341
320447059
723403905
428052437
-331213189
983726715
-832526071
-687348271
-144749362
-102319378
-445044360
-325683436
-494859358
399186331
-488388740
600808284
-203912293
-9509013
-931881860
-427800062
195260135
-440641830
356154375
-533487452
5032039
-220652346
-115606991
582410584
485666343
-992895628
-840057706
-423286013
539724625
-208425923
-626155922
744398924
-544215349
253854134
711987545
368252457
820625184
-868042780
551312083
-175370953
431702107
215631398
-718821732
-164322848
530545575
337177191
745937734
77412746
192376893
321546134
696257508
-774540996
860306682
-657977243
-400932512
-457520681
-58450966
715198179
968667319
-286112907
651025472
394424772
514283622
-59254219
969607272
575973328
507514839
-117458043
882581827
-26145367
87042471
-402694432
-943929399
-283396904
-815799632
277573721
-39373884
-186712428
-772851920
-934607303
-72940498
-376133808
-178118053
873827609
-810067115
473836053
-578637833
922438852
820720696
-69097231
-550044561
962907382
559410062
888543927
-700126044
-729445210
864575504
-562919557
-569353735
403274088
850647305
-704183252
553574112
-346406972
-26211607
-847158518
355322934
849708733
-107287211
-168956776
-350803491
269775267
977257416
-651910183
42838338
972127867
533121423
661543549
570321608
-673113760
-52593284
430375
341340710
216862494
29759429
-432637458
96235475
-903773302
267618357
343719383
396028548
299918452
574860517
539343614
-130259737
532268329
-521430966
-991583982
-133503270
-186472550
-412733116
-534116967
182582976
284619522
-659592012
664199746
511894229
948414768
840994495
105418605
235698068
-966145843
-87194439
437033254
987462019
693613644
104638481
930514700
-39283259
539260312
-533317401
-384244230
89076483
-598093047
658599886
-634003329
291688114
531287553
-152341209
-843078900
-528982347
642054689
-157093135
-200489357
-127718446
-758277409
-624613143
607552660
-258763832
313008616
-113766131
-11314395
-598620064
-339898430
-15618786
-664507431
515114233
931914649
-524330037
393914686
240968852
-500090882
-932631934
-648198757
-281383913
-875714610
648025325
436731107
347052116
860580868
960540094
349400184
229294869
275483767
-918307370
536140884
599270072
615113726
-429749761
480324826
159084961
501388131
-714855758
507878495
-789026661
859431379
-946245304
215913679
-292916397
18332711
-565698098
892148646
-661440742
142161380
298524019
53084374
-53867104
-243034539
-322307464
-218710156
65466457
443406532
159426080
-233572643
40233234
844086514
734908225
-414671025
-765113948
-478215009
-591735988
829352611
-68159240
217683793
236574367
-791769640
103270386
338964158
-37306964
-956283978
-894826080
-218375535
302884898
646703062
131513264
-491802594
438557502
929207009
-537568188
121624839
335210055
652625048
-772868837
-441434231
-713196061
-298235649
-569429570
-872832843
-525142723
-584349821
553620554
-367844218
935929296
832875191
674066172
538052183
-95115424
694794153
711790899
624117420
404095906
347466540
660612402
-857341473
-643372506
20587415
983669955
5798803
-909510554
-466395293
121847593
228544669
28278224
356406480
224363787
-930134354
-650778932
-698256893
-263071693
-369761692
-259882222
-59756371
637284685
36040846
-429776956
-878251516
-985494174
129112965
598293216
-10110091
-584538782
-22131367
306634369
759103538
-494473842
562004343
554392289
426546072
-577420920
-229098550
875457911
880372692
636793286
-230104798
138305656
-543210102
180045461
-95015797
613710879
-758342646
-189298879
265386809
667534367
-769442466
22973874
-855036007
-893529706
252669684
-829741074
730418737
627709186
242951207
561744774
196818554
-408483838
564729089
-693903826
633874036
589413725
-640922310
61539805
-92242403
-176361390
877128850
-192934032
-307645950
768013850
-837638827
630482796
-812426137
287298076
-619587098
-310124742
782858073
-779806905
-398777008
991629771
800674150
393793048
-653621345
-399674472
692496771
-374459953
-790200248
931360213
-869505232
851713381
-981333125
-736875732
-408147923
724093746
301260705
62497686
-596792754
-447759574
394814115
964550124
954997519
868092010
-640508279
139455034
79268611
768504715
719793213
-586983666
-906495875
-736852
-78187686
21082085
-311960619
-999353290
428039335
940150131
-173304453
652312879
-918753879
444657397
225042089
492796997
-655748102
144135217
43886752
-143413070
-855669099
104068313
-817182095
-369324452
-718690621
974038212
29591187
743338020
-139900825
987077375
906992370
535997031
-712104697
768737314
-813637417
465489821
-996027754
-893881396
-3462248
340016424
-7780614
211695390
-919488710
731225599
-727658353
633257112
-851423864
932492936
-949639791
678601780
581821690
-657972925
904751014
-15933646
717668956
-977439019
-217131941
187736141
-418272482
-805968914
-108818016
-728730263
-845694824
434144732
438788343
823518276
972005967
517229568
-832553445
-525948958
-455381996
-865279812
-564590110
378216606
879186656
-236790012
372402656
757098783
965438523
-802672606
341081310
-566375399
389536227
-769532313
-904202742
873479999
777022663
21737917
-663100069
-203773161
-532994918
-170110230
234518546
835078939
-380341940
32605399
571424111
-827148152
858194001
-836927848
308486303
-304522108
964659640
-440798124
-287473624
118544133
-219757187
564570498
190122391
-462043676
-638399952
-368552732
-810038184
-7225459
-772252500
-856696905
-540212678
-813739040
-741913539
917099846
923864572
-185459738
858950477
960125856
568083370
817307205
-633832274
796642653
-436717103
50803975
-403542902
493938505
-839682284
-505547166
-674228507
-640574865
-800984558
-200274995
149329231
573729770
-475317161
546500317
-761196704
899797109
-412082666
12669150
733073165
87388721
526821448
-884324906
-731788547
-347510140
424840013
812416251
180990130
925104343
-464194836
767391006
219451603
379302455
586447711
-979254905
742739451
-116754352
-398837187
-383784444
273192780
344383982
-388053680
917294251
-883659365
539581697
705381779
821235928
-842975637
-349862076
-316037601
-113056513
214779375
518157584
-443009678
226520659
-462138442
626676909
-801551763
-587908492
-284479236
-749621596
869401820
959035657
-89496067
78787880
434419105
904336224
-953943030
-757424886
335564855
532833893
-982811309
-629562020
-483161684
-80597368
707360797
-44550782
710665136
538909735
-929005719
-876490645
-645516896
-218583230
621013065
326234751
823749163
-258162976
-318472612
-192987454
848572250
385411040
-216820663
-103873719
-532898919
470931223
-552847534
123107562
574104375
-626778631
-105877308
412402595
56045025
69990735
-850898700
10423720
772877333
234225053
793634857
-536073721
593650728
457135951
-896976525
-10069470
132134322
275050202
-117881475
224963740
-407696218
-188298602
555044011
-849585744
-121164620
287688307
-759215001
-74037153
184836708
-33709425
-562004111
-644572196
24208934
-347859937
-132567237
-508743456
-86498005
-467969265
-222938357
489642277
-628479185
-285971438
-936312419
-542598805
660731748
731533992
297736583
-904448963
-611511820
56278442
474093950
522790885
763709101
-138719061
397516114
265571832
-821373941
-401767680
421271170
439472399
171043385
392971076
-987820752
-593818911
280537803
-1425417
458258338
-376053972
-442481119
-42197505
35621928
-400807961
970375018
796152506
559693733
-92628655
-874894876
-133500704
-265444334
913332857
-392742279
-164990877
-257964184
-673442139
-602691955
-333112201
-77815060
-224048309
252256461
-939505615
-885081530
629191496
-462073100
219882314
-518306970
-163476879
-840485443
565932654
-831634971
564646410
-139912898
-262508425
-47031245
921257921
851700345
29919487
-824131833
-623995837
998642486
564963698
-987995663
-461039936
934862479
567710506
-473557181
649771673
-124421312
-527282632
684717031
-308364568
-673730056
458109047
928697570
668854039
905054840
370705468
-102059659
69168199
-140223852
-803073768
662431125
-52824097
-484594844
-961657690
-656784444
877523756
-386920926
719500520
675206681
-10243739
-684087347
105224486
-329325174
-678383235
6055178
849320998
540628379
-134284006
-930247749
776949397
222984776
-411967249
119407630
-821989499
-657050183
-857545416
276874142
25150191
604726038
963237387
-842965752
520890010
-622448747
79666149
-111378450
-387849028
134966425
926715654
-401211344
739646226
-887620915
125677563
-200823403
722425644
-578020907
-62527461
910657290
-29358416
-216803377
680456377
227847483
742868893
924981421
-53286241
-427754732
205355652
689540631
-778282508
-161194652
408545006
897414755
-898924054
58785890
-71516640
781961258
-661673805
553067928
50148780
65314559
-510065913
-644643971
80874709
-232672197
606141114
-609478082
-694104491
-182298805
96063284
256126352
323286604
847654833
300648368
610644573
628022688
-745187867
-192448886
406372078
-147458651
805398768
627821801
524963135
-505281064
515647320
65894656
7033953
-486244801
774511148
-799996634
-199556007
-953546136
-422489693
567452986
375122850
-571914135
146745368
-672391934
-395259276
934362520
-704919953
-596100334
-284869477
-940053754
824702039
-172091843
-161532881
-217776925
993106677
-64319737
224682256
345860385
976988501
131635332
160345136
107566612
-947668806
378591485
664893676
190640751
455784102
-510288864
-492042267
-635001791
557797134
753538513
-564370373
-410998668
656892697
839208550
-959248038
205018940
-577950109
763882560
946225827
-154994319
-605906277
-629954956
215695074
748321138
673772978
395403157
-788708930
-48331949
-754140279
-372638420
942216082
-919593984
253981285
-5887044
748292671
966677171
-657103823
727061536
967521112
-538963888
456609171
-637928584
-473316948
-674018301
-878247798
-281257483
819692284
-238271947
656345359
-985474749
-793808939
136175011
108429085
-60865177
105728305
-265590688
-790366198
452556328
-628063308
-718368456
-69977457
-608023443
-665095629
404622748
149693117
249512278
987772220
173371463
-272372089
-269591992
-183483519
623947897
-938372524
-493932041
794637343
552885107
-74841762
-21192846
-22219540
224109182
265110894
-962000161
87770383
807788078
-356264062
26781902
-181485652
81685176
239607453
719675577
-76281894
-479632812
-216806002
-7568254
940501515
-230889245
485838677
-373036110
598622078
-59166616
900854980
371817043
317051949
-118619056
340877134
938827202
5064889
-442068428
133796717
-399188858
14260842
-967966590
411987784
-283599350
-223881476
-767751029
-184694753
292617854
-663901139
672202333
608733897
-75298052
416418745
-415571603
169494566
-887743713
728929652
689336476
351298659
413747792
933577956
177883130
148221138
-777903601
261266220
-401155107
697169520
-977769916
-410125487
726147978
487159358
-824658580
475394782
-833133247
-97764462
538551265
717857713
312881991
-952893757
448887875
368894217
-204142020
-890283263
478506776
-729398880
-452538186
410873879
-719528049
961480013
550961179
-352429752
-559819349
-278431285
-145702373
-670472528
-198134626
301607448
-81099452
-104690722
-886600347
754643184
-868344163
-516523290
991129279
742570117
655444392
-755703851
-851908320
-803404310
203546531
689378580
431355640
-207087559
-585875274
117667695
728946705
382216213
654244273
-252208321
-779495863
-22129202
-181103025
879871350
347152732
952157653
-367014192
635305210
-924944210
-487877194
-397479869
-248323348
973291177
-70897465
-936054702
-386907020
-834072329
-736272969
383490303
207998806
997123251
648186423
758445680
136683025
-105481
-743303793
387891699
290556318
-232773315
642920876
-918023390
353788764
-927835881
-900849885
427542189
-309981302
-82142459
915026239
-947437205
333245050
688422035
537416491
-531514156
974624404
-459598206
-392674606
-878833455
-656223540
695697661
-311843744
-800273628
-263192847
-857910675
307642270
498784611
928994724
-963066677
-165751638
-308128736
-313726665
-881626601
-521702421
816180125
682002391
597853531
-848110203
-943261625
376370635
728941699
-16906598
-896335975
-878212485
-514507935
-554460842
751741702
219838029
-417625145
673860164
685262433
61247576
-348530887
603780506
-638016891
845525379
448926592
632715342
-351301998
886910599
775836887
549762930
111032535
596252441
732761806
-288607579
-420536910
-443432027
-266588952
-464991057
80800957
-533683184
-489753547
-973560785
907077716
-193718375
-831808339
413752653
649004854
718209500
-49780154
-134489305
-790166710
369740054
-3142646
-154738444
-454812485
443805292
69107100
848502101
-143127862
-479231847
-196090358
-336866251
-68795010
-942914949
-819238121
872397963
826162033
-15594919
830021299
676232975
745543694
592994765
-497927302
424391428
-346481045
-214533067
603288645
258615290
898559427
-432119794
-769966370
65120355
701756382
-229309048
-919144476
-808619710
-491288721
694102517
109602779
-542249117
967252764
-151365028
-970573631
128655056
466686391
854760366
511544549
386943266
150545611
-333496052
-766507819
805709005
459578225
898077374
-41847916
-14577360
-377031422
-723019747
-562124444
-179958152
-205665305
536525831
952530782
982242752
130417891
-470284239
276894331
522870040
663126291
48308775
-878457534
648029143
254826912
273913203
412083334
-86611255
170305192
-295871472
-690373537
-151897275
673707963
-467258523
243727098
881281336
674885194
28891589
866513834
101430004
-419579161
-766460790
-839020689
-689128922
19511518
639077613
32814305
802952289
-43877754
358115550
-993314413
128265833
667833561
-987947143
788844015
403329182
834910491
805785247
-305384612
119961049
739832837
-164518369
239512599
465415920
402398924
468063634
227666698
68119257
35410723
-564370752
-612980253
-454654456
76945211
-27321549
138311441
-350114635
-666520451
73695176
116342198
-775997484
829315738
688401018
-988618580
347209866
671419549
-193999434
-979856004
787484153
119894371
-989288188
-547067852
-567851460
-181922082
821866678
-183704246
813443823
-735853660
-313821794
-930839820
570088044
311012051
100442645
-978384238
915744646
-90074245
-98882687
724585800
-622338643
428636855
-742438460
582386386
-408091735
-378384614
234985082
-327425939
668250728
435196831
963118078
371429547
372498223
349873575
708173687
-730300374
899670670
292521894
-761186442
383950353
229946997
991610095
523261303
463906084
748492472
-100501955
-251533585
828043714
-404882679
-893030503
-461908976
-71785159
-32659395
-415310061
351833926
615106378
271246535
8256331
-581425188
853912590
-273024650
-26716894
362086139
-376843810
-542681481
-32090333
647509605
-234941664
-986442666
-20429296
717801850
-120231185
-959866716
-727242033
-66359343
395544718
-623889186
945924027
74560270
792921066
763277934
98223100
-923579135
-34238186
292821111
596279132
638039300
-464448289
-239392084
-975048191
334757122
-843405094
-639675901
273449281
52607049
-564775541
390049713
-850322990
-64497004
422421849
457602678
-836022741
-641380437
569459164
-5313628
-403870050
-255710718
330386817
-171005616
135245671
-517672039
747390504
-361911648
-44010350
-160128881
312569044
-874447965
-664205217
-183461360
-771151999
-315382817
495942806
-209879865
924715159
425604322
-244429660
-669505537
891951702
-372688608
-81047602
-550665611
-880176899
-641176457
841267603
-620836721
-582295766
-990216982
-348787787
-984364272
766867917
-48687716
-382215453
-873867732
410909695
-975401985
-93461776
-362096430
-927725851
-743158924
-969979585
598273528
-12663458
-18432702
927161605
99709335
242187636
-273834535
-541694866
-5996796
774378495
919781454
-356374004
-67940817
-5126003
236394887
-707435560
335077193
-119466778
-955455177
-475259223
597694974
988706283
-136555296
-720584811
586907905
550234481
62853304
-73398896
40309789
-385829212
86321853
201316961
940327775
-275777734
498092947
232300327
-83693932
-120172245
457121109
-661196261
-782685899
-808737018
965541244
-769465235
60219892
-426405379
50322919
522670716
640954778
667747710
-551334467
-475004676
-870767643
246623232
-353100397
911079894
72648458
-533555883
-740182173
-648015018
637257543
731180520
-677367327
642193406
102702443
-340733463
-346936551
-548665121
416981135
-431430873
871972977
-262848487
-308516508
-117864779
87293353
-581630515
895522053
-228239381
-228750051
2222391
395699128
570727203
-468578557
-506472530
-100652834
629584220
832553484
834077286
-799648975
273751052
-58801412
348775827
-167293640
188748198
-95469408
835738797
-485453178
610549646
-424187727
-393534843
-401831116
589783906
-338410127
480253472
850417112
128808586
37759691
530168767
423893111
174262187
-105951170
304165367
-537309948
426895300
573503117
-15542665
177636055
476207770
300216302
-36664633
-320085271
-75199646
495637269
439374974
-270285192
451590665
-796364734
-8792904
132054693
-758138979
-53352157
438291836
-418680459
-767421291
955672641
192322247
-663234995
-372732929
-504549029
-471058384
-172714186
-214249154
839582505
-620869224
58702018
-450994996
-43633198
233751703
-228117241
-332390555
789895853
206248419
187490945
-117679900
-125560706
843435890
268358512
-604579210
-165657406
541796061
722413853
667746927
-867604409
-734529576
-967229027
-335676672
-526039295
-429501541
-573447098
-872526328
-773222229
959551311
769669833
-516878872
331605804
-512478256
-357768659
282382743
-310028794
901005108
-72793889
-852901759
-154506717
852055668
-576346077
-198655971
-217899753
623680834
-172971576
655860147
50566310
-923959365
550780319
-833718868
-934879851
91644021
279320154
629487379
110528543
181048103
-114398154
200514028
-485434242
-283187488
-886041524
862081138
-216883647
233508739
689051543
-575054763
-456604036
245318667
-523159259
-217007715
158072766
-29725208
967883119
924165646
-606381088
3617653
432975843
659825068
-474925095
-403282727
-791042219
-376189618
-471258001
820412884
664762893
659356005
150133511
-857169986
-612198113
591981509
931370718
-176823883
716718307
-715077024
906295702
264236778
981401882
169713396
937403620
-630564169
-914996727
236212807
-269980905
227707762
787848520
-57608175
20558526
-820579900
-653017967
429112713
851620361
764247321
3581789
197288867
-462898998
-739493836
-406475935
-159751042
361185223
710016500
77390230
-86447568
-413620140
-616660744
-852921273
922246005
489191751
210292801
-859834070
-354504014
604967465
551358297
632184544
-317257997
-434799766
475042636
218773593
856846738
-573519654
-533510209
-814780867
206204972
-354112299
832249243
166701741
-14744084
94084286
439466392
266180151
-959277295
-762512636
-836109197
469020186
562307658
-992508623
-198464302
497563162
636780263
385953418
666944721
618644502
763248025
-87973605
309151954
317433121
636694033
600219438
-726255028
-421036623
-53304101
503623920
913722826
-269531491
-407168438
68135066
177097325
599684354
-539756718
872171586
-416571872
-696939462
-413253143
-186536623
-715617133
-485461730
-361427725
-842893516
-829847078
-151045469
832261647
384781260
-817118670
-723281241
-869255732
-23055520
259022672
778233570
213722242
893223013
549985224
520146690
238925887
437871540
-450765085
-694047854
473153745
794989992
-757019890
-381701276
81131315
-291663682
811135449
-284882482
534646222
-151264863
381781171
-239330704
-349436899
32483030
663376019
-437364274
-68256580
455108456
-618594997
-5673645
956547619
232381276
160338765
-369845451
164932943
607540415
-486754673
218285245
-627795370
216398840
104212791
414117804
-885941841
201955714
-962721697
774139251
658457653
-388877142
-22417265
-609653899
722361858
349195480
-501418438
-31872110
-163478567
-962593814
-60241721
226719175
-213721831
-983127805
780585357
-825715253
-83162757
-91212842
188680781
-406131057
991793617
-848892615
-611696686
304752495
14576344
64192535
409033356
-722847892
-416575511
-793972530
-71469000
-420861687
-923933736
-72094069
364734262
796737462
-373568090
441226021
581291675
99299537
612729917
633577674
927312008
-766267149
-682810071
-309440948
-288909856
499070905
438959060
-76718664
-69760444
-504509766
-463641783
218577910
-404647610
797738290
216352751
241441566
-582847783
496075593
962759193
966676782
503866854
-262887197
-352705163
189950305
39802169
-404339099
-235350295
-423872885
-407204586
-589698343
-640176750
-910736576
94360359
26593420
-31277978
962909375
-766845337
-859413609
-445103818
-131859654
-154801675
-771610773
-356957943
-349311421
-291905191
934933829
-888513800
788518708
-329693393
-204592822
706163661
-979192867
-18282230
-382830497
143342333
-793419197
807190930
841823840
200744803
-485372585
-422250927
35736591
332879623
597873073
73420594
-429079358
565603435
-353392724
-627389749
792301269
211079784
-198944843
890019881
-240094976
-704675623
-806955102
-844847253
-641213740
-54388719
-818536805
-993151191
973843633
298066409
523173387
-553019840
102416578
856449362
573708018
-349109800
318303004
-191393950
884088998
-949646279
630516595
-561619196
-439087707
88358559
858596044
-812835331
-463851185
10016138
303096253
-199190825
-855466681
-659898828
687866681
407193582
289402677
-258603755
830167938
-781736281
172167248
922701879
27562620
-522145196
-148466923
-551143755
-89077016
372006761
989964505
751137632
469112637
-986360448
433292903
471923495
438458807
673556174
-853100019
433529033
760950537
-558615863
-893637610
-594037798
352463871
-490766184
874026068
347002069
456986750
910888133
-432105152
807687751
-151977637
-85161756
640626464
877553545
318277790
-363344816
408526210
-428448767
-113097278
169304708
515135652
620796540
-504279357
407093903
-670339779
960436152
546452760
284947825
-542073259
-142194668
113672207
486046844
-804985551
173749293
780257947
-762561332
669576991
821788005
868692712
-627655916
219123920
127383620
-362191695
-48574689
-988911173
-263796633
327813678
-554849121
255881477
-689595373
305862242
-553323377
959391271
-99764499
-930662786
-883885510
-621098354
-185909669
937539682
626496864
611572165
-627156030
-990174029
314213801
-136071296
80177084
134037082
605940773
-367501620
144041247
869537691
468836495
-851538975
437222246
-515434613
433088619
-827737727
486212195
292523641
-150748812
-468053267
-908759482
345254637
824674069
-795459285
-911832987
-516548570
327413490
172835166
-323288922
863370738
-635033102
-775999494
-285441500
-471035832
-427311325
-540135157
453778408
143131600
193838489
-72128866
-692842477
-648145707
268333586
26582471
-544256877
767185978
410674997
945031286
-117327089
895806526
13218516
-945196773
-982963011
-615031276
506450792
-390196323
861817196
-830352416
558879358
-130975549
-835056730
-485078911
-201227648
-483391950
725350213
-679651282
-835690689
-850137897
-565127440
68651357
604730415
-145440022
-791113819
-75878435
172579933
335229009
347095191
320438897
-492335614
-919667050
492639767
587317196
-208797009
198654767
-947306502
540249851
-571344065
-690387610
473826461
-437857548
170864536
-618829045
-686906022
620458812
49562178
-862414005
23037237
948403144
428106742
261511958
376897869
440007458
706669388
856437153
-417949548
-213404396
-29931256
368931897
-744202031
327469907
-527254477
-281731496
986246678
720275812
-84758713
-382447035
934446461
-517117902
-35983961
-760724637
584016415
-997011264
777409286
-136781282
-628349468
-675550000
611155963
540281539
-265196780
-934368314
858810719
-960654072
-964679590
432923671
-799059160
682366705
917025546
43695683
177410193
455762917
432337084
729964774
-358464621
484105077
-231987738
404847160
-178579886
60512404
-696783138
972519271
-561155289
286481163
-330886464
441439905
-481682365
802859245
-518021761
560695164
725118045
342266988
-329772207
386327665
-948724267
-816783053
-708856934
-181596744
269621195
355961028
22446167
-526526256
115969347
-302115167
824346756
580320881
54591937
684353897
-113166839
-67984581
-975556107
796585095
314280826
-429420494
-30933649
-538086585
-272177519
-386009569
-491908776
-885615900
-775823973
291014345
-968020488
-490247662
773903261
883845968
-329177868
-475563163
-157062024
-969250529
-835363774
-648783160
160440241
-503546205
267112692
63126069
-344265830
-258307893
683033115
-653933672
-396973430
192676531
-964918813
502647442
451636356
-427295703
431392649
-729321928
-655659030
-287734932
-815635319
594517648
754562916
-883751532
-319029883
-535926507
-499829671
-62394381
-663944618
299013246
778817205
-151571657
270531907
-652523282
389971648
-261813419
-31891567
179737065
137890349
-634814869
-272155454
-815088500
339372102
-760174656
942230249
-8509700
955608861
-562022573
-416307993
456380064
551718316
679821545
281854992
318015138
785752382
-236664843
-475162476
658947918
201936351
744222134
-199725437
970709126
672990076
-287434040
866592242
-991484132
-312482311
264919216
-257248088
84352258
-839298738
-530619320
530675535
-60460829
-592207544
255703855
-304413939
253458305
-806486890
-309355353
949927541
637850755
638365283
-579115600
766312737
-757081811
-61637317
457846346
321706913
-438686740
492971478
-251861692
-560139159
36368728
-383334904
-327893491
-249687073
-704132301
-599974631
283633459
700318320
312165687
-830393682
-740796827
-359673464
-703356878
527706208
-339808702
-533005354
933152174
159961195
-754375904
27200650
-843264320
866470205
736556170
-404109866
580154938
424808341
69948340
504628015
-897764000
-151732003
-369298642
408450358
-5102238
-539713930
32943942
-612965418
484807662
132511316
372097793
-781388943
60545299
-80898050
-169495548
868664847
-658982653
19739518
-986169544
-853789445
570269313
-261709539
646342987
-576539368
636589604
-247748428
946335141
30325960
-299321973
522984712
-348142277
-503957047
241821909
56130810
-882516255
947832602
-267381212
990975368
884571238
728290249
292362499
-881047372
695158429
368786204
-146671730
-788037135
-136714555
974709773
423807624
550123902
287859797
-449776816
675666477
-206434117
45050812
643237746
947598631
-114930388
524829402
360519844
936206116
29972436
-330195343
293131317
106616144
-872396191
938608082
305440955
-924627080
-226544140
-316139928
-368173608
632741938
-12143435
54756520
593908193
-939199620
734164028
227408063
-649322069
-365364943
428708602
974101313
558135327
-985304040
539407276
-702079556
-461708407
720266442
152577793
851269854
-918418113
-576510194
-428194107
-26039232
-881761748
702369043
299779172
975405416
-1006363
622018779
621361683
780088719
-195323144
606354806
-893474229
-388826510
-893535501
305539536
-470452700
911456585
940551711
-35817890
869316868
313560488
-636719367
384479614
649307114
149441772
-728365911
787719086
412433381
242179610
814207565
-310508136
356826809
950998739
-167431798
125575083
-555077779
776287693
-9894032
-770935075
-662159907
-855466965
952903351
474323245
550918687
912526570
393768126
710770372
-6051425
-377745899
-657446133
700930742
420158218
51643044
734247644
896252034
-43654733
-618093726
-717732024
-836395356
779236049
-69510112
168868435
636126526
-248842060
134337663
-472707672
-999120075
-124927822
122332259
329442565
-213847003
-411318918
80505520
-807666563
-103819088
-343775388
-65000200
-765075246
774302433
-880453391
-435776481
674841539
-719752556
-428643478
405334888
-119287840
980241757
-414479695
-890387934
-200145022
666900630
342512331
-114494148
103798254
966091871
-688469555
192041098
-608382165
-727239633
894578078
463551287
-872808213
-861963273
929531722
-69858672
-579737415
-725198125
-277528064
756783360
-512159187
-68662418
344872492
61175542
-867783194
-513256710
-444878778
707735914
-472577138
108078895
196598439
-744491796
-248791719
-206146970
705606945
103647591
78112176
-368971288
304821132
22618390
950158982
678463135
-59413801
758070533
-763006569
-639795085
-413947544
549657714
230502700
208091130
-736724062
819101936
541043439
608280863
205238181
899318733
-310568774
-18295907
92063457
630274142
366141179
-147187062
966829051
990645505
842498141
207636171
84098863
-228062582
-918853681
-581634092
623727708
640979291
549901546
656892621
803816479
-512363736
-815450804
-70342299
-3451191
233548750
204295817
-784498083
387922471
-424110569
-774786265
224610677
268321154
276793639
-825972423
-154057459
599291788
-357819293
-855017630
-876665990
192718111
420223496
-363827618
389885487
952701023
-765895817
-289915053
-448066550
174527963
217733896
-544243237
691972692
-776000615
-486006193
-166237780
-502328409
-121115999
280728719
-742691224
-480823621
-150771392
41524805
351761346
277446460
-53114921
-631214192
-627847130
310708688
-912794990
569615627
-85532122
982338466
-433176070
444802147
852194741
652386622
179013156
-127595748
858478137
-611831982
873461258
214903792
89510851
258520858
-250223278
356356946
899880804
852946816
-880901185
-740916537
590216827
-135335748
450728326
-82312874
-951880926
-712853768
-643805443
553256630
879483380
521633669
929445564
369318149
-994511003
484077880
-262888408
-730779111
920723630
86431787
-389668085
-677876894
-672251924
-424093347
-405631037
-535906613
828773332
147115523
360184007
918991250
-318460309
356934742
-880327279
475632615
602001237
481756810
-849210933
897647987
159239778
-780578503
-849975957
-423179318
302820892
-235368719
843138208
-799598108
993608279
567453786
591840789
345264001
-840297466
-667281350
304010242
595882515
588562001
-502061520
-665559707
-585597109
451692639
173515747
-621123091
-524613186
-83208732
-102075076
-476015553
-269286107
-292914240
-777120283
526316852
-284023835
996908031
942377172
776432458
-503480965
392113164
100402695
408193267
495193197
155129355
-662939063
-300872084
119525671
-310094898
-308188030
237002878
-868200350
124103252
779849149
396957146
135069914
841535541
-57980545
736087726
-956258736
868823947
-627137843
-997611108
601760582
851765279
-874303298
284274780
604825339
937097059
-940694697
232316900
950083915
981551947
-905666676
500973862
501087096
-33287129
-809711158
-804385257
894813835
804963451
-547690100
310713589
-754257140
-126705881
-744891756
-73446657
103084764
916341263
745073374
898570217
321768776
-366383417
-173563705
-567411987
-549634305
-539120717
711088816
461469018
49778122
423106928
241407314
655015405
-349367017
555327466
467741721
-753414069
-735956568
128096870
-578244009
-872489269
-714294020
356993253
-261141329
-733651890
231457190
831732879
-346356443
758980212
142180742
-462962211
-886021291
-426533343
21715645
220264116
845319178
-204909307
-581842120
575100574
-373170056
-589895961
-864222049
-65344039
331275158
753540100
-75679559
-260167061
877051676
-152579359
-486853831
738960302
117149185
-102411509
164206946
-994802547
309023840
71908659
-996736357
-248965775
918054267
217839187
-461194390
212234063
-876392659
-496283573
214444571
567162698
339488017
-592660870
-500251559
-481288920
-932441645
641030461
60102928
822080726
637264741
576554911
905190918
172611667
300930349
-943216918
-325970730
-959393288
55526610
-520571551
65856189
432002936
-338249612
-781919764
40616505
-76139993
563925249
247590556
993596432
-298133489
-229780100
-726768615
877350181
709989391
319131086
-739526940
-259590435
536154013
665538904
-856722391
-27906424
159640614
722380039
-174376611
253662104
168795428
-538966562
129090848
697520623
627073413
-71590313
-707335203
671965643
85401095
-420784981
436480701
594575181
-435885947
-246488099
-455806678
359495865
752830433
268555448
111425367
624562459
66595856
-58928128
-806223797
-884637641
-999931262
201869373
-303474477
760522031
-550661625
-753640093
-268320032
-991597753
737827242
397263793
75305037
351430259
273913985
-286118384
-423769933
200057964
109583020
16449352
802487042
-438190067
599761487
-969202858
368801157
536021114
408511442
-418556927
569115545
-965944615
548071730
-759315281
484929486
-945056769
52761115
901034226
239100771
-714778195
581936231
-205329449
869029234
-765196257
-481176710
-20615565
435268774
-179357628
727095712
-325451757
-407066820
283422634
87047673
-974951894
-898347040
24058794
379941556
-447923068
250661241
-348968229
-676126150
895473174
-903287324
-760455012
620959673
-218480277
-364611291
-46512994
-708520220
-705632428
102490230
50479437
464217915
-888371303
474643350
-89633253
-31182564
490654206
149630717
301237067
949121600
86386815
418621302
475773876
266045841
488270646
-61891287
-585276977
365723642
-292180700
262427255
-779697102
-422159787
336091184
444110991
-302928682
389928762
-608331454
-396194241
697468802
44305602
-875965836
-240984812
-642029730
-464073451
-73285501
763362494
337335440
-387555160
83172758
537149844
-850465433
-60753509
-155038223
-442352506
-367385948
394715527
228557128
-258380945
957942198
349462502
-42909895
-374514946
45116249
393016248
-766127497
15234886
-677674023
331178900
-767443915
49639290
569149277
-415999625
-841338158
-643435626
-848971508
-129407380
-928452326
825834282
200580119
-65446196
-552631423
-405249678
-52549507
517335292
737564179
-559936726
461695979
-278392598
-427802144
786300116
223477704
-44181959
866159950
449277668
988362170
578956336
-607832681
-593047948
-983547135
-935508263
233134260
838802737
622221346
-521585870
-259856304
229909788
769035613
253542076
-78789006
-191188975
-499213710
-794101543
-372217494
382641314
225520493
-305910310
-8662359
-43625270
-540584257
793957457
559927710
572914448
-596261939
471891909
108448027
-221236516
-297561675
519785494
-884477057
-560546432
-755095264
66078427
974744972
707517966
866101481
-600385168
109832129
-419629806
954065938
526945818
-646756730
502546317
-485142872
772097743
87973686
421889505
515329017
413536617
557497412
538314064
722529566
977564246
351270459
550212324
-520717764
259168269
-591778476
-294572656
534586257
441346529
35049461
579403769
440999962
-786191864
-239716834
-27784823
-422054849
160790363
939355509
911578025
-751008158
-275072134
-803282470
-239176697
938165919
-263219973
-259224012
-909585159
-125536595
552782473
-190524889
492803256
356863102
234614814
79245575
-897262059
825804283
668160301
93568847
277083293
145582994
238793578
607680573
613794069
-700356852
-221022340
946551023
890532356
-460323812
-269316073
-34106426
352592532
-299340437
-181403511
-513126871
-22502627
616677993
-178234015
447000651
-793132912
-481272749
398719951
849464928
626266767
464149761
-489986270
-765488419
979437146
-546594470
-115119819
-45905599
-90261256
-526373745
598906537
192896112
-44502279
-372242202
-253477493
-112853504
-446067814
-479960427
551633736
284850139
362365520
487337122
934142129
680976653
-394016483
297319566
181492490
-134197681
517395450
-277851327
-912306643
-74411788
-93018109
169544840
-188431953
-202826167
-215534843
449928853
-467202539
-954979835
197577632
-833920860
-15807022
382109659
-831708777
-568855309
834543898
-188057652
-856673344
-458523031
675876422
124635562
50745322
143621800
442454590
-595728547
488429500
-634874353
-899159127
459299894
-352307420
-33881658
92512166
665674407
-903491099
-90744928
-505014700
934571108
886847657
-730786679
886344097
371673420
568330768
-729576970
521558229
48857838
-505909587
189710094
758327806
-685949032
-564606331
-696083647
-1569131
-159842338
-235099282
-943184678
-941836363
-915069499
484158443
955687217
225719955
291013942
20463524
-997926318
-317442224
-968608766
-1260593
152045089
-122407880
601442856
-180544765
829268984
-471876779
-657180165
804727308
-158578183
-38333904
-156765127
-236287146
-12538129
-680277336
639367379
-692266432
26279839
-573581859
-918112949
-339824879
-952450086
-773286811
167637636
100849561
-184353372
640951772
712540994
-710662121
3982429
-333104299
-321843511
-72047965
415232679
983766099
-831855803
61262950
873638988
-49179482
895544559
996863053
370489265
434481724
-364380146
577641717
89893523
498839163
-574839238
-564543960
-190806132
227966533
5534180
519434049
102066000
406425267
-837717324
-919295278
168773955
916785139
489267625
578527200
811765312
365393667
897538625
-486710374
483261559
772808780
596965180
183319009
-539145306
445039917
816014457
-513287937
-196092377
-288031726
-266299013
299139921
-157087938
594261104
-390491744
-73092848
923290638
-324883455
533973068
785615959
-692323185
851725894
128551589
761882533
741542016
542579451
-389307283
-485824752
-268357021
-686679124
-430348584
-818484511
325424798
-948683202
-140479560
-689286195
348103713
-697174022
-557892953
932642127
659212120
-368612500
887698093
-273503231
897463517
-84207541
91726332
881273487
959103351
829831237
322657309
-64830231
-85490391
-226047413
449204836
508089050
-267005140
-327753768
723094453
125919392
266355247
178692583
539012156
-133842827
145380496
675617206
-553533337
315526219
-41348644
-66264355
-738799964
-457781289
627515494
842491301
266266081
-618900795
905597125
-994172782
-725013548
-782385036
842565929
371451234
380705541
315905113
325357488
-927429625
-231716313
163138086
-166394909
507993826
-679537631
879279978
445613219
-604061992
-288634510
-953491706
-95738745
989482285
806056991
529139126
-379664222
839631607
347989082
292732947
410025598
534860783
88705081
-552040835
-68443890
-769001113
895138387
-638412770
-679961364
-375279443
-498879551
180447704
-661413885
734497851
604929840
-859310366
544451983
-539471550
-92960289
378910776
-237716127
607186443
33349339
-36043107
-550631898
562590879
448594731
-938986869
-977408082
-980420628
-799647769
965955309
-707826362
355751483
383976120
-764454353
-734438245
861744357
348795017
-374426900
-322755394
688295729
-224773879
268016100
29926010
420315983
171613129
-378522397
251984583
660546671
989044426
310618701
184012798
-310935266
-412615548
-929466883
891443461
547114966
-324738037
-828172575
-403227482
-479226684
216402080
647367466
-880439975
-884645171
-133644188
864769472
-513276905
400658230
-411431864
-899869517
498675926
11480099
-763203774
578204341
-918475851
154657566
980501779
-905789951
-892020872
878299543
385436184
-778036444
-614838221
898429136
-86840642
797690815
-199008989
-458727869
890120270
-588333444
905308355
-634499881
-828916556
903981423
297478239
875285786
-637227611
10387463
446009839
354686844
-198453031
-719086251
-621704702
-809759553
383102334
663625344
622990505
104450532
-503466705
-900147567
-916952785
-707185122
-877082459
27721051
758527756
71421357
-602204937
-763048337
115609881
141891198
943801210
-490253053
-592269451
-546728847
491079109
-305390280
-90193862
295196120
170339280
366772157
-549732731
-483462327
157709635
-232477164
-944825470
338802075
780318360
283068481
434148665
-571143409
361298514
590267219
120867622
298285757
-935313898
770385405
815661506
272921496
831718410
206168230
-345046951
27701401
-461660557
287060491
-519796223
790961016
-635369714
-941246613
111886523
-391848667
-12897584
608982384
-554860597
-700201682
469505233
693530715
552859099
80720436
-684786650
-255300747
265169244
-699860181
452200172
474686562
552637376
250702434
977098348
-10916050
-737086183
-774885780
-241769067
-854120964
-196483605
327643144
590584687
815705196
-925202504
-938354680
709139030
-131967993
-984988514
945452842
-279924967
582155099
-684150277
464604370
758710730
29468033
561628676
34426740
181801488
-306553778
722859022
-730405380
99594505
760514555
507448855
-359550385
-105021780
530188499
498917462
-896827999
-422029692
-787654624
-173880771
910364864
425924106
-226269388
604441504
-117729482
-951007701
-616261114
637664185
-392752589
423360237
390001714
-296976768
-694751581
-602838936
224561227
-386856465
433055305
-559945273
731827428
919408484
800969718
-60291211
29752166
-528220938
-411720236
-625130188
741361075
-593507966
250248737
-827140902
-667736459
-854946701
-423836223
-107536927
694675261
-366118726
-917467678
456898179
354783434
939672281
-792963631
388529981
620030890
-965957777
858428465
-522283994
-115033849
842151603
-555004975
-369776021
-300328802
657767249
-360800104
-800007508
-755971970
592308898
-355161998
389326606
-731359362
-249155582
696107329
300097437
-261940990
-340114050
398683829
-987002334
781249992
543432499
929377543
526647463
194810599
544466924
-168796564
793720873
782924749
-8218524
72560354
-551621408
44412778
-507180442
-40509644
567912658
-244318198
-334753677
192309815
946225117
467986985
480123280
614314597
-661667444
629552373
364030678
-266540600
150969975
-183303228
-895859537
482340911
-738730758
537048397
30910822
-448953869
-898805007
-873761842
329747433
411787322
-511451401
-63107761
-172261731
-697750481
-658956312
948565620
697197191
186238248
-345567082
977725765
619302823
-736105338
267431505
288530228
917847900
718388443
-291907862
219124130
-393125539
-980542474
80136344
537487614
-173454102
543386666
400195895
-27959009
19231180
967027861
-437001699
-320302347
-126851684
-129720653
103488535
725866490
-713816789
711575181
-441475818
-980437643
-903759274
-913318771
742422680
-229064200
988072199
-841316708
483891398
-595203066
-974765301
-534981492
190119392
592788554
-431781192
-326464944
671911103
676273941
-594865410
-979671812
-280148386
-823954184
-502731435
-695097297
-564524199
581684777
-30723632
652207445
321198394
167770485
-237027611
270878394
917381907
608026679
-281490197
-821385004
-145848213
-76050142
-978929496
-166254339
369552894
951870294
809874545
-63873634
-608547865
-546085224
954189576
-843030991
-727728050
-539048395
-494331804
-797435509
51970099
-348930968
833572796
-980828292
-486306429
-959191324
-518766781
431241905
-713721236
-28909666
116505511
-136041787
-849884423
252713521
-550456580
-232001813
612814758
254172854
59849599
707306616
595580225
423880125
-438580728
-966621337
88746045
292510559
-303172573
-779417448
929175402
590170600
-538094310
125755233
-74226984
-256896068
-436039663
105962104
323920500
-23015468
202728257
731293139
732638452
176832724
-769278169
700642716
-972765817
197476301
251246045
154423162
-461190987
591984666
223573622
-645667515
-604035842
786509918
16839538
-412991204
97641501
587941539
-304348015
460472773
219820342
238170369
803826750
-374758308
-130788613
-277061669
-943297652
855746235
-47479828
886023259
214588914
433204861
612900420
84684289
-928872830
467262423
642055069
585072794
-409053182
311773632
-330680888
334698721
278290078
316774325
-466747963
107769075
-310286476
155782770
-470326972
809312438
24578076
-917765980
-306393257
61089414
827492873
305395724
-469943664
-589451637
-81801554
64907616
649864308
890239765
17184158
250672992
-780802184
586449895
-799869874
746617061
782130821
520514284
791280640
-841885455
-88163519
991514358
515903981
-74165020
-743041693
-467874144
-724718874
783841575
939744344
-176296849
482944306
230767591
-817338561
-379583571
985905328
341959004
-243683713
-73064968
-740604023
-379676483
806033172
998071367
-355734863
855621556
893024202
-27063464
648955692
226636475
-143351747
-665529673
451375265
-918650734
-475120598
-734075709
584773126
605594996
416074352
759356934
623682758
-491683785
-217846618
709904640
-591775677
774124442
-837511790
443027886
-964193787
-725871361
-697043872
-448120926
-126406570
511824853
918316013
-274334811
308232435
-159682642
-135597634
-211304049
-403331631
-987628937
924925539
-614180291
-341122982
30820860
-731458870
260098972
-160511123
-153342607
400518362
-255645652
-21337612
178850022
355390416
-936631114
126100544
851047896
-133890756
-743245836
503542497
-849451368
-173201446
-397120572
-890084718
-709477218
-854490888
819993482
-556174691
116032759
272396768
-233693146
-222477534
-683570702
-955460720
-329568857
-696049653
-268015984
-728759552
-949774993
-265339032
-719890274
-513981990
-562864112
-772060264
173630628
-280603532
512137831
-709978456
867945989
-543087996
-275975913
-566325799
-294658207
-30950628
403821344
846515543
-780603617
391551693
41809944
758024227
642091400
-284874957
357742087
-590495320
-813417746
-538328111
225728956
138947311
25034252
-795655660
388122889
-257658546
127918442
535435771
276691875
-389221282
-624968943
-435655466
-398413096
770514661
-85021524
409144532
552729554
-5508538
-5749202
606551986
593861045
693050652
-281013981
-411585347
847906288
238075941
-751405502
-119307034
-566029872
-605560628
452089333
883906241
673245452
245981983
-447679863
430024443
844681155
817734168
342431542
860495240
284200488
130294158
-611057113
290324437
-593762235
-982060428
116769076
471218437
-830577109
-455877356
-144312809
959807046
966322318
-592159254
370606180
614896946
-327857608
-257066774
546676927
273906836
-883537289
920564402
-626078092
-633360340
-309924840
-300708336
-495962850
-581873695
453183937
-851491404
-237891938
-955361395
-319012186
-452416384
252958299
553550312
846747103
365167497
-859468976
455929295
987191585
13847909
977716040
651801600
599046634
-921962599
809158029
519662747
504627741
789375158
-904846209
-503427061
835698537
-755032440
368553604
-485541381
-813262270
579649756
131911764
-959033481
190303314
-132781436
-720913117
-141032506
324562198
415673281
-992348487
146912243
-759550264
-160893179
-581854687
-304196625
736263885
-468764346
912780750
-640777220
-591928966
206704540
628969252
546057713
-412107570
-771667935
-547379331
-618692636
-352240041
947146901
-126480921
67066330
52267551
-675462171
413727435
617548804
409921194
62511870
289573000
-448735720
-863153258
-462651368
471744923
642153021
-946156321
534004994
465184847
803532946
470472094
-169040585
18280176
-260629336
899356726
473182219
-402008688
-678457178
-924251766
688210323
-51529763
-798300968
911685835
-680730258
709920502
-555688753
19369737
621318278
720352332
826591259
-259987430
886356624
621875546
-992518603
-770117326
86891395
128243959
249395145
400205542
-212658084
-967054473
549871804
331579060
-438911974
-717088195
-703615248
770588812
-743200742
-980803235
-834912066
-704569706
-917930410
-853395799
-314169692
-911777719
-79597383
-124969550
-609259561
-530535551
45231334
-488297053
-906672385
-601361634
-751257567
-894183749
454073152
-579391670
990685014
365833433
622051943
329781666
396530345
800552850
580669278
312830958
-196657236
862504197
-1253221
821473345
787582089
821514848
-624637306
78926837
-176093770
902857178
-932871282
-344024938
-616785245
-610095436
-722037557
487267070
798013915
958379400
-857545
-85267616
607947878
-327285089
394009341
907473271
-265382323
-111060317
-556488719
838541006
783187649
2463943
461843450
874267033
-847453372
570405283
-261968840
544145407
-601176247
-788212357
953790992
-986267524
486397374
623228583
771637016
-784044979
-400345084
996911730
-468991687
384701123
-546486963
-753467390
-430642080
970872851
456286123
791336743
96202915
735366637
-750911982
573138162
-199932266
472519561
-963498681
-804826497
-429971474
600256290
382918891
219302318
-885748805
-482604044
-907718683
-422604644
114914459
930517883
658071305
-239758099
17719696
246179872
-563871098
553153652
-3690363
-161441153
-203680863
346128873
-281238409
645164868
910230428
-250073940
980197925
247270509
-607063493
-165939696
-575002526
-102030081
-33278635
720476105
-976616461
-512073918
984809754
-49746915
-391276120
-969510954
596933903
-58856851
169152653
332239434
64896257
545258139
926218196
-976775372
-872287292
-893802698
-124192091
531993925
295344203
-539054208
-713846687
590981464
-543573821
-60441853
-691633059
-38897423
256139357
194253896
365022235
-740924668
-483758376
205875064
-154940771
-921464087
300953814
-745972698
154189872
-583090284
-903242180
964117826
-137283963
241602357
327258318
-811953696
863575946
312407327
-984224097
-970171864
-955183869
308663887
-676981283
-279666865
768426059
-514848628
507688781
500668498
462991827
-200302211
-779743354
140757780
-217181737
-88802413
-662434321
-264837047
737235883
-329502185
-527063170
264883044
761964332
-114987034
447584532
-175062313
-872479157
135679547
736566677
142342873
230556028
-942604597
-305355774
-973337126
-752559466
-139337675
-349452372
248120434
-632727542
-151083603
-678133049
-791269564
-884527674
639184308
529984424
-201099867
218951847
427536427
561723255
-229379504
313620616
438137091
225999635
258442086
513831963
-929440805
738040932
605990928
160216495
-111587164
-159962890
890452881
148350688
132984984
-543184231
181288077
-969161365
-391336136
161837020
204563757
647764020
196519571
-130907615
-568811508
396428600
-562145456
-17538947
-940413923
-728446638
-897567143
677369382
-745933241
-635321964
-239416188
-347395341
655816534
-456797806
-294079272
-945936860
-410594102
-201076752
-295581667
75522531
741804879
-762543860
-372833991
-307170394
-821340268
-45017835
-599331901
-301962736
442291266
-440529470
-545414049
-6085320
-956026989
-800253761
334597908
57826077
-454233104
195336712
-22378039
-763645497
138803401
341732706
-838048184
903370405
227742799
759275705
-965426788
-733263063
-495855844
886434914
775090812
-233849286
-820626166
-728949618
884656722
733702970
-974110158
491889173
-576548796
-173149203
976365884
-928788470
-318200796
-838707203
305619045
-654340994
758482093
-769655809
-357991409
-411173488
22146415
-473901073
-531471899
484317461
187594180
410345079
-467866506
493329059
639493247
-670052915
439469453
174091783
346012149
9319417
-394138455
-749103983
702004305
-969458703
135068441
105434734
-875427593
-323582107
33827977
158004517
868416841
384584556
670223180
-435439723
-535040638
-275596426
182268784
714135016
174935071
703600543
801181557
236167176
-838805084
-411106892
-391033198
-652276203
-512332160
561114029
959675670
448961040
-755966262
336602994
506727937
-668017653
-638691606
-994220511
356440302
-411394401
522177369
728930066
32413619
347036350
-296790089
486445507
756381236
323593402
294168570
-588670434
630846046
7287097
-260317110
694171384
-486693517
934333807
-795009310
461724529
-985097463
-184156309
845511677
-980177982
-625129055
-11839030
-279471316
-249922677
-530719148
285537965
472966358
-715385763
957154849
-69652490
141603413
-251865991
962029967
-907895789
26790351
-107375491
737496047
-34563991
110544606
-916438636
-334020350
168016670
-106694456
577989248
-594702543
635333320
749295601
-17365122
-670927368
281447299
749838066
-333695472
586757198
-173993700
903431818
187412413
-402174675
575619205
562963974
-382897250
650438921
69001865
18881085
-253695109
219704351
-711458632
855094858
532461255
-636424471
-99611083
119812463
597288049
75411279
-377085002
296159508
-385210523
-247667263
-726631556
505913265
-18173633
-985472290
74650961
98173366
-247241833
-769015125
98860329
542349522
908437000
-593120910
380622861
-705167387
-765479073
-222387184
17438305
-757425239
-36707995
166339725
313965735
977631045
-758159781
-913961765
329688872
-765361535
578090535
-306215943
990450184
-491055856
728349547
-972842739
667314488
-216817828
-335858061
491121188
-505046843
-907818742
819841701
-819753179
-117876334
-120195688
835287735
835401529
940980617
-768060483
-382204140
-38506357
-21084264
-137949665
-601770450
2852125
847292650
859550509
45016807
956824408
561953627
130022403
-690076583
51133206
12522522
733059319
-399676833
470708688
-823979046
284362057
661484607
829424477
39570993
912204936
-910863553
-302366603
338418871
-174878082
-329167553
266473323
-887558076
-563725115
-386531807
532671396
-762195200
973433273
662730845
-526744143
240251350
-412234392
561927522
196908278
-88311562
212970650
124952687
535146345
159779848
-354073632
414315120
-282889635
-327429309
181865637
861286684
-812402476
-880627641
778359447
39379971
369864939
-820543875
470535041
298863870
552337819
-833978711
991782981
567707309
160172938
103681160
720510018
562256875
177844027
548868739
273612118
229184289
-5907227
889751283
716501715
-30810857
-487759716
-540955851
741744021
-40710734
424856796
232281941
264033409
-103050453
323506109
350649608
-763712051
-958888371
577418523
770874580
-170137601
-453184950
-213467485
997490405
352070599
707310281
-12546844
872694619
-884407534
-270618788
-237835410
183109636
766748157
517885010
-78277655
-130214159
621629242
10178805
64768806
-165772800
-645893198
619935508
-383155354
496473459
360614722
-796177798
-771940168
-941974363
66342004
874901960
-724758962
752550098
777081873
875530772
573737400
-191358766
204358179
-650081046
764792823
158209740
433054089
-44826889
246259238
-842083198
-81269165
761210977
235197046
-266146492
496172546
-664662639
918314224
-458772493
500611990
383157787
467539126
-601638177
-477165356
-449233803
-669537464
-135766817
342699
-536260231
-451548781
620490471
-955674205
-619525965
327515389
512392080
-146870656
-148836131
174309595
-874978271
835537717
147135245
95904690
-724709875
-53346078
-9428674
112290574
887828242
-516801807
491118821
-353628394
-776695372
-463309994
-801143392
716940351
42154787
497255955
316082013
-378230036
340504938
-309713870
778509332
286727069
791919912
-960251966
-987833529
-823317193
-763958367
913067172
141701416
982843285
-967818453
222982093
543454825
-989731812
-472047684
294120893
193771140
-189914292
65621268
-394931339
501001588
-456642199
569940101
112594893
829003935
-787241867
383456789
-280124033
-575584222
117538120
301381587
-191061276
121380275
-654868935
-951038582
-367251349
-844345838
-499583186
685438530
576504916
-127028574
677854962
115466572
948989638
-722593562
37603720
501838842
388128021
313781523
827506663
521361455
-234262828
768587378
-119736486
268245277
-845161909
165220660
-247518702
488010401
316310900
114191720
151242949
-848066925
-125742021
-917187418
-269671543
952537043
-363923379
-643881940
981242458
-89734738
544420395
-261784146
-553110033
284077820
-694032539
733458346
-774895908
384926526
-992763690
610913320
155204179
351009500
-23512996
148256892
991627615
139571054
-11003916
-823493227
413545008
753384113
-268660343
-694530957
69935386
899205221
112717919
-746082633
73870403
-987541849
-83993726
-462231425
-382841978
-801363823
960660433
307265130
-351464543
420092777
-726648280
408761103
-16926571
-885464987
-632769658
-91529230
95189228
-389039801
906335186
823301713
-51221143
-558750354
775455715
-511761371
-165593221
432989280
907847630
125352754
120946821
20738703
-383477062
-543869849
-752420755
-100642371
716630349
650036055
-364022509
-362715156
657939800
-594429124
-980420102
496190983
721393156
-954989320
32639298
787113101
-3169064
-294243071
840085705
-587728510
-31040259
-383704540
-319211975
866644972
935601281
-798164676
564957699
-253083780
-567669372
687277536
-395632538
91379021
-697878076
954519939
-650037685
-227883568
170542641
-336924156
848727611
-383219829
851368350
-566724549
-62837670
-927700232
-417906611
560632401
-129275202
-12607840
-610396419
908322671
139353675
560428875
859526184
675556828
-368371414
-939028291
709055490
260797
-51073002
509435998
-254653344
851449981
559896071
-819109425
-828271248
-548907814
-180561811
771478114
-321598898
-329013808
853130937
855442289
-905255944
674726365
174712378
-837405840
309370840
112143816
-446218516
966279658
49498427
651714529
-651023217
784815938
578043568
360833708
6260022
72639073
-247929840
-735100019
-454396265
4663307
922503288
280229631
934590942
-376886478
-783650627
-774113511
-413070590
521052646
-430256345
-99857331
-41205364
-570163134
-965677748
881001496
688403615
-301859440
179625512
-204666567
533493155
-71689551
799470434
779320075
188777330
456045725
783860867
-14403529
-944523068
562793762
-608347722
-969205177
-715476684
-461192486
122293071
-920294376
-970131721
-353583275
988937046
344521901
-625052682
-746170807
-800459488
28520630
-69956733
-667456809
361231258
-557952707
-984099727
-105944548
936673338
-236575752
33103344
-427639693
-254405450
-797875162
-627157387
97185396
-540598932
-355375451
294637021
-461432087
47398108
264309629
794119096
-703456303
-39200998
791165343
135647509
965577952
829458119
-370324584
-26265618
-337872013
-420869742
-415903637
-274973202
-851638832
-882755578
-831233316
262483223
-273002989
541472970
-484316894
705757724
275651295
-577489896
39004974
-12069807
-80851625
-225740645
-828121572
663255853
-674644830
-755250391
-133634799
-147187165
-614237341
610775386
880071178
-280869972
-449841434
458818777
-535886076
817967958
607181066
861093917
324309655
548310828
808362280
-437771862
372106279
-737553467
-140272275
50673594
-233667599
-647629621
610238941
998118520
-598323038
-669306553
570117068
-300079583
-837860303
-442674752
616655236
686507059
-385230929
-57289219
-90535625
-736891144
-80662800
-754569780
950650480
-329953108
-274812241
82320536
-948362416
73501517
738392840
207298973
-525935014
216685797
-227509933
-184338045
-777870637
930325810
-493315329
-572924830
-652236988
-532977082
779153309
73061074
643505113
-260728500
-444266169
305125
831476286
87238091
940603733
645113254
-563303946
-165899194
-941056279
290953479
-92103358
-119472393
-320041582
-962067814
92611260
112618208
-984130654
818449834
442559140
-727748190
326814426
41802556
-936186074
401833673
-268061230
75457916
405377715
-962322154
-383639832
-739689183
401492579
-705007114
-664623937
-606494955
800430073
550137990
-875338675
-864028394
-881740072
858610071
191236074
-468121965
501574899
252803268
747424444
-318699114
-247771685
-17042641
580828324
-442704352
380451729
859548395
-776808416
327282979
-845745527
118923488
874111357
486855500
205776709
-927013822
-98689170
-959843312
-31399039
-102204428
164825993
-350345915
-303759030
241491038
-425155847
-666531793
977800748
-113362823
638385404
-893947044
-85595257
36207576
554227555
775415671
155586777
382900875
86192536
-605846044
-930791387
262921711
-531095045
-174768385
-376690788
-542362414
-817593973
193973293
72992879
52958458
737579413
616108840
407119945
213268180
606162214
-17782
-955288651
84683800
-99443494
462869264
-620223882
193504522
-729259280
-301774711
-207635683
-48583638
358850703
-681118492
-468684512
607160646
-477486480
994163428
-522287266
821128808
-266752924
95102017
100922281
978111163
615055434
-25511617
149794705
-885528469
-836719652
245415050
351966354
154725525
-956525635
388622063
-316208246
512511750
-66737645
-79567961
975776400
-43887727
-377256533
904605175
-623681506
224627379
101569937
-997706634
-849707879
-81075681
308393116
-992409257
-555269784
-548939475
-734220093
-925811094
-440288855
-72100220
-827807047
734156399
635183665
73893580
-908614016
239688324
-151929789
344951980
-399828870
-614898989
-749858322
85862569
-809302708
-445953749
-393759449
-517508714
-527476838
613781186
135490147
838903217
-744067700
-487483136
-802671118
20847194
165103693
332454753
-856816918
-730623845
782062511
208100548
940704859
873267400
370918981
918292710
434024638
758698372
450733707
631804281
-227129037
-724002897
-44926539
-927362173
-190470753
633368677
842621229
-954626877
343499057
360810024
342242634
526063301
215095166
-96201660
-933073076
813524895
-145338878
-280929140
900869107
-173945441
27509727
590017960
-958734787
340251819
431825385
406441859
-558406508
669704266
-74701750
-839498908
747624485
-802192548
618458704
-901506259
-162739186
-357289799
-183680675
455974394
-268984137
110756973
-461258996
-883532561
-37936526
443781113
251473076
-29664389
405771361
404701525
-888797257
-395931850
-43770726
378174134
131791402
-593526691
278702720
177131922
59588935
-979867156
-676857097
-291417233
-887313778
540077410
485870041
647349987
959009433
-524335579
928032051
917593989
271019839
954016311
-510156419
61957921
435862884
-741005000
-593289618
-194734762
-68747390
-959196740
607639584
-99986081
721364890
1384109
-934081049
-931655764
-904759954
781005808
376488059
-109096050
456241730
233242002
358196476
-978449655
59467950
66769273
677867318
50296731
-212705892
-603580834
568657922
-754833080
-913370951
887618493
-664799591
477390006
-651198311
561169931
-420755232
15922032
86373771
734391984
545944203
-609067119
884950547
86283109
144826733
-557766569
618980197
-753048633
-572712320
-602904782
-919904255
931484895
285387398
513417750
-705790193
-105130522
-718523999
-458439217
301374376
-979222757
460109765
-664493732
277396671
582834899
-150172865
-578998589
609822691
100382572
7663042
-641420967
-872601753
747452924
-630510907
272717022
-236380466
-197381657
550356901
81508153
-13600883
565921316
-284316741
863874764
570004040
3525307
-400796399
883105310
-399557802
-311862082
-481851392
-220798999
-214493811
219404014
454915367
-418459664
962366445
-347127651
-143997993
-335029283
83397021
-263221134
334213523
387070099
143414999
-798054311
69879588
387548843
-690452995
-662478828
245385778
592344973
573876373
216175210
620203426
-258426010
-917655059
182557861
-994809625
-337141013
343069528
479942453
-770510881
138643596
-525572796
-355963781
-650007976
-41002267
-761917996
191187445
605134673
524267831
-940325904
426427985
971584908
-197981646
804780375
-71377059
-575736694
-10013264
816567615
703465624
-583918361
83075288
607699354
-666943475
-314143977
-994464025
-952233441
675150660
-865018200
-628054634
-305156625
756722741
-341479284
525451425
-15571389
-406561721
510651422
277777702
634406518
-695513689
73309622
109393428
833066362
-916892131
-719730868
-208965872
138682555
-590947655
-592084182
254179228
175313344
150858149
-45552534
-93396099
-56727563
-588142105
-612985269
231512483
-862688314
446151100
-242232167
448880973
-311108868
333110539
-886635541
420788160
662227780
648736704
428054330
-387815961
-938990860
-424901745
436845371
-604892416
-809938886
-744543517
-491673198
-28819021
3367809
997018945
-207260439
-243529906
-123869139
-705794219
-338335298
374194833
-730135420
-175610857
-417948529
-343551367
422662555
-920575236
668145769
200070521
774986438
253216051
-627421008
-224327510
-929615690
395788181
949975735
507230622
-261793260
352407946
-727312820
-846163444
-944537710
-18345743
669208757
301608947
97452478
-811137464
694291815
603120444
-555352128
652766766
628376810
187748764
-684022559
109523440
-782212698
896804681
527746179
233174648
289219577
773996079
-683636063
40894987
-174825975
475205450
-858245832
-741283385
157002990
149003250
-908797475
956459265
-711383670
568112721
991416642
789553147
567422998
-429464492
-540192059
614719951
744113631
-396997794
116734033
-970988545
-547200242
-645464984
-551414081
-301011808
-357050901
-464097390
-612017438
-738942165
-602189460
-341105366
875330022
-827119582
-637331540
-469999907
670890688
911196756
-124167498
-739008239
-352131809
218830346
131247708
-677731447
-533149483
880379945
225382966
-116321118
-606341796
-531495456
164545076
455166498
-305504590
767228276
-505997112
-926228482
238422101
642316734
-920871301
-336806699
-507942196
856059522
-181365551
140671419
-791570027
-845483773
-302784225
442609751
657800937
-480661018
-54585557
438218308
316883871
-350877118
-403097173
712481231
600989882
-574343363
816516486
151042541
666227194
-475255847
-12390433
389593447
-273405034
919043780
958067535
-569572210
-375103308
350997051
-501093002
756187921
-377462125
-947330618
-872237363
-370744914
543975188
-247929235
963981585
706079292
112379860
-727235393
718144792
723919695
-175030195
-250335922
395907022
443861212
-13151892
848646037
579375100
438411040
-531708336
669591117
812982650
-617934948
-612727924
-497867121
-598339538
958419400
215866096
-691597245
560764408
-218634387
393122974
181040342
-803736568
907899398
431933532
-126497607
973321682
531054893
80441961
169414826
551350834
245389639
-533201945
719605516
-64754924
507176733
43440133
634706349
440919346
522341194
945970831
130506503
482529402
-672217883
640341337
-455519698
215960040
922541501
276418668
527382237
986110106
-273247821
777864020
379309197
-132817002
630043088
-474482585
76538698
143058719
519548241
203481735
-606372607
-219301071
-315213407
782041982
-222145878
241166479
824602318
27318134
866373972
942396627
-220786365
-216441250
-13367376
-206997285
457335022
-227782458
531723505
954494515
177692823
968566686
371218612
78609230
-539984959
-382520378
-37528090
63637921
-494360973
268602506
-820310736
109947997
-521110372
632272981
-558534001
831102621
652876022
815385169
974451524
984638877
-305129536
-6156789
64430337
-487356723
-951268994
626852353
-555725395
-506999671
636306351
-259916783
-503315009
61288643
418654534
239008180
-903329855
-961250327
959274404
267557791
759482981
16839036
-893285833
-361577229
919382089
841688724
423138744
619611477
-169548396
-66765287
-489278547
594878448
-680084271
796242634
-976280334
-209796791
62285753
-760342082
-77359138
120472102
353355029
421286240
450715982
623769933
963980986
275217910
-319633964
-953066480
491443406
-449556294
601496906
-790764860
-837942547
-551526425
-814598631
-408815210
993203207
165722663
30340859
181723462
124683965
653313518
-805011140
657144870
-896136059
186327789
781622272
402072972
509941836
975449517
310081607
238174818
-184887713
-400965568
820958398
-56852051
-260502410
133082810
-721702385
-228882810
-336398004
-961213504
972051287
-516316602
253981466
404513801
464770191
-238140569
997191182
-910976081
792799064
853756335
480777100
-477376742
-400585496
-892626988
704573033
-601302885
261426837
786921932
-569908537
99680097
858252356
908794028
-536782118
-399627079
-975339452
962601538
-403714988
187406171
583800502
582528446
729547656
-110934212
-625130725
-740548189
150288432
-452231394
-838103559
-296358245
97323018
425567269
397039517
548582856
-439341313
34142695
396750388
-323995735
-402750318
688115113
-8672698
-318145390
-103973699
359613090
915002218
-26291522
946386575
-325127311
448595068
-11878907
-403696502
-961371724
817836459
-219075867
-538264430
-911421835
-382493756
-936967243
233552003
-766553532
874202250
709579119
346444607
405089514
599098044
-895276006
318169053
-964286531
-953573760
415951781
248451685
941574244
441459148
446287560
864087877
-867193179
-308861232
946178577
-478445589
850865671
-58399747
-806810394
388855796
276385325
-894798320
743001065
469205670
-556687440
-250136844
345145645
-711488490
-61067405
857599884
869827784
700861658
961461057
-549294466
-80659396
-923040281
-663804528
169989935
322249723
-927017260
971047346
23964928
176555506
-736329910
457125110
106893139
-942285819
864600517
77276948
-151695883
396599389
-16353041
376839848
-858852863
476579359
-480324905
-781308716
637594133
288667499
-225601170
-818035383
147825842
-908426187
-180839263
918453252
662226554
-390766815
190508274
-962202238
67432864
-228689257
-622027273
190732116
-981744565
-853940530
870269535
-814517120
191602593
856567144
521741505
864569670
-771893392
-73414499
532109002
-782683932
-120641104
667593303
-151848669
380840286
836927256
-78880918
507419500
-784606818
180476395
-469116406
-452120639
728565753
-551207381
400115976
20168850
688401306
-989784852
557688909
-336887409
-879965252
-913500155
210156780
-566353308
862569027
180674948
-963569257
-921878928
-360594204
-560965743
26098820
-601855315
-437963335
-947502093
302589357
715632268
-453807328
-701854174
-102719473
-240353330
-479927912
292124243
-104861957
345238209
873895212
203525831
309960279
-241585276
766350162
812083088
972859577
-997536875
879999045
718838828
-872658645
55203705
-969791970
-533180629
824252872
-859699951
766828586
-687348831
250020432
757752651
127481534
-202111894
-675352209
374914824
-192941459
-369718511
-769797498
532233334
-323931541
-838347610
-169566945
-465076531
-714331257
284064770
999857716
666236028
-152408721
148400098
-807377463
751090556
56519876
-368479495
693338712
-281828489
-645708172
-269749333
832356934
-284755388
400654776
-564305785
436400175
-145285015
791456330
485631294
-882173055
571913417
522817987
-351421359
-831097758
-900006482
-528490946
-425379050
151914026
935023338
635203460
517558813
866036319
505632288
-218882108
-246898578
-684665878
432748263
-565175943
-369010799
862022988
-470815241
330810260
133190433
-439220924
-855973874
-528350547
976586835
816648038
902302890
518171499
590801948
-144483378
225223342
-825053218
-71651127
876843795
-647353907
-252103707
146731247
-694273823
899378383
125926204
-503504585
-895495550
-858697472
720186097
603193374
437459159
-63053649
-119336350
-776738658
-727326194
-675972006
-62699597
-234033430
-747240686
66913762
-681702247
-554961278
-387912512
376058689
-263094568
-266244409
-689203195
705979987
-634582007
313162159
-775120206
677805652
-167971336
848584331
196801801
-697132245
565457334
-323272369
-559218585
-165120596
-405177405
883444936
378794097
574556200
-552220912
-950755917
144710285
632618566
-372528002
-866566358
-270547231
748469259
-460486132
20215781
-750425068
321582581
937107603
406455016
-125042320
-519585879
243774834
90456254
-968560237
-33217362
-111569603
-94902077
-282925046
866402307
778928231
-471211467
-11606292
-593251262
-125955609
-573145871
