3385
454414513 -429532076 720623464 -225637477 -806613870 555380583 -602312268 -317780577 -153611944 -474856533 354161718 -293184293 90663560 589089094 -309490284 -974270090 768440161 -124513993 57206716 870503676 -434549819 -220042073 49196503 -682696856 -350395971 -964421868 442613282 969586784 -66444767 496875619 -101845051 39907305 308550233 209391923 -549744019 302651543 948084015 129991005 -343641609 -114944369 872402436 -265840508 -953655010 700143827 -301195046 681886645 29836664 -788033859 -60890130 -444736672 366486060 -206166584 420517253 -404834618 -866020309 -890890217 -370951254 990604807 903855925 361870363 -323887619 311458979 -231620727 614739819 386773185 294038518 74576567 -423340628 -630815008 -264673767 -930516706 -334843298 -226072453 -331188408 178126943 785362576 68133641 -24528757 83011679 560559048 -22872739 -728150037 230419479 78907062 -155970583 -750569719 628004755 195479895 -758081488 344467915 405227149 188834268 852504690 -969379783 55343851 -536494869 959883703 -957767151 854635519 -205717086 -996029470 -547569930 642963384 790844204 -170384850 258019938 -983513313 -207580875 -711594089 -274576948 -785610119 -957933528 -512600990 495368497 -605062297 -322628273 838201095 654270190 884884860 860187062 -732146945 696075987 -729574197 -821931235 424745899 -150776980 862148414 -929489487 -58712810 882808137 1501721 -871358986 -531075085 681180383 -776770616 180166630 -190610742 -578891495 432346469 604261006 458314984 524146565 653517418 -678486051 -574913606 577242759 394838927 636493123 -785545376 228718027 -152204536 -58628731 706548185 952935568 434428484 762325439 346180884 -737798744 -845783678 821078401 -519638699 324998124 -817551350 675077453 762772079 -772804502 465631470 -923853205 289341063 -54963749 693153007 -624434790 -638455251 512770836 349590807 -496255885 149398279 793332492 582648405 652809968 -382583657 -64056074 -816176967 -848655924 805907361 105028863 614799851 -827675860 -629137721 230213640 -211118763 -328880841 -754119870 698333813 -33115382 323987644 -32560165 152633891 451103463 507828027 -884535970 -803041715 195213098 643848708 -209624907 -410448478 -604031445 777228713 -906890434 862989602 594608360 66280020 518795040 -602944852 -388003734 892518388 689795915 596670470 450323057 -931102297 749328886 815444885 -251392607 -641099883 296961255 871298512 -816082708 628395533 -541872288 895839884 652728072 -595456229 590671804 -85262208 -833622386 -935250402 992373763 332566016 271087515 466437040 -94115132 234574568 20240577 -292320012 449857978 340331880 -608723952 714424330 -425583233 964456911 -433118309 -779473851 -30635898 -308371343 754613753 -4426847 -489766967 -563939162 246174931 -74911083 248048086 -429936089 -214713894 628466372 -931919362 -431246807 481794627 -982343594 -563687516 -989597368 318049818 -613169282 203620636 -823020260 524412226 765426814 902032840 -861859069 994027063 264065486 38821433 417932560 -512047620 53401029 253778025 -205280298 200308344 -338947020 -257385238 -246360198 -752395407 201273971 -478411054 -986316817 40666501 -419350645 -696652502 837529490 154878761 531155991 366413347 -161491875 883254066 -735524527 724665018 -862029687 324444871 843602394 -488626713 833225086 676741745 -939322096 -471053164 666366414 -110805714 121341450 915738312 -229533356 276599047 625321953 -577316826 886904169 783345675 -412908401 -995040643 285416477 -465849461 176086489 -738448051 502181729 925623344 62751105 788458429 -660938533 413599163 -889329442 -993530401 -389491322 305970334 646937286 -375843913 457366886 264409233 185858402 -364538982 685091990 144606229 384336731 138705801 -487695719 -525299246 -343561639 -829777982 -410649247 352324963 -89285909 -975502798 415472097 113225244 -350266335 710697016 -749962240 897671380 759297443 -767072016 977418242 64088144 235421138 -774493139 -50300612 -581103946 -929760153 449248818 -870953192 475668388 540180636 -717533320 -753707243 -952705418 863269079 984807892 953228679 -590853314 377894287 -56877620 -138471524 186657706 61279094 -163764517 34309124 -166220657 -469298122 -268905685 -474650267 -807111407 -993064917 322443897 -592631830 -838863869 313546574 279420241 -400769400 245774645 -634449865 761994598 -701548403 291925487 604122655 841226233 904614009 545441676 684914315 -594154941 -97117785 225675543 722510257 -955310330 231403647 206779349 602784089 498595902 53973102 998810880 -182015517 -507571193 438735072 980515409 -589468961 -154245851 -453748021 219412262 417660819 -263555928 -994356504 149294071 -53193587 -96617958 -192214259 465886576 -705777144 202482838 -452290961 43136919 10056411 -770996793 154564777 -830456202 -987702497 -722465945 721541520 800108204 128406977 -780574012 212112403 430075208 957570015 999521282 -341578379 747026109 297280017 202260967 -793308336 73265648 -841466544 -439356000 -640910701 -307358925 853329412 -452141439 626615099 55814078 -37049987 -466818692 454645163 -574170888 11259230 -437471920 324419675 587430270 -556059278 487542041 634403911 599192594 -242963815 -172338151 287463570 383708155 -848481347 -439037853 769739896 -716983275 23598975 -946262639 -12680251 -469955043 -620543286 -728198998 -858884250 -125784834 354044131 -835413689 566211344 -360629063 -849159224 -665257817 406603340 548893449 177633960 68680091 636431398 -505138614 293459998 -867259378 531528777 -414900222 -39566917 358698337 895026238 65829079 -864569652 -292979256 -930696462 715925993 33957685 -83267470 -592623587 -546280553 190840011 -830422549 432904266 -546371112 285041577 -979961850 783038942 118190103 -253783750 -601656077 432840157 582673007 -904260764 439538319 238785295 -254670871 -986041206 -628301523 438638612 -350783940 841346978 -80605083 107023805 998706758 -289517370 191358780 966709278 -720080549 712088269 662057961 -396832694 -594282745 -85879928 -917826751 -881419870 269245038 -149519392 908585922 732314920 369623527 -191950899 -898495813 -921455608 611950490 -743056804 455937127 404441716 -487652354 755187655 -227730994 188240721 726861281 -291790713 -46284414 925903553 824376854 -900194279 104351624 28054019 681321142 922942363 -189828438 -399960436 923620356 -289749398 -844405076 974374833 -208774847 721978562 784772402 -451661995 756148561 158634308 275493115 -611192444 784091604 -131467066 58383454 -878452650 -813195513 -582862803 -786696125 89556753 -873086341 -869313093 426442216 -904566803 -839728576 -685682861 -971496091 102136737 -562287965 911568386 403423032 987955078 866401497 -593355048 523003865 -275536306 -850152371 -908094414 -568204610 866893819 18997019 331344417 -371021043 114506162 -746781167 397948058 927105162 -17862265 155751457 -227264131 907094223 417644816 -983722844 201138565 173415602 519117391 421079889 -920111802 -326931792 76600877 148649236 127414303 -322327332 218582997 932942080 -981480403 -116972902 527497233 889346484 581317467 975409074 -239027615 -221678151 -192454802 676896271 627211625 947877450 269081870 322967225 924224507 -647386387 568933372 996980487 793146665 -197353929 -716094727 551285924 838145882 -726007137 -580318196 -745752060 -515254201 217322543 -49338226 175823136 -151488566 -49447146 596477016 310435297 -920341614 135121489 108506135 1338760 392017205 -405263494 -50415763 -493848281 222018747 776512301 708973744 -259754849 -493237551 866780946 -785540365 519520437 -955713426 -387483197 434432515 -575238175 38463347 53423826 603517184 -436298606 147222010 581874177 -91620542 -213200733 567777657 682180192 319483203 217084833 480414031 -777722704 177062866 321831357 181183224 -15882906 3658246 275928867 -52985420 -459115548 -861047102 445983 -835791089 697935333 -781417140 -513264211 317911292 480492821 82291746 618141531 -682814517 -904171650 958672297 -283729127 -198345185 -472524693 -210669029 -483413665 -35829270 -674832945 98996725 -162928663 -795557383 679005854 640651789 -498552748 -972159572 639321250 -547665701 652449821 591698693 -681700217 -802374924 -400141138 -161294379 500034101 84707239 -276656165 -388094235 412718872 197650343 -364504496 814994686 346159844 417471621 238188046 12202161 -157758896 -624444609 519176788 328175895 -308303163 33517860 216736291 -635232688 627462820 -910493112 -821843265 672502453 -660827251 -599005126 -442789153 182191933 258301922 -860709997 916640752 -31143059 721534820 -7764865 -251740618 452945415 85423406 -234605431 211340765 521514887 326627302 624606420 -755087629 -483587931 -826154538 977091871 -152900474 -765186360 -83541149 -464944591 804063304 -259075091 -798552439 836947972 -200107926 -204288720 -460580162 693850896 -887873784 -767638767 -290920952 -136164713 -20037422 393201684 -325088206 -753998406 829643445 -216867208 571718768 -430044768 -849926037 -450403335 475884741 -765205103 645239635 33714860 -959833468 -601275858 -386754840 -386433447 -689390126 520325678 -34236241 110143771 636968134 -543162050 783590591 -352826863 456109392 79188041 -659762896 -312430732 26814772 200242009 549948641 -524318411 344487916 302980481 -240360014 20100853 878964524 -707929070 -962866794 630469390 963663299 -972241731 -913749242 529503649 -27155911 708603050 -119813212 -785852049 -333716889 896913014 232911868 -361593219 -138320003 -671189284 -689549254 -940582159 -319705491 913733398 465381130 -154829917 20587999 545697491 -16586092 828447138 -457044082 -266562 -985433644 -850264101 434519870 639000435 989262941 -831350055 599309999 542156074 -139297617 924543091 152308090 804329804 -83521011 -783522506 343512028 626945995 -41900266 582217272 -128345390 379396692 -978681839 564509199 -229744311 779731877 -900144015 833007301 521602015 -703538436 -170182470 32930701 -635861900 796299719 999187242 -420521005 155883389 -116720042 64918525 -62051480 788400030 -828790035 365364839 -319670643 690855849 -785219747 262004481 -222382485 -786484648 -474443946 383948577 -236581132 -783520980 248798883 -540308397 940106484 673459906 -313630651 438407626 635034630 261617043 192438085 -446526842 -833996893 -8029118 -775770465 557825545 586938223 877504911 338148464 653183563 -146440539 -252951651 -725917158 -551132127 -890086007 -497336191 -197105700 -389307686 -761578841 -927019852 -995197847 531691961 666031653 -596695600 -816265322 602789120 -836206469 -921908487 -764072972 62970165 259987533 -947725430 445528519 276709771 -371506648 -869166442 -511572629 -965531491 273178346 269014606 -154569511 -596340154 -802148552 -836340149 -82391296 -468577917 -479499729 878092521 926265443 413107414 -189460527 -99294503 -993824508 219754405 -358902983 -789858628 -678067894 -587211974 139516807 -742603894 -495537790 -170885638 912479784 -698458794 835353745 -202035523 -166703522 -792114074 -324900584 704609871 138722516 -228047513 461802643 -14987313 169407856 -734147662 911056100 -157442139 -392856018 49419220 -98804611 91814524 -173953595 337914411 98199248 559461226 -415872542 60635978 393251635 725050629 243639691 840936808 908614419 229762086 682379614 860268211 -949071330 -562240016 4009873 893036394 -636416689 -284487121 -657360580 -929808818 419847761 104580499 -148216305 -719125228 891600994 421232128 -396764597 -149520487 32737305 560426489 -222936863 -234598183 629687995 -350302986 733105182 -394951936 311974495 -20314565 -597090638 -697879099 676537936 811252135 -523348809 705427977 335640271 -140807662 933522392 -247237602 -264430033 -374718021 -685037235 -125716824 -455002162 541191266 -643084166 155459704 663171067 563071679 -334215165 150489460 985232975 -238100606 -485814378 418737256 120953027 -797454109 -9733391 419832152 -640070973 -988979217 -302250888 -807500144 517021836 828412009 -58471881 660360293 407204899 793850531 705387761 800467356 493576055 784012315 -100546088 374721439 609846545 -199799225 -173523854 279223328 473925176 -620756392 782927561 318564534 675740075 280166205 -448532541 -205807292 238758952 95481023 172270868 -466099296 -666276777 92781776 -843073407 -665872563 -57304211 321773519 377982084 -228978842 719283300 955837365 804520498 -379170147 961205009 132743437 -929642047 338222821 -533561925 -811565412 790081434 -847068131 -525815120 758123531 -666811187 -565980468 289728040 626305567 -116352090 978191060 -118460146 -424964817 147913705 579975930 -631047052 704995479 -284511080 166153628 -384035226 200234590 594889975 -457885139 -479632000 -656972403 831450894 402033710 -879717659 937301156 467908404 225394313 63203037 522475189 -495141794 951377010 -909260414 404022568 -955484539 817376454 -972306830 931286261 220364958 -641161711 514974843 -38622349 798409729 -445592967 -645303708 -702758033 -720979297 -932519138 785060963 -606295685 -651438198 294996836 679402749 956470761 610459856 271230235 -86783245 -789683611 440703566 205135837 -274499030 -817858673 -492701452 973293761 816274202 -753848416 -160975217 -498192153 32353014 613331750 -473826195 -586790720 967796206 -13587762 -549378245 559795890 -820617809 -794322216 -971524835 -262999008 -61431377 757345655 61012691 835449140 483368856 726444096 -607139841 348518186 842992984 -104200422 488653968 -49010061 557545673 -906183854 966356212 866360349 426819923 -142730179 -443543667 -452278935 631132480 -644670412 805964728 930364511 623473650 -254138839 -559248160 992210029 374884253 -867185117 4969957 -144292824 852485024 -448257748 -911775994 192756280 274440779 -469014027 685144147 561639218 -970691817 189415558 -505786409 54337018 304236666 467651944 571268354 229092502 532883779 465590277 -420959001 -365052393 12950142 -650530789 -309504555 749866939 823920815 839975437 -389126620 -829089016 -485576160 990188436 498322256 -123323626 -288222561 84610495 -825727137 724699943 628024033 -407933142 -255243056 660107773 852328730 623427239 625647853 -227000811 254987603 503626311 -287489512 893907589 -778086797 -125780532 -724988627 -120098670 697199190 879801766 812041702 -977974045 -565190410 -304478817 -253474665 -588790587 -263896919 777766985 -449170220 656260696 315519147 -641169212 858404692 830165812 -697694176 -544962525 793787287 -474361237 -388441109 686830209 736280928 -89079455 -960254612 -76291967 455519071 -598081125 -296833008 601027139 486573306 368980475 -480584748 773350824 743227097 773145394 92053099 289411741 965833846 -427175093 695796437 -930785968 967069368 -39425582 -619800765 134036178 -592980176 -919410262 405557939 -35414653 636048758 -635749949 -181988829 831074859 -78334826 -816716822 -34574860 -171671477 432069515 857555174 52569255 250075858 -776988459 501343823 44784969 -152190797 308055007 -744686870 498366412 -724816991 -465375640 -201154656 556191328 -331754638 -297547541 -687182788 -508096042 893855020 681628136 -69622189 -551636587 31084138 341005530 -742488687 427061551 119401610 822917604 693168092 227938947 -772558353 410771321 -185054026 611797994 85769078 -496889846 -968568216 798230157 -730316150 905316478 985262118 -728807939 -353918882 512152869 -657058660 35559878 696550693 -670102205 -139305897 -166171793 287771818 -505236876 337425919 -97474059 324422732 -812979074 -534770208 -866680634 -138587437 608393137 -97782503 278168147 522809376 -906290877 -966635117 355687611 644293468 -666072781 381009763 -838493854 -608276846 510599313 900687022 -791900662 -507643346 715943015 744910633 -639105936 822545448 96230208 181612378 924961144 753021244 305574396 383226873 226166392 -691606900 812362028 413773169 445225331 422402992 806831778 212808435 -312940680 645306559 -554088317 -736230511 187025420 -232809963 863419184 991563959 364729442 240914865 167792435 274386019 -62641729 622921317 84448194 -779105574 -962511742 -362145270 811825755 -599286266 -207577666 484869389 -790485470 -982836414 -989206033 -900569349 -951045925 -687315060 -243074941 431771621 -609709797 899780392 530428862 -449915618 491082940 193981522 -54275113 -999025623 133502552 -310338279 -456522269 -374686596 778060276 -661173425 -511552006 89223097 127025972 -363336026 918760891 -228832719 832292371 -300796653 728876735 -160223680 -178009762 -471232453 -52769363 193016052 -960915002 469382233 241004705 -172960497 547215856 -39334878 -333155413 71486265 696152517 -467600430 616083137 767410985 961663602 529103013 -946864426 -103605602 -734759431 274643128 -87610433 -314389806 40595574 -320866320 45836948 -444570850 -318553675 102273434 479869759 315041964 -724241529 100576921 -361213644 -714307244 507632395 30671696 30923601 -787157979 50927968 534702076 369585946 -870156717 292814818 -875601569 509521831 758896257 846557511 -708546363 -24029940 -129841026 -276370724 -694209178 999035560 265549754 52500881 926011505 -170034670 -45034248 487784474 750958555 528185708 -58830332 -840877195 187771849 555152825 -112622647 -789535239 919374096 226437288 918987133 -985780179 269822336 -113465325 -796478352 -503267654 904097644 457579498 -260661093 -612481083 742158227 220254875 -901333151 612076551 -818475487 -721788436 -708284409 671997695 768321308 667116337 -747979058 -270951673 533356369 876020946 -558645728 598658431 649980948 -618163319 -580758849 538416912 155914166 -740370276 -809107310 477505852 -324476651 185577761 -95559002 892802064 799430400 697939782 193032527 749954850 418294527 961481625 166564921 400205536 664865011 -443397317 -642223826 428409380 159344422 -637061911 220201123 940213595 -259760599 -58776 891841181 61654769 -283109919 194460924 -363646368 608029709 -364746070 146584369 77847695 3601693 -439615689 -173096935 95099392 -837202558 -268210233 646262035 843065723 -18694192 -930323100 804123390 627002070 -550892224 942474205 -360419716 -61477635 -812580806 766007210 40830882 58359699 -200087109 529715755 641538959 992877848 -25767512 -823988438 -687526961 231287358 766688479 -341474641 -818731497 -217261735 558361102 -699690777 497520497 603983480 -869786929 -869327109 -274080719 -978392253 845776632 258876532 574531365 789876115 -583450806 705646062 -310504857 -954671537 -829977685 831973185 451209999 -731106623 668272527 -744056677 -550888292 -868537820 -672892972 -826681596 883663939 454547934 939025677 -328961115 961704272 951261840 -697723437 -732748916 602864746 180465596 313543809 680952554 530737762 -670871666 -897100365 -761387280 -755287034 -270970693 84646685 819761116 -511434506 -883585966 440288005 -756808658 -168263323 623160641 -284264257 -138612289 439162417 -168172300 733050866 -669543848 22489192 -723446857 -746126603 -531660629 538181196 380054153 807036052 -353810920 847248078 933265558 -32896955 827545322 -745075699 -873617465 -76920246 761753811 225806730 37436605 978200529 499918305 703492137 668841444 -396201541 322999213 -312775470 673513807 874553374 -592330360 327907437 236753265 826182111 573603304 -226247779 969080751 447285859 891236504 -575956023 400941552 424824114 -556037411 -17238758 678687545 -795265770 -980836527 142195670 533808145 259439487 857626267 355101115 -380778829 -47623409 988608895 992119030 726092594 132230011 466564356 63226450 484705728 967225650 592992768 970700498 2047663 574312583 336922864 304594246 387928971 -76882235 171225942 720257487 -885262435 -584979747 -475707275 831931752 254029156 862245650 305713478 33871280 -209099373 -445045999 -614759152 -130902850 367574351 -611844358 783981165 -366914345 -920849564 808165980 298126617 3538807 351587632 -916171120 -723060180 -708486878 -361908051 -63506146 -759549367 141401542 461473663 476472494 -552025635 743774891 -535077054 158767758 -183072506 -965074305 412733601 137734609 106391646 554913118 618173880 760945341 -367432267 -402939254 -140555747 -425391449 598690663 -241450759 -754191113 -585518857 767420639 744571457 -627445304 61345287 509899712 -496518029 -625023965 86975740 -792340694 697335374 302334786 276847382 -466498314 -991321739 382440155 195563885 -100463611 -6932484 -950341766 242972980 -924870158 262109931 96299720 -199423807 -779695955 431553909 549987260 954118615 -685205665 -558186471 817070301 391840171 -295840218 -848123611 590796803 462067035 -557689086 -652821898 -791636589 832259200 845274530 501804765 -942467093 -409559933 907988240 11661814 178592798 404108989 325509706 842624525 -141414695 224704422 30564311 -28225251 977927987 -166981594 671697089 -555269497 107111262 -884358574 907599350 695024775 509000609 -704497562 179978921 712864701 496826744 -91296574 584381719 -632143478 198221117 -508449466 919254279 761394300 211399957 657448408 -210998072 -894228350 -168751382 939284910 674910135 -303412161 783812292 -868366304 -709540059 929103966 2747549 8638475 697432212 221114202 -584292662 445840025 823853632 -413690737 -674468712 -228683677 329902961 969533492 490783038 361456039 -948292871 -808710633 84074026 -539090091 588907772 -728053385 -704339780 857166831 506351269 251306252 -888778034 -625658491 -326935593 -626296258 21124386 -468539303 555408597 71531994 275660318 -77820152 -48825640 299324973 804580450 635664002 -666368874 -575043569 -854159497 -371154594 -630084080 815349753 -313422795 440837443 566706018 565018452 -987584853 -366461933 762113890 -746564710 316759778 715191392 976119670 -213702832 99980888 948325999 613972123 377164499 -894800194 -25790988 794173862 64364731 -951814198 497128716 -367718283 472377242 -25408303 -101042335 -614985831 557789819 212270679 -740853883 -107934287 -897926 855054827 14421934 -374983480 222658950 -181236283 -303471038 -556379540 173553191 -327566782 682551212 747777554 633880338 -337670565 176247592 -483275321 -807269172 100596145 -346512505 42991874 718144027 223049823 -747668410 -353591673 462630546 -428419371 909274749 -152828936 143450876 443142472 -474252588 -828341219 115252882 -487248689 482115828 -994002816 797838414 -111026637 -307661290 738812570 -53818706 320250554 -142592167 163205408 -854308189 -355495590 -790375938 534129277 253794831 384860767 582027170 -317987149 -308496644 620481893 -479556236 -43815904 604716578 530426627 867573088 677950001 -324714287 292227933 954852458 -395032805 -471652128 707514307 994006443 -337961577 -435765685 -179655407 299235769 -477305624 -612833496 -809582632 -34231186 802924123 97500826 454433281 -335565702 705494442 -595237128 -412271441 378310351 -666818836 767810921 -608760178 -546870098 370084521 -949015049 -832316471 -475564544 -785727031 214048890 763293937 144608313 315019258 -393739507 913870605 -302344695 830195864 -156841331 -770205247 -504637299 16669301 362486743 657434101 -406267737 -88157419 252602744 598649234 735537144 -262220351 -572465079 283406467 -428681536 -681669652 333309852 -439661184 -195851641 -106188302 -742887933 640032874 -313631881 94393594 247370509 269963692 167116798 500384943 -734300335 341545608 -694811031 645248215 75550228 -606888074 -844005628 598434266 551628478 492745020 336072714 -375772433 -859762762 -436833750 -891704139 554613143 24340453 -572699080 -295603166 -874636729 635298805 -655145668 -973726771 -717336634 -882847093 -964752173 -761147597 -489815448 826727941 -625311612 558133833 -858511886 -646855580 -183343041 -596519271 -457773885 -97017081 -696867687 -149769525 623718304 209335928 -415423873 358906271 591866031 430655709 -790706409 128009685 302026521 -75974539 -218497016 593785661 741489944 -487462248 977941212 986415282 -336136579 241032587 -830808550 592380981 643650713 305896576 233467536 -801278762 -372495162 -320980822 -983612762 84130281 -349783854 649359162 -973860292 -760938316 861801597 871953099 -82981469 -318842843 568112022 -690584864 -565676387 918367388 -247246194 -868160147 982132561 -361008401 -814792350 779114514 -545448589 896308830 888157527 135897032 22284459 -1075310 -825884237 -743671951 -380312767 -969875788 -38670810 -2077695 68518076 -316310809 -974642081 842387424 758072634 -71532521 991163682 830281522 -878703556 825758159 742986228 -767959698 -204225708 399676989 -473417800 -746058076 920054019 -412800381 325301012 10815160 -865155365 -420759770 -587089916 803890845 -737435875 104240776 -694110819 -688656554 -913191978 378737979 815781460 -219110507 -978158446 688099175 -7599603 -348636403 153095022 591819280 313071382 -302754664 643924463 -617895206 -654671849 528144905 -105810687 256626861 927024458 808297735 218150778 583449788 174067779 -127474324 623895202 971172038 -113143778 -867585020 -253838810 -634369843 -17538273 -473674311 529175688 977804101 -560058839 -432839849 -830467637 -494741784 -779517818 -715008031 -519353746 676535168 -307103845 332650422 697063867 -137888434 -585148628 -50995052 569717960 -336356189 524703296 -709571099 569866573 786936586 568435331 -464582850 -583867940 -532001961 110283508 -865771340 -903868433 -784779919 519937926 829608560 498656044 -822840018 751665070 530864965 -281079265 81393963 -151872307 550889951 955911493 361486222 615486282 -8093928 296951615 61470503 861036247 -452707276 -213527327 -869447934 -680156588 580962340 -892126222 71419138 568410423 -791420727 -644165779 -756904985 -677467438 518989793 -279357956 -420795554 65369225 -186199256 -72773076 573154744 642919140 -64545106 83273116 -659293937 28724951 670237851 608515949 216887974 -997879620 529048585 -116185023 -860156397 -660933243 13119497 -41188252 130825885 841332309 31886134 -104528566 -196434880 829338816 -550303585 793840919 841695412 630236009 -226698373 822797989 -330657620 -182268131 -439988616 -891982704 682505249 981840281 85618530 883797550 -225920984 -944971883 136941775 -66969305 729400095 290917487 314871208 312605295 -508121209 166495914 889603564 -886040915 -748664822 -645348634 642988212 549360659 -635176434 545415997 469627718 -159112788 281677151 201225297 269080623 -710291699 262731627 -596678777 -253656317 -116089940 -724095094 251390176 -726362060 -598885772 473339537 556085957 -438337792 646647266 978027067 -354216836 -754976364 121838953 -108252825 484575145 -228083023 -423822783 -873306646 951231298 -523937264 453059081 -991231403 -708399382 -435070391 474464146 936773517 952450222 311607338 -109140907 648848451 997597234 896448132 -502546690 326496085 -973979976 865732445 461381447 309533592 303412658 -958678563 -285295969 -188610985 -631228432 780141473 -37224038 -558536222 -759993934 800679480 -235306498 -185451716 39956318 -965997362 853571078 866775427 179413772 -567769803 582931446 556833217 -509961557 -965760939 506436006 117767623 509150610 349701684 708576942 528255731 -994771856 214464779 204298966 505630665 238417783 -875109957 666296737 -738237739 -24921091 -992436156 337786865 -342101504 -189048309 -398526262 514177617 418992436 -442702011 286004612 883148272 227988325 742117324 621054638 -102814099 891840170 -680844475 545933355 513621952 -576780298 -178018254 930262810 115558448 -499651241 -479100231 -492394817 818569584 -444309531 357918801 49872676 -145149943 727821473 -636808665 -931429669 -379525911 84457919 379963781 413522955 -393434584 859573073 -391873682 -399085188 528924014 877671894 869560653 347979838 577300967 -175840429 404259057 18717463 954436968 346130369 173409123 -804825876 197651821 355065004 -345651682 -168732537 -752765810 -666415315 -143610667 -312494402 -894374762 -669656707 284928031 -336898990 160598761 -925355817 357851284 -371929427 452554714 333053708 -854374944 227297633 -447947881 618358129 -977712893 -113924020 -589724270 -254672683 131319531 -21018612 898367635 25764906 -423314085 174090948 41035848 364359771 -665879616 -833767534 -281971589 999687764 862020399 -584257348 632421715 -302627858 -369750119 -990608705 -698181782 39147690 -369448453 -525204896 -985837267 -610715333 -535968666 436736489 38730187 568822861 -864460165 -527207896 865601115 138534543 173033028 46234469 247905693 -355698135 -508003623 -665590807 885158642 -439774185 670132039 704945929 414268269 347341442 -203436782 960967117 -718888911 234483260 -706104166 -224099779 -649558033 191734591 -429183073 -489537248 -14057930 15251171 -362999958 628813155 -983807190 -696968243 894209723 108712519 -120833281 463510096 -879129217 513161995 961491676 -890360908 10393048 983525673 911999147 19761664 623716136 -40255362 684486536 -839483979 -288342483 416207911 24935410 652639971 -290772707 -680877044 922860638 80028670 -897469244 -451866378 585296755 382083082 678002346 -157827133 -97021523 628442641 825219369 -464483455 -15883621 -121445850 -455847171 950094051 288499043 -584141789 512158599 905866342 205329195 921013717 617893548 786202582 137996320 852790842 466254515 -134246316 -908585700 -421468524 -440076634 -708622296 -499074025 176852850 -397473816 -508030511 -823074219 463501010 -162324025 -795478579 -904152653 -335948129 -696975180 994259824 746077647 79345001 -102891685 -967506093 -32490570 -734847407 742102788 290791328 856258615 812237039 759296630 -127113757 616575972 276712010 -831497731 813623854 928999720 318642095 -476996279 -58307646 -470097736 -447051327 -122754142 818055492 -976548267 312425065 -895803314 981756912 -103410689 536144522 543598717 -728598136 833818868 792971493 838952204 498613380 -761196418 915005285 -951949171 115585503 -655595391 -928741936 -486993636 364857046 631874018 -45720540 -103606704 502532954 -300816836 -195922632 -831829840 817883262 401816442 250972389 -650202069 724899855 -978432877 -297844513 -441519801 -765843731 704911179 -44620335 390378816 696123750 334044496 -166051320 -965312493 -591665769 603727733 -870285026 196278758 468442965 874157981 844958608 -161018768 559539621 -915305487 -560117311 -364933768 -740408469 -205151022 867760568 953157444 -546261447 590188512 -460411576 -541200650 -546752197 -859016887 94397508 317395859 -406326844 -371960738 -408102816 -204050823 908955805 791155145 -338409674 422536767 412279934 165958243 743744792 388612497 -156227090 -361808232 978299896 623810982 102990484 -59361148 -44394264 -535429560 404396972 351328257 726512320 714726578 -889109242 -557252194 -601431435 99371507 354523537 340147128 -900086480 -18059129 -933150517 -458337798 -510678426 -875802141 -818616744 -255662502 182018158 -430387330 557090023 -352285895 -381146177 364072743 -324723970 -958051765 843646594 -65618666 950194900 886565347 813072296 -592960875 -478810986 -7010051 467101971 -66154280 -323229085 799891451 820778838 -801180613 168216767 158300392 -356257039 397751531 540337393 -417850516 -681906870 38435147 -675343624 772916772 393821185 -266514275 772837058 -317196748 -477773733 -611263324 -200711935 679775488 442645259 254250530 748576902 699970577 544178509 100628492 370254477 -264356595 -587213423 -572029590 272974325 -65297443 -140599895 -156341511 -254483303 -651019767 -624536921 629994249 1843732 -389401706 220910254 255417297 796354705 809618394 -145765933 889248136 -450194368 6195438 -507815031 -5009684 -400972084 929536356 -742140321 617255780 -150932316 457244567 345234502 449386678 539492551 -817144044 865284272 -458886011 403029984 -275772374 833445900 -220004672 -595919396 -972399975 546145722 249342256 -679900850 -938104472 498291227 -607852113 96025945 733731621 181969724 403630680 -731943162 723614861 570942548 -68064943 -196546047 -113504266 -540798764 -924138017 520062892 -399765213 123939454 -146222917 805032731 -511290004 -74666717 -515225247 205964776 -965332295 432015651 370828851 -116231880 592930072 916096630 -599530596 561006505 -867542025 865400099 -989809196 142093983 -660269383 -161004976 529148526 676493138 876768056 746635470 -947274350 146745752 -292223717 -731978508 970176094 -350133010 -225166287 -520043107 973375995 456088899 -46106728 -466296181 -240677188 -863213869 875648857 736547871 -968516292 195044907 -750190467 816784006 318778988 53020 -2735464 -458365950 184599228 -385459431 770638003 -114155867 -763608009 436470054 240970426 229356917 -283304437 -271162393 -10022876 435637939 79115011 -957053416 771263750 865832055 -923306928 -181085516 219205431 98652121 631168325 339169718 912873867 -25591003 -776003242 265271619 -412194993 -433695897 162710156 701719988 473034593 848412374 -616696706 666920683 -61762786 713583632 -173690387 699895633 68649539 -357172253 323892479 443693373 275219704 -676057260 -169047229 732110930 428602810 -251604192 -634168239 222106001 363680271 -716456163 963715165 881517164 -170803520 139825997 -42431778 51120109 734567441 808755469 722005817 961722017 202149015 -825450211 -379029072 -733086183 144740292 787099398 94077573 590620466 -410098915 -123305931 -605598456 934046617 -868867311 -964856267 378205953 -346848314 171397862 -958938750 58975873 -818023122 479626332 -527566274 -745915935 -956925693 -179993335 751236107 -65110218 -901707179 -70550331 -815799745 199777664 -20501231 82206079 -772814560 -777744949 810370668 383632220 -831416144 218773969 -401828665 482123673 318024515 933885563 -617697688 -616919212 425506036 952638313 911498573 763920172 -399051933 -997668361 773579 -914473932 -633987854 625801208 484386734 -696993164 962854255 164061069 498675653 762480516 -238524701 474793117 -328185287 -362754005 -608463977 -857507158 -624283472 -15516338 -700027166 541945261 -542208959 327328521 519411634 -110887697 -926674583 655910687 577268627 410914981 562110006 -426617577 -596097784 8946636 744972632 -190651063 -519385312 -570227886 844252406 129384720 -516969628 452643396 458616078 123033143 -677751501 -487279904 558584156 -350379613 -448051542 -394231386 -110350822 -553526582 -624987586 -954986497 607496474 708744464 866148352 -204945313 700849790 336098930 122633292 938598151 -445353769 -46265883 -325939352 162678469 772179067 220754257 -923196748 -481077856 -905339785 109458940 -239178508 300275048 -90522664 -200573598 260175035 -524513529 -984462283 -743157297 259805845 -37707658 -216384727 -965751787 -998959423 -15555454 972046397 -327772058 945957506 -57290079 5918917 629829343 660786109 837271335 788893009 -877512637 400919827 938414595 495261782 250581833 -584522365 -478761606 -158012188 980251265 -340138601 -162536508 -880767980 -648427262 680083727 935679227 -474374382 793914761 629412035 -905907786 -69514890 494317759 -843207273 152074308 -273475681 694809594 -370858672 463599917 61690963 149007895 -113022067 -118104246 865947208 92756158 749741024 -397944338 539008027 -544133344 178927887 -596024205 -365981504 -209997900 -597200058 -681064990 528632033 -337951862 -930898525 -338563239 -339855855 -314997427 -506762204 -265752972 118835666 117467404 797295103 314702286 327913161 -376791035 -447866946 -382261199 323400678 -975606141 860251900 130420403 -196293990 -293443180 -376238208 51501892 -84918937 404002051 558850792 54716309 408110899 -186476306 -421406850 -95420452 883203293 -43664019 352022355 -764014629 19144092 -810933899 -146565309 -388433637 -767351670 -533455166 479208965 98849451 238722287 222370599 -933120058 103835621 -880965298 917746421 -608108322 959210150 -547464989 -970939437 -388553555 627429244 303003294 -927660808 823748544 -107707237 939315153 -538262047 676004253 -397286105 336385627 122278607 975322482 -632848963 763761863 -108787872 -15441692 806627163 729119138 -565133712 943162064 -119817777 -43161622 -458246151 -28760885 665795232 474473392 -748383336 505877835 314095033 901875569 -66564006 -83658869 -814179677 608498880 -277836638 15075583 574339289 -386301761 203489803 585553247 -974417447 -360347118 254845649 -802637137 -147036487 -553731482 176989772 612160415 819826258 667501048 -301194188 911788056 607709846 -915090543 -763025570 -981099890 898278090 490433404 -260228171 -268333574 -637963846 -839069846 732141726 735175213 350668204 -867882999 341425293
