829 255
-999091767 -996923841 -995879773 -993789325 -992976031 -990857897 -989315539 -986030902 -985700865 -984116360 -982371981 -982054264 -980858209 -980449998 -978853465 -977612697 -976253886 -965393104 -965380734 -960918182 -960710430 -959513659 -955475869 -952721245 -950783671 -949779019 -948964841 -946524895 -944549927 -944111720 -940865312 -939114067 -936401103 -935185951 -930913606 -930363357 -928410144 -926431110 -926192557 -926075675 -926052596 -923470828 -922831251 -915258932 -910704465 -903739403 -903253550 -896362375 -895367837 -893265699 -887250900 -884059316 -880449885 -880016287 -878605864 -878104911 -877289328 -873654807 -871261378 -869482614 -864318560 -851532284 -850525022 -847475378 -847233165 -845426918 -835512960 -830180410 -828752195 -828529701 -827731948 -821567749 -816306851 -813511130 -811991321 -809786286 -808496243 -805100419 -799249048 -797496233 -795261460 -786774699 -786647705 -785244774 -783994996 -781768434 -776012067 -775934441 -772971829 -771747599 -766091057 -762465501 -752455005 -751995134 -748447715 -742559727 -741351804 -740310305 -738379824 -736592417 -733645049 -733120080 -728937431 -728293706 -727731276 -727522753 -722209248 -721828973 -720355830 -717726219 -712178496 -711440972 -707787955 -703190712 -699555940 -694685913 -692726908 -688578158 -684044289 -683320841 -681434946 -681340391 -680600489 -680557600 -678724091 -672944309 -672659067 -672361857 -666957685 -659898894 -657006531 -655703791 -655365686 -654546005 -649293221 -646534196 -643782021 -642233240 -642026132 -640790870 -639923968 -638188779 -637023927 -636866610 -635217121 -634356759 -621207171 -619092012 -619018199 -616215743 -613219508 -610785932 -607282288 -598430776 -595607948 -594593601 -594186248 -592060705 -591133294 -590741798 -590047760 -588142176 -585297827 -584669848 -584616723 -577135016 -566428709 -565873887 -563274112 -561400614 -559712838 -559224001 -558255729 -553295710 -552474274 -551638085 -548908920 -546427000 -545305121 -544323188 -541539141 -540919527 -537742165 -534957425 -532714788 -531467925 -531395863 -530927029 -530680218 -527949952 -527944999 -526996643 -525651539 -524475355 -522545518 -521217715 -517983933 -515053448 -514207936 -510070881 -509007417 -508202238 -507510336 -506666519 -500312125 -499554799 -490192165 -490171522 -489727398 -482028650 -479804772 -477098526 -471495767 -471372149 -466229240 -461982863 -459834748 -456898915 -456506075 -448863469 -448272438 -441361132 -435044845 -429620213 -429120837 -428683495 -427000876 -426141072 -423936215 -421268665 -419967098 -418442883 -414422141 -411606205 -407679422 -397625507 -392124477 -386396684 -385257140 -385145163 -384601615 -383770230 -382697779 -380853027 -377022749 -375776578 -375770507 -373424895 -373265147 -369950685 -369820026 -363699746 -361776432 -355973092 -355463913 -351783253 -350606252 -349613054 -347397747 -345806847 -345704192 -337673423 -335447892 -335271030 -330856343 -329877670 -328475700 -327134473 -325118102 -318805469 -317772696 -317072665 -315405827 -315126778 -312972902 -311089578 -309900901 -309400483 -306615973 -306017012 -305401869 -302937908 -300782583 -300691067 -299967267 -298601991 -298098569 -296451871 -294681183 -293741351 -288851238 -285354966 -282733529 -280498157 -278972318 -277007466 -276781236 -273809072 -272608916 -270573134 -266019575 -263039252 -262608883 -262582437 -262395487 -261890605 -254241720 -252348706 -249801467 -246691719 -244647004 -242499242 -235268987 -234822559 -232002857 -229146713 -226308377 -224842061 -221165366 -214506689 -208790956 -208340965 -207852196 -203666323 -203263355 -200234543 -195400327 -193128974 -191603791 -191476901 -189879850 -186631418 -184199246 -183207288 -182165829 -181139442 -180128698 -177195951 -176798973 -176152185 -174005165 -172954530 -172740331 -172712187 -172650622 -172133403 -171066766 -165761928 -159958874 -159618596 -154312605 -151697267 -151649122 -150545845 -150082357 -149614531 -147480598 -147471356 -145403746 -145335943 -142640814 -142370098 -141631400 -134096229 -132303678 -128146423 -125053160 -122881767 -120384254 -116153642 -115791363 -113064835 -103305557 -95280128 -92950973 -91008253 -88784813 -86071383 -86031766 -85223867 -82646433 -80740501 -80123069 -78916038 -77084477 -73287520 -71341224 -67180230 -59806351 -51251815 -50078680 -47909776 -46589762 -45083249 -44441262 -41411290 -41318796 -40779815 -35234127 -31759055 -30448617 -25220755 -22289443 -21628646 -18248652 -17849950 -15352086 -14554028 1763135 5288516 5724259 6649269 6878086 7740165 10331292 15263698 16146049 18157273 20433010 32407431 51593586 52264988 54117692 54151644 56398585 57701807 58785261 61231045 66009963 66327618 66614153 67386238 67522417 67629712 68213172 69934520 72729078 73423263 76472906 78603787 79810963 80160145 85312024 87168663 90751866 91209249 94190625 94727983 95524906 97618110 102844790 104394317 107541496 111080969 112093350 113533339 116340694 116982129 122236680 122385999 123640211 128944044 131119939 132778833 133484654 133829659 134916611 135748952 138091406 138111542 144163478 144587742 150124376 152204942 153556723 158158203 163561655 165802468 165918803 166993041 169798303 181041453 191348018 197573902 202440686 203645401 205406533 206226310 210366356 210803670 214688891 219581970 219816972 225916314 225963040 226922709 228163312 229248262 229460631 232729949 234101999 234658530 237456376 240147215 240368709 244185248 247478810 247911934 249780350 251009905 251418600 255938522 258859335 260752074 261727768 262364568 266408057 268647769 269418095 269848732 270922083 271924438 274967054 275189389 275800935 280899487 288166782 288965956 290075662 290214567 294786921 295463115 296709773 302912465 303173083 306672582 308402234 311465592 311822109 314187991 316963636 317445841 318138620 321463738 323079259 327056101 327162298 327572124 329069588 329629952 335700109 339556796 347366348 354856677 356188215 360042595 361909441 362509283 363870666 365800680 366802565 367118342 369810472 372523040 372671074 375423754 377480234 378032249 378912763 383358193 383927563 384255455 384376687 386417742 392585462 392826785 394659702 395028098 396756570 401799022 403945407 406285738 407834530 409874483 410695113 410823531 420369113 420678124 421717919 422755581 424731255 427085039 435244424 435642806 436306294 436817779 439069450 441103599 444413455 444518210 447069597 447360476 448409921 449678549 451916789 452190469 453052451 455858395 456293271 457014709 457384738 460110111 464431404 465653698 467645545 469333551 471072508 471706288 473773034 475992417 479726994 482777465 484118678 484183606 488109371 488148714 488621364 491174349 491582751 496037905 497301562 498652661 500015311 501406377 505387921 510061559 512516192 516719405 518871962 520235504 522091289 522229137 523570856 526417266 528117490 531630550 535151900 536899510 540462462 540866150 542397464 546128213 551810096 555069531 561310711 569013607 569552027 571010738 571558723 572381251 575592456 578833471 579325979 582317404 582683718 586853365 595544790 596984192 598129521 601085547 602796758 606124964 607232513 608289563 609606031 618331644 619840255 619881540 630332034 633007042 633298983 636765021 637274332 638927052 639648267 642094984 647734802 655071541 656661951 656784726 656963664 658051667 659922076 664886929 667138928 670023301 670747772 670821408 675568608 679215077 680443389 682881139 683844073 685102017 693086344 698862775 704275310 704435035 705386507 705542023 715402193 715762221 717248385 721504993 727100772 728807070 729504606 730239804 730267367 734785459 736946476 737391577 737641408 738649878 742639585 749296063 750142129 751409484 752041599 757903317 759721101 762610773 768203092 771189294 771532947 773281051 774151405 775161677 776324037 779776491 780049403 781826148 782134318 783583047 787569838 788274948 790885247 792681806 793879094 797916297 800143335 801263211 803292468 804442945 804761199 807331641 807973624 811971096 813435533 820061689 821873036 823150278 827159746 831372037 834153477 837009727 837748223 838387014 839430781 841852573 846152716 847320886 856537223 857507930 863912971 864384617 871819160 872352420 878208950 880354037 880390551 880565719 882725394 886878943 886955369 888109714 891902390 894136701 895577018 897625157 897837612 902270657 904183922 907028675 908796261 912739630 914209264 915334082 919248014 919256527 922688794 926608783 927857168 931736606 937051991 938772287 938799010 940582427 941406723 941924335 944576571 949297350 957725964 958070625 958075190 960380806 967380118 971879993 976780808 978118316 980342684 981734072 986343241 987239391 988842522 993663926 994474473 997003163 997679159
-999091838
-999091773
-999091803
-999091840
-999091805
-999091779
-999091846
-999091768
-999091815
-999091800
-999091849
-999091813
-999091865
-999091795
-999091819
-999091793
-999091829
-999091861
-999091831
-999091780
-999091859
-999091825
-999091862
-999091824
-999091819
-999091852
-999091838
-999091807
-999091846
-999091809
-999091837
-999091770
-999091790
-999091777
-999091863
-999091835
-999091866
-999091778
-999091817
-999091799
-999091823
-999091807
-999091799
-999091846
-999091806
-999091789
-999091775
-999091812
-999091849
-999091852
-999091817
-999091792
-999091771
-999091794
-999091787
-999091771
-999091861
-999091856
-999091823
-999091852
-999091847
-999091831
-999091793
-999091775
-999091805
-999091846
-999091822
-999091815
-999091773
-999091823
-999091785
-999091867
-999091854
-999091804
-999091787
-999091801
-999091812
-999091804
-999091839
-999091863
-999091865
-999091857
-999091836
-999091777
-999091862
-999091840
-999091824
-999091788
-999091790
-999091795
-999091804
-999091808
-999091848
-999091848
-999091800
-999091807
-999091849
-999091860
-999091791
-999091802
-999091812
-999091805
-999091850
-999091808
-999091772
-999091791
-999091769
-999091828
-999091806
-999091831
-999091849
-999091774
-999091860
-999091798
-999091837
-999091814
-999091770
-999091840
-999091768
-999091813
-999091776
-999091790
-999091826
-999091780
-999091801
-999091837
-999091805
-999091809
-999091861
-999091800
-999091798
-999091835
-999091852
-999091807
-999091782
-999091841
-999091818
-999091844
-999091832
-999091782
-999091815
-999091858
-999091806
-999091825
-999091775
-999091812
-999091782
-999091808
-999091846
-999091785
-999091861
-999091776
-999091798
-999091829
-999091849
-999091837
-999091853
-999091773
-999091807
-999091855
-999091775
-999091856
-999091842
-999091780
-999091785
-999091784
-999091797
-999091768
-999091794
-999091846
-999091768
-999091844
-999091846
-999091800
-999091828
-999091847
-999091794
-999091793
-999091826
-999091782
-999091812
-999091813
-999091855
-999091807
-999091816
-999091865
-999091796
-999091790
-999091795
-999091832
-999091830
-999091796
-999091783
-999091816
-999091794
-999091820
-999091804
-999091779
-999091856
-999091806
-999091854
-999091865
-999091784
-999091866
-999091775
-999091861
-999091773
-999091777
-999091823
-999091859
-999091772
-999091807
-999091839
-999091835
-999091799
-999091831
-999091801
-999091826
-999091780
-999091819
-999091819
-999091780
-999091806
-999091778
-999091859
-999091843
-999091803
-999091865
-999091804
-999091773
-999091822
-999091798
-999091778
-999091867
-999091798
-999091783
-999091803
-999091796
-999091815
-999091865
-999091796
-999091842
-999091830
-999091852
-999091834
-999091859
-999091825
-999091851
-999091779
-999091859
-999091806
-999091813
-999091776
-999091836
-999091827
