137 242
-993940876 -962499580 -955718247 -941290757 -934046944 -919338732 -913881935 -907346951 -906871237 -904439128 -873365383 -866949953 -847532311 -845719030 -808801372 -734247900 -731462982 -727200544 -727014488 -711769453 -710446829 -684909681 -672106598 -664796100 -641325526 -628850971 -591779452 -566242777 -562171167 -533108006 -532266055 -525623430 -523976921 -501826810 -499153967 -494783000 -465525349 -435214962 -432465718 -428240121 -409675482 -407434412 -391918352 -380529459 -370994817 -370182569 -357056042 -349106930 -338194496 -320469252 -318005671 -309242168 -303258332 -291428679 -280257913 -263117875 -239433935 -231027929 -211874175 -209010393 -189925973 -180055086 -142814192 -55178910 -49105482 -44909928 -28914516 4871675 6764273 29649621 30551500 40318536 42937473 45819531 53532887 66364107 78844798 86761238 94184007 129097038 185124482 189101890 196968804 207236260 226320572 230074187 248895453 266163559 305784662 347401297 349595696 357777634 375549207 388625118 389359421 407347827 430863563 432580382 439239767 447909976 473733437 473922963 485029113 496007862 527177152 532389198 545758501 556339903 588341135 592639076 602681714 610837712 625393627 627940051 651627803 666532313 675437866 686032204 727893502 744600095 755473525 766633176 769353502 779370973 798014495 802532292 804542258 827635829 835967435 860580281 886507703 889024322 922525770 949877730 955850375 980116949 989358555
-993940905
-993940878
-993940921
-993940956
-993940954
-993940936
-993940882
-993940877
-993940949
-993940910
-993940924
-993940877
-993940898
-993940880
-993940918
-993940936
-993940955
-993940898
-993940879
-993940879
-993940938
-993940883
-993940921
-993940941
-993940903
-993940934
-993940895
-993940962
-993940906
-993940881
-993940942
-993940897
-993940926
-993940940
-993940924
-993940949
-993940961
-993940920
-993940966
-993940910
-993940958
-993940965
-993940959
-993940880
-993940946
-993940917
-993940958
-993940951
-993940927
-993940895
-993940892
-993940945
-993940958
-993940968
-993940931
-993940912
-993940954
-993940943
-993940908
-993940882
-993940954
-993940965
-993940910
-993940946
-993940894
-993940929
-993940969
-993940892
-993940915
-993940910
-993940906
-993940952
-993940912
-993940908
-993940893
-993940880
-993940940
-993940905
-993940879
-993940909
-993940976
-993940944
-993940919
-993940955
-993940970
-993940934
-993940939
-993940963
-993940925
-993940883
-993940971
-993940940
-993940882
-993940936
-993940892
-993940958
-993940879
-993940964
-993940900
-993940969
-993940958
-993940888
-993940896
-993940964
-993940888
-993940930
-993940900
-993940952
-993940891
-993940912
-993940964
-993940958
-993940973
-993940920
-993940956
-993940925
-993940918
-993940955
-993940967
-993940920
-993940934
-993940947
-993940932
-993940946
-993940964
-993940933
-993940950
-993940967
-993940939
-993940969
-993940975
-993940958
-993940932
-993940886
-993940935
-993940941
-993940923
-993940952
-993940942
-993940903
-993940888
-993940936
-993940935
-993940918
-993940956
-993940893
-993940963
-993940904
-993940951
-993940904
-993940969
-993940931
-993940918
-993940897
-993940958
-993940934
-993940940
-993940928
-993940917
-993940907
-993940961
-993940906
-993940971
-993940972
-993940899
-993940952
-993940885
-993940950
-993940967
-993940909
-993940950
-993940908
-993940903
-993940933
-993940976
-993940947
-993940932
-993940968
-993940904
-993940906
-993940893
-993940910
-993940962
-993940951
-993940920
-993940961
-993940909
-993940959
-993940960
-993940893
-993940924
-993940913
-993940936
-993940936
-993940962
-993940958
-993940945
-993940886
-993940932
-993940887
-993940914
-993940916
-993940934
-993940896
-993940913
-993940930
-993940963
-993940944
-993940975
-993940886
-993940912
-993940914
-993940944
-993940974
-993940960
-993940913
-993940961
-993940963
-993940911
-993940938
-993940966
-993940887
-993940926
-993940887
-993940918
-993940958
-993940909
-993940913
-993940892
-993940955
-993940975
-993940922
-993940953
-993940892
-993940877
-993940934
-993940925
-993940916
-993940910
-993940941
-993940908
-993940964
