783 343
-996369288 -992458419 -991512914 -987894344 -986759643 -983201065 -983105781 -981781078 -979220371 -977935169 -975861947 -973155312 -970677229 -970409384 -969353665 -968695773 -968374448 -964866036 -961346637 -958974773 -958946953 -956786315 -954821156 -948721023 -948601511 -947521843 -946923667 -940781144 -939117847 -938052367 -934897722 -934617690 -934247361 -931795960 -930419223 -927896464 -925682088 -922322165 -915763053 -915557282 -914601071 -911978270 -906265687 -905962890 -905385057 -896044484 -893868720 -892373922 -883276214 -882708725 -875400226 -869166402 -868461748 -859443912 -856654150 -853218759 -847856499 -847055839 -846591136 -846175515 -840142905 -835202029 -832622260 -828170855 -825374354 -823283735 -816465323 -814457501 -811462690 -808194147 -807506894 -807504306 -794141447 -793808670 -791658301 -790990102 -790758951 -789848674 -772780887 -772132269 -770298027 -768513350 -766756460 -764212167 -763753323 -756949160 -754848093 -747582625 -747180736 -740669956 -740625851 -738336158 -734523478 -732710087 -726049848 -723423223 -723318724 -715860502 -713634411 -713223385 -711604333 -710921763 -704752079 -697677547 -695948247 -690280252 -679303122 -677438814 -676970521 -676455749 -672865594 -671879368 -669677112 -666690867 -658986630 -657779394 -657636023 -654169625 -650368467 -649761170 -643049314 -642154418 -640603623 -637896646 -634966955 -634685747 -634003132 -633944042 -631186488 -629969853 -629744810 -625325725 -624852981 -624601777 -621896099 -619299785 -618422714 -613225118 -611371275 -610603146 -601972191 -599454961 -590728162 -588248000 -588106079 -587509503 -584842542 -582814797 -581728455 -581002335 -580448813 -576660716 -573937726 -572417604 -569634979 -569397336 -566185969 -564544546 -563878656 -562214842 -559859188 -557992121 -555388016 -553545789 -552975966 -549167288 -547547454 -540540803 -539703369 -539324348 -538105267 -532567149 -530182551 -520093065 -519522703 -518374168 -513465338 -511289824 -505902568 -502235956 -501472346 -501281386 -499000936 -498322676 -497396346 -494605067 -494091576 -493094166 -490603038 -487993175 -487789557 -486137304 -483480397 -477715949 -476819385 -471440197 -468111038 -462246903 -462030005 -458688243 -456920014 -455869133 -455370900 -454551125 -453314386 -452842589 -449625121 -445970615 -442482950 -440740166 -439556452 -437552149 -435849413 -428741286 -428252456 -426897159 -425408790 -424735341 -418840733 -417608196 -416622456 -412618767 -410788875 -407774680 -405669972 -405035520 -403157624 -398795658 -396340451 -395342448 -393633522 -390137904 -377554620 -372885132 -368272411 -368268656 -361538362 -361401508 -360005229 -358367730 -358209568 -355064554 -353583238 -352494019 -351615814 -346691751 -344003723 -341997521 -341739142 -341083068 -335751871 -332626544 -324956462 -324416291 -322490860 -321018180 -320772083 -316995409 -314142525 -311962590 -311466068 -311328401 -311038682 -303542438 -298643730 -297342328 -293908438 -292112263 -291870259 -290907360 -285776752 -284257465 -282677024 -282161025 -279311804 -278747067 -277890037 -276691843 -275363991 -274418951 -273777363 -271546613 -261100611 -256265511 -253827104 -247619442 -246472635 -245811835 -245796003 -241351991 -238891932 -236104940 -235794121 -235643697 -235539351 -232727160 -226959575 -226200195 -224826749 -222422314 -217327086 -217040469 -214359090 -212288395 -208760581 -207943857 -198132933 -197964569 -192769791 -190631895 -190407592 -190023867 -189144283 -186358382 -185975873 -180763727 -178710354 -178579051 -172248282 -161080961 -159786077 -157386858 -156290641 -153882319 -152873632 -148042092 -146981471 -146078851 -143952206 -132237392 -127494987 -125234629 -124738187 -124305643 -122776592 -121710954 -111530223 -111154969 -108212216 -106704621 -105157418 -104734253 -104442721 -100132615 -98218966 -93544880 -88895214 -87715453 -84792340 -83950801 -82316864 -82117673 -76390204 -73025305 -71165267 -67014307 -64444859 -64218590 -57706353 -57267499 -55771510 -40431145 -39777039 -37532632 -32856074 -32379457 -31972662 -30869777 -27688182 -19948234 -18067898 -17929766 -14785215 -13495683 -12973531 -11064398 -7247023 -6260687 -5751085 1786698 4159706 4499091 5926908 7226557 11104901 11528300 24848658 30295475 31720738 33964124 36758189 37067395 39642837 41688266 44815936 45293057 50581154 54771374 57086937 57250384 60372128 60463528 64824311 66642526 68431161 68705059 70207892 72752449 73870301 74372734 76743111 77640162 78940440 85969795 85978474 88109635 89475770 90762615 94563647 98233977 100178862 101459837 102819701 103539111 103966281 111439709 112774042 112864638 118663742 121130089 124285910 125642715 132219976 135830717 136256062 139218416 143207688 145976353 153571720 157860875 160343373 160841438 162181497 162885947 165620199 167345227 171509684 179827744 180592285 183626365 183940627 190802864 192703780 194912647 198634367 199923956 200018221 203116191 204180022 206075041 212610087 213243653 213342441 215167672 215334302 215506194 221568322 224222569 226986258 231976255 232000444 233994195 234807453 235546162 238330235 241917587 243976841 248012006 248417657 250820458 251900095 254705734 258558839 262092721 271936442 274436257 278966814 279721527 282976844 283907986 285642270 286078113 289461359 289586548 292604383 292914228 292990932 296842932 297002868 300128883 300632030 303582473 304029280 304565879 308119682 310535799 316623904 316747859 316854896 317000792 317927313 318707145 322499629 322884050 325234500 325400689 328165083 331958101 334618633 337821342 339500363 340653877 343901116 352305849 356448319 360181886 361031427 361339947 362089824 363422364 365609052 369984178 370055494 370382745 371238561 372823486 373356478 373937315 376119180 377303248 377560565 377635392 381647889 384945173 385084766 386638223 391120850 392557002 394443259 394557516 398219424 404918422 411510883 418222198 420490392 422002606 424358819 425420579 430246653 433285319 438109603 438588811 439532054 442554553 442908433 446318398 446882412 450215321 452211430 454837011 458032152 460618910 461759701 461999319 467227959 470577598 472301216 472757825 473199425 477028947 477170108 480493573 481898329 485407169 485963914 487631799 487940553 489778664 498597395 499940740 500079479 507199345 507864539 514487669 521005292 521020983 525733943 527549163 530056577 535012415 540051207 544904269 545251464 552264806 554888447 558455470 559442734 559460620 567324354 569604067 570632379 575943082 575961277 577328214 580243712 580998390 587109016 590100752 591393353 595199609 595221320 600240396 603425968 606676131 618846787 619824731 619854486 621223890 626559056 636615425 639818160 641826386 642665818 643524999 647762710 647993564 648894735 650128288 661838789 662545711 663484201 667527287 667864371 671451405 671889028 671951180 672109717 673533446 676426567 682813603 683113135 683594932 684787095 687437740 688210298 689789326 689987067 697489242 701213955 702605903 702808576 708585680 709892612 710565827 712927855 713165248 714422581 715257709 715676077 716530636 716977086 718939550 719146927 722992466 723076054 728363778 728594051 733581010 736100968 743399066 747433616 751666988 753826789 754463041 756937289 757096686 758953415 759922004 761312626 765295411 766047498 766209944 771530224 775022927 775219027 776300650 776856585 777806570 780386404 781386392 782061120 782516592 786505557 786893591 789821254 803981210 804007136 804266802 805211667 809041697 812495687 814279373 817910255 822039410 822454191 825113350 827181835 827740138 830377634 832417186 832450661 832747121 837975195 839228484 840727790 842439661 844668008 849053179 850521964 852368573 853748152 854268653 854835068 855954857 856166060 856846794 858163371 864897850 868884239 872232555 877473770 879178301 885555213 886490426 888280717 892334210 893574485 898131917 899540094 906660898 908138925 909440186 914085394 915676245 922283141 927373059 929161097 929499634 929879426 934182147 934496421 939203626 944752482 946152581 946653870 949464216 949542610 958484961 961122300 964352538 967170358 967965227 968900358 974314997 976744443 977482285 979602072 979651204 980715802 982728859 992294205 996403697 999763465
-996369373
-996369351
-996369298
-996369361
-996369303
-996369301
-996369320
-996369336
-996369336
-996369381
-996369297
-996369341
-996369302
-996369304
-996369363
-996369298
-996369303
-996369376
-996369300
-996369336
-996369325
-996369322
-996369326
-996369304
-996369312
-996369340
-996369359
-996369388
-996369355
-996369317
-996369302
-996369364
-996369306
-996369337
-996369310
-996369382
-996369317
-996369352
-996369296
-996369381
-996369365
-996369291
-996369329
-996369342
-996369289
-996369337
-996369334
-996369337
-996369373
-996369368
-996369317
-996369378
-996369384
-996369373
-996369367
-996369339
-996369299
-996369363
-996369291
-996369388
-996369374
-996369385
-996369350
-996369312
-996369368
-996369330
-996369333
-996369354
-996369348
-996369319
-996369385
-996369371
-996369357
-996369379
-996369380
-996369326
-996369323
-996369356
-996369387
-996369374
-996369339
-996369297
-996369379
-996369332
-996369300
-996369372
-996369364
-996369334
-996369302
-996369347
-996369299
-996369301
-996369321
-996369349
-996369361
-996369321
-996369370
-996369299
-996369299
-996369369
-996369335
-996369322
-996369359
-996369294
-996369384
-996369350
-996369386
-996369349
-996369293
-996369349
-996369366
-996369308
-996369323
-996369370
-996369369
-996369320
-996369303
-996369314
-996369303
-996369337
-996369297
-996369315
-996369319
-996369337
-996369306
-996369388
-996369303
-996369371
-996369358
-996369336
-996369342
-996369331
-996369332
-996369332
-996369293
-996369315
-996369331
-996369343
-996369345
-996369313
-996369366
-996369289
-996369336
-996369294
-996369340
-996369372
-996369326
-996369373
-996369340
-996369344
-996369291
-996369365
-996369317
-996369304
-996369343
-996369334
-996369342
-996369345
-996369340
-996369334
-996369328
-996369339
-996369346
-996369349
-996369321
-996369367
-996369340
-996369298
-996369378
-996369385
-996369308
-996369340
-996369366
-996369387
-996369364
-996369357
-996369381
-996369306
-996369311
-996369295
-996369375
-996369362
-996369329
-996369302
-996369376
-996369336
-996369380
-996369341
-996369388
-996369373
-996369378
-996369330
-996369312
-996369314
-996369375
-996369359
-996369386
-996369313
-996369323
-996369328
-996369371
-996369321
-996369379
-996369374
-996369382
-996369334
-996369385
-996369354
-996369303
-996369386
-996369326
-996369355
-996369375
-996369379
-996369345
-996369387
-996369289
-996369297
-996369304
-996369331
-996369329
-996369318
-996369330
-996369362
-996369342
-996369291
-996369316
-996369372
-996369385
-996369371
-996369326
-996369363
-996369349
-996369298
-996369301
-996369359
-996369327
-996369381
-996369338
-996369305
-996369345
-996369338
-996369340
-996369294
-996369374
-996369325
-996369334
-996369342
-996369292
-996369307
-996369370
-996369360
-996369382
-996369356
-996369382
-996369335
-996369350
-996369298
-996369325
-996369342
-996369367
-996369297
-996369310
-996369356
-996369322
-996369297
-996369335
-996369325
-996369323
-996369376
-996369360
-996369304
-996369294
-996369323
-996369367
-996369348
-996369307
-996369363
-996369322
-996369322
-996369317
-996369317
-996369365
-996369292
-996369357
-996369366
-996369307
-996369335
-996369357
-996369369
-996369352
-996369377
-996369325
-996369376
-996369366
-996369345
-996369385
-996369324
-996369354
-996369360
-996369344
-996369298
-996369386
-996369384
-996369357
-996369339
-996369384
-996369294
-996369380
-996369341
-996369387
-996369320
-996369377
-996369365
-996369334
-996369345
-996369351
-996369294
-996369327
-996369352
-996369301
-996369293
-996369299
-996369374
-996369330
-996369340
-996369291
-996369341
-996369383
-996369339
-996369365
-996369309
-996369376
-996369298
-996369325
-996369382
-996369349
-996369345
-996369333
-996369346
-996369324
-996369345
-996369323
