700 908
-999813072 -994081055 -987236298 -977203424 -975836964 -975569303 -971233162 -966412397 -961283433 -959322645 -957027464 -956998150 -954800948 -954576317 -949251215 -944826297 -944424272 -937637098 -936251393 -930471312 -927859803 -926015404 -925161529 -924902684 -917610907 -912758940 -911711013 -909020029 -905783208 -903530405 -902121050 -899625052 -892761423 -891905995 -887856498 -880840893 -880503646 -879992056 -879582312 -878512494 -878412504 -872621891 -870181297 -868530369 -865236223 -863189241 -862800426 -861291836 -855856063 -850370829 -850333761 -847623726 -837262222 -836917768 -833010033 -831150432 -830530868 -825034690 -822980157 -817664864 -816742531 -816695281 -797916588 -797855113 -797596867 -795848349 -791445692 -787332445 -787252834 -787034998 -785163576 -781806694 -776077644 -773057279 -772621714 -770289309 -767669470 -766077720 -763426766 -761893791 -760848162 -757010286 -753201200 -749644228 -746416020 -743130465 -736006000 -735647168 -723715138 -721478183 -720428577 -719605670 -716097506 -715147617 -711313639 -703571473 -703318632 -702421472 -701455421 -701319753 -697621616 -696864118 -693551257 -691669591 -690500178 -689796618 -689617184 -689007639 -686799401 -684712375 -683725858 -670302031 -668783662 -667217492 -664112692 -658112106 -657607670 -656376904 -653103817 -653024443 -650920220 -650761661 -647976838 -646647992 -631984638 -630019058 -628058425 -616668621 -613843385 -610176574 -610173801 -606273949 -605986056 -603460515 -601078884 -600099071 -597731514 -586340959 -581985834 -577572820 -574082052 -572158902 -570403888 -570034028 -568301370 -568225610 -558704493 -558689047 -558015666 -557734879 -556135433 -549344740 -547089806 -546735061 -544839741 -538288748 -535977250 -533717291 -530798202 -528875216 -524200640 -523829387 -521743022 -516626089 -515037656 -512171576 -511461921 -503108027 -502820699 -501151226 -498154983 -496491410 -496363368 -495692645 -495235903 -494667584 -494091542 -488199661 -482711544 -478985669 -478042006 -477113222 -476169833 -472662963 -472611154 -471240361 -465412952 -464436557 -461559337 -461364523 -460363362 -457906462 -452663275 -451620991 -450280153 -449478243 -444603759 -439655245 -436707407 -436474255 -427376592 -425974753 -417825124 -404415553 -403251511 -403006417 -396860093 -396718434 -395183999 -391569402 -382193130 -381943872 -379489271 -377297904 -375946318 -370331937 -369882218 -368990045 -367926893 -367763995 -366471754 -366389447 -365259245 -362287441 -360482975 -357454522 -357280806 -354403647 -353005110 -352743665 -346400449 -341467561 -339648143 -339475316 -336432710 -329422387 -329238430 -326512735 -325336119 -322090635 -319747412 -319339821 -316639553 -313881305 -305313526 -303836325 -299050873 -295904569 -292395906 -290282288 -285032471 -284378035 -282093766 -280559991 -280516936 -279914434 -278209208 -275297845 -272149428 -272143700 -258968829 -258827330 -258741089 -258262502 -257715985 -254451995 -253647140 -252708839 -251123325 -242431157 -241398090 -240114982 -239650032 -236611641 -234201989 -232562417 -229721348 -224424323 -223303111 -220560614 -215392475 -213470468 -213304995 -212502395 -210620878 -208966163 -200791631 -199956770 -198929672 -197709956 -193962487 -192873885 -190354765 -187005277 -185666800 -182596108 -180655487 -179094271 -177031305 -175579257 -173723935 -173196143 -172352549 -168952949 -166828191 -165545799 -163501434 -162164376 -149982312 -149795265 -136419348 -131987134 -131447917 -131416690 -129261715 -121670071 -120549988 -119751978 -118449379 -114704903 -113092844 -111764149 -110294881 -109723722 -108977773 -103066229 -102058560 -100078531 -99831798 -97428237 -97417291 -93917705 -93745244 -91964937 -91394836 -81945709 -80243187 -80030492 -78252508 -77854675 -77642530 -77114689 -66724932 -58407081 -56509514 -53765645 -48437551 -47237982 -41110910 -35699770 -35348946 -29561034 -29234505 -28154624 -27351456 -13226561 -7303742 -7108741 -4429491 1005504 1650777 10481686 10927321 11763804 15155373 19203208 21081270 24337072 27373645 30214592 36026686 36158844 39216246 41838686 42163013 44676818 46966675 47228183 50522895 64720692 67393498 70369522 79247875 80324017 89168833 90822219 92335380 95473576 104921939 110540512 110835955 113351318 114238111 117128093 117196842 117422264 120332062 121098253 122427156 128632327 136816507 139733625 140355054 140409242 143758136 150593047 162933914 165496697 167932629 169781166 171202350 177600845 181213360 188286296 189900307 192229193 202013282 207520201 209004078 216637729 216758941 217310565 221404186 222916376 223638170 226877438 236952415 240403734 245651641 246373508 250999326 254801738 256125216 259092483 261843824 265563474 268096134 274515911 277697302 278643045 279693411 287107288 287129735 287636752 288337608 291773647 292272162 292971133 293593189 295009073 295210905 298121280 301573182 303898856 304636164 307806240 309383517 310697484 311821086 314370858 316726646 318479988 324246412 324279462 328433580 330994915 331064272 333906058 336254317 341929870 343196941 344950593 351830175 355974901 357566162 360753830 361202304 368742598 374900675 375052516 377429159 381748228 383911310 386080484 393576902 393781837 394282575 394402564 395264439 396079413 398578844 399639265 402498274 416055469 417953848 419317906 423588218 424472397 424888314 430123985 432057971 432545212 433011442 438018919 440782515 442500244 447161018 449471478 449573010 450128162 457805244 459107546 473862748 479675232 481894767 482447252 482898105 484506979 488403335 491093698 492054555 494976919 495829770 496392076 498461685 499149083 501964871 504823380 505788937 506794299 512389858 513442807 514456873 514831326 520214653 527615795 529569219 530546115 531045298 531684478 532532514 535119099 538992464 540559916 546532970 547847732 554396614 556995401 561823158 567759205 569795713 572294357 574874532 580662665 584173687 587324646 589893118 590756348 591753203 592417182 593675195 594108430 597919797 602569437 603069275 608895067 609094229 609233061 609423421 609883554 616465938 617010619 621891081 629077015 629173512 632503798 632626927 638966884 640283250 644158654 647588718 650738436 654620393 656233720 663751241 668810462 669516418 674782038 676309884 676544158 677210548 678012318 678697571 682634087 683498617 686180751 689435047 689882974 695166020 696551072 702416677 702652213 702851031 703403491 704076847 704316258 707397069 712308226 712313707 714646156 714996713 715953334 716760124 719725286 725360104 725560086 727475951 729058221 730211311 739135030 739736794 751155801 756923125 759889051 764180863 769479116 770937192 773142050 776676708 777988072 781054527 783176920 787688207 790925042 791150414 794048372 795451369 795546674 799639561 799900511 801796467 803470915 814100185 817052407 824138015 825023050 825545309 826114251 828276462 830612787 830863903 835301450 835418429 835549365 837987058 839955626 841907052 845875941 850499285 854053924 858383145 861780663 863942654 864051622 867886289 867934395 871030751 872014411 872383655 874412315 878180043 881102653 886984784 895381755 898309843 901804758 902681526 924405047 939068945 941883597 943006986 945306271 946468748 950652021 954797748 959251372 960168284 964425576 973499932 979841681 980189006 984048027 984614287 985607388 986750341 991094071 995589071 995703847 998106782 998111896
-999813074
-999813128
-999813092
-999813144
-999813129
-999813139
-999813143
-999813149
-999813096
-999813169
-999813105
-999813109
-999813121
-999813093
-999813127
-999813097
-999813115
-999813134
-999813112
-999813132
-999813116
-999813076
-999813165
-999813126
-999813130
-999813106
-999813165
-999813102
-999813091
-999813076
-999813161
-999813103
-999813075
-999813171
-999813160
-999813144
-999813131
-999813115
-999813123
-999813162
-999813162
-999813153
-999813159
-999813096
-999813131
-999813150
-999813082
-999813079
-999813168
-999813146
-999813087
-999813089
-999813153
-999813156
-999813158
-999813111
-999813103
-999813141
-999813098
-999813113
-999813136
-999813142
-999813098
-999813085
-999813151
-999813143
-999813132
-999813145
-999813131
-999813083
-999813144
-999813123
-999813103
-999813128
-999813128
-999813106
-999813139
-999813170
-999813159
-999813145
-999813143
-999813139
-999813168
-999813148
-999813103
-999813123
-999813075
-999813084
-999813172
-999813127
-999813077
-999813075
-999813161
-999813150
-999813153
-999813155
-999813170
-999813125
-999813125
-999813136
-999813097
-999813160
-999813108
-999813150
-999813132
-999813104
-999813133
-999813171
-999813131
-999813077
-999813161
-999813147
-999813130
-999813092
-999813163
-999813102
-999813099
-999813148
-999813085
-999813129
-999813162
-999813117
-999813074
-999813084
-999813109
-999813146
-999813159
-999813172
-999813096
-999813112
-999813165
-999813117
-999813157
-999813149
-999813142
-999813149
-999813120
-999813088
-999813120
-999813125
-999813154
-999813108
-999813169
-999813085
-999813134
-999813155
-999813079
-999813127
-999813082
-999813151
-999813114
-999813076
-999813103
-999813163
-999813153
-999813135
-999813074
-999813085
-999813081
-999813085
-999813084
-999813126
-999813171
-999813146
-999813133
-999813111
-999813082
-999813120
-999813136
-999813131
-999813115
-999813103
-999813127
-999813144
-999813161
-999813127
-999813131
-999813081
-999813168
-999813098
-999813082
-999813156
-999813078
-999813161
-999813141
-999813088
-999813153
-999813152
-999813163
-999813081
-999813087
-999813100
-999813077
-999813168
-999813125
-999813104
-999813120
-999813131
-999813125
-999813123
-999813120
-999813082
-999813135
-999813098
-999813128
-999813105
-999813085
-999813107
-999813161
-999813126
-999813098
-999813086
-999813171
-999813151
-999813172
-999813101
-999813085
-999813112
-999813093
-999813094
-999813160
-999813103
-999813154
-999813099
-999813131
-999813139
-999813134
-999813088
-999813147
-999813100
-999813129
-999813152
-999813132
-999813172
-999813112
-999813078
-999813120
-999813163
-999813120
-999813083
-999813161
-999813151
-999813161
-999813156
-999813146
-999813131
-999813163
-999813098
-999813157
-999813150
-999813160
-999813145
-999813133
-999813092
-999813118
-999813075
-999813081
-999813160
-999813082
-999813109
-999813077
-999813115
-999813075
-999813151
-999813076
-999813130
-999813117
-999813152
-999813114
-999813120
-999813097
-999813111
-999813118
-999813089
-999813093
-999813138
-999813122
-999813078
-999813094
-999813158
-999813091
-999813073
-999813140
-999813124
-999813163
-999813121
-999813104
-999813106
-999813081
-999813145
-999813089
-999813102
-999813108
-999813115
-999813108
-999813112
-999813149
-999813131
-999813171
-999813163
-999813129
-999813099
-999813135
-999813098
-999813104
-999813101
-999813111
-999813108
-999813113
-999813127
-999813146
-999813092
-999813160
-999813123
-999813074
-999813129
-999813157
-999813117
-999813167
-999813112
-999813113
-999813107
-999813136
-999813142
-999813112
-999813109
-999813116
-999813110
-999813153
-999813104
-999813127
-999813083
-999813129
-999813093
-999813170
-999813150
-999813172
-999813146
-999813094
-999813077
-999813107
-999813108
-999813169
-999813138
-999813131
-999813088
-999813151
-999813092
-999813159
-999813119
-999813088
-999813076
-999813163
-999813169
-999813143
-999813114
-999813084
-999813084
-999813087
-999813115
-999813157
-999813171
-999813134
-999813167
-999813155
-999813139
-999813154
-999813155
-999813151
-999813077
-999813133
-999813159
-999813122
-999813133
-999813131
-999813117
-999813150
-999813150
-999813147
-999813099
-999813170
-999813154
-999813080
-999813113
-999813091
-999813077
-999813110
-999813102
-999813150
-999813117
-999813111
-999813143
-999813145
-999813166
-999813145
-999813165
-999813120
-999813082
-999813128
-999813133
-999813166
-999813114
-999813152
-999813111
-999813086
-999813098
-999813114
-999813112
-999813136
-999813084
-999813168
-999813154
-999813120
-999813169
-999813088
-999813135
-999813148
-999813101
-999813157
-999813170
-999813117
-999813150
-999813158
-999813170
-999813153
-999813113
-999813137
-999813095
-999813162
-999813160
-999813110
-999813103
-999813161
-999813153
-999813137
-999813105
-999813150
-999813089
-999813099
-999813108
-999813151
-999813085
-999813121
-999813126
-999813104
-999813143
-999813170
-999813163
-999813082
-999813167
-999813085
-999813136
-999813078
-999813083
-999813111
-999813086
-999813106
-999813092
-999813081
-999813098
-999813112
-999813079
-999813133
-999813135
-999813083
-999813108
-999813160
-999813093
-999813153
-999813157
-999813164
-999813116
-999813106
-999813131
-999813086
-999813108
-999813090
-999813092
-999813160
-999813124
-999813155
-999813161
-999813111
-999813107
-999813111
-999813120
-999813078
-999813117
-999813121
-999813096
-999813123
-999813106
-999813167
-999813124
-999813150
-999813128
-999813145
-999813143
-999813085
-999813106
-999813133
-999813085
-999813089
-999813122
-999813091
-999813126
-999813076
-999813119
-999813158
-999813108
-999813094
-999813124
-999813127
-999813092
-999813089
-999813159
-999813147
-999813107
-999813087
-999813163
-999813106
-999813161
-999813118
-999813122
-999813088
-999813163
-999813114
-999813105
-999813140
-999813161
-999813146
-999813094
-999813125
-999813114
-999813114
-999813152
-999813120
-999813122
-999813111
-999813168
-999813171
-999813117
-999813130
-999813150
-999813079
-999813157
-999813085
-999813150
-999813076
-999813150
-999813086
-999813094
-999813152
-999813079
-999813125
-999813153
-999813170
-999813150
-999813099
-999813087
-999813112
-999813073
-999813096
-999813137
-999813078
-999813091
-999813162
-999813168
-999813151
-999813133
-999813136
-999813115
-999813098
-999813133
-999813138
-999813088
-999813129
-999813155
-999813073
-999813090
-999813116
-999813132
-999813139
-999813100
-999813111
-999813169
-999813169
-999813102
-999813142
-999813082
-999813122
-999813135
-999813086
-999813119
-999813158
-999813170
-999813122
-999813084
-999813088
-999813077
-999813131
-999813105
-999813163
-999813085
-999813098
-999813089
-999813125
-999813083
-999813117
-999813165
-999813079
-999813074
-999813125
-999813098
-999813114
-999813117
-999813096
-999813103
-999813108
-999813125
-999813082
-999813171
-999813108
-999813158
-999813113
-999813078
-999813142
-999813115
-999813101
-999813150
-999813152
-999813106
-999813125
-999813116
-999813148
-999813129
-999813160
-999813151
-999813079
-999813136
-999813107
-999813092
-999813144
-999813140
-999813124
-999813079
-999813095
-999813130
-999813098
-999813156
-999813105
-999813110
-999813143
-999813101
-999813146
-999813145
-999813138
-999813098
-999813102
-999813099
-999813144
-999813146
-999813163
-999813156
-999813087
-999813076
-999813160
-999813106
-999813161
-999813082
-999813116
-999813082
-999813101
-999813145
-999813137
-999813075
-999813127
-999813118
-999813156
-999813163
-999813136
-999813078
-999813094
-999813136
-999813104
-999813166
-999813108
-999813162
-999813140
-999813146
-999813108
-999813091
-999813081
-999813156
-999813132
-999813136
-999813087
-999813134
-999813093
-999813151
-999813122
-999813166
-999813126
-999813136
-999813138
-999813079
-999813086
-999813129
-999813165
-999813133
-999813086
-999813123
-999813112
-999813144
-999813162
-999813129
-999813111
-999813142
-999813105
-999813140
-999813087
-999813099
-999813142
-999813115
-999813101
-999813144
-999813138
-999813141
-999813166
-999813104
-999813124
-999813090
-999813103
-999813154
-999813103
-999813107
-999813144
-999813142
-999813121
-999813150
-999813121
-999813119
-999813104
-999813161
-999813160
-999813121
-999813134
-999813169
-999813163
-999813135
-999813144
-999813122
-999813105
-999813110
-999813145
-999813121
-999813120
-999813162
-999813136
-999813098
-999813168
-999813131
-999813108
-999813096
-999813172
-999813116
-999813131
-999813126
-999813091
-999813158
-999813079
-999813162
-999813157
-999813156
-999813166
-999813137
-999813107
-999813127
-999813111
-999813074
-999813116
-999813074
-999813134
-999813110
-999813109
-999813150
-999813077
-999813090
-999813145
-999813088
-999813087
-999813146
-999813131
-999813112
-999813156
-999813168
-999813103
-999813077
-999813152
-999813151
-999813117
-999813160
-999813153
-999813114
-999813152
-999813089
-999813096
-999813135
-999813157
-999813128
-999813114
-999813158
-999813082
-999813168
-999813102
-999813126
-999813121
-999813112
-999813139
-999813104
-999813151
-999813087
-999813077
-999813139
-999813138
-999813082
-999813162
-999813165
-999813141
-999813079
-999813099
-999813097
-999813098
-999813150
-999813157
-999813144
-999813162
-999813105
-999813086
-999813152
-999813097
-999813126
-999813082
-999813166
-999813124
-999813075
-999813165
-999813142
-999813113
-999813085
-999813170
-999813120
-999813104
-999813119
-999813147
-999813158
-999813134
-999813099
-999813141
-999813122
-999813075
-999813171
-999813134
-999813081
-999813145
-999813158
-999813108
-999813144
-999813161
-999813131
-999813148
-999813080
-999813149
-999813152
-999813140
-999813152
-999813150
-999813164
-999813111
-999813138
-999813165
-999813148
-999813081
-999813080
-999813133
-999813111
-999813080
-999813166
-999813154
-999813152
-999813106
-999813095
-999813145
-999813095
-999813148
-999813153
-999813146
-999813160
-999813077
-999813171
-999813076
-999813137
-999813170
-999813145
-999813115
-999813100
-999813094
-999813092
