251 734
-984737728 -974281014 -973896401 -958305157 -948590535 -932345701 -913034371 -912359064 -905123685 -896178298 -886970910 -869540571 -859396688 -853475137 -838169780 -835413075 -812940267 -809939439 -806228371 -804713205 -801542811 -799411411 -760937129 -760437955 -756457204 -729140594 -705408952 -695656159 -694606847 -692577230 -679781775 -669079914 -662457462 -658024078 -654521926 -649357834 -640137762 -638345247 -633639378 -633624760 -624799502 -622930230 -622596316 -616648254 -609400992 -595984467 -579899124 -573982773 -573306528 -551617735 -540225892 -526876544 -514079314 -511864400 -501023445 -498608698 -494176174 -470285867 -458978948 -447451362 -436771664 -434194451 -425687098 -418963306 -409876905 -405898947 -401536361 -395276628 -392239920 -386749674 -377401322 -372947903 -356927223 -349300146 -341340148 -324534961 -303083075 -301289818 -298513739 -297807500 -285025648 -263748995 -262807201 -257746521 -246477433 -235950023 -225929953 -224100749 -211348022 -208508044 -198467889 -191240938 -175939527 -161504586 -161427834 -159227196 -156903737 -156574747 -156131417 -155468156 -144874352 -138571153 -136209401 -134366115 -131831787 -117873929 -106571426 -104624940 -103664516 -97855168 -96689299 -95033157 -93012239 -89234346 -82919386 -65823686 -42903016 -38574343 -31767827 -21363208 -19157491 -11089340 -8988218 -7745933 9684060 15109422 15369529 18423572 22090621 42752886 45631723 50090032 53028286 64580591 66537165 83457609 92488245 92964618 95887849 97444098 97741492 99195687 99491305 129380437 145165411 156850500 165727133 175284698 175612958 177849036 178100800 186989120 191845456 197194403 199380035 231518857 256386604 267552311 275820497 290599111 291204944 294871277 301581211 307056342 312572261 315214336 319508719 320567859 328012812 329529200 335213671 347769165 355031704 373654486 374698376 384606405 386726672 390440838 402955720 427849341 436742030 438670504 440772501 445481706 450376779 458922216 459740656 464136711 494186185 508362559 513074745 518966651 522235138 523654815 526766797 535826405 540100944 545997769 550994369 557812901 568594973 586369618 586371044 594864048 602600497 617937102 644591335 660442430 666503521 672691823 682854466 685604847 686458114 688547931 692611178 702891957 705796244 706319038 706770397 713385898 726801346 731034505 737447812 738772459 745227850 745765151 749675571 757518845 767436802 792570192 808784114 833624806 843587118 850005682 855153600 860815173 876530430 882217203 890340414 899370734 900024322 901745987 902821029 913838517 921875857 924837914 936768130 942651918 955734814 959141705 964059822
-984737741
-984737765
-984737806
-984737786
-984737738
-984737730
-984737752
-984737750
-984737802
-984737770
-984737812
-984737781
-984737781
-984737785
-984737770
-984737730
-984737758
-984737755
-984737755
-984737758
-984737806
-984737808
-984737749
-984737776
-984737762
-984737793
-984737751
-984737820
-984737808
-984737811
-984737799
-984737737
-984737807
-984737741
-984737740
-984737805
-984737738
-984737821
-984737776
-984737806
-984737817
-984737783
-984737753
-984737787
-984737782
-984737744
-984737752
-984737764
-984737810
-984737817
-984737736
-984737783
-984737745
-984737815
-984737810
-984737731
-984737748
-984737796
-984737750
-984737747
-984737766
-984737732
-984737751
-984737756
-984737807
-984737766
-984737741
-984737795
-984737752
-984737826
-984737751
-984737764
-984737822
-984737783
-984737763
-984737759
-984737780
-984737752
-984737741
-984737802
-984737742
-984737812
-984737828
-984737798
-984737759
-984737774
-984737759
-984737793
-984737781
-984737744
-984737737
-984737826
-984737747
-984737814
-984737776
-984737749
-984737780
-984737764
-984737742
-984737779
-984737758
-984737803
-984737784
-984737766
-984737802
-984737737
-984737812
-984737786
-984737826
-984737753
-984737793
-984737798
-984737765
-984737786
-984737795
-984737775
-984737776
-984737820
-984737730
-984737757
-984737796
-984737783
-984737777
-984737815
-984737814
-984737818
-984737741
-984737751
-984737789
-984737736
-984737825
-984737754
-984737804
-984737739
-984737792
-984737755
-984737739
-984737823
-984737752
-984737782
-984737766
-984737796
-984737765
-984737751
-984737782
-984737730
-984737746
-984737806
-984737804
-984737808
-984737751
-984737763
-984737736
-984737761
-984737732
-984737751
-984737813
-984737767
-984737786
-984737786
-984737791
-984737797
-984737744
-984737773
-984737797
-984737803
-984737770
-984737760
-984737821
-984737791
-984737821
-984737826
-984737800
-984737749
-984737817
-984737795
-984737761
-984737768
-984737814
-984737800
-984737799
-984737782
-984737755
-984737774
-984737786
-984737790
-984737762
-984737804
-984737818
-984737806
-984737816
-984737792
-984737744
-984737737
-984737799
-984737736
-984737730
-984737785
-984737799
-984737825
-984737758
-984737772
-984737769
-984737824
-984737825
-984737801
-984737784
-984737773
-984737758
-984737747
-984737807
-984737815
-984737820
-984737824
-984737740
-984737751
-984737792
-984737820
-984737769
-984737765
-984737755
-984737774
-984737814
-984737731
-984737798
-984737740
-984737752
-984737768
-984737778
-984737800
-984737779
-984737794
-984737775
-984737821
-984737732
-984737793
-984737770
-984737738
-984737770
-984737816
-984737743
-984737784
-984737748
-984737738
-984737821
-984737817
-984737789
-984737816
-984737757
-984737792
-984737813
-984737771
-984737802
-984737776
-984737757
-984737760
-984737800
-984737808
-984737736
-984737763
-984737822
-984737747
-984737745
-984737819
-984737779
-984737748
-984737805
-984737791
-984737795
-984737741
-984737742
-984737736
-984737812
-984737776
-984737731
-984737767
-984737820
-984737792
-984737785
-984737785
-984737795
-984737730
-984737769
-984737811
-984737740
-984737787
-984737779
-984737816
-984737790
-984737764
-984737803
-984737811
-984737792
-984737803
-984737769
-984737774
-984737761
-984737732
-984737733
-984737748
-984737753
-984737819
-984737743
-984737737
-984737815
-984737749
-984737759
-984737801
-984737778
-984737781
-984737811
-984737762
-984737759
-984737734
-984737769
-984737817
-984737749
-984737767
-984737819
-984737772
-984737794
-984737758
-984737755
-984737797
-984737730
-984737781
-984737743
-984737825
-984737764
-984737775
-984737812
-984737754
-984737784
-984737767
-984737730
-984737775
-984737780
-984737738
-984737772
-984737745
-984737787
-984737757
-984737765
-984737825
-984737780
-984737815
-984737819
-984737780
-984737769
-984737744
-984737799
-984737745
-984737819
-984737820
-984737768
-984737754
-984737738
-984737788
-984737825
-984737779
-984737804
-984737771
-984737807
-984737731
-984737794
-984737780
-984737794
-984737755
-984737762
-984737806
-984737762
-984737756
-984737824
-984737760
-984737732
-984737827
-984737817
-984737812
-984737782
-984737742
-984737739
-984737762
-984737796
-984737740
-984737778
-984737797
-984737779
-984737761
-984737760
-984737764
-984737781
-984737783
-984737762
-984737737
-984737815
-984737789
-984737802
-984737811
-984737750
-984737732
-984737731
-984737801
-984737818
-984737761
-984737828
-984737785
-984737789
-984737764
-984737776
-984737754
-984737783
-984737765
-984737744
-984737783
-984737740
-984737770
-984737750
-984737799
-984737779
-984737733
-984737744
-984737749
-984737797
-984737793
-984737806
-984737755
-984737770
-984737819
-984737793
-984737807
-984737741
-984737747
-984737809
-984737800
-984737772
-984737752
-984737791
-984737827
-984737773
-984737782
-984737764
-984737825
-984737755
-984737783
-984737790
-984737817
-984737742
-984737807
-984737760
-984737769
-984737738
-984737758
-984737740
-984737750
-984737790
-984737766
-984737812
-984737827
-984737770
-984737786
-984737746
-984737803
-984737789
-984737738
-984737760
-984737796
-984737741
-984737739
-984737822
-984737789
-984737738
-984737763
-984737812
-984737746
-984737798
-984737762
-984737792
-984737823
-984737747
-984737734
-984737743
-984737730
-984737812
-984737822
-984737796
-984737741
-984737810
-984737805
-984737824
-984737815
-984737752
-984737812
-984737818
-984737731
-984737751
-984737783
-984737752
-984737766
-984737768
-984737800
-984737763
-984737741
-984737754
-984737767
-984737761
-984737761
-984737783
-984737750
-984737742
-984737762
-984737764
-984737745
-984737729
-984737827
-984737810
-984737756
-984737735
-984737803
-984737779
-984737767
-984737739
-984737807
-984737773
-984737730
-984737825
-984737731
-984737803
-984737805
-984737747
-984737789
-984737735
-984737824
-984737780
-984737792
-984737770
-984737783
-984737769
-984737825
-984737805
-984737798
-984737818
-984737748
-984737827
-984737813
-984737765
-984737770
-984737795
-984737786
-984737752
-984737741
-984737800
-984737754
-984737760
-984737802
-984737737
-984737781
-984737779
-984737791
-984737749
-984737729
-984737783
-984737827
-984737739
-984737757
-984737766
-984737745
-984737823
-984737796
-984737775
-984737795
-984737797
-984737772
-984737803
-984737771
-984737801
-984737747
-984737823
-984737752
-984737812
-984737800
-984737729
-984737755
-984737769
-984737785
-984737783
-984737769
-984737808
-984737815
-984737740
-984737757
-984737801
-984737803
-984737751
-984737816
-984737745
-984737785
-984737786
-984737736
-984737827
-984737811
-984737776
-984737761
-984737753
-984737794
-984737811
-984737810
-984737817
-984737729
-984737759
-984737824
-984737771
-984737825
-984737749
-984737818
-984737820
-984737828
-984737791
-984737751
-984737772
-984737731
-984737759
-984737824
-984737789
-984737818
-984737745
-984737766
-984737805
-984737785
-984737766
-984737747
-984737751
-984737801
-984737826
-984737770
-984737783
-984737739
-984737779
-984737804
-984737814
-984737816
-984737804
-984737825
-984737761
-984737797
-984737739
-984737765
-984737821
-984737788
-984737750
-984737809
-984737746
-984737787
-984737749
-984737803
-984737775
-984737793
-984737734
-984737782
-984737792
-984737799
-984737751
-984737789
-984737759
-984737743
-984737800
-984737770
-984737820
-984737828
-984737803
-984737751
-984737731
-984737754
-984737789
-984737796
-984737825
-984737811
-984737773
-984737809
-984737812
-984737755
-984737814
-984737819
-984737736
-984737780
-984737809
-984737741
-984737751
-984737773
-984737751
-984737761
-984737801
-984737755
-984737734
-984737750
-984737826
-984737787
-984737787
-984737733
-984737748
-984737818
-984737767
-984737766
-984737789
-984737739
-984737786
-984737737
-984737730
-984737746
-984737817
-984737780
-984737729
-984737824
-984737745
-984737769
-984737741
-984737752
-984737786
-984737813
-984737775
-984737741
-984737736
-984737737
-984737772
-984737758
-984737735
-984737822
-984737823
-984737815
-984737756
-984737817
-984737795
-984737778
-984737796
-984737752
