945 989
-994222158 -992325245 -988832539 -988512069 -987737446 -985881138 -984791033 -983550505 -982938437 -979118276 -978531389 -978113592 -977845429 -976855733 -973779186 -972073561 -970103131 -967275712 -967018120 -965840318 -964648977 -964634281 -964132242 -962385523 -959387830 -956818059 -955997967 -955945741 -955481179 -955305398 -955287053 -955152437 -946020926 -945023050 -944951664 -935312150 -933520883 -932344015 -930350747 -928555478 -927994124 -927534396 -923781469 -923565678 -923548548 -922042442 -917640339 -917015849 -912869994 -911417150 -909875587 -908779499 -908445536 -905238208 -904031485 -903488880 -898483744 -896701775 -896322928 -893661218 -893503081 -892774265 -892556395 -891289037 -890637661 -890538581 -889518361 -888487199 -886481878 -885928102 -885298734 -883374247 -880135395 -879597268 -877820636 -871281719 -864205948 -863969456 -862702057 -862228168 -861863472 -858840716 -857750368 -855734789 -855601097 -849795354 -845603101 -842214911 -841601198 -834404538 -833548271 -833276218 -831841922 -829778514 -824076152 -822663200 -821958585 -821523681 -821422431 -816730706 -813442031 -812665143 -812524158 -809372815 -801320188 -799430347 -797955629 -797194079 -796488291 -794798786 -793964764 -792150523 -790721482 -789502117 -789243501 -788896886 -788071632 -785449301 -785204109 -784161303 -783287542 -778604478 -778353204 -776667185 -776089598 -772958112 -770658367 -770624423 -769297393 -767163030 -767000052 -765908865 -762454496 -762140832 -756758723 -754567097 -748501009 -748419035 -745819442 -737042869 -734315244 -728375056 -723332079 -723187117 -719740013 -719358455 -715385727 -714739651 -713862836 -706690183 -705514592 -702185767 -700192649 -699816645 -697651777 -697247063 -696238573 -695794012 -694372271 -692801516 -691298569 -690119912 -687831784 -687682837 -687001319 -681692939 -680905086 -679873236 -671167148 -670384708 -668813783 -668764587 -665862690 -657519058 -654179485 -648231821 -644989271 -644792800 -644089362 -643438676 -642572175 -641191041 -638696440 -637457542 -635142329 -633776390 -631485775 -631292832 -629895327 -621990272 -619360704 -617386064 -615541856 -611871729 -604946637 -604898952 -604749131 -604238593 -603364814 -601265844 -597887570 -597879242 -596846466 -596369681 -595605407 -594859875 -594687813 -592002087 -590267836 -588841605 -585945388 -583146192 -581869819 -581684163 -581653109 -576288400 -574895193 -572957745 -572208220 -569645936 -567961846 -564858481 -561334635 -558700867 -553948924 -553219426 -550237308 -547694701 -543596009 -541867911 -534067014 -533098558 -528513629 -526863734 -525613956 -520275252 -520199394 -517266168 -515945887 -510184482 -504676862 -503587259 -498423806 -498035990 -496350183 -495566939 -490650021 -490196169 -488546087 -486237114 -485924726 -485319790 -484117439 -483222493 -483048733 -479983366 -479974696 -476463725 -470016200 -466783804 -466313470 -458243720 -457083578 -456809796 -452524540 -450380021 -447911310 -447900636 -447787362 -446499994 -446271100 -443696916 -441714857 -440682963 -440487682 -439943150 -439651817 -439022865 -438959746 -436546340 -435447315 -434226643 -433364357 -431713674 -430193470 -428067630 -425832845 -424335339 -424310308 -422035220 -420883633 -418829143 -418529928 -415689667 -415505181 -412712916 -411150658 -410651665 -405714455 -399074972 -397609106 -395296869 -390012886 -386756399 -381402480 -377672161 -375703436 -373693150 -372569326 -372198419 -370174943 -369178486 -362050493 -360370379 -355496544 -355442543 -354483145 -352347384 -351817453 -351291115 -348777189 -348610871 -346687537 -343894229 -342433185 -338656381 -337083663 -336353740 -329158039 -328729338 -328713955 -325495230 -323035328 -320778010 -314411932 -314287198 -314026416 -312113697 -306546382 -305134003 -302696478 -300475139 -300064427 -298217364 -297657056 -293845405 -291518691 -291190471 -290577010 -289342726 -284594282 -281671949 -280907411 -278749899 -277001179 -276407476 -276176823 -274981475 -270461258 -270143047 -269552568 -266181909 -264616489 -263498912 -260356174 -255858038 -255684140 -253201168 -252303256 -248061106 -247600119 -244731948 -242833653 -240702497 -236775924 -235560017 -235242458 -225966226 -215651622 -214348831 -214212780 -212529351 -211438157 -211201903 -205431749 -205302902 -201914927 -201467573 -200722809 -200044072 -199810849 -197724135 -195922232 -193085627 -190992806 -189344319 -189325474 -189321065 -185989011 -183473653 -182811041 -177842777 -157471673 -154873227 -152695419 -149084697 -147085999 -145774692 -145683436 -138523252 -137888527 -128246572 -125766081 -119125814 -117810466 -117515888 -115265183 -108558760 -107620622 -107509605 -105838202 -102463055 -102274891 -101234172 -100989590 -97120282 -94924336 -93426035 -93106453 -90546037 -89431567 -83503124 -83026916 -81750833 -81750533 -81216469 -78510518 -71275262 -69974020 -66957787 -52794127 -49375468 -48931279 -43947315 -42572968 -42020874 -38914747 -37914690 -37881085 -33849618 -28325829 -27944919 -26679189 -21810549 -20730998 -19959930 -19114852 -10560923 -10271911 -6889143 -6264999 -2816181 -2146482 1969739 9539146 9954439 9961782 10614906 11168182 11572596 12248931 20149957 23339110 25016153 25998497 26447186 28966481 29352267 34684107 37895102 38652577 38736740 41215723 41239761 44021003 45053576 47312634 52411153 53801669 59332881 60990133 64436112 65958133 66105742 67134548 67800424 68855542 69370323 71052054 73060510 75260592 76141781 83377680 88845862 96816617 100488674 100728577 101543171 105073638 109159289 112196742 114189006 114375211 116368238 116634652 116963366 119109921 123036803 128798709 129928355 133426573 136481322 138205462 142901337 145908553 148711933 150360630 157200720 157714377 164086905 164755518 165493214 170626645 170913194 172425552 174204604 177738341 179386468 179691146 180826774 184133966 185379563 185988392 186035819 186787104 187476841 192265579 196934296 200258705 206224520 206284991 208420233 209592034 209779719 211251040 211717815 214681155 218484041 218720937 220607599 221193679 222730784 225311879 227566552 229062235 230201385 230938688 231176377 231268793 234120929 236747234 236976380 237811213 238773303 238967986 240164003 240180117 241338400 243659751 244376369 245705282 249174334 252637426 253211561 260102183 263463931 265629987 266487433 270223012 271573805 273476396 279456126 282714209 285496726 285782179 290598103 296028658 300066292 301744548 305053569 306340536 306372582 307317484 311480528 312406342 312530278 316103687 316108098 316158254 316561442 317075295 319885346 324532203 325434992 325563865 327922918 327993799 329268983 330552471 331321669 333759611 334097788 334723726 337704474 339094357 340502675 340969992 347201641 349224252 349592625 350246872 350779192 352142973 352273421 353362485 353407780 354189514 354310637 354764186 358562183 362582340 368843332 369290938 376578230 376934687 377627431 378637918 380552148 380596024 380627681 384972593 386912549 389129402 390651899 393326990 394414313 402130717 402479846 404333038 406446970 407618438 408070073 408084672 408184312 409363227 411814379 411900599 412715809 425261253 425686235 432996405 441231133 442675172 444167223 445213334 445263947 450759177 450853057 452470742 452841539 453965081 455527796 457551459 458257747 460014894 460619227 462367874 463085773 463279749 465238391 465435071 466514407 467058727 472322994 478928502 479324553 480620930 481836204 484106448 486086158 486277348 487459712 488420021 490369653 500665553 500787310 501814445 501999430 504580737 506734267 510935533 512047403 514286200 516106908 520675945 523567384 524181307 526214499 526236509 529879332 530491545 531948565 532335312 534260146 540576958 543698276 544199830 544735026 545337158 549999628 550059663 556201358 556610408 560940481 561524312 562458962 562924760 574579330 577213350 577870524 578306950 579991271 580260240 583549292 585524442 587559127 589644382 589859577 589987217 591750035 593220947 593404658 597261948 597910099 598115991 598290938 599233054 601127702 601378305 603375093 607777989 608395304 608425796 612556012 614105258 614124611 614875143 614944734 615218386 616749441 620190775 620472947 622227300 631667363 631781903 634634542 634710138 639208092 640794585 640827611 644174038 646975239 647351588 658641687 658840073 659593308 661519009 662392330 662971226 663695248 665813591 668982637 669037670 669278245 672072113 675725842 677321195 679538676 680006560 681963919 693813203 696738195 697255787 697552631 701112608 701140435 701957510 705156888 705289682 705370476 706010216 709153428 719882838 722517014 725414204 729745903 731093022 731717381 731816719 733404990 746934499 750020665 753502351 753597190 754279735 757936203 760072272 769360519 769768434 772755218 775706615 776807430 777339330 781581211 785609698 786696546 787460836 787762338 790528572 799725879 800695956 802304846 803708390 806488402 807874270 808021842 809447889 810828395 811775278 812258875 814443414 815497639 817206611 817328309 818453653 821575226 821637010 825400992 830743739 831252935 838324943 846155157 847831203 847979857 849222744 854362104 857779895 858507653 861896612 864130550 864216495 864842870 865498747 865708662 867874531 869454643 871716422 872506841 873124056 873275659 874447317 875228506 875578004 876808124 879456379 881495591 883626056 884182183 884999191 889545668 895306638 895785547 898594356 901193571 901708494 902762857 903122801 910164419 911756339 913883547 914118603 915254418 915763880 917359678 917899954 918006282 921371850 923052145 925303748 925927783 926783462 929819641 935144822 935855254 937790945 942867082 946983561 947182427 947921794 952364744 952779059 954072025 955174730 956142430 956571968 957512878 959582820 962549429 963836468 965211452 965949004 968060421 968627434 969236406 974236097 975276571 975296904 977921582 983636977 983973624 986878839 987124347 990558760 992514011 998440543
998440636
998440611
998440589
998440612
998440604
998440579
998440582
998440643
998440606
998440634
998440575
998440627
998440570
998440579
998440556
998440642
998440601
998440631
998440548
998440573
998440634
998440626
998440550
998440621
998440565
998440638
998440579
998440576
998440631
998440604
998440601
998440584
998440641
998440548
998440568
998440599
998440577
998440584
998440575
998440628
998440560
998440571
998440568
998440564
998440563
998440615
998440626
998440643
998440551
998440592
998440604
998440597
998440608
998440558
998440584
998440578
998440605
998440642
998440555
998440623
998440568
998440619
998440581
998440553
998440630
998440555
998440617
998440554
998440583
998440633
998440550
998440581
998440552
998440608
998440546
998440564
998440639
998440597
998440575
998440559
998440563
998440547
998440612
998440592
998440571
998440594
998440561
998440613
998440544
998440571
998440581
998440642
998440561
998440627
998440596
998440563
998440572
998440610
998440604
998440578
998440562
998440566
998440604
998440613
998440592
998440560
998440562
998440639
998440641
998440617
998440575
998440575
998440551
998440546
998440617
998440610
998440624
998440570
998440618
998440580
998440594
998440555
998440589
998440636
998440556
998440582
998440546
998440610
998440616
998440603
998440620
998440546
998440581
998440629
998440611
998440621
998440624
998440561
998440629
998440585
998440598
998440610
998440636
998440548
998440553
998440616
998440544
998440550
998440557
998440615
998440618
998440549
998440600
998440577
998440634
998440634
998440612
998440544
998440599
998440578
998440585
998440564
998440561
998440642
998440593
998440557
998440626
998440594
998440639
998440575
998440575
998440592
998440614
998440615
998440547
998440629
998440559
998440565
998440556
998440568
998440612
998440631
998440545
998440578
998440614
998440573
998440580
998440615
998440629
998440574
998440624
998440636
998440603
998440616
998440568
998440593
998440562
998440613
998440633
998440573
998440545
998440640
998440575
998440579
998440616
998440592
998440591
998440613
998440584
998440633
998440607
998440607
998440569
998440573
998440555
998440572
998440568
998440589
998440593
998440613
998440641
998440559
998440588
998440616
998440606
998440592
998440565
998440630
998440628
998440581
998440620
998440625
998440630
998440544
998440545
998440579
998440564
998440578
998440619
998440569
998440636
998440553
998440623
998440636
998440567
998440556
998440608
998440627
998440595
998440610
998440638
998440565
998440616
998440597
998440572
998440625
998440617
998440555
998440544
998440608
998440630
998440549
998440587
998440612
998440544
998440590
998440568
998440551
998440600
998440635
998440633
998440559
998440572
998440634
998440636
998440593
998440641
998440608
998440607
998440547
998440636
998440544
998440564
998440619
998440566
998440620
998440591
998440553
998440640
998440560
998440598
998440558
998440550
998440610
998440581
998440638
998440582
998440548
998440568
998440608
998440618
998440566
998440638
998440545
998440619
998440549
998440570
998440582
998440609
998440567
998440618
998440615
998440550
998440611
998440638
998440618
998440605
998440635
998440643
998440642
998440552
998440560
998440581
998440633
998440605
998440591
998440628
998440572
998440563
998440574
998440637
998440642
998440545
998440549
998440555
998440590
998440556
998440548
998440594
998440598
998440554
998440586
998440545
998440562
998440597
998440574
998440635
998440544
998440552
998440595
998440598
998440579
998440589
998440595
998440597
998440563
998440550
998440610
998440626
998440619
998440563
998440567
998440565
998440570
998440621
998440558
998440561
998440575
998440561
998440619
998440549
998440578
998440586
998440574
998440547
998440594
998440544
998440592
998440579
998440604
998440623
998440599
998440623
998440580
998440565
998440628
998440560
998440640
998440637
998440600
998440560
998440581
998440600
998440597
998440570
998440554
998440601
998440564
998440631
998440576
998440593
998440640
998440566
998440585
998440613
998440602
998440606
998440618
998440578
998440585
998440563
998440552
998440628
998440565
998440605
998440551
998440590
998440624
998440581
998440545
998440570
998440597
998440600
998440564
998440555
998440581
998440581
998440613
998440642
998440564
998440546
998440602
998440548
998440586
998440609
998440607
998440557
998440613
998440548
998440566
998440574
998440585
998440550
998440558
998440584
998440578
998440632
998440640
998440590
998440636
998440571
998440577
998440571
998440629
998440571
998440612
998440623
998440636
998440583
998440611
998440642
998440627
998440545
998440557
998440556
998440600
998440603
998440581
998440565
998440551
998440564
998440587
998440560
998440621
998440592
998440572
998440587
998440585
998440625
998440569
998440625
998440558
998440593
998440569
998440548
998440592
998440558
998440581
998440590
998440597
998440633
998440544
998440549
998440560
998440574
998440544
998440547
998440587
998440616
998440572
998440623
998440563
998440630
998440559
998440552
998440642
998440550
998440608
998440563
998440597
998440610
998440639
998440611
998440589
998440593
998440643
998440553
998440635
998440615
998440569
998440597
998440583
998440564
998440589
998440599
998440569
998440577
998440560
998440578
998440560
998440571
998440630
998440613
998440546
998440554
998440562
998440591
998440570
998440551
998440618
998440606
998440594
998440608
998440622
998440623
998440548
998440610
998440587
998440589
998440584
998440610
998440592
998440619
998440629
998440568
998440631
998440555
998440548
998440593
998440552
998440601
998440643
998440638
998440556
998440545
998440559
998440564
998440634
998440626
998440552
998440554
998440637
998440545
998440550
998440628
998440622
998440637
998440578
998440582
998440635
998440573
998440590
998440585
998440544
998440587
998440552
998440565
998440583
998440560
998440579
998440594
998440561
998440600
998440602
998440633
998440603
998440592
998440643
998440612
998440582
998440590
998440629
998440563
998440562
998440568
998440632
998440544
998440626
998440641
998440581
998440614
998440555
998440597
998440590
998440561
998440615
998440606
998440582
998440560
998440563
998440587
998440580
998440596
998440617
998440603
998440617
998440631
998440566
998440559
998440597
998440598
998440572
998440584
998440556
998440547
998440574
998440608
998440605
998440624
998440616
998440570
998440601
998440556
998440545
998440608
998440572
998440578
998440544
998440633
998440613
998440573
998440631
998440566
998440620
998440570
998440594
998440594
998440580
998440550
998440588
998440549
998440574
998440634
998440562
998440602
998440599
998440610
998440616
998440625
998440614
998440559
998440602
998440580
998440575
998440642
998440583
998440560
998440609
998440598
998440570
998440629
998440593
998440549
998440553
998440634
998440573
998440632
998440561
998440609
998440630
998440612
998440589
998440583
998440618
998440642
998440563
998440583
998440587
998440580
998440558
998440600
998440603
998440621
998440635
998440607
998440615
998440564
998440607
998440560
998440573
998440549
998440568
998440560
998440637
998440628
998440607
998440544
998440614
998440627
998440553
998440595
998440625
998440636
998440567
998440554
998440597
998440620
998440634
998440636
998440629
998440568
998440594
998440642
998440593
998440636
998440642
998440599
998440631
998440591
998440624
998440587
998440555
998440598
998440629
998440564
998440575
998440581
998440549
998440636
998440577
998440573
998440560
998440607
998440588
998440621
998440611
998440641
998440633
998440609
998440575
998440559
998440580
998440625
998440641
998440614
998440592
998440566
998440551
998440551
998440605
998440613
998440616
998440629
998440585
998440553
998440613
998440562
998440590
998440628
998440634
998440577
998440619
998440633
998440632
998440580
998440557
998440548
998440552
998440641
998440637
998440583
998440546
998440611
998440625
998440600
998440639
998440553
998440634
998440552
998440603
998440580
998440575
998440582
998440613
998440560
998440629
998440598
998440600
998440625
998440599
998440618
998440615
998440623
998440586
998440573
998440633
998440602
998440574
998440611
998440558
998440600
998440634
998440614
998440605
998440556
998440556
998440552
998440578
998440584
998440641
998440583
998440563
998440642
998440640
998440544
998440581
998440553
998440550
998440610
998440554
998440643
998440583
998440552
998440597
998440586
998440634
998440614
998440574
998440592
998440555
998440571
998440606
998440587
998440571
998440616
998440572
998440546
998440621
998440617
998440555
998440597
998440562
998440592
998440618
998440634
998440562
998440569
998440606
998440611
998440594
998440576
998440550
998440545
998440588
998440613
998440586
998440545
998440556
998440593
998440637
998440633
998440601
998440637
998440629
998440640
998440581
998440604
998440615
998440636
998440550
998440625
998440588
998440598
998440634
998440557
998440599
998440613
998440616
998440579
998440555
998440609
998440625
998440590
998440642
998440563
998440597
998440611
998440636
998440585
998440547
998440568
998440625
998440567
998440559
998440636
998440589
998440558
998440628
998440547
998440583
998440639
998440575
998440641
998440631
998440570
998440573
998440595
998440556
998440582
998440642
998440548
998440600
998440607
998440618
998440576
998440578
998440631
998440544
998440633
998440631
998440569
998440610
998440602
998440606
998440555
998440633
998440587
998440631
998440594
998440595
998440588
998440559
998440584
998440561
998440559
998440580
998440612
998440581
998440614
998440610
998440552
998440634
998440565
998440640
998440623
998440632
998440612
998440544
998440584
998440642
998440555
998440642
998440578
998440568
998440595
998440631
998440557
998440642
998440552
998440584
998440601
998440603
998440569
998440567
998440595
998440641
998440557
998440609
998440596
