348 735
-995259749 -992648812 -987125294 -984565284 -981046998 -980036914 -976575672 -973473952 -971131975 -971054443 -958199013 -954264676 -951305096 -950620802 -947688140 -946276267 -944328369 -937201472 -934662849 -934593524 -933028585 -922802072 -913582897 -912798092 -866865236 -866615035 -858777117 -856838738 -839115807 -838315724 -831790260 -828128325 -823234203 -812344484 -810086506 -808769576 -807207457 -806913977 -806773866 -801953389 -801583968 -798955557 -789595440 -789496723 -784598606 -779115753 -776104670 -771877356 -770915799 -756934427 -738341493 -734368782 -729270926 -728440464 -714524367 -710632650 -708036529 -705470392 -698494228 -691370664 -657651853 -652428857 -646886381 -635713066 -633265415 -617367163 -617068654 -610318442 -601859470 -600647091 -584947810 -583386865 -581725094 -576016588 -556316909 -548053247 -544641458 -543830182 -542185283 -526521650 -516974813 -511851608 -493259038 -491743474 -482966872 -478439637 -469824606 -463142499 -455636561 -453059830 -426013905 -424044094 -420287016 -407469436 -401347646 -399998471 -397970611 -394571080 -387489536 -386980625 -377551750 -367109692 -364530636 -362722119 -360522042 -358064048 -355358278 -350829460 -344060942 -342056320 -337824429 -329067851 -327420714 -325342059 -320953711 -314168575 -304821773 -303904365 -298966582 -294089939 -292732268 -292707380 -290845348 -286567394 -285180817 -278144430 -271879593 -265861078 -256047436 -246798628 -241865184 -235327602 -235279795 -228377711 -226402173 -220847692 -206245994 -203902408 -202510341 -197675874 -183772675 -177109110 -173947863 -171495638 -170538974 -168856754 -160956692 -159953455 -155319256 -143380305 -138526240 -136548378 -132936835 -132201620 -130641784 -118463235 -107473983 -101434304 -101318556 -99201956 -98515831 -97889931 -95085015 -93562268 -91406857 -90592046 -89094282 -87600448 -75375334 -75219936 -74157398 -65890112 -63693433 -46170917 -37036171 -35327070 -31531519 -20689338 -11191636 12413760 13504694 15254809 16302472 22068095 22194175 25960660 27859177 32417503 42786449 44771084 57907018 60367040 62027838 64816842 77925367 82645795 82988322 86281146 86516037 91783246 97977052 107514416 115818942 116600463 119276681 129088355 130184781 142598090 145072155 157832177 158986065 164417893 175218609 191695969 193813017 198785398 199814697 213142528 213309789 217099462 223278509 243849464 249659335 256596937 258530239 261636090 275121523 277349091 285568316 288730438 294509602 295448899 300764146 321798749 329162921 347554378 359024007 363415545 363907427 373120763 377659110 379115379 379240882 395756872 397937667 415786968 418259433 421941321 426989100 431908945 432556786 436483141 441154599 441366402 456327647 458062367 460750928 495228055 497371099 506678339 508498539 518331108 540260686 548834178 563537131 568240041 571288193 573724276 588848878 601469334 606090682 608097171 610211130 611328138 616025395 616461306 632848722 643145393 648170108 657079021 661731672 665057760 667857000 674011247 677898120 681229775 683803077 687524936 694925723 707396375 709862881 714182913 715819320 717460581 723859840 732707501 733975290 748516270 755805051 763290755 765461062 767527796 773994459 774673494 779559877 785935712 792539623 800479559 809370171 813803665 819958804 827501221 831765389 840680204 850089209 853086812 856839394 858011080 860783832 866384704 870335347 886621439 892030633 901265301 902701204 905010161 907557614 909396152 931983925 939107159 940752511 944933742 945869709 953410026 954332622 965662128 966052106 970984166 974011155 975560859 980659456 981457289 988335544 988870746 991123058 991423217 992988519 996270031
996270050
996270064
996270063
996270094
996270058
996270051
996270115
996270069
996270059
996270122
996270077
996270071
996270089
996270032
996270056
996270082
996270061
996270102
996270119
996270075
996270101
996270115
996270078
996270130
996270044
996270034
996270120
996270130
996270110
996270063
996270105
996270067
996270112
996270087
996270070
996270071
996270064
996270092
996270085
996270123
996270102
996270036
996270053
996270078
996270052
996270054
996270118
996270076
996270059
996270125
996270072
996270108
996270069
996270072
996270050
996270131
996270058
996270039
996270125
996270062
996270100
996270069
996270080
996270046
996270077
996270121
996270130
996270039
996270036
996270125
996270104
996270125
996270069
996270033
996270097
996270128
996270033
996270050
996270117
996270048
996270116
996270115
996270124
996270069
996270078
996270059
996270106
996270094
996270047
996270129
996270123
996270105
996270051
996270126
996270087
996270130
996270131
996270076
996270055
996270062
996270041
996270123
996270079
996270108
996270078
996270075
996270092
996270110
996270089
996270094
996270044
996270107
996270038
996270046
996270078
996270071
996270105
996270093
996270107
996270103
996270044
996270089
996270110
996270113
996270108
996270130
996270130
996270121
996270069
996270068
996270099
996270091
996270109
996270033
996270032
996270033
996270125
996270125
996270061
996270118
996270080
996270121
996270052
996270102
996270049
996270126
996270040
996270127
996270092
996270119
996270061
996270050
996270079
996270073
996270123
996270094
996270060
996270100
996270092
996270067
996270122
996270092
996270035
996270114
996270065
996270121
996270103
996270120
996270125
996270111
996270096
996270130
996270131
996270104
996270109
996270107
996270063
996270117
996270102
996270042
996270033
996270107
996270064
996270101
996270047
996270070
996270103
996270131
996270105
996270088
996270097
996270081
996270116
996270070
996270069
996270038
996270063
996270069
996270129
996270082
996270043
996270097
996270049
996270069
996270128
996270040
996270035
996270082
996270096
996270040
996270071
996270124
996270062
996270078
996270048
996270059
996270126
996270045
996270107
996270037
996270037
996270111
996270111
996270062
996270037
996270047
996270034
996270036
996270077
996270067
996270035
996270042
996270079
996270034
996270086
996270112
996270123
996270131
996270066
996270076
996270126
996270057
996270100
996270038
996270108
996270103
996270075
996270090
996270087
996270049
996270034
996270083
996270036
996270118
996270117
996270053
996270112
996270077
996270081
996270077
996270118
996270109
996270102
996270083
996270086
996270045
996270059
996270036
996270101
996270123
996270106
996270046
996270046
996270042
996270087
996270096
996270051
996270072
996270050
996270120
996270102
996270091
996270082
996270124
996270035
996270064
996270038
996270080
996270106
996270118
996270047
996270103
996270041
996270099
996270113
996270106
996270117
996270107
996270056
996270042
996270072
996270126
996270042
996270076
996270091
996270065
996270041
996270075
996270089
996270112
996270079
996270101
996270121
996270053
996270087
996270085
996270052
996270073
996270082
996270061
996270079
996270058
996270051
996270103
996270085
996270071
996270120
996270063
996270080
996270081
996270048
996270114
996270093
996270060
996270087
996270046
996270079
996270080
996270095
996270046
996270094
996270115
996270058
996270080
996270050
996270088
996270128
996270058
996270103
996270106
996270126
996270067
996270057
996270042
996270054
996270066
996270037
996270085
996270075
996270041
996270042
996270072
996270129
996270077
996270082
996270079
996270098
996270105
996270033
996270130
996270039
996270091
996270111
996270040
996270033
996270119
996270091
996270053
996270058
996270049
996270087
996270119
996270103
996270083
996270048
996270108
996270045
996270040
996270036
996270107
996270043
996270033
996270129
996270092
996270042
996270052
996270100
996270071
996270092
996270125
996270100
996270088
996270084
996270033
996270100
996270070
996270032
996270051
996270116
996270076
996270047
996270032
996270069
996270100
996270077
996270052
996270110
996270098
996270101
996270050
996270069
996270037
996270108
996270101
996270114
996270069
996270098
996270121
996270065
996270104
996270105
996270070
996270104
996270122
996270107
996270127
996270040
996270060
996270104
996270064
996270106
996270055
996270128
996270056
996270067
996270100
996270062
996270099
996270125
996270042
996270067
996270041
996270083
996270085
996270122
996270089
996270115
996270055
996270063
996270111
996270077
996270060
996270059
996270124
996270093
996270123
996270050
996270050
996270036
996270068
996270039
996270059
996270033
996270062
996270100
996270114
996270109
996270123
996270069
996270098
996270107
996270049
996270069
996270056
996270044
996270115
996270035
996270068
996270082
996270036
996270116
996270106
996270051
996270071
996270094
996270032
996270036
996270033
996270115
996270064
996270118
996270064
996270047
996270044
996270110
996270055
996270129
996270119
996270092
996270059
996270127
996270043
996270063
996270112
996270126
996270035
996270039
996270054
996270112
996270119
996270036
996270113
996270107
996270128
996270078
996270095
996270120
996270042
996270086
996270124
996270077
996270061
996270123
996270038
996270071
996270097
996270124
996270081
996270128
996270117
996270073
996270060
996270048
996270126
996270113
996270061
996270052
996270078
996270108
996270050
996270129
996270061
996270106
996270070
996270076
996270107
996270087
996270072
996270046
996270090
996270086
996270114
996270034
996270040
996270056
996270066
996270081
996270047
996270080
996270123
996270057
996270049
996270036
996270120
996270080
996270128
996270038
996270078
996270111
996270047
996270118
996270055
996270094
996270065
996270119
996270046
996270087
996270107
996270117
996270112
996270095
996270087
996270044
996270073
996270119
996270110
996270054
996270055
996270093
996270057
996270102
996270067
996270034
996270080
996270079
996270120
996270120
996270108
996270102
996270086
996270094
996270085
996270055
996270033
996270071
996270033
996270073
996270035
996270083
996270050
996270042
996270054
996270126
996270082
996270100
996270075
996270049
996270069
996270100
996270078
996270121
996270059
996270033
996270057
996270126
996270044
996270106
996270125
996270090
996270115
996270092
996270102
996270102
996270096
996270114
996270047
996270057
996270063
996270056
996270103
996270117
996270071
996270032
996270093
996270077
996270115
996270038
996270068
996270087
996270046
996270083
996270074
996270049
996270123
996270048
996270091
996270051
996270065
996270091
996270092
996270067
996270038
996270080
996270099
996270042
996270129
996270079
996270131
996270127
996270121
996270100
996270094
996270070
996270090
996270045
996270046
996270125
996270079
996270125
996270037
996270052
996270119
996270072
996270097
996270063
996270098
996270108
996270083
996270047
996270037
996270099
996270063
996270042
996270050
996270050
996270105
996270058
996270042
996270094
996270038
996270120
996270124
996270036
996270070
996270087
996270084
996270035
996270073
996270072
996270041
996270061
996270099
996270054
996270088
996270052
996270085
996270089
996270056
996270116
996270032
996270116
996270072
996270122
996270062
996270040
