32 782
-858139998 -834628545 -808229807 -782046721 -701266186 -701221693 -646167433 -378000760 -214610131 -136287017 -45219695 -11066813 23335217 25482420 150207755 170562710 181312222 214075819 345293574 379910473 432848599 499412268 509933641 510246853 740916540 758807711 769314287 776265006 825937618 931576466 933186121 994692497
994692522
994692509
994692585
994692532
994692581
994692565
994692571
994692573
994692590
994692573
994692587
994692561
994692499
994692588
994692589
994692588
994692578
994692501
994692556
994692545
994692505
994692539
994692543
994692589
994692533
994692573
994692522
994692498
994692522
994692532
994692509
994692521
994692578
994692590
994692583
994692557
994692521
994692503
994692502
994692525
994692591
994692512
994692591
994692532
994692578
994692500
994692523
994692573
994692585
994692506
994692540
994692514
994692555
994692553
994692535
994692543
994692574
994692561
994692564
994692571
994692591
994692558
994692548
994692526
994692567
994692597
994692577
994692557
994692587
994692526
994692588
994692567
994692531
994692554
994692508
994692550
994692576
994692524
994692554
994692519
994692578
994692565
994692533
994692551
994692559
994692549
994692541
994692592
994692548
994692537
994692540
994692508
994692515
994692517
994692597
994692542
994692503
994692524
994692541
994692595
994692508
994692534
994692535
994692558
994692504
994692569
994692576
994692532
994692590
994692498
994692572
994692523
994692550
994692537
994692499
994692552
994692542
994692589
994692571
994692534
994692588
994692594
994692533
994692582
994692570
994692550
994692527
994692536
994692576
994692591
994692546
994692521
994692545
994692517
994692535
994692509
994692531
994692535
994692587
994692499
994692582
994692534
994692530
994692527
994692564
994692498
994692523
994692573
994692561
994692500
994692553
994692571
994692541
994692519
994692516
994692540
994692534
994692511
994692539
994692581
994692536
994692535
994692529
994692546
994692597
994692529
994692542
994692572
994692586
994692563
994692574
994692502
994692588
994692585
994692551
994692509
994692527
994692546
994692595
994692512
994692562
994692588
994692531
994692587
994692567
994692552
994692525
994692553
994692564
994692593
994692591
994692552
994692550
994692581
994692568
994692597
994692528
994692541
994692570
994692546
994692505
994692533
994692595
994692574
994692570
994692515
994692584
994692576
994692597
994692548
994692577
994692552
994692514
994692576
994692507
994692520
994692588
994692561
994692498
994692582
994692569
994692508
994692575
994692563
994692538
994692581
994692547
994692549
994692531
994692527
994692526
994692513
994692581
994692504
994692559
994692596
994692533
994692539
994692559
994692556
994692558
994692562
994692582
994692538
994692584
994692543
994692507
994692544
994692581
994692531
994692506
994692543
994692498
994692592
994692504
994692552
994692581
994692582
994692556
994692513
994692551
994692570
994692506
994692503
994692576
994692543
994692499
994692512
994692505
994692503
994692531
994692512
994692581
994692560
994692530
994692563
994692563
994692580
994692564
994692586
994692514
994692499
994692572
994692518
994692562
994692570
994692532
994692525
994692536
994692518
994692526
994692595
994692553
994692559
994692556
994692541
994692507
994692561
994692587
994692593
994692533
994692510
994692510
994692575
994692580
994692520
994692593
994692530
994692521
994692596
994692571
994692512
994692597
994692586
994692508
994692566
994692545
994692527
994692513
994692515
994692573
994692568
994692563
994692562
994692529
994692564
994692570
994692597
994692572
994692504
994692502
994692577
994692572
994692561
994692577
994692533
994692518
994692506
994692577
994692592
994692567
994692539
994692590
994692568
994692563
994692530
994692553
994692587
994692503
994692561
994692584
994692528
994692543
994692538
994692531
994692530
994692566
994692532
994692572
994692502
994692555
994692501
994692499
994692563
994692503
994692518
994692589
994692511
994692514
994692514
994692556
994692501
994692596
994692518
994692512
994692561
994692556
994692565
994692569
994692547
994692523
994692537
994692559
994692537
994692581
994692591
994692543
994692531
994692550
994692545
994692556
994692570
994692566
994692597
994692507
994692568
994692502
994692535
994692515
994692583
994692542
994692561
994692537
994692594
994692537
994692586
994692537
994692510
994692581
994692553
994692587
994692597
994692580
994692526
994692534
994692529
994692571
994692584
994692577
994692503
994692592
994692532
994692530
994692529
994692528
994692572
994692541
994692521
994692524
994692572
994692555
994692559
994692517
994692562
994692501
994692505
994692508
994692543
994692537
994692568
994692528
994692551
994692554
994692574
994692499
994692580
994692577
994692555
994692551
994692504
994692584
994692500
994692576
994692500
994692508
994692510
994692537
994692557
994692587
994692590
994692533
994692552
994692507
994692514
994692548
994692545
994692514
994692504
994692546
994692515
994692558
994692535
994692535
994692541
994692540
994692553
994692516
994692503
994692506
994692510
994692548
994692539
994692562
994692537
994692505
994692592
994692508
994692573
994692576
994692522
994692561
994692510
994692512
994692535
994692499
994692587
994692534
994692552
994692583
994692539
994692586
994692547
994692508
994692567
994692564
994692571
994692546
994692583
994692516
994692523
994692597
994692521
994692544
994692590
994692555
994692582
994692584
994692498
994692592
994692523
994692542
994692571
994692524
994692517
994692503
994692527
994692563
994692568
994692523
994692535
994692498
994692586
994692567
994692500
994692504
994692556
994692498
994692511
994692572
994692588
994692583
994692520
994692566
994692583
994692586
994692593
994692534
994692582
994692498
994692517
994692542
994692549
994692585
994692506
994692510
994692540
994692584
994692535
994692563
994692571
994692582
994692585
994692557
994692542
994692509
994692539
994692536
994692511
994692571
994692565
994692502
994692552
994692520
994692541
994692570
994692498
994692510
994692583
994692546
994692527
994692522
994692542
994692502
994692575
994692531
994692502
994692552
994692564
994692576
994692555
994692517
994692521
994692558
994692561
994692526
994692535
994692556
994692535
994692520
994692498
994692534
994692551
994692518
994692521
994692520
994692513
994692576
994692595
994692558
994692561
994692562
994692547
994692550
994692559
994692575
994692595
994692567
994692525
994692578
994692504
994692535
994692535
994692552
994692521
994692588
994692585
994692525
994692527
994692571
994692577
994692555
994692538
994692556
994692554
994692531
994692528
994692552
994692499
994692511
994692578
994692499
994692507
994692582
994692519
994692581
994692562
994692527
994692557
994692514
994692509
994692592
994692587
994692567
994692585
994692508
994692576
994692577
994692514
994692594
994692592
994692557
994692551
994692512
994692528
994692547
994692546
994692546
994692579
994692519
994692517
994692555
994692576
994692558
994692558
994692515
994692576
994692557
994692556
994692560
994692518
994692516
994692565
994692558
994692540
994692585
994692524
994692587
994692575
994692568
994692557
994692567
994692581
994692544
994692569
994692505
994692555
994692508
994692538
994692535
994692586
994692575
994692525
994692523
994692520
994692584
994692511
994692558
994692597
994692536
994692553
994692581
994692591
994692551
994692568
994692506
994692503
994692584
994692569
994692546
994692560
994692571
994692514
994692553
994692515
994692554
994692580
994692516
994692505
994692594
994692517
994692579
994692499
994692586
994692515
994692587
994692552
994692552
994692533
994692571
994692500
994692557
994692537
994692558
994692579
994692506
994692511
994692548
994692513
994692531
994692572
994692540
994692553
994692554
994692546
994692586
994692505
994692563
994692557
994692533
994692554
994692513
994692555
994692510
994692582
994692547
994692594
994692577
994692587
994692572
994692559
994692584
994692506
994692583
994692559
994692519
994692573
994692512
994692587
994692498
994692572
994692507
994692582
