510 860
-990668350 -987358866 -984839415 -984432694 -981689936 -979037239 -972460367 -971748432 -971319116 -963903536 -963132669 -959807312 -957073391 -956959032 -956789139 -952633986 -952506099 -950430349 -945498142 -931342824 -921937342 -914767292 -913108655 -900252635 -897550438 -896382498 -890322462 -888415350 -887572082 -886315022 -883381188 -882594177 -875624886 -867361157 -859573556 -858091609 -857936999 -854876968 -854238762 -844670948 -843986225 -834929715 -825720953 -825010889 -820467217 -807738160 -805594160 -804827789 -795554391 -791922840 -791190686 -788860438 -787839760 -787349661 -785096654 -780740747 -779583847 -778542321 -773383214 -770947124 -769584661 -767220479 -758849716 -755951197 -750754101 -749447673 -747612368 -744303776 -744099597 -740544460 -738520247 -738428059 -733780815 -733375193 -730190929 -727893838 -726829252 -724589837 -724063718 -721094101 -717237573 -715371109 -713176792 -709785565 -704543349 -698676383 -696479119 -694528498 -694385656 -690089232 -687902156 -683478007 -682507628 -679317348 -678369411 -671288542 -664423353 -661594833 -656877696 -651805835 -643209241 -634798162 -633648936 -627232831 -617102323 -615802869 -606432271 -605921612 -601626596 -599478949 -598055098 -596651497 -596348532 -594564747 -590330524 -583258463 -570554405 -563335441 -561105430 -560842084 -560402977 -556714058 -546929896 -546490617 -545009533 -540969706 -536648224 -533430641 -530273711 -529606508 -526759746 -523463044 -519994947 -512785379 -511470423 -507891187 -501034195 -500069929 -499121986 -489638318 -483035793 -481545594 -474382421 -466730648 -465685131 -458327639 -455637578 -453821357 -453187815 -451646966 -445778682 -445501801 -443553637 -440866104 -434344531 -429477926 -425971848 -422932520 -417613088 -412099530 -403379206 -392415418 -387734384 -387275854 -386422969 -374204322 -371253095 -370243170 -369213130 -369097209 -365699926 -365595122 -364442419 -362879907 -359534221 -342619263 -341706026 -337262378 -335318689 -324159120 -323300251 -323094878 -319742776 -319083101 -318447308 -313432344 -307034543 -306970752 -306617102 -302563066 -300192486 -296391255 -289377252 -286174514 -285934594 -285080273 -282779322 -276592909 -273419429 -266055715 -256282918 -247820203 -244585813 -243769471 -238483492 -233227014 -232108144 -229062276 -224631964 -222213031 -218051482 -217805107 -210956833 -209440038 -203763628 -202951986 -196978150 -196370664 -196354711 -190794327 -189821665 -176492828 -173104302 -170676971 -167389522 -166674940 -166127173 -157417711 -154425431 -147681654 -134432003 -128784120 -128119225 -126543018 -123994588 -119253062 -113971080 -112677754 -112057503 -109100165 -101527230 -97734597 -96324903 -93722969 -93423982 -91987522 -88808959 -82838918 -78324806 -72989473 -68599017 -65912614 -62677257 -60485461 -59579513 -50664760 -40206131 -38622400 -26117081 -17992421 -15691268 -13545441 -12466352 -9602822 -8827475 -7191527 4570588 10731933 23793704 26188298 30521990 32773313 35214953 39781084 40417183 44319137 55011195 55692422 57144566 58016593 61277393 65707605 73845472 75653620 78936069 85168744 90163310 96493976 107361391 109871807 110780810 120991362 127776398 129686523 129738979 133236896 133697457 139585856 142390818 144379418 150734370 157673241 159953097 160890699 161694554 162359973 166000488 171820255 174508852 178021584 179329368 188580342 195222428 197214164 201921564 203730772 205629472 207208132 211020917 216934565 221200336 225731212 234293756 259543299 280394300 283038864 287664186 294529823 299271196 299330460 300043265 306777428 312711671 312743554 314100619 323139339 328929094 329364463 334578290 334687070 334688582 338752258 343200786 361641672 373020873 374084305 376157500 376306563 377751217 379128987 381964402 383432298 384653301 389498457 393973741 398484313 400727918 406879749 415614906 426961725 429691062 431433397 431471844 432144333 445996832 452327418 453607133 453702975 458141449 477410973 480102237 489234610 491771801 492604758 496042638 497940004 501177811 508668029 516638063 517264749 517517272 517922523 524783160 525875897 526996027 527112014 528194581 529535116 529698358 531204455 533644541 540151482 541060804 551243722 557146703 558110814 559327876 560080390 563321756 571610875 572624761 575537955 575663895 576960688 580147458 589898993 590792371 592244401 594525537 596604155 606671586 610294695 612151479 619377663 621884519 626136712 626138786 628178758 631387571 636618200 652377883 652510204 654979355 660591442 672943998 674675450 679425785 681900836 682732684 686700932 686753425 687953224 690299003 701655298 713970890 717885847 733538010 739723694 743770576 748053798 748092548 752666238 756510198 758872262 759266874 764207393 767983084 770999725 775652875 776532971 778611789 782671813 790120074 790494766 796875387 797955515 798334777 802463338 810665054 811400476 811982418 812098786 826641883 828500623 828884398 829268221 836023211 839580924 841383107 842163079 843616096 848481630 851762208 852499445 855649287 859853249 865175228 871369821 881066786 887263182 891775635 893516152 897211194 897261887 900433377 904511502 906287995 907957229 910402030 922051538 925836798 926063574 932965943 933836646 950835386 952645055 952665605 958720174 967220309 968867027 978937578 979620776 982138677 983637532 984522232 985113350 986078846 991716144 992691145 994063556
994063654
994063561
994063594
994063578
994063651
994063654
994063627
994063585
994063612
994063566
994063567
994063618
994063614
994063567
994063637
994063591
994063610
994063579
994063574
994063573
994063589
994063600
994063575
994063559
994063615
994063602
994063643
994063642
994063584
994063558
994063605
994063578
994063613
994063565
994063644
994063656
994063569
994063651
994063590
994063593
994063627
994063631
994063565
994063564
994063559
994063599
994063613
994063655
994063599
994063626
994063651
994063597
994063624
994063636
994063597
994063561
994063586
994063630
994063630
994063639
994063565
994063635
994063600
994063567
994063590
994063604
994063640
994063599
994063635
994063605
994063572
994063632
994063608
994063639
994063656
994063652
994063606
994063633
994063564
994063631
994063585
994063599
994063610
994063615
994063602
994063651
994063611
994063614
994063613
994063578
994063585
994063631
994063650
994063582
994063641
994063645
994063589
994063644
994063649
994063593
994063603
994063569
994063641
994063568
994063638
994063628
994063574
994063622
994063651
994063584
994063645
994063634
994063628
994063642
994063622
994063637
994063581
994063656
994063597
994063572
994063562
994063599
994063572
994063568
994063568
994063623
994063614
994063560
994063617
994063641
994063650
994063558
994063567
994063571
994063643
994063609
994063591
994063617
994063565
994063594
994063624
994063637
994063630
994063650
994063582
994063590
994063588
994063613
994063607
994063618
994063560
994063558
994063557
994063625
994063558
994063637
994063599
994063617
994063576
994063595
994063641
994063571
994063629
994063582
994063577
994063623
994063613
994063627
994063595
994063634
994063638
994063620
994063624
994063654
994063625
994063639
994063650
994063593
994063567
994063589
994063571
994063629
994063630
994063616
994063600
994063612
994063582
994063597
994063653
994063601
994063629
994063587
994063625
994063585
994063648
994063622
994063596
994063589
994063602
994063593
994063576
994063631
994063609
994063559
994063576
994063648
994063639
994063582
994063609
994063640
994063627
994063614
994063563
994063586
994063588
994063614
994063569
994063604
994063584
994063579
994063590
994063597
994063645
994063630
994063642
994063649
994063593
994063632
994063615
994063559
994063581
994063582
994063590
994063605
994063575
994063646
994063627
994063577
994063647
994063601
994063615
994063584
994063576
994063593
994063646
994063600
994063636
994063598
994063557
994063598
994063628
994063613
994063638
994063590
994063570
994063648
994063642
994063609
994063618
994063604
994063649
994063600
994063625
994063603
994063580
994063599
994063570
994063645
994063586
994063584
994063579
994063579
994063629
994063655
994063582
994063592
994063597
994063583
994063656
994063616
994063581
994063562
994063571
994063589
994063622
994063579
994063628
994063656
994063610
994063569
994063649
994063568
994063618
994063570
994063644
994063587
994063590
994063601
994063566
994063588
994063579
994063589
994063638
994063607
994063625
994063621
994063618
994063643
994063623
994063625
994063575
994063618
994063615
994063586
994063608
994063649
994063633
994063606
994063558
994063564
994063653
994063601
994063642
994063617
994063618
994063596
994063594
994063563
994063617
994063576
994063612
994063594
994063643
994063601
994063584
994063619
994063559
994063591
994063589
994063609
994063646
994063594
994063562
994063639
994063640
994063618
994063647
994063580
994063580
994063602
994063564
994063628
994063559
994063623
994063608
994063576
994063653
994063625
994063594
994063557
994063626
994063601
994063632
994063610
994063604
994063590
994063572
994063593
994063606
994063652
994063628
994063631
994063637
994063615
994063592
994063557
994063586
994063586
994063589
994063608
994063603
994063594
994063568
994063626
994063646
994063582
994063649
994063584
994063587
994063633
994063621
994063619
994063643
994063654
994063626
994063622
994063629
994063620
994063565
994063645
994063604
994063616
994063586
994063563
994063656
994063560
994063602
994063595
994063567
994063654
994063580
994063609
994063637
994063580
994063621
994063613
994063586
994063586
994063630
994063602
994063579
994063630
994063596
994063615
994063620
994063569
994063560
994063584
994063598
994063576
994063639
994063627
994063573
994063562
994063579
994063580
994063601
994063618
994063563
994063630
994063570
994063586
994063645
994063644
994063575
994063638
994063607
994063579
994063592
994063645
994063619
994063607
994063634
994063563
994063594
994063610
994063586
994063634
994063645
994063578
994063621
994063638
994063629
994063567
994063612
994063630
994063627
994063582
994063575
994063562
994063609
994063567
994063563
994063596
994063613
994063595
994063595
994063617
994063618
994063647
994063650
994063626
994063585
994063578
994063611
994063558
994063581
994063602
994063619
994063569
994063585
994063583
994063655
994063630
994063566
994063581
994063596
994063635
994063581
994063592
994063604
994063601
994063609
994063602
994063606
994063598
994063565
994063631
994063581
994063605
994063638
994063587
994063582
994063587
994063617
994063651
994063601
994063610
994063580
994063568
994063648
994063610
994063574
994063607
994063608
994063568
994063599
994063607
994063567
994063590
994063577
994063632
994063569
994063573
994063632
994063598
994063575
994063644
994063584
994063625
994063561
994063583
994063633
994063633
994063616
994063578
994063610
994063613
994063592
994063584
994063592
994063611
994063629
994063645
994063588
994063621
994063600
994063627
994063562
994063595
994063585
994063629
994063650
994063597
994063596
994063559
994063564
994063586
994063594
994063587
994063587
994063599
994063584
994063645
994063572
994063563
994063608
994063630
994063567
994063655
994063649
994063589
994063599
994063604
994063573
994063612
994063588
994063640
994063581
994063620
994063580
994063567
994063648
994063623
994063626
994063614
994063591
994063641
994063574
994063584
994063620
994063646
994063617
994063590
994063649
994063576
994063558
994063568
994063594
994063585
994063608
994063651
994063631
994063597
994063626
994063580
994063557
994063568
994063588
994063612
994063616
994063588
994063595
994063588
994063584
994063646
994063591
994063576
994063568
994063598
994063595
994063591
994063575
994063625
994063572
994063601
994063608
994063589
994063600
994063636
994063638
994063638
994063654
994063559
994063558
994063637
994063646
994063612
994063575
994063583
994063603
994063635
994063562
994063624
994063640
994063615
994063621
994063620
994063612
994063608
994063576
994063656
994063585
994063609
994063643
994063595
994063652
994063652
994063636
994063614
994063581
994063563
994063625
994063595
994063580
994063594
994063637
994063603
994063631
994063639
994063609
994063627
994063557
994063599
994063627
994063586
994063568
994063645
994063569
994063635
994063612
994063617
994063649
994063593
994063623
994063562
994063565
994063613
994063628
994063568
994063629
994063570
994063614
994063643
994063624
994063613
994063653
994063594
994063639
994063564
994063643
994063614
994063606
994063607
994063648
994063609
994063608
994063568
994063575
994063574
994063560
994063566
994063582
994063599
994063561
994063592
994063601
994063631
994063649
994063576
994063607
994063563
994063620
994063649
994063620
994063623
994063642
994063622
994063643
994063578
994063627
994063607
994063593
994063635
994063642
994063626
994063629
994063622
994063624
994063653
994063651
994063607
994063559
994063629
994063651
994063624
994063625
994063562
994063610
994063640
994063611
994063633
994063590
994063579
994063653
994063647
994063590
994063645
994063581
994063582
994063643
994063635
994063561
994063598
994063650
994063607
994063621
994063639
994063594
994063595
994063598
994063648
994063598
994063589
994063606
994063562
994063570
994063629
994063574
994063579
994063620
994063583
994063607
994063587
994063583
994063566
994063569
994063577
994063560
994063643
994063654
994063600
994063584
994063632
994063602
994063557
994063606
994063615
994063635
994063594
994063635
994063585
994063615
994063656
994063623
994063626
994063580
994063562
994063656
994063589
994063623
994063628
994063639
994063636
994063572
994063581
994063586
994063623
994063639
994063596
994063561
994063630
994063606
994063574
994063600
994063597
994063627
994063628
994063630
994063608
994063615
994063575
994063608
994063557
994063565
994063603
994063650
994063581
994063611
994063627
994063590
994063606
994063561
994063558
994063625
994063648
994063596
994063570
994063606
994063564
