693 971
-994608496 -994461951 -992183576 -990670747 -982001866 -974634042 -972990432 -962077248 -960184362 -959018780 -958469527 -958431644 -955725627 -940134812 -938714413 -937107279 -935913277 -934875513 -932812658 -929637600 -927157509 -919389387 -912592707 -911123685 -909933706 -906510670 -902755895 -896501027 -895159812 -890473815 -889982532 -888413141 -888268574 -887562261 -887166558 -880306974 -871199966 -856697862 -853746485 -849838859 -849086149 -848210398 -844708886 -844401711 -842520253 -842067264 -835921404 -833313207 -827800026 -827398302 -820136671 -817204647 -815576106 -815545489 -814414078 -814272564 -809857981 -808584657 -807587343 -807545237 -806728007 -804550870 -798616971 -797246697 -795281035 -791453800 -787418398 -785226465 -783487109 -779992921 -779092725 -773873726 -773707100 -772552936 -772102577 -770983705 -770824105 -768362520 -764317141 -760152501 -758810797 -758295250 -757899234 -757779763 -755874941 -749637996 -746984233 -744694202 -743549160 -740532518 -735103695 -730533066 -728520625 -725110828 -724626980 -724505076 -723409570 -721871988 -715051946 -704226576 -701801549 -696481699 -692229315 -691366817 -686690948 -681517012 -678965193 -677815965 -672550658 -669448809 -667175309 -662567752 -660243173 -659837813 -654996257 -651524622 -651482416 -649186288 -647513256 -646501249 -644121544 -643788270 -640323996 -638769754 -636179446 -635612167 -630814107 -627343773 -624104210 -622099410 -621653476 -610926492 -610861824 -610077526 -606606201 -605147572 -600915870 -599616575 -597156041 -592183371 -590891178 -588680794 -586938246 -580325678 -578999626 -570232381 -567737039 -565701188 -565103157 -563774495 -558260299 -556482609 -553790391 -552855549 -548424320 -546199510 -544449254 -541948229 -536422005 -532979971 -532177222 -518902345 -516344981 -514094410 -511593793 -510174076 -509038798 -508486169 -508071227 -507027775 -503980646 -503243082 -496461177 -494641825 -493202886 -490859504 -490703692 -485491886 -484573733 -480279267 -479860969 -478208590 -474843103 -474411087 -473506828 -472541656 -472354717 -463299318 -462716918 -460004758 -457624638 -456581165 -454953766 -446337849 -446265500 -443412168 -440024678 -427990857 -427453178 -427308932 -423433876 -420950293 -417293703 -414572432 -414013975 -412939724 -409082734 -405000525 -403925103 -400479516 -400066195 -398809369 -398092623 -393774232 -391316962 -389338893 -387663384 -379908066 -377979497 -377565442 -376919563 -376867356 -375009853 -372406849 -367945987 -367773314 -366606857 -366410765 -361698407 -360883670 -360634262 -355406643 -355143549 -352168874 -350330903 -349071223 -348313622 -347314925 -345949684 -344394050 -342387867 -341963754 -334436483 -331439100 -321755301 -314322908 -313944362 -311639320 -308494587 -300524822 -297231707 -292827347 -291667340 -288204670 -283721667 -277951591 -275177522 -271710826 -268033871 -265525535 -264531363 -264438258 -259301056 -257042357 -252680862 -251687698 -251582643 -249606910 -247142195 -247136970 -246718481 -242160775 -240162545 -231816278 -228748167 -225178904 -220001404 -218335148 -213412817 -205615189 -197670635 -190533107 -189876511 -183517801 -179811835 -178766377 -174254125 -166489618 -153185738 -151523091 -146415096 -143650964 -143371156 -141971034 -140377737 -140138881 -133259057 -133136619 -130068966 -128204975 -121414185 -109985162 -104568990 -92378062 -89231591 -86852405 -86462018 -85032475 -78353564 -74816219 -74193175 -73684750 -70715115 -67415845 -66176711 -59631567 -57513813 -53685249 -53247581 -49210038 -49082591 -36477752 -35809914 -33050901 -30336968 -29434532 -28438220 -28006303 -24985389 -22959799 -22550426 -19172033 -14339365 -13682605 -13488573 -13214713 -10824163 -8176891 -4808624 -3394563 788414 5727270 6944666 7193673 9328012 17618985 18944139 22832767 23279842 25362886 26139574 29569820 31389470 33022163 33069387 34921874 39889578 42280667 42818496 45213597 46768923 52478814 59531946 60519848 62345354 65155087 70061328 74020016 80846899 81858007 83989365 87707227 90472286 94462338 95386779 95861745 95881248 96528313 96693123 97743194 101263835 105581588 107240142 107264166 115572486 119604506 119728770 119832819 126707756 128046539 133682921 135822716 135823294 135992845 136509494 137079767 137847414 138778148 138986654 140379377 146981873 147201754 154578368 155717551 165103018 166035871 168622352 172108870 176255910 179465420 182417778 182433562 184437585 184552707 187182358 189329537 190759112 192191236 193145697 194993993 197384559 198110903 198749787 199349221 202124914 203466491 206640004 207345171 208936523 209188736 209788642 213477646 225169327 229459973 233466533 233912466 234493954 238172360 240241367 241003965 245658520 254390491 255356614 256211816 260029093 262953060 265116836 266859172 267323053 271392718 274206530 278821257 282962181 284006827 288622347 294169013 298642596 298718620 308429670 311809167 312761106 313268471 321119858 321995793 322652531 332114272 332923863 340373544 342524428 350791323 350925357 351457033 351686182 354923869 355844963 358091753 359769680 361642000 361987815 363798581 373443309 375606731 376165441 385046240 385969754 391585036 392871114 394701186 395014791 402116950 410068818 422938702 425756211 425823299 428702055 430646650 432726875 449913352 452582533 457148694 458354448 460699784 461766572 465123243 471218583 476608386 479032497 485349328 492330273 494729082 495348841 497516202 498180618 498620663 505078007 508771639 510424266 511212306 512400814 518624720 520516900 524266209 539646494 549237855 549569330 553384040 556395109 561389856 562649846 564457962 567822803 568188445 569364469 572476087 575027909 577778259 578350773 583303537 584803420 585948030 588303435 593613938 594100375 594180225 598062072 603216937 605336506 606026993 606501628 611546442 612128411 618327490 618949764 619702583 625999379 628557293 639287477 640520175 644087858 654134357 654332621 657520949 664360359 667020332 668489511 668974749 670232166 671949622 672532989 673066148 674187300 674697286 679268765 682073967 682205965 682931892 683326172 685554833 690744710 693818684 693995559 701228561 702259597 706802414 707730423 714966947 715180560 719345347 721721116 723146850 725798332 729123807 736017518 736111662 738830786 744864061 746887816 750727730 753869387 755724763 757325989 757372336 758589889 767657196 770277586 778708280 780926128 783810005 785321395 789886525 796930662 797274702 800585171 805764160 807194492 808367856 810143982 811890870 812971919 813006938 814006168 814066644 814359330 818189259 818508609 822953367 823747197 824462905 828307176 829621429 830365840 831992945 835965225 841192180 842798360 842946295 843789243 846894416 850074585 862982057 863036453 863251222 864783044 867112908 868343692 869253314 869623182 870399485 870742903 872525480 873815222 881089642 881235916 888670274 897152471 900492139 906587115 912131881 915702357 920641647 925766396 928635290 931368148 932291122 935187933 935564576 937501427 937749589 938116145 938335705 938894351 941169481 941210801 942022258 946662505 952207202 952775876 955799074 958851099 960270160 960914882 963650921 965263442 968867694 971796459 975478698 976737548 977345582 978759135 979217916 986071619 986793181 991917628
991917669
991917709
991917673
991917634
991917655
991917667
991917641
991917654
991917691
991917641
991917646
991917694
991917658
991917647
991917694
991917662
991917667
991917656
991917715
991917652
991917668
991917663
991917629
991917681
991917716
991917708
991917654
991917706
991917703
991917685
991917640
991917716
991917653
991917711
991917690
991917702
991917666
991917698
991917699
991917725
991917687
991917659
991917639
991917676
991917671
991917649
991917701
991917699
991917689
991917682
991917715
991917633
991917690
991917691
991917672
991917693
991917667
991917702
991917675
991917663
991917705
991917667
991917703
991917677
991917646
991917634
991917709
991917719
991917670
991917716
991917646
991917653
991917705
991917694
991917708
991917641
991917678
991917659
991917634
991917682
991917687
991917700
991917674
991917727
991917633
991917676
991917692
991917637
991917655
991917681
991917661
991917665
991917681
991917659
991917665
991917659
991917723
991917708
991917687
991917716
991917699
991917651
991917645
991917639
991917652
991917630
991917667
991917706
991917679
991917689
991917680
991917706
991917676
991917726
991917673
991917645
991917634
991917660
991917631
991917649
991917644
991917650
991917712
991917639
991917664
991917728
991917717
991917680
991917690
991917634
991917676
991917724
991917683
991917646
991917634
991917666
991917711
991917684
991917672
991917699
991917649
991917643
991917687
991917682
991917690
991917646
991917683
991917632
991917659
991917658
991917723
991917713
991917707
991917707
991917723
991917690
991917696
991917630
991917650
991917695
991917669
991917679
991917722
991917726
991917659
991917703
991917664
991917703
991917681
991917670
991917646
991917718
991917727
991917701
991917671
991917717
991917721
991917672
991917701
991917665
991917650
991917642
991917704
991917641
991917658
991917656
991917712
991917659
991917639
991917667
991917726
991917677
991917707
991917722
991917702
991917696
991917691
991917659
991917727
991917662
991917676
991917687
991917661
991917663
991917666
991917694
991917673
991917636
991917710
991917716
991917685
991917696
991917673
991917671
991917692
991917643
991917700
991917648
991917728
991917646
991917646
991917631
991917699
991917631
991917708
991917725
991917702
991917727
991917638
991917706
991917664
991917707
991917664
991917704
991917699
991917639
991917713
991917672
991917696
991917687
991917691
991917634
991917673
991917684
991917700
991917688
991917714
991917664
991917643
991917660
991917714
991917670
991917690
991917683
991917726
991917678
991917700
991917660
991917699
991917640
991917655
991917656
991917680
991917631
991917677
991917638
991917702
991917708
991917679
991917676
991917714
991917693
991917654
991917706
991917724
991917673
991917699
991917728
991917725
991917670
991917718
991917718
991917711
991917693
991917631
991917712
991917719
991917629
991917631
991917643
991917664
991917687
991917722
991917665
991917684
991917635
991917667
991917715
991917667
991917717
991917659
991917677
991917659
991917644
991917723
991917727
991917630
991917715
991917694
991917682
991917679
991917663
991917682
991917702
991917657
991917715
991917724
991917726
991917631
991917635
991917719
991917659
991917661
991917632
991917727
991917725
991917688
991917669
991917684
991917661
991917716
991917664
991917652
991917723
991917643
991917704
991917712
991917679
991917652
991917638
991917678
991917661
991917649
991917651
991917636
991917691
991917692
991917712
991917721
991917696
991917637
991917705
991917649
991917662
991917703
991917638
991917633
991917664
991917671
991917649
991917703
991917698
991917688
991917677
991917716
991917707
991917690
991917719
991917723
991917711
991917638
991917643
991917678
991917728
991917700
991917629
991917711
991917676
991917630
991917652
991917707
991917648
991917708
991917719
991917668
991917689
991917696
991917711
991917663
991917647
991917629
991917642
991917689
991917694
991917721
991917723
991917698
991917668
991917706
991917699
991917695
991917727
991917670
991917699
991917678
991917656
991917676
991917661
991917671
991917635
991917651
991917721
991917689
991917706
991917643
991917662
991917700
991917706
991917679
991917649
991917652
991917660
991917716
991917640
991917657
991917688
991917685
991917637
991917722
991917711
991917724
991917703
991917668
991917718
991917704
991917688
991917673
991917725
991917638
991917705
991917669
991917674
991917643
991917699
991917724
991917644
991917650
991917651
991917633
991917639
991917654
991917671
991917647
991917681
991917666
991917661
991917670
991917639
991917655
991917710
991917700
991917672
991917710
991917697
991917652
991917678
991917635
991917714
991917646
991917672
991917631
991917726
991917633
991917656
991917648
991917657
991917702
991917716
991917658
991917725
991917646
991917725
991917654
991917692
991917662
991917698
991917697
991917684
991917722
991917676
991917652
991917643
991917715
991917723
991917713
991917678
991917689
991917723
991917705
991917693
991917680
991917650
991917671
991917630
991917716
991917635
991917711
991917674
991917705
991917654
991917715
991917656
991917697
991917726
991917717
991917646
991917695
991917653
991917636
991917715
991917723
991917635
991917712
991917727
991917720
991917642
991917677
991917661
991917703
991917704
991917714
991917696
991917678
991917629
991917695
991917642
991917715
991917633
991917714
991917675
991917669
991917643
991917656
991917674
991917677
991917698
991917714
991917709
991917721
991917671
991917643
991917631
991917685
991917701
991917712
991917648
991917678
991917646
991917692
991917673
991917700
991917675
991917724
991917687
991917694
991917675
991917651
991917646
991917672
991917725
991917663
991917629
991917632
991917666
991917688
991917662
991917718
991917645
991917671
991917713
991917646
991917726
991917635
991917697
991917724
991917707
991917669
991917701
991917686
991917663
991917681
991917656
991917666
991917721
991917633
991917706
991917666
991917681
991917685
991917704
991917661
991917719
991917705
991917723
991917645
991917716
991917656
991917677
991917665
991917700
991917701
991917713
991917689
991917643
991917630
991917665
991917634
991917667
991917635
991917688
991917700
991917690
991917644
991917651
991917674
991917679
991917728
991917711
991917726
991917726
991917658
991917662
991917715
991917702
991917704
991917719
991917649
991917714
991917716
991917713
991917652
991917639
991917681
991917712
991917635
991917649
991917650
991917707
991917702
991917637
991917677
991917689
991917672
991917728
991917697
991917684
991917670
991917689
991917635
991917651
991917629
991917641
991917634
991917685
991917692
991917682
991917723
991917636
991917699
991917681
991917700
991917664
991917674
991917692
991917671
991917697
991917671
991917634
991917663
991917678
991917630
991917721
991917702
991917704
991917645
991917725
991917702
991917701
991917634
991917665
991917679
991917706
991917704
991917718
991917691
991917636
991917676
991917667
991917682
991917649
991917664
991917675
991917725
991917692
991917727
991917695
991917675
991917693
991917681
991917721
991917700
991917708
991917678
991917636
991917651
991917710
991917687
991917706
991917677
991917640
991917655
991917678
991917698
991917696
991917649
991917670
991917630
991917645
991917659
991917641
991917685
991917696
991917691
991917631
991917714
991917661
991917670
991917662
991917720
991917717
991917654
991917675
991917714
991917701
991917705
991917703
991917668
991917631
991917714
991917656
991917629
991917682
991917711
991917664
991917689
991917655
991917634
991917656
991917652
991917657
991917661
991917630
991917638
991917687
991917661
991917669
991917649
991917686
991917681
991917682
991917675
991917632
991917688
991917635
991917633
991917687
991917711
991917656
991917694
991917649
991917669
991917701
991917684
991917717
991917636
991917717
991917720
991917651
991917694
991917706
991917670
991917713
991917693
991917662
991917658
991917720
991917700
991917630
991917714
991917660
991917651
991917687
991917716
991917708
991917638
991917685
991917720
991917693
991917719
991917652
991917718
991917701
991917648
991917724
991917646
991917677
991917629
991917698
991917716
991917669
991917678
991917692
991917686
991917672
991917679
991917707
991917632
991917652
991917728
991917716
991917707
991917677
991917691
991917638
991917725
991917636
991917648
991917705
991917642
991917648
991917633
991917669
991917658
991917726
991917719
991917682
991917631
991917711
991917703
991917652
991917723
991917701
991917695
991917646
991917658
991917686
991917714
991917684
991917640
991917677
991917727
991917683
991917726
991917668
991917700
991917722
991917677
991917629
991917637
991917636
991917674
991917639
991917674
991917697
991917714
991917692
991917684
991917652
991917671
991917682
991917642
991917670
991917727
991917720
991917716
991917688
991917695
991917677
991917727
991917682
991917714
991917676
991917711
991917668
991917723
991917678
991917631
991917636
991917642
991917655
991917707
991917677
991917713
991917673
991917632
991917658
991917707
991917687
991917726
991917679
991917642
991917696
991917629
991917703
991917719
991917676
991917716
991917686
991917700
991917707
991917703
991917681
991917670
991917716
991917705
991917727
991917676
991917669
991917681
991917668
991917649
991917655
991917727
991917672
991917714
991917670
991917689
991917719
991917660
991917647
991917708
991917714
991917719
991917682
991917642
991917659
991917704
991917629
991917708
991917671
991917661
991917642
991917674
991917630
991917714
991917694
991917680
991917720
991917641
991917657
991917696
991917690
991917685
991917683
991917630
991917640
991917645
991917709
991917659
991917693
991917702
